newXOutput 1

<Section columns = "stress_xx | stress_yy | stress_xy">
  1 0.00000 0.00000 0.00000
  2 0.00000 0.00000 0.00000
  3 0.00000 0.00000 0.00000
  4 0.00000 0.00000 0.00000
  5 0.00000 0.00000 0.00000
  6 0.00000 0.00000 0.00000
  7 0.00000 0.00000 0.00000
  8 0.00000 0.00000 0.00000
  9 0.00000 0.00000 0.00000
  10 0.00000 0.00000 0.00000
  11 0.00000 0.00000 0.00000
  12 0.00000 0.00000 0.00000
  13 0.00000 0.00000 0.00000
  14 0.00000 0.00000 0.00000
  15 0.00000 0.00000 0.00000
  16 0.00000 0.00000 0.00000
  17 0.00000 0.00000 0.00000
  18 0.00000 0.00000 0.00000
  19 0.00000 0.00000 0.00000
  20 0.00000 0.00000 0.00000
  21 0.00000 0.00000 0.00000
  22 0.00000 0.00000 0.00000
  23 0.00000 0.00000 0.00000
  24 0.00000 0.00000 0.00000
  25 0.00000 0.00000 0.00000
  26 0.00000 0.00000 0.00000
  27 0.00000 0.00000 0.00000
  28 0.00000 0.00000 0.00000
  29 0.00000 0.00000 0.00000
  30 0.00000 0.00000 0.00000
  31 0.00000 0.00000 0.00000
  32 0.00000 0.00000 0.00000
  33 0.00000 0.00000 0.00000
  34 0.00000 0.00000 0.00000
  35 0.00000 0.00000 0.00000
  36 0.00000 0.00000 0.00000
  37 0.00000 0.00000 0.00000
  38 0.00000 0.00000 0.00000
  39 0.00000 0.00000 0.00000
  40 0.00000 0.00000 0.00000
  41 0.00000 0.00000 0.00000
  42 0.00000 0.00000 0.00000
  43 0.00000 0.00000 0.00000
  44 0.00000 0.00000 0.00000
  45 0.00000 0.00000 0.00000
  46 0.00000 0.00000 0.00000
  47 0.00000 0.00000 0.00000
  48 0.00000 0.00000 0.00000
  49 0.00000 0.00000 0.00000
  50 0.00000 0.00000 0.00000
  51 0.00000 0.00000 0.00000
  52 0.00000 0.00000 0.00000
  53 0.00000 0.00000 0.00000
  54 0.00000 0.00000 0.00000
  55 0.00000 0.00000 0.00000
  56 0.00000 0.00000 0.00000
  57 0.00000 0.00000 0.00000
  58 0.00000 0.00000 0.00000
  59 0.00000 0.00000 0.00000
  60 0.00000 0.00000 0.00000
  61 0.00000 0.00000 0.00000
  62 0.00000 0.00000 0.00000
  63 0.00000 0.00000 0.00000
  64 0.00000 0.00000 0.00000
  65 0.00000 0.00000 0.00000
  66 0.00000 0.00000 0.00000
  67 0.00000 0.00000 0.00000
  68 0.00000 0.00000 0.00000
  69 0.00000 0.00000 0.00000
  70 0.00000 0.00000 0.00000
  71 0.00000 0.00000 0.00000
  72 0.00000 0.00000 0.00000
  73 0.00000 0.00000 0.00000
  74 0.00000 0.00000 0.00000
  75 0.00000 0.00000 0.00000
  76 0.00000 0.00000 0.00000
  77 0.00000 0.00000 0.00000
  78 0.00000 0.00000 0.00000
  79 0.00000 0.00000 0.00000
  80 0.00000 0.00000 0.00000
  81 0.00000 0.00000 0.00000
  82 0.00000 0.00000 0.00000
  83 0.00000 0.00000 0.00000
  84 0.00000 0.00000 0.00000
  85 0.00000 0.00000 0.00000
  86 0.00000 0.00000 0.00000
  87 0.00000 0.00000 0.00000
  88 0.00000 0.00000 0.00000
  89 0.00000 0.00000 0.00000
  90 0.00000 0.00000 0.00000
  91 0.00000 0.00000 0.00000
  92 0.00000 0.00000 0.00000
  93 0.00000 0.00000 0.00000
  94 0.00000 0.00000 0.00000
  95 0.00000 0.00000 0.00000
  96 0.00000 0.00000 0.00000
  97 0.00000 0.00000 0.00000
  98 0.00000 0.00000 0.00000
  99 0.00000 0.00000 0.00000
  100 0.00000 0.00000 0.00000
  101 0.00000 0.00000 0.00000
  102 0.00000 0.00000 0.00000
  103 0.00000 0.00000 0.00000
  104 0.00000 0.00000 0.00000
  105 0.00000 0.00000 0.00000
  106 0.00000 0.00000 0.00000
  107 0.00000 0.00000 0.00000
  108 0.00000 0.00000 0.00000
  109 0.00000 0.00000 0.00000
  110 0.00000 0.00000 0.00000
  111 0.00000 0.00000 0.00000
  112 0.00000 0.00000 0.00000
  113 0.00000 0.00000 0.00000
  114 0.00000 0.00000 0.00000
  115 0.00000 0.00000 0.00000
  116 0.00000 0.00000 0.00000
  117 0.00000 0.00000 0.00000
  118 0.00000 0.00000 0.00000
  119 0.00000 0.00000 0.00000
  120 0.00000 0.00000 0.00000
  121 0.00000 0.00000 0.00000
  122 0.00000 0.00000 0.00000
  123 0.00000 0.00000 0.00000
  124 0.00000 0.00000 0.00000
  125 0.00000 0.00000 0.00000
  126 0.00000 0.00000 0.00000
  127 0.00000 0.00000 0.00000
  128 0.00000 0.00000 0.00000
  129 0.00000 0.00000 0.00000
  130 0.00000 0.00000 0.00000
  131 0.00000 0.00000 0.00000
  132 0.00000 0.00000 0.00000
  133 0.00000 0.00000 0.00000
  134 0.00000 0.00000 0.00000
  135 0.00000 0.00000 0.00000
  136 0.00000 0.00000 0.00000
  137 0.00000 0.00000 0.00000
  138 0.00000 0.00000 0.00000
  139 0.00000 0.00000 0.00000
  140 0.00000 0.00000 0.00000
  141 0.00000 0.00000 0.00000
  142 0.00000 0.00000 0.00000
  143 0.00000 0.00000 0.00000
  144 0.00000 0.00000 0.00000
  145 0.00000 0.00000 0.00000
  146 0.00000 0.00000 0.00000
  147 0.00000 0.00000 0.00000
  148 0.00000 0.00000 0.00000
  149 0.00000 0.00000 0.00000
  150 0.00000 0.00000 0.00000
  151 0.00000 0.00000 0.00000
  152 0.00000 0.00000 0.00000
  153 0.00000 0.00000 0.00000
  154 0.00000 0.00000 0.00000
  155 0.00000 0.00000 0.00000
  156 0.00000 0.00000 0.00000
  157 0.00000 0.00000 0.00000
  158 0.00000 0.00000 0.00000
  159 0.00000 0.00000 0.00000
  160 0.00000 0.00000 0.00000
  161 0.00000 0.00000 0.00000
  162 0.00000 0.00000 0.00000
  163 0.00000 0.00000 0.00000
  164 0.00000 0.00000 0.00000
  165 0.00000 0.00000 0.00000
  166 0.00000 0.00000 0.00000
  167 0.00000 0.00000 0.00000
  168 0.00000 0.00000 0.00000
  169 0.00000 0.00000 0.00000
  170 0.00000 0.00000 0.00000
  171 0.00000 0.00000 0.00000
  172 0.00000 0.00000 0.00000
  173 0.00000 0.00000 0.00000
  174 0.00000 0.00000 0.00000
  175 0.00000 0.00000 0.00000
  176 0.00000 0.00000 0.00000
  177 0.00000 0.00000 0.00000
  178 0.00000 0.00000 0.00000
  179 0.00000 0.00000 0.00000
  180 0.00000 0.00000 0.00000
  181 0.00000 0.00000 0.00000
  182 0.00000 0.00000 0.00000
  183 0.00000 0.00000 0.00000
  184 0.00000 0.00000 0.00000
  185 0.00000 0.00000 0.00000
  186 0.00000 0.00000 0.00000
  187 0.00000 0.00000 0.00000
  188 0.00000 0.00000 0.00000
  189 0.00000 0.00000 0.00000
  190 0.00000 0.00000 0.00000
  191 0.00000 0.00000 0.00000
  192 0.00000 0.00000 0.00000
  193 0.00000 0.00000 0.00000
  194 0.00000 0.00000 0.00000
  195 0.00000 0.00000 0.00000
  196 0.00000 0.00000 0.00000
  197 0.00000 0.00000 0.00000
  198 0.00000 0.00000 0.00000
  199 0.00000 0.00000 0.00000
  200 0.00000 0.00000 0.00000
  201 0.00000 0.00000 0.00000
  202 0.00000 0.00000 0.00000
  203 0.00000 0.00000 0.00000
  204 0.00000 0.00000 0.00000
  205 0.00000 0.00000 0.00000
  206 0.00000 0.00000 0.00000
  207 0.00000 0.00000 0.00000
  208 0.00000 0.00000 0.00000
  209 0.00000 0.00000 0.00000
  210 0.00000 0.00000 0.00000
  211 0.00000 0.00000 0.00000
  212 0.00000 0.00000 0.00000
  213 0.00000 0.00000 0.00000
  214 0.00000 0.00000 0.00000
  215 0.00000 0.00000 0.00000
  216 0.00000 0.00000 0.00000
  217 0.00000 0.00000 0.00000
  218 0.00000 0.00000 0.00000
  219 0.00000 0.00000 0.00000
  220 0.00000 0.00000 0.00000
  221 0.00000 0.00000 0.00000
  222 0.00000 0.00000 0.00000
  223 0.00000 0.00000 0.00000
  224 0.00000 0.00000 0.00000
  225 0.00000 0.00000 0.00000
  226 0.00000 0.00000 0.00000
  227 0.00000 0.00000 0.00000
  228 0.00000 0.00000 0.00000
  229 0.00000 0.00000 0.00000
  230 0.00000 0.00000 0.00000
  231 0.00000 0.00000 0.00000
  232 0.00000 0.00000 0.00000
  233 0.00000 0.00000 0.00000
  234 0.00000 0.00000 0.00000
  235 0.00000 0.00000 0.00000
  236 0.00000 0.00000 0.00000
  237 0.00000 0.00000 0.00000
  238 0.00000 0.00000 0.00000
  239 0.00000 0.00000 0.00000
  240 0.00000 0.00000 0.00000
  241 0.00000 0.00000 0.00000
  242 0.00000 0.00000 0.00000
  243 0.00000 0.00000 0.00000
  244 0.00000 0.00000 0.00000
  245 0.00000 0.00000 0.00000
  246 0.00000 0.00000 0.00000
  247 0.00000 0.00000 0.00000
  248 0.00000 0.00000 0.00000
  249 0.00000 0.00000 0.00000
  250 0.00000 0.00000 0.00000
  251 0.00000 0.00000 0.00000
  252 0.00000 0.00000 0.00000
  253 0.00000 0.00000 0.00000
  254 0.00000 0.00000 0.00000
  255 0.00000 0.00000 0.00000
  256 0.00000 0.00000 0.00000
  257 0.00000 0.00000 0.00000
  258 0.00000 0.00000 0.00000
  259 0.00000 0.00000 0.00000
  260 0.00000 0.00000 0.00000
  261 0.00000 0.00000 0.00000
  262 0.00000 0.00000 0.00000
  263 0.00000 0.00000 0.00000
  264 0.00000 0.00000 0.00000
  265 0.00000 0.00000 0.00000
  266 0.00000 0.00000 0.00000
  267 0.00000 0.00000 0.00000
  268 0.00000 0.00000 0.00000
  269 0.00000 0.00000 0.00000
  270 0.00000 0.00000 0.00000
  271 0.00000 0.00000 0.00000
  272 0.00000 0.00000 0.00000
  273 0.00000 0.00000 0.00000
  274 0.00000 0.00000 0.00000
  275 0.00000 0.00000 0.00000
  276 0.00000 0.00000 0.00000
  277 0.00000 0.00000 0.00000
  278 0.00000 0.00000 0.00000
  279 0.00000 0.00000 0.00000
  280 0.00000 0.00000 0.00000
  281 0.00000 0.00000 0.00000
  282 0.00000 0.00000 0.00000
  283 0.00000 0.00000 0.00000
  284 0.00000 0.00000 0.00000
  285 0.00000 0.00000 0.00000
  286 0.00000 0.00000 0.00000
  287 0.00000 0.00000 0.00000
  288 0.00000 0.00000 0.00000
  289 0.00000 0.00000 0.00000
  290 0.00000 0.00000 0.00000
  291 0.00000 0.00000 0.00000
  292 0.00000 0.00000 0.00000
  293 0.00000 0.00000 0.00000
  294 0.00000 0.00000 0.00000
  295 0.00000 0.00000 0.00000
  296 0.00000 0.00000 0.00000
  297 0.00000 0.00000 0.00000
  298 0.00000 0.00000 0.00000
  299 0.00000 0.00000 0.00000
  300 0.00000 0.00000 0.00000
  301 0.00000 0.00000 0.00000
  302 0.00000 0.00000 0.00000
  303 0.00000 0.00000 0.00000
  304 0.00000 0.00000 0.00000
  305 0.00000 0.00000 0.00000
  306 0.00000 0.00000 0.00000
  307 0.00000 0.00000 0.00000
  308 0.00000 0.00000 0.00000
  309 0.00000 0.00000 0.00000
  310 0.00000 0.00000 0.00000
  311 0.00000 0.00000 0.00000
  312 0.00000 0.00000 0.00000
  313 0.00000 0.00000 0.00000
  314 0.00000 0.00000 0.00000
  315 0.00000 0.00000 0.00000
  316 0.00000 0.00000 0.00000
  317 0.00000 0.00000 0.00000
  318 0.00000 0.00000 0.00000
  319 0.00000 0.00000 0.00000
  320 0.00000 0.00000 0.00000
  321 0.00000 0.00000 0.00000
  322 0.00000 0.00000 0.00000
  323 0.00000 0.00000 0.00000
  324 0.00000 0.00000 0.00000
  325 0.00000 0.00000 0.00000
  326 0.00000 0.00000 0.00000
  327 0.00000 0.00000 0.00000
  328 0.00000 0.00000 0.00000
  329 0.00000 0.00000 0.00000
  330 0.00000 0.00000 0.00000
  331 0.00000 0.00000 0.00000
  332 0.00000 0.00000 0.00000
  333 0.00000 0.00000 0.00000
  334 0.00000 0.00000 0.00000
  335 0.00000 0.00000 0.00000
  336 0.00000 0.00000 0.00000
  337 0.00000 0.00000 0.00000
  338 0.00000 0.00000 0.00000
  339 0.00000 0.00000 0.00000
  340 0.00000 0.00000 0.00000
  341 0.00000 0.00000 0.00000
  342 0.00000 0.00000 0.00000
  343 0.00000 0.00000 0.00000
  344 0.00000 0.00000 0.00000
  345 0.00000 0.00000 0.00000
  346 0.00000 0.00000 0.00000
  347 0.00000 0.00000 0.00000
  348 0.00000 0.00000 0.00000
  349 0.00000 0.00000 0.00000
  350 0.00000 0.00000 0.00000
  351 0.00000 0.00000 0.00000
  352 0.00000 0.00000 0.00000
  353 0.00000 0.00000 0.00000
  354 0.00000 0.00000 0.00000
  355 0.00000 0.00000 0.00000
  356 0.00000 0.00000 0.00000
  357 0.00000 0.00000 0.00000
  358 0.00000 0.00000 0.00000
  359 0.00000 0.00000 0.00000
  360 0.00000 0.00000 0.00000
  361 0.00000 0.00000 0.00000
  362 0.00000 0.00000 0.00000
  363 0.00000 0.00000 0.00000
  364 0.00000 0.00000 0.00000
  365 0.00000 0.00000 0.00000
  366 0.00000 0.00000 0.00000
  367 0.00000 0.00000 0.00000
  368 0.00000 0.00000 0.00000
  369 0.00000 0.00000 0.00000
  370 0.00000 0.00000 0.00000
  371 0.00000 0.00000 0.00000
  372 0.00000 0.00000 0.00000
  373 0.00000 0.00000 0.00000
  374 0.00000 0.00000 0.00000
  375 0.00000 0.00000 0.00000
  376 0.00000 0.00000 0.00000
  377 0.00000 0.00000 0.00000
  378 0.00000 0.00000 0.00000
  379 0.00000 0.00000 0.00000
  380 0.00000 0.00000 0.00000
  381 0.00000 0.00000 0.00000
  382 0.00000 0.00000 0.00000
  383 0.00000 0.00000 0.00000
  384 0.00000 0.00000 0.00000
  385 0.00000 0.00000 0.00000
  386 0.00000 0.00000 0.00000
  387 0.00000 0.00000 0.00000
  388 0.00000 0.00000 0.00000
  389 0.00000 0.00000 0.00000
  390 0.00000 0.00000 0.00000
  391 0.00000 0.00000 0.00000
  392 0.00000 0.00000 0.00000
  393 0.00000 0.00000 0.00000
  394 0.00000 0.00000 0.00000
  395 0.00000 0.00000 0.00000
  396 0.00000 0.00000 0.00000
  397 0.00000 0.00000 0.00000
  398 0.00000 0.00000 0.00000
  399 0.00000 0.00000 0.00000
  400 0.00000 0.00000 0.00000
  401 0.00000 0.00000 0.00000
  402 0.00000 0.00000 0.00000
  403 0.00000 0.00000 0.00000
  404 0.00000 0.00000 0.00000
  405 0.00000 0.00000 0.00000
  406 0.00000 0.00000 0.00000
  407 0.00000 0.00000 0.00000
  408 0.00000 0.00000 0.00000
  409 0.00000 0.00000 0.00000
  410 0.00000 0.00000 0.00000
  411 0.00000 0.00000 0.00000
  412 0.00000 0.00000 0.00000
  413 0.00000 0.00000 0.00000
  414 0.00000 0.00000 0.00000
  415 0.00000 0.00000 0.00000
  416 0.00000 0.00000 0.00000
  417 0.00000 0.00000 0.00000
  418 0.00000 0.00000 0.00000
  419 0.00000 0.00000 0.00000
  420 0.00000 0.00000 0.00000
  421 0.00000 0.00000 0.00000
  422 0.00000 0.00000 0.00000
  423 0.00000 0.00000 0.00000
  424 0.00000 0.00000 0.00000
  425 0.00000 0.00000 0.00000
  426 0.00000 0.00000 0.00000
  427 0.00000 0.00000 0.00000
  428 0.00000 0.00000 0.00000
  429 0.00000 0.00000 0.00000
  430 0.00000 0.00000 0.00000
  431 0.00000 0.00000 0.00000
  432 0.00000 0.00000 0.00000
  433 0.00000 0.00000 0.00000
  434 0.00000 0.00000 0.00000
  435 0.00000 0.00000 0.00000
  436 0.00000 0.00000 0.00000
  437 0.00000 0.00000 0.00000
  438 0.00000 0.00000 0.00000
  439 0.00000 0.00000 0.00000
  440 0.00000 0.00000 0.00000
  441 0.00000 0.00000 0.00000
  442 0.00000 0.00000 0.00000
  443 0.00000 0.00000 0.00000
  444 0.00000 0.00000 0.00000
  445 0.00000 0.00000 0.00000
  446 0.00000 0.00000 0.00000
  447 0.00000 0.00000 0.00000
  448 0.00000 0.00000 0.00000
  449 0.00000 0.00000 0.00000
  450 0.00000 0.00000 0.00000
  451 0.00000 0.00000 0.00000
  452 0.00000 0.00000 0.00000
  453 0.00000 0.00000 0.00000
  454 0.00000 0.00000 0.00000
  455 0.00000 0.00000 0.00000
  456 0.00000 0.00000 0.00000
  457 0.00000 0.00000 0.00000
  458 0.00000 0.00000 0.00000
  459 0.00000 0.00000 0.00000
  460 0.00000 0.00000 0.00000
  461 0.00000 0.00000 0.00000
  462 0.00000 0.00000 0.00000
  463 0.00000 0.00000 0.00000
  464 0.00000 0.00000 0.00000
  465 0.00000 0.00000 0.00000
  466 0.00000 0.00000 0.00000
  467 0.00000 0.00000 0.00000
  468 0.00000 0.00000 0.00000
  469 0.00000 0.00000 0.00000
  470 0.00000 0.00000 0.00000
  471 0.00000 0.00000 0.00000
  472 0.00000 0.00000 0.00000
  473 0.00000 0.00000 0.00000
  474 0.00000 0.00000 0.00000
  475 0.00000 0.00000 0.00000
  476 0.00000 0.00000 0.00000
  477 0.00000 0.00000 0.00000
  478 0.00000 0.00000 0.00000
  479 0.00000 0.00000 0.00000
  480 0.00000 0.00000 0.00000
  481 0.00000 0.00000 0.00000
  482 0.00000 0.00000 0.00000
  483 0.00000 0.00000 0.00000
  484 0.00000 0.00000 0.00000
  485 0.00000 0.00000 0.00000
  486 0.00000 0.00000 0.00000
  487 0.00000 0.00000 0.00000
  488 0.00000 0.00000 0.00000
  489 0.00000 0.00000 0.00000
  490 0.00000 0.00000 0.00000
  491 0.00000 0.00000 0.00000
  492 0.00000 0.00000 0.00000
  493 0.00000 0.00000 0.00000
  494 0.00000 0.00000 0.00000
  495 0.00000 0.00000 0.00000
  496 0.00000 0.00000 0.00000
  497 0.00000 0.00000 0.00000
  498 0.00000 0.00000 0.00000
  499 0.00000 0.00000 0.00000
  500 0.00000 0.00000 0.00000
  501 0.00000 0.00000 0.00000
  502 0.00000 0.00000 0.00000
  503 0.00000 0.00000 0.00000
  504 0.00000 0.00000 0.00000
  505 0.00000 0.00000 0.00000
  506 0.00000 0.00000 0.00000
  507 0.00000 0.00000 0.00000
  508 0.00000 0.00000 0.00000
  509 0.00000 0.00000 0.00000
  510 0.00000 0.00000 0.00000
  511 0.00000 0.00000 0.00000
  512 0.00000 0.00000 0.00000
  513 0.00000 0.00000 0.00000
  514 0.00000 0.00000 0.00000
  515 0.00000 0.00000 0.00000
  516 0.00000 0.00000 0.00000
  517 0.00000 0.00000 0.00000
  518 0.00000 0.00000 0.00000
  519 0.00000 0.00000 0.00000
  520 0.00000 0.00000 0.00000
  521 0.00000 0.00000 0.00000
  522 0.00000 0.00000 0.00000
  523 0.00000 0.00000 0.00000
  524 0.00000 0.00000 0.00000
  525 0.00000 0.00000 0.00000
  526 0.00000 0.00000 0.00000
  527 0.00000 0.00000 0.00000
  528 0.00000 0.00000 0.00000
  529 0.00000 0.00000 0.00000
  530 0.00000 0.00000 0.00000
  531 0.00000 0.00000 0.00000
  532 0.00000 0.00000 0.00000
  533 0.00000 0.00000 0.00000
  534 0.00000 0.00000 0.00000
  535 0.00000 0.00000 0.00000
  536 0.00000 0.00000 0.00000
  537 0.00000 0.00000 0.00000
  538 0.00000 0.00000 0.00000
  539 0.00000 0.00000 0.00000
  540 0.00000 0.00000 0.00000
  541 0.00000 0.00000 0.00000
  542 0.00000 0.00000 0.00000
  543 0.00000 0.00000 0.00000
  544 0.00000 0.00000 0.00000
  545 0.00000 0.00000 0.00000
  546 0.00000 0.00000 0.00000
  547 0.00000 0.00000 0.00000
  548 0.00000 0.00000 0.00000
  549 0.00000 0.00000 0.00000
  550 0.00000 0.00000 0.00000
  551 0.00000 0.00000 0.00000
  552 0.00000 0.00000 0.00000
  553 0.00000 0.00000 0.00000
  554 0.00000 0.00000 0.00000
  555 0.00000 0.00000 0.00000
  556 0.00000 0.00000 0.00000
  557 0.00000 0.00000 0.00000
  558 0.00000 0.00000 0.00000
  559 0.00000 0.00000 0.00000
  560 0.00000 0.00000 0.00000
  561 0.00000 0.00000 0.00000
  562 0.00000 0.00000 0.00000
  563 0.00000 0.00000 0.00000
  564 0.00000 0.00000 0.00000
  565 0.00000 0.00000 0.00000
  566 0.00000 0.00000 0.00000
  567 0.00000 0.00000 0.00000
  568 0.00000 0.00000 0.00000
  569 0.00000 0.00000 0.00000
  570 0.00000 0.00000 0.00000
  571 0.00000 0.00000 0.00000
  572 0.00000 0.00000 0.00000
  573 0.00000 0.00000 0.00000
  574 0.00000 0.00000 0.00000
  575 0.00000 0.00000 0.00000
  576 0.00000 0.00000 0.00000
  577 0.00000 0.00000 0.00000
  578 0.00000 0.00000 0.00000
  579 0.00000 0.00000 0.00000
  580 0.00000 0.00000 0.00000
  581 0.00000 0.00000 0.00000
  582 0.00000 0.00000 0.00000
  583 0.00000 0.00000 0.00000
  584 0.00000 0.00000 0.00000
  585 0.00000 0.00000 0.00000
  586 0.00000 0.00000 0.00000
  587 0.00000 0.00000 0.00000
  588 0.00000 0.00000 0.00000
  589 0.00000 0.00000 0.00000
  590 0.00000 0.00000 0.00000
  591 0.00000 0.00000 0.00000
  592 0.00000 0.00000 0.00000
  593 0.00000 0.00000 0.00000
  594 0.00000 0.00000 0.00000
  595 0.00000 0.00000 0.00000
  596 0.00000 0.00000 0.00000
  597 0.00000 0.00000 0.00000
  598 0.00000 0.00000 0.00000
  599 0.00000 0.00000 0.00000
  600 0.00000 0.00000 0.00000
  601 0.00000 0.00000 0.00000
  602 0.00000 0.00000 0.00000
  603 0.00000 0.00000 0.00000
  604 0.00000 0.00000 0.00000
  605 0.00000 0.00000 0.00000
  606 0.00000 0.00000 0.00000
  607 0.00000 0.00000 0.00000
  608 0.00000 0.00000 0.00000
  609 0.00000 0.00000 0.00000
  610 0.00000 0.00000 0.00000
  611 0.00000 0.00000 0.00000
  612 0.00000 0.00000 0.00000
  613 0.00000 0.00000 0.00000
  614 0.00000 0.00000 0.00000
  615 0.00000 0.00000 0.00000
  616 0.00000 0.00000 0.00000
  617 0.00000 0.00000 0.00000
  618 0.00000 0.00000 0.00000
  619 0.00000 0.00000 0.00000
  620 0.00000 0.00000 0.00000
  621 0.00000 0.00000 0.00000
  622 0.00000 0.00000 0.00000
  623 0.00000 0.00000 0.00000
  624 0.00000 0.00000 0.00000
  625 0.00000 0.00000 0.00000
  626 0.00000 0.00000 0.00000
  627 0.00000 0.00000 0.00000
  628 0.00000 0.00000 0.00000
  629 0.00000 0.00000 0.00000
  630 0.00000 0.00000 0.00000
  631 0.00000 0.00000 0.00000
  632 0.00000 0.00000 0.00000
  633 0.00000 0.00000 0.00000
  634 0.00000 0.00000 0.00000
  635 0.00000 0.00000 0.00000
  636 0.00000 0.00000 0.00000
  637 0.00000 0.00000 0.00000
  638 0.00000 0.00000 0.00000
  639 0.00000 0.00000 0.00000
  640 0.00000 0.00000 0.00000
  641 0.00000 0.00000 0.00000
  642 0.00000 0.00000 0.00000
  643 0.00000 0.00000 0.00000
  644 0.00000 0.00000 0.00000
  645 0.00000 0.00000 0.00000
  646 0.00000 0.00000 0.00000
  647 0.00000 0.00000 0.00000
  648 0.00000 0.00000 0.00000
  649 0.00000 0.00000 0.00000
  650 0.00000 0.00000 0.00000
  651 0.00000 0.00000 0.00000
  652 0.00000 0.00000 0.00000
  653 0.00000 0.00000 0.00000
  654 0.00000 0.00000 0.00000
  655 0.00000 0.00000 0.00000
  656 0.00000 0.00000 0.00000
  657 0.00000 0.00000 0.00000
  658 0.00000 0.00000 0.00000
  659 0.00000 0.00000 0.00000
  660 0.00000 0.00000 0.00000
  661 0.00000 0.00000 0.00000
  662 0.00000 0.00000 0.00000
  663 0.00000 0.00000 0.00000
  664 0.00000 0.00000 0.00000
  665 0.00000 0.00000 0.00000
  666 0.00000 0.00000 0.00000
  667 0.00000 0.00000 0.00000
  668 0.00000 0.00000 0.00000
  669 0.00000 0.00000 0.00000
  670 0.00000 0.00000 0.00000
  671 0.00000 0.00000 0.00000
  672 0.00000 0.00000 0.00000
  673 0.00000 0.00000 0.00000
  674 0.00000 0.00000 0.00000
  675 0.00000 0.00000 0.00000
  676 0.00000 0.00000 0.00000
  677 0.00000 0.00000 0.00000
  678 0.00000 0.00000 0.00000
  679 0.00000 0.00000 0.00000
  680 0.00000 0.00000 0.00000
  681 0.00000 0.00000 0.00000
  682 0.00000 0.00000 0.00000
  683 0.00000 0.00000 0.00000
  684 0.00000 0.00000 0.00000
  685 0.00000 0.00000 0.00000
  686 0.00000 0.00000 0.00000
  687 0.00000 0.00000 0.00000
  688 0.00000 0.00000 0.00000
  689 0.00000 0.00000 0.00000
  690 0.00000 0.00000 0.00000
  691 0.00000 0.00000 0.00000
  692 0.00000 0.00000 0.00000
  693 0.00000 0.00000 0.00000
  694 0.00000 0.00000 0.00000
  695 0.00000 0.00000 0.00000
  696 0.00000 0.00000 0.00000
  697 0.00000 0.00000 0.00000
  698 0.00000 0.00000 0.00000
  699 0.00000 0.00000 0.00000
  700 0.00000 0.00000 0.00000
  701 0.00000 0.00000 0.00000
  702 0.00000 0.00000 0.00000
  703 0.00000 0.00000 0.00000
  704 0.00000 0.00000 0.00000
  705 0.00000 0.00000 0.00000
  706 0.00000 0.00000 0.00000
  707 0.00000 0.00000 0.00000
  708 0.00000 0.00000 0.00000
  709 0.00000 0.00000 0.00000
  710 0.00000 0.00000 0.00000
  711 0.00000 0.00000 0.00000
  712 0.00000 0.00000 0.00000
  713 0.00000 0.00000 0.00000
  714 0.00000 0.00000 0.00000
  715 0.00000 0.00000 0.00000
  716 0.00000 0.00000 0.00000
  717 0.00000 0.00000 0.00000
  718 0.00000 0.00000 0.00000
  719 0.00000 0.00000 0.00000
  720 0.00000 0.00000 0.00000
  721 0.00000 0.00000 0.00000
  722 0.00000 0.00000 0.00000
  723 0.00000 0.00000 0.00000
  724 0.00000 0.00000 0.00000
  725 0.00000 0.00000 0.00000
  726 0.00000 0.00000 0.00000
  727 0.00000 0.00000 0.00000
  728 0.00000 0.00000 0.00000
  729 0.00000 0.00000 0.00000
  730 0.00000 0.00000 0.00000
  731 0.00000 0.00000 0.00000
  732 0.00000 0.00000 0.00000
  733 0.00000 0.00000 0.00000
  734 0.00000 0.00000 0.00000
  735 0.00000 0.00000 0.00000
  736 0.00000 0.00000 0.00000
  737 0.00000 0.00000 0.00000
  738 0.00000 0.00000 0.00000
  739 0.00000 0.00000 0.00000
  740 0.00000 0.00000 0.00000
  741 0.00000 0.00000 0.00000
  742 0.00000 0.00000 0.00000
  743 0.00000 0.00000 0.00000
  744 0.00000 0.00000 0.00000
  745 0.00000 0.00000 0.00000
  746 0.00000 0.00000 0.00000
  747 0.00000 0.00000 0.00000
  748 0.00000 0.00000 0.00000
  749 0.00000 0.00000 0.00000
  750 0.00000 0.00000 0.00000
  751 0.00000 0.00000 0.00000
  752 0.00000 0.00000 0.00000
  753 0.00000 0.00000 0.00000
  754 0.00000 0.00000 0.00000
  755 0.00000 0.00000 0.00000
  756 0.00000 0.00000 0.00000
  757 0.00000 0.00000 0.00000
  758 0.00000 0.00000 0.00000
  759 0.00000 0.00000 0.00000
  760 0.00000 0.00000 0.00000
  761 0.00000 0.00000 0.00000
  762 0.00000 0.00000 0.00000
  763 0.00000 0.00000 0.00000
  764 0.00000 0.00000 0.00000
  765 0.00000 0.00000 0.00000
  766 0.00000 0.00000 0.00000
  767 0.00000 0.00000 0.00000
  768 0.00000 0.00000 0.00000
  769 0.00000 0.00000 0.00000
  770 0.00000 0.00000 0.00000
  771 0.00000 0.00000 0.00000
  772 0.00000 0.00000 0.00000
  773 0.00000 0.00000 0.00000
  774 0.00000 0.00000 0.00000
  775 0.00000 0.00000 0.00000
  776 0.00000 0.00000 0.00000
  777 0.00000 0.00000 0.00000
  778 0.00000 0.00000 0.00000
  779 0.00000 0.00000 0.00000
  780 0.00000 0.00000 0.00000
  781 0.00000 0.00000 0.00000
  782 0.00000 0.00000 0.00000
  783 0.00000 0.00000 0.00000
  784 0.00000 0.00000 0.00000
  785 0.00000 0.00000 0.00000
  786 0.00000 0.00000 0.00000
  787 0.00000 0.00000 0.00000
  788 0.00000 0.00000 0.00000
  789 0.00000 0.00000 0.00000
  790 0.00000 0.00000 0.00000
  791 0.00000 0.00000 0.00000
  792 0.00000 0.00000 0.00000
  793 0.00000 0.00000 0.00000
  794 0.00000 0.00000 0.00000
  795 0.00000 0.00000 0.00000
  796 0.00000 0.00000 0.00000
  797 0.00000 0.00000 0.00000
  798 0.00000 0.00000 0.00000
  799 0.00000 0.00000 0.00000
  800 0.00000 0.00000 0.00000
  801 0.00000 0.00000 0.00000
  802 0.00000 0.00000 0.00000
  803 0.00000 0.00000 0.00000
  804 0.00000 0.00000 0.00000
  805 0.00000 0.00000 0.00000
  806 0.00000 0.00000 0.00000
  807 0.00000 0.00000 0.00000
  808 0.00000 0.00000 0.00000
  809 0.00000 0.00000 0.00000
  810 0.00000 0.00000 0.00000
  811 0.00000 0.00000 0.00000
  812 0.00000 0.00000 0.00000
  813 0.00000 0.00000 0.00000
  814 0.00000 0.00000 0.00000
  815 0.00000 0.00000 0.00000
  816 0.00000 0.00000 0.00000
  817 0.00000 0.00000 0.00000
  818 0.00000 0.00000 0.00000
  819 0.00000 0.00000 0.00000
  820 0.00000 0.00000 0.00000
  821 0.00000 0.00000 0.00000
  822 0.00000 0.00000 0.00000
  823 0.00000 0.00000 0.00000
  824 0.00000 0.00000 0.00000
  825 0.00000 0.00000 0.00000
  826 0.00000 0.00000 0.00000
  827 0.00000 0.00000 0.00000
  828 0.00000 0.00000 0.00000
  829 0.00000 0.00000 0.00000
  830 0.00000 0.00000 0.00000
  831 0.00000 0.00000 0.00000
  832 0.00000 0.00000 0.00000
  833 0.00000 0.00000 0.00000
  834 0.00000 0.00000 0.00000
  835 0.00000 0.00000 0.00000
  836 0.00000 0.00000 0.00000
  837 0.00000 0.00000 0.00000
  838 0.00000 0.00000 0.00000
  839 0.00000 0.00000 0.00000
  840 0.00000 0.00000 0.00000
  841 0.00000 0.00000 0.00000
  842 0.00000 0.00000 0.00000
  843 0.00000 0.00000 0.00000
  844 0.00000 0.00000 0.00000
  845 0.00000 0.00000 0.00000
  846 0.00000 0.00000 0.00000
  847 0.00000 0.00000 0.00000
  848 0.00000 0.00000 0.00000
  849 0.00000 0.00000 0.00000
  850 0.00000 0.00000 0.00000
  851 0.00000 0.00000 0.00000
  852 0.00000 0.00000 0.00000
  853 0.00000 0.00000 0.00000
  854 0.00000 0.00000 0.00000
  855 0.00000 0.00000 0.00000
  856 0.00000 0.00000 0.00000
  857 0.00000 0.00000 0.00000
  858 0.00000 0.00000 0.00000
  859 0.00000 0.00000 0.00000
  860 0.00000 0.00000 0.00000
  861 0.00000 0.00000 0.00000
  862 0.00000 0.00000 0.00000
  863 0.00000 0.00000 0.00000
  864 0.00000 0.00000 0.00000
  865 0.00000 0.00000 0.00000
  866 0.00000 0.00000 0.00000
  867 0.00000 0.00000 0.00000
  868 0.00000 0.00000 0.00000
  869 0.00000 0.00000 0.00000
  870 0.00000 0.00000 0.00000
  871 0.00000 0.00000 0.00000
  872 0.00000 0.00000 0.00000
  873 0.00000 0.00000 0.00000
  874 0.00000 0.00000 0.00000
  875 0.00000 0.00000 0.00000
  876 0.00000 0.00000 0.00000
  877 0.00000 0.00000 0.00000
  878 0.00000 0.00000 0.00000
  879 0.00000 0.00000 0.00000
  880 0.00000 0.00000 0.00000
  881 0.00000 0.00000 0.00000
  882 0.00000 0.00000 0.00000
  883 0.00000 0.00000 0.00000
  884 0.00000 0.00000 0.00000
  885 0.00000 0.00000 0.00000
  886 0.00000 0.00000 0.00000
  887 0.00000 0.00000 0.00000
  888 0.00000 0.00000 0.00000
  889 0.00000 0.00000 0.00000
  890 0.00000 0.00000 0.00000
  891 0.00000 0.00000 0.00000
  892 0.00000 0.00000 0.00000
  893 0.00000 0.00000 0.00000
  894 0.00000 0.00000 0.00000
  895 0.00000 0.00000 0.00000
  896 0.00000 0.00000 0.00000
  897 0.00000 0.00000 0.00000
  898 0.00000 0.00000 0.00000
  899 0.00000 0.00000 0.00000
  900 0.00000 0.00000 0.00000
  901 0.00000 0.00000 0.00000
  902 0.00000 0.00000 0.00000
  903 0.00000 0.00000 0.00000
  904 0.00000 0.00000 0.00000
  905 0.00000 0.00000 0.00000
  906 0.00000 0.00000 0.00000
  907 0.00000 0.00000 0.00000
  908 0.00000 0.00000 0.00000
  909 0.00000 0.00000 0.00000
  910 0.00000 0.00000 0.00000
  911 0.00000 0.00000 0.00000
  912 0.00000 0.00000 0.00000
  913 0.00000 0.00000 0.00000
  914 0.00000 0.00000 0.00000
  915 0.00000 0.00000 0.00000
  916 0.00000 0.00000 0.00000
  917 0.00000 0.00000 0.00000
  918 0.00000 0.00000 0.00000
  919 0.00000 0.00000 0.00000
  920 0.00000 0.00000 0.00000
  921 0.00000 0.00000 0.00000
  922 0.00000 0.00000 0.00000
  923 0.00000 0.00000 0.00000
  924 0.00000 0.00000 0.00000
  925 0.00000 0.00000 0.00000
  926 0.00000 0.00000 0.00000
  927 0.00000 0.00000 0.00000
  928 0.00000 0.00000 0.00000
  929 0.00000 0.00000 0.00000
  930 0.00000 0.00000 0.00000
  931 0.00000 0.00000 0.00000
  932 0.00000 0.00000 0.00000
  933 0.00000 0.00000 0.00000
  934 0.00000 0.00000 0.00000
  935 0.00000 0.00000 0.00000
  936 0.00000 0.00000 0.00000
  937 0.00000 0.00000 0.00000
  938 0.00000 0.00000 0.00000
  939 0.00000 0.00000 0.00000
  940 0.00000 0.00000 0.00000
  941 0.00000 0.00000 0.00000
  942 0.00000 0.00000 0.00000
  943 0.00000 0.00000 0.00000
  944 0.00000 0.00000 0.00000
  945 0.00000 0.00000 0.00000
  946 0.00000 0.00000 0.00000
  947 0.00000 0.00000 0.00000
  948 0.00000 0.00000 0.00000
  949 0.00000 0.00000 0.00000
  950 0.00000 0.00000 0.00000
  951 0.00000 0.00000 0.00000
  952 0.00000 0.00000 0.00000
  953 0.00000 0.00000 0.00000
  954 0.00000 0.00000 0.00000
  955 0.00000 0.00000 0.00000
  956 0.00000 0.00000 0.00000
  957 0.00000 0.00000 0.00000
  958 0.00000 0.00000 0.00000
  959 0.00000 0.00000 0.00000
  960 0.00000 0.00000 0.00000
  961 0.00000 0.00000 0.00000
  962 0.00000 0.00000 0.00000
  963 0.00000 0.00000 0.00000
  964 0.00000 0.00000 0.00000
  965 0.00000 0.00000 0.00000
  966 0.00000 0.00000 0.00000
  967 0.00000 0.00000 0.00000
  968 0.00000 0.00000 0.00000
  969 0.00000 0.00000 0.00000
  970 0.00000 0.00000 0.00000
  971 0.00000 0.00000 0.00000
  972 0.00000 0.00000 0.00000
  973 0.00000 0.00000 0.00000
  974 0.00000 0.00000 0.00000
  975 0.00000 0.00000 0.00000
  976 0.00000 0.00000 0.00000
  977 0.00000 0.00000 0.00000
  978 0.00000 0.00000 0.00000
  979 0.00000 0.00000 0.00000
  980 0.00000 0.00000 0.00000
  981 0.00000 0.00000 0.00000
  982 0.00000 0.00000 0.00000
  983 0.00000 0.00000 0.00000
  984 0.00000 0.00000 0.00000
  985 0.00000 0.00000 0.00000
  986 0.00000 0.00000 0.00000
  987 0.00000 0.00000 0.00000
  988 0.00000 0.00000 0.00000
  989 0.00000 0.00000 0.00000
  990 0.00000 0.00000 0.00000
  991 0.00000 0.00000 0.00000
  992 0.00000 0.00000 0.00000
  993 0.00000 0.00000 0.00000
  994 0.00000 0.00000 0.00000
  995 0.00000 0.00000 0.00000
  996 0.00000 0.00000 0.00000
  997 0.00000 0.00000 0.00000
  998 0.00000 0.00000 0.00000
  999 0.00000 0.00000 0.00000
  1000 0.00000 0.00000 0.00000
  1001 0.00000 0.00000 0.00000
  1002 0.00000 0.00000 0.00000
  1003 0.00000 0.00000 0.00000
  1004 0.00000 0.00000 0.00000
  1005 0.00000 0.00000 0.00000
  1006 0.00000 0.00000 0.00000
  1007 0.00000 0.00000 0.00000
  1008 0.00000 0.00000 0.00000
  1009 0.00000 0.00000 0.00000
  1010 0.00000 0.00000 0.00000
  1011 0.00000 0.00000 0.00000
  1012 0.00000 0.00000 0.00000
  1013 0.00000 0.00000 0.00000
  1014 0.00000 0.00000 0.00000
  1015 0.00000 0.00000 0.00000
  1016 0.00000 0.00000 0.00000
  1017 0.00000 0.00000 0.00000
  1018 0.00000 0.00000 0.00000
  1019 0.00000 0.00000 0.00000
  1020 0.00000 0.00000 0.00000
  1021 0.00000 0.00000 0.00000
  1022 0.00000 0.00000 0.00000
  1023 0.00000 0.00000 0.00000
  1024 0.00000 0.00000 0.00000
  1025 0.00000 0.00000 0.00000
  1026 0.00000 0.00000 0.00000
  1027 0.00000 0.00000 0.00000
  1028 0.00000 0.00000 0.00000
  1029 0.00000 0.00000 0.00000
  1030 0.00000 0.00000 0.00000
  1031 0.00000 0.00000 0.00000
  1032 0.00000 0.00000 0.00000
  1033 0.00000 0.00000 0.00000
  1034 0.00000 0.00000 0.00000
  1035 0.00000 0.00000 0.00000
  1036 0.00000 0.00000 0.00000
  1037 0.00000 0.00000 0.00000
  1038 0.00000 0.00000 0.00000
  1039 0.00000 0.00000 0.00000
  1040 0.00000 0.00000 0.00000
  1041 0.00000 0.00000 0.00000
  1042 0.00000 0.00000 0.00000
  1043 0.00000 0.00000 0.00000
  1044 0.00000 0.00000 0.00000
  1045 0.00000 0.00000 0.00000
  1046 0.00000 0.00000 0.00000
  1047 0.00000 0.00000 0.00000
  1048 0.00000 0.00000 0.00000
  1049 0.00000 0.00000 0.00000
  1050 0.00000 0.00000 0.00000
  1051 0.00000 0.00000 0.00000
  1052 0.00000 0.00000 0.00000
  1053 0.00000 0.00000 0.00000
  1054 0.00000 0.00000 0.00000
  1055 0.00000 0.00000 0.00000
  1056 0.00000 0.00000 0.00000
  1057 0.00000 0.00000 0.00000
  1058 0.00000 0.00000 0.00000
  1059 0.00000 0.00000 0.00000
  1060 0.00000 0.00000 0.00000
  1061 0.00000 0.00000 0.00000
  1062 0.00000 0.00000 0.00000
  1063 0.00000 0.00000 0.00000
  1064 0.00000 0.00000 0.00000
  1065 0.00000 0.00000 0.00000
  1066 0.00000 0.00000 0.00000
  1067 0.00000 0.00000 0.00000
  1068 0.00000 0.00000 0.00000
  1069 0.00000 0.00000 0.00000
  1070 0.00000 0.00000 0.00000
  1071 0.00000 0.00000 0.00000
  1072 0.00000 0.00000 0.00000
  1073 0.00000 0.00000 0.00000
  1074 0.00000 0.00000 0.00000
  1075 0.00000 0.00000 0.00000
  1076 0.00000 0.00000 0.00000
  1077 0.00000 0.00000 0.00000
  1078 0.00000 0.00000 0.00000
  1079 0.00000 0.00000 0.00000
  1080 0.00000 0.00000 0.00000
  1081 0.00000 0.00000 0.00000
  1082 0.00000 0.00000 0.00000
  1083 0.00000 0.00000 0.00000
  1084 0.00000 0.00000 0.00000
  1085 0.00000 0.00000 0.00000
  1086 0.00000 0.00000 0.00000
  1087 0.00000 0.00000 0.00000
  1088 0.00000 0.00000 0.00000
  1089 0.00000 0.00000 0.00000
  1090 0.00000 0.00000 0.00000
  1091 0.00000 0.00000 0.00000
  1092 0.00000 0.00000 0.00000
  1093 0.00000 0.00000 0.00000
  1094 0.00000 0.00000 0.00000
  1095 0.00000 0.00000 0.00000
  1096 0.00000 0.00000 0.00000
  1097 0.00000 0.00000 0.00000
  1098 0.00000 0.00000 0.00000
  1099 0.00000 0.00000 0.00000
  1100 0.00000 0.00000 0.00000
  1101 0.00000 0.00000 0.00000
  1102 0.00000 0.00000 0.00000
  1103 0.00000 0.00000 0.00000
  1104 0.00000 0.00000 0.00000
  1105 0.00000 0.00000 0.00000
  1106 0.00000 0.00000 0.00000
  1107 0.00000 0.00000 0.00000
  1108 0.00000 0.00000 0.00000
  1109 0.00000 0.00000 0.00000
  1110 0.00000 0.00000 0.00000
  1111 0.00000 0.00000 0.00000
  1112 0.00000 0.00000 0.00000
  1113 0.00000 0.00000 0.00000
  1114 0.00000 0.00000 0.00000
  1115 0.00000 0.00000 0.00000
  1116 0.00000 0.00000 0.00000
  1117 0.00000 0.00000 0.00000
  1118 0.00000 0.00000 0.00000
  1119 0.00000 0.00000 0.00000
  1120 0.00000 0.00000 0.00000
  1121 0.00000 0.00000 0.00000
  1122 0.00000 0.00000 0.00000
  1123 0.00000 0.00000 0.00000
  1124 0.00000 0.00000 0.00000
  1125 0.00000 0.00000 0.00000
  1126 0.00000 0.00000 0.00000
  1127 0.00000 0.00000 0.00000
  1128 0.00000 0.00000 0.00000
  1129 0.00000 0.00000 0.00000
  1130 0.00000 0.00000 0.00000
  1131 0.00000 0.00000 0.00000
  1132 0.00000 0.00000 0.00000
  1133 0.00000 0.00000 0.00000
  1134 0.00000 0.00000 0.00000
  1135 0.00000 0.00000 0.00000
  1136 0.00000 0.00000 0.00000
  1137 0.00000 0.00000 0.00000
  1138 0.00000 0.00000 0.00000
  1139 0.00000 0.00000 0.00000
  1140 0.00000 0.00000 0.00000
  1141 0.00000 0.00000 0.00000
  1142 0.00000 0.00000 0.00000
  1143 0.00000 0.00000 0.00000
  1144 0.00000 0.00000 0.00000
  1145 0.00000 0.00000 0.00000
  1146 0.00000 0.00000 0.00000
  1147 0.00000 0.00000 0.00000
  1148 0.00000 0.00000 0.00000
  1149 0.00000 0.00000 0.00000
  1150 0.00000 0.00000 0.00000
  1151 0.00000 0.00000 0.00000
  1152 0.00000 0.00000 0.00000
  1153 0.00000 0.00000 0.00000
  1154 0.00000 0.00000 0.00000
  1155 0.00000 0.00000 0.00000
  1156 0.00000 0.00000 0.00000
  1157 0.00000 0.00000 0.00000
  1158 0.00000 0.00000 0.00000
  1159 0.00000 0.00000 0.00000
  1160 0.00000 0.00000 0.00000
  1161 0.00000 0.00000 0.00000
  1162 0.00000 0.00000 0.00000
  1163 0.00000 0.00000 0.00000
  1164 0.00000 0.00000 0.00000
  1165 0.00000 0.00000 0.00000
  1166 0.00000 0.00000 0.00000
  1167 0.00000 0.00000 0.00000
  1168 0.00000 0.00000 0.00000
  1169 0.00000 0.00000 0.00000
  1170 0.00000 0.00000 0.00000
  1171 0.00000 0.00000 0.00000
  1172 0.00000 0.00000 0.00000
  1173 0.00000 0.00000 0.00000
  1174 0.00000 0.00000 0.00000
  1175 0.00000 0.00000 0.00000
  1176 0.00000 0.00000 0.00000
  1177 0.00000 0.00000 0.00000
  1178 0.00000 0.00000 0.00000
  1179 0.00000 0.00000 0.00000
  1180 0.00000 0.00000 0.00000
  1181 0.00000 0.00000 0.00000
  1182 0.00000 0.00000 0.00000
  1183 0.00000 0.00000 0.00000
  1184 0.00000 0.00000 0.00000
  1185 0.00000 0.00000 0.00000
  1186 0.00000 0.00000 0.00000
  1187 0.00000 0.00000 0.00000
  1188 0.00000 0.00000 0.00000
  1189 0.00000 0.00000 0.00000
  1190 0.00000 0.00000 0.00000
  1191 0.00000 0.00000 0.00000
  1192 0.00000 0.00000 0.00000
  1193 0.00000 0.00000 0.00000
  1194 0.00000 0.00000 0.00000
  1195 0.00000 0.00000 0.00000
  1196 0.00000 0.00000 0.00000
  1197 0.00000 0.00000 0.00000
  1198 0.00000 0.00000 0.00000
  1199 0.00000 0.00000 0.00000
  1200 0.00000 0.00000 0.00000
  1201 0.00000 0.00000 0.00000
  1202 0.00000 0.00000 0.00000
  1203 0.00000 0.00000 0.00000
  1204 0.00000 0.00000 0.00000
  1205 0.00000 0.00000 0.00000
  1206 0.00000 0.00000 0.00000
  1207 0.00000 0.00000 0.00000
  1208 0.00000 0.00000 0.00000
  1209 0.00000 0.00000 0.00000
  1210 0.00000 0.00000 0.00000
  1211 0.00000 0.00000 0.00000
  1212 0.00000 0.00000 0.00000
  1213 0.00000 0.00000 0.00000
  1214 0.00000 0.00000 0.00000
  1215 0.00000 0.00000 0.00000
  1216 0.00000 0.00000 0.00000
  1217 0.00000 0.00000 0.00000
  1218 0.00000 0.00000 0.00000
  1219 0.00000 0.00000 0.00000
  1220 0.00000 0.00000 0.00000
  1221 0.00000 0.00000 0.00000
  1222 0.00000 0.00000 0.00000
  1223 0.00000 0.00000 0.00000
  1224 0.00000 0.00000 0.00000
  1225 0.00000 0.00000 0.00000
  1226 0.00000 0.00000 0.00000
  1227 0.00000 0.00000 0.00000
  1228 0.00000 0.00000 0.00000
  1229 0.00000 0.00000 0.00000
  1230 0.00000 0.00000 0.00000
  1231 0.00000 0.00000 0.00000
  1232 0.00000 0.00000 0.00000
  1233 0.00000 0.00000 0.00000
  1234 0.00000 0.00000 0.00000
  1235 0.00000 0.00000 0.00000
  1236 0.00000 0.00000 0.00000
  1237 0.00000 0.00000 0.00000
  1238 0.00000 0.00000 0.00000
  1239 0.00000 0.00000 0.00000
  1240 0.00000 0.00000 0.00000
  1241 0.00000 0.00000 0.00000
  1242 0.00000 0.00000 0.00000
  1243 0.00000 0.00000 0.00000
  1244 0.00000 0.00000 0.00000
  1245 0.00000 0.00000 0.00000
  1246 0.00000 0.00000 0.00000
  1247 0.00000 0.00000 0.00000
  1248 0.00000 0.00000 0.00000
  1249 0.00000 0.00000 0.00000
  1250 0.00000 0.00000 0.00000
  1251 0.00000 0.00000 0.00000
  1252 0.00000 0.00000 0.00000
  1253 0.00000 0.00000 0.00000
  1254 0.00000 0.00000 0.00000
  1255 0.00000 0.00000 0.00000
  1256 0.00000 0.00000 0.00000
  1257 0.00000 0.00000 0.00000
  1258 0.00000 0.00000 0.00000
  1259 0.00000 0.00000 0.00000
  1260 0.00000 0.00000 0.00000
  1261 0.00000 0.00000 0.00000
  1262 0.00000 0.00000 0.00000
  1263 0.00000 0.00000 0.00000
  1264 0.00000 0.00000 0.00000
  1265 0.00000 0.00000 0.00000
  1266 0.00000 0.00000 0.00000
  1267 0.00000 0.00000 0.00000
  1268 0.00000 0.00000 0.00000
  1269 0.00000 0.00000 0.00000
  1270 0.00000 0.00000 0.00000
  1271 0.00000 0.00000 0.00000
  1272 0.00000 0.00000 0.00000
  1273 0.00000 0.00000 0.00000
  1274 0.00000 0.00000 0.00000
  1275 0.00000 0.00000 0.00000
  1276 0.00000 0.00000 0.00000
  1277 0.00000 0.00000 0.00000
  1278 0.00000 0.00000 0.00000
  1279 0.00000 0.00000 0.00000
  1280 0.00000 0.00000 0.00000
  1281 0.00000 0.00000 0.00000
  1282 0.00000 0.00000 0.00000
  1283 0.00000 0.00000 0.00000
</Section>

newXOutput 2

<Section columns = "stress_xx | stress_yy | stress_xy">
  1 8.99871 0.00237901 0.0197878
  2 9.00009 0.00243216 -0.0198750
  3 4.53060 -0.00309864 -0.00718424
  4 -0.0591342 -0.0589712 -0.0849076
  5 16.9948 6.16870 5.18209
  6 16.8253 6.41875 -5.24401
  7 -0.0685312 -0.0565022 0.0897221
  8 4.53032 -0.00311961 0.00715735
  9 9.07109 -0.0130742 0.00672765
  10 9.04708 -0.0215418 -0.00286838
  11 9.01788 -0.0125278 0.0244845
  12 8.98947 -0.0189476 0.00979879
  13 8.92914 -0.0153007 0.0387329
  14 8.87539 -0.0158912 0.0300791
  15 8.75531 -0.0142566 0.0546845
  16 8.59116 -0.00736024 0.0797983
  17 8.44322 -0.00927913 0.0872681
  18 8.23004 -0.0155380 0.103767
  19 7.94203 0.00102045 0.151073
  20 7.67567 -0.0115045 0.141666
  21 7.38198 -0.0164798 0.197024
  22 6.95649 0.0119617 0.169451
  23 6.65564 0.0160803 0.198682
  24 6.26389 0.0283106 0.153952
  25 5.99612 0.0268120 0.154494
  26 5.60738 0.0402759 0.0782703
  27 5.52710 0.0638885 0.0834598
  28 5.47941 0.0507979 -0.0244752
  29 5.54643 0.0267098 -0.0546179
  30 5.66890 0.0278879 -0.0666907
  31 5.95960 0.0366744 -0.133856
  32 6.24180 0.0288801 -0.170820
  33 6.66213 0.00429873 -0.203615
  34 6.99955 -0.00515945 -0.187770
  35 7.36445 -0.0133549 -0.186621
  36 7.69753 -0.00885641 -0.133041
  37 7.98882 -0.00857364 -0.115305
  38 8.23281 -0.0149499 -0.0982101
  39 8.45467 -0.00980356 -0.0704547
  40 8.59729 -0.0107155 -0.0756631
  41 8.73488 -0.0147495 -0.0557459
  42 8.86863 -0.0180872 -0.0266983
  43 8.93834 -0.0140346 -0.0298481
  44 8.97889 -0.00701206 -0.0195797
  45 8.95982 -0.00134741 -0.0177418
  46 9.05870 -0.0222441 0.00130841
  47 9.07518 -0.0138366 -0.00695600
  48 8.73659 0.000877511 -0.0121538
  49 8.51403 -0.0261333 -0.0204785
  50 8.24639 -0.0408773 -0.0154173
  51 7.92274 -0.0658498 -0.0205839
  52 7.61948 -0.0738477 -0.0264805
  53 7.29826 -0.0979387 -0.0247878
  54 7.01616 -0.112153 -0.0151559
  55 6.76899 -0.129857 -0.00744163
  56 6.48475 -0.108882 -0.00766670
  57 6.15743 -0.103983 -0.00986111
  58 5.84130 -0.0841034 -0.00484606
  59 5.54103 -0.0556799 -0.00276005
  60 5.25462 -0.0411444 -0.00111793
  61 5.00172 -0.0230048 0.00139218
  62 4.74078 -0.00761633 -0.00841486
  63 4.53501 0.00604545 0.00831959
  64 4.44500 0.0198077 0.00480449
  65 4.51359 -0.000647259 0.0127663
  66 4.45082 -0.00378735 0.0150225
  67 4.39586 -0.00513827 0.0188695
  68 4.31938 -0.00161413 0.0254395
  69 4.22252 -0.000983129 0.0326486
  70 4.15643 -0.00764188 0.0654790
  71 3.94520 0.00593883 0.0720123
  72 3.80005 -0.00107275 0.0838773
  73 3.58366 -0.00473013 0.0947750
  74 3.33255 -0.00753062 0.115862
  75 3.01933 -0.00217940 0.140678
  76 2.63705 0.00143662 0.154125
  77 2.31514 -0.00463521 0.219730
  78 1.66418 0.0215177 0.205175
  79 1.23045 0.0187041 0.217113
  80 0.719559 -0.00223238 0.237830
  81 0.303935 0.0429810 0.243145
  82 -0.165021 0.0620187 0.137791
  83 -0.495241 0.0624391 0.0390489
  84 -0.456043 0.0578469 -0.0378551
  85 -0.409828 0.0470068 -0.127659
  86 -0.238249 -0.0188506 -0.117417
  87 -0.0317587 -0.228782 -0.128517
  88 0.0182801 -0.427205 -0.165395
  89 0.0571690 -0.698885 -0.104809
  90 0.130679 -0.760004 -0.0229727
  91 0.281634 -0.339687 0.332930
  92 0.869000 1.05067 1.23975
  93 5.47148 4.51692 4.57189
  94 20.4383 2.99301 3.49183
  95 18.2726 0.433987 1.16096
  96 16.8523 0.175077 0.355326
  97 16.3250 0.146038 0.0293185
  98 16.5943 0.197887 -0.304510
  99 18.2111 0.398589 -0.917154
  100 21.8523 1.44903 -3.06350
  101 3.20226 4.53795 -3.77972
  102 0.653154 0.593013 -1.00448
  103 0.305720 -0.308650 -0.335518
  104 0.121231 -0.771936 -0.0307323
  105 0.0295395 -0.541514 0.122627
  106 0.0408811 -0.536167 0.145162
  107 0.000364565 -0.199743 0.142043
  108 -0.248192 -0.0138941 0.112285
  109 -0.423159 0.0352446 0.112375
  110 -0.479501 0.0706638 0.0407317
  111 -0.512226 0.0618800 -0.0347627
  112 -0.199647 0.0635870 -0.128034
  113 0.272505 0.0433937 -0.231214
  114 0.687314 0.00216786 -0.233871
  115 1.19750 0.0202529 -0.217750
  116 1.63424 0.0221394 -0.207001
  117 2.29189 -0.00472274 -0.221900
  118 2.61707 0.00165071 -0.155873
  119 3.00198 -0.00208598 -0.142694
  120 3.32353 -0.00825080 -0.116964
  121 3.57200 -0.00456416 -0.0951587
  122 3.79139 -0.000789407 -0.0849173
  123 3.93827 0.00584857 -0.0729895
  124 4.15169 -0.00770731 -0.0663120
  125 4.21894 -0.00102638 -0.0331687
  126 4.31691 -0.00165385 -0.0258710
  127 4.39423 -0.00520284 -0.0192152
  128 4.44981 -0.00384243 -0.0152665
  129 4.51293 -0.000697500 -0.0129248
  130 4.44461 0.0197698 -0.00488077
  131 4.53467 0.00602924 -0.00836567
  132 4.74035 -0.00767466 0.00838328
  133 5.00124 -0.0231503 -0.00145364
  134 5.25419 -0.0414739 0.00104454
  135 5.54076 -0.0561410 0.00268779
  136 5.84125 -0.0847668 0.00477651
  137 6.15766 -0.104813 0.00980746
  138 6.48528 -0.109831 0.00761982
  139 6.76972 -0.130895 0.00742589
  140 7.01701 -0.113181 0.0151917
  141 7.29935 -0.0988740 0.0248875
  142 7.62021 -0.0745092 0.0268475
  143 7.92303 -0.0664381 0.0223095
  144 8.24749 -0.0379877 0.0157768
  145 8.52006 -0.0251841 0.0200462
  146 8.73727 -0.000454141 0.0119901
  147 7.69009 -0.721350 -0.145573
  148 7.68454 -0.711814 0.148413
  149 7.98939 1.15563 -0.442148
  150 8.59742 0.511095 0.961514
  151 6.50072 -0.618063 -1.36850
  152 6.55093 -0.618126 1.32121
  153 6.22538 -0.273500 0.136302
  154 6.22639 -0.277625 -0.136599
  155 9.17486 0.325415 -0.784848
  156 7.66923 -0.269358 0.233138
  157 7.66627 -0.262366 -0.230093
  158 9.91226 2.24919 0.148073
  159 7.80231 -0.0119660 -0.916383
  160 5.70081 -0.462385 -0.602835
  161 5.69991 -0.458184 0.596546
  162 7.83001 -0.174114 0.838140
  163 7.35786 0.533340 0.534158
  164 2.98297 0.502537 -1.63049
  165 3.32664 0.474432 1.72115
  166 9.75432 0.0929981 0.229854
  167 7.87567 -0.296978 -0.604118
  168 10.4969 2.31273 -0.166207
  169 7.05861 -0.196537 0.0332538
  170 7.05691 -0.195676 -0.0324775
  171 8.02198 -0.0849069 -0.104360
  172 8.05130 -0.0747417 0.0909518
  173 5.39880 -0.0855905 -0.0890420
  174 5.39902 -0.0846225 0.0883752
  175 8.70609 -0.255970 1.73452
  176 7.10133 0.288856 -0.574004
  177 4.59704 -0.351421 -0.995127
  178 4.61109 -0.348733 0.987432
  179 5.13946 -0.180580 -0.316354
  180 5.13944 -0.178339 0.313382
  181 7.91913 -0.201984 0.512956
  182 7.16737 -0.495971 0.0508722
  183 7.13966 -0.492240 -0.0378200
  184 8.23261 -0.790488 -0.0296475
  185 8.27232 -0.752913 -0.0748561
  186 11.4360 2.68336 -0.265673
  187 8.15393 1.32241 0.415340
  188 8.20723 0.506490 -0.948116
  189 8.69039 -0.107449 -2.03727
  190 8.19004 -0.457443 -0.704359
  191 8.25765 -0.324253 0.812605
  192 6.84756 -0.780225 0.634664
  193 6.85150 -0.775112 -0.632169
  194 7.24493 0.0888017 0.694485
  195 3.22733 -0.0716864 -1.20995
  196 3.23626 -0.0794741 1.20146
  197 13.0031 1.96950 0.272383
  198 7.74273 -0.457930 0.408449
  199 8.05422 -0.139749 -0.342449
  200 6.26075 -0.158230 -0.0561091
  201 6.26054 -0.157220 0.0558008
  202 7.65916 -0.0980302 -0.641850
  203 8.76010 1.29394 -0.778744
  204 7.21785 0.645075 -0.107621
  205 4.59657 -0.174210 0.455203
  206 4.58910 -0.174924 -0.459350
  207 8.20583 -0.0806751 0.196193
  208 7.89272 0.149356 0.939602
  209 6.37300 -0.476441 -0.259958
  210 6.32407 -0.451397 0.269718
  211 9.38504 1.39340 0.752008
  212 11.2147 1.44756 0.0555533
  213 0.680047 0.556121 -0.407360
  214 0.626694 0.514139 0.343101
  215 4.51141 1.26920 2.94139
  216 7.66220 -0.507159 -0.332693
  217 8.24163 -0.0776273 -0.177686
  218 7.15263 0.0586899 -0.638868
  219 4.88768 -0.0556044 -0.138917
  220 4.88885 -0.0549454 0.137353
  221 6.84306 -0.325408 -0.0166636
  222 6.84607 -0.327090 0.0125763
  223 7.73645 -0.102263 0.549983
  224 9.05731 -0.527410 0.0747311
  225 8.84577 1.83544 -0.231179
  226 6.93932 -0.677567 -0.263446
  227 8.87672 -0.151163 0.673010
  228 7.51768 -0.116817 0.0479071
  229 7.51810 -0.115657 -0.0478226
  230 6.88297 -0.674181 0.278040
  231 7.93598 -0.498776 0.583177
  232 11.4149 1.36089 -0.514342
  233 2.39747 1.43288 -2.07803
  234 6.53304 0.221278 0.134758
  235 7.90021 0.699224 0.787656
  236 8.50542 -0.0555723 -0.876660
  237 7.91458 -0.281031 -0.794141
  238 4.03767 -0.138568 -0.576887
  239 4.05302 -0.136337 0.574349
  240 7.93521 -0.0907338 -0.433428
  241 7.57124 -0.183894 0.133372
  242 7.56772 -0.183412 -0.129892
  243 1.46968 0.150394 -0.748001
  244 1.49757 0.132065 0.745925
  245 8.51956 -0.741294 -0.548663
  246 8.44842 -0.0189190 0.0313156
  247 8.45974 -0.0193886 -0.0327367
  248 7.69814 0.637955 -0.717350
  249 6.68156 0.121054 0.412685
  250 14.7311 2.36410 1.57025
  251 14.6316 1.66771 -0.996636
  252 10.3131 2.26131 -0.0479104
  253 6.42405 -0.302765 1.84139
  254 5.87468 -0.188750 -1.93106
  255 6.68971 -0.136762 -0.0112979
  256 6.68888 -0.135673 0.0111094
  257 5.45110 -0.156400 0.184627
  258 5.45166 -0.158725 -0.186758
  259 8.17679 -0.0802334 0.277743
  260 7.90605 -0.559158 -0.496783
  261 4.89537 -0.0129879 -0.0310706
  262 4.89593 -0.0127903 0.0307974
  263 7.80515 -0.309670 -0.390198
  264 3.13619 -0.106270 -0.795673
  265 3.15180 -0.106659 0.788999
  266 7.89082 -0.337353 0.649611
  267 5.97191 -0.634265 1.09732
  268 5.98968 -0.645742 -1.09413
  269 6.64169 0.246168 -0.192047
  270 5.72866 -0.0944540 -0.0594176
  271 5.72877 -0.0937041 0.0590875
  272 7.30709 -0.0204565 0.517065
  273 8.81290 1.63199 0.544006
  274 4.53027 -0.0619544 0.242359
  275 4.52675 -0.0625273 -0.244902
  276 8.13895 -0.673973 0.386690
  277 7.53446 -0.840288 -0.689036
  278 8.47044 -0.0306831 0.0944578
  279 5.69599 -0.351912 -0.405076
  280 5.68426 -0.347691 0.403041
  281 10.6409 0.955812 2.58922
  282 4.77216 -0.382410 1.32438
  283 7.75899 1.09555 -0.0472734
  284 10.0326 1.08241 -0.568799
  285 7.47836 -0.579459 0.178285
  286 7.53634 -0.863940 0.612020
  287 4.78927 -0.375582 -1.34144
  288 0.850791 1.04512 0.917010
  289 7.80633 -0.311090 0.396910
  290 10.3511 1.32317 0.485820
  291 8.54863 -0.0272027 -0.0818590
  292 7.56739 0.262214 -0.825360
  293 7.53812 -0.424351 0.246059
  294 7.37346 -0.624868 -0.0596226
  295 7.53362 0.344131 0.793042
  296 8.09700 -0.674883 -0.354589
  297 11.5485 2.27890 -0.160273
  298 7.53599 -0.407507 -0.236194
  299 6.34510 1.73720 -3.64852
  300 7.73029 -0.817254 -0.0568254
  301 7.67273 -0.839252 0.147314
  302 5.53070 -0.509818 -0.865025
  303 4.85352 -0.0227225 -0.0688673
  304 4.85441 -0.0223323 0.0681309
  305 5.53200 -0.509968 0.859539
  306 8.14512 -0.0111435 -0.960155
  307 8.87579 -0.365138 -0.487697
  308 6.64320 -0.408745 -0.113765
  309 6.63752 -0.409604 0.116391
  310 8.09899 -0.696526 1.14655
  311 8.00622 -0.0596808 0.328689
  312 9.88846 0.0123910 0.292214
  313 6.48877 -0.234588 -0.0572292
  314 6.48889 -0.233549 0.0566462
  315 5.85170 -0.160829 -0.114158
  316 5.85127 -0.159141 0.113842
  317 6.60361 0.0835184 -0.399614
  318 8.70441 0.639409 -0.938045
  319 13.7384 3.66684 -1.65550
  320 7.97561 -0.0576074 -0.0367196
  321 7.96996 -0.0567150 0.0374355
  322 4.15499 0.00585263 1.65261
  323 5.83285 -0.276747 -0.257622
  324 5.81996 -0.275456 0.258145
  325 4.15472 -0.00307012 -1.64639
  326 8.24628 0.978468 -0.777975
  327 9.34910 0.457377 0.757949
  328 8.10632 -0.578873 -1.28378
  329 7.36014 -0.280843 0.127654
  330 7.35199 -0.278414 -0.124064
  331 7.90097 -0.153703 -0.200303
  332 7.31369 -0.0153814 -0.484124
  333 8.30802 0.0403850 0.948148
  334 8.35284 -0.0509871 -0.193853
  335 4.83956 -0.306484 0.662997
  336 4.83441 -0.308422 -0.669086
  337 7.67433 -0.0178470 0.866461
  338 4.54504 -0.0426242 -0.141672
  339 4.54786 -0.0422043 0.140050
  340 7.95399 -0.174063 0.295912
  341 9.51420 1.96150 -0.436889
  342 7.89530 -0.155231 0.206956
  343 8.34478 1.05579 0.783484
  344 8.00568 -0.145398 0.915484
  345 6.24938 -0.120313 0.0176877
  346 6.24971 -0.121217 -0.0179092
  347 7.52490 -0.0280322 -0.767354
  348 10.0875 2.13509 0.327790
  349 8.28914 1.53722 0.0164382
  350 5.09739 0.599659 -2.48453
  351 0.449262 0.227110 -0.301521
  352 0.501146 0.245095 0.328217
  353 -0.0452819 0.0472911 0.171105
  354 -0.0104209 0.0197373 -0.176937
  355 15.1827 1.05210 0.371633
  356 6.88042 -0.566594 -0.130560
  357 7.96230 -0.167566 -0.289110
  358 7.13097 -0.119687 0.0223515
  359 7.13013 -0.118520 -0.0223673
  360 7.56689 0.836754 -0.387670
  361 6.48432 -0.669756 0.519800
  362 0.527395 0.772746 -0.543682
  363 6.49248 -0.670013 -0.531139
  364 7.67398 0.874460 0.412579
  365 7.92036 -0.205117 -0.490795
  366 8.43458 -0.465156 -0.624055
  367 8.90588 1.90937 0.160355
  368 8.45991 -0.521918 0.535903
  369 3.29035 -0.0880336 0.534742
  370 3.26799 -0.0863808 -0.538986
  371 1.81689 0.0513411 -0.727472
  372 1.84006 0.0430630 0.723891
  373 6.72118 0.0157444 0.405705
  374 13.3580 3.81232 1.33416
  375 8.22057 -0.0466813 -0.239306
  376 6.29811 -0.544572 -0.392114
  377 6.29126 -0.542671 0.391442
  378 7.85597 -0.176971 -0.607321
  379 9.05764 -0.436748 0.192265
  380 6.88005 -0.565855 0.136309
  381 10.0269 0.0353836 -0.670812
  382 5.38704 -0.0491765 -0.0199488
  383 5.38741 -0.0487061 0.0197029
  384 7.69541 -0.0429691 -0.380881
  385 3.96306 -0.0629234 -0.350413
  386 3.96597 -0.0648008 0.345578
  387 9.27850 1.18378 -0.824424
  388 4.96379 0.356818 2.29874
  389 7.21566 -0.379956 0.0943927
  390 7.22305 -0.379088 -0.0948979
  391 8.45826 1.44488 -0.501959
  392 8.04520 -0.234857 -0.875414
  393 8.13528 -0.826805 0.579607
  394 6.66499 -0.178501 -0.0154166
  395 6.66391 -0.177391 0.0149859
  396 7.77723 -0.598155 0.359322
  397 8.44467 -0.0343993 0.145692
  398 5.05818 -0.196752 -0.400698
  399 5.05987 -0.196569 0.396561
  400 7.84288 0.262955 -0.924545
  401 7.44595 -0.154091 0.0738536
  402 7.44585 -0.154344 -0.0726449
  403 7.65908 -0.0885692 0.712226
  404 7.05277 0.508368 0.182927
  405 7.98562 -0.332687 0.774379
  406 11.6675 2.46796 0.372901
  407 3.72135 -0.202188 -1.06441
  408 3.73249 -0.202361 1.05515
  409 1.63701 0.903404 -1.21982
  410 8.69034 -0.0175906 0.0442416
  411 4.12870 -0.0402323 -0.220862
  412 4.13472 -0.0393765 0.218590
  413 7.86466 -0.200948 0.597561
  414 7.12725 -0.777367 0.306378
  415 8.12366 -0.0901899 0.142895
  416 8.19449 0.419020 0.973102
  417 1.72522 0.961881 1.27971
  418 7.13935 -0.773567 -0.275886
  419 7.38460 -0.689015 0.0117146
  420 2.24448 -0.0454725 -0.665123
  421 2.26469 -0.0474358 0.659910
  422 5.63618 -0.441979 -1.59867
  423 8.51095 -0.122100 0.859103
  424 5.61049 -0.449846 1.58315
  425 7.84316 -0.436714 -0.526209
  426 7.16498 0.477666 -0.404024
  427 7.84561 -0.333704 0.495424
  428 8.53833 -0.0303653 -0.102236
  429 0.230494 0.227177 0.0681566
  430 1.64894 1.84981 1.82680
  431 7.47274 -0.0280424 0.363668
  432 6.12173 0.0771281 0.173269
  433 6.24362 0.0957564 -0.236182
  434 5.32909 -0.0966229 -0.130013
  435 5.32916 -0.0952992 0.128872
  436 7.73489 -0.598039 -0.335188
  437 7.77922 -0.149938 -0.801729
  438 6.16053 0.107521 -0.0642182
  439 11.6826 2.77234 0.445966
  440 1.50069 0.525498 -0.908974
  441 1.66412 0.482778 0.977507
  442 7.20913 -0.254953 0.0779175
  443 7.20610 -0.254040 -0.0757305
  444 9.63168 2.16657 -0.0377320
  445 6.18463 2.34216 3.72744
  446 9.38210 -0.141189 -0.268101
  447 5.19437 -0.283169 -0.544282
  448 5.19637 -0.280984 0.538783
  449 5.19542 -0.125667 0.208390
  450 5.19491 -0.126715 -0.210777
  451 7.12746 0.152689 -0.655655
  452 8.74287 -0.00581547 -0.0303267
  453 6.89956 0.309349 0.365154
  454 8.90248 1.10432 0.866599
  455 7.39386 -0.550337 -0.145231
  456 8.12201 -0.0850514 -0.138443
  457 8.57759 -0.0267751 0.0942966
  458 8.71947 -0.00581272 0.0174325
  459 8.72857 -0.00739849 -0.0134672
  460 4.49160 -0.0104821 0.0511763
  461 4.48967 -0.0106255 -0.0518640
  462 8.11956 -0.510899 0.634284
  463 7.20044 0.279181 0.634427
  464 7.57843 0.0296307 -0.842342
  465 8.00049 -0.161070 0.372111
  466 11.8951 1.79645 -2.10362
  467 8.00500 -0.439981 -0.691889
  468 0.0328204 0.144430 0.0336892
  469 0.0340019 0.145025 0.00577209
  470 6.25038 -0.364747 0.207270
  471 6.22762 -0.360336 -0.205482
  472 10.1560 0.124273 1.08419
  473 2.77433 2.40334 -2.77430
  474 7.87264 -0.0212368 0.288254
  475 9.07247 -0.534669 -0.575287
  476 4.62640 -0.276615 0.771860
  477 9.62106 1.70939 -0.625416
  478 7.88798 -0.422811 0.586830
  479 6.54878 -0.320265 -0.0828976
  480 6.55464 -0.314637 0.0824013
  481 6.71917 0.0333110 -0.358911
  482 4.61127 -0.275754 -0.777698
  483 6.91268 -0.000282396 0.362676
  484 6.74124 -0.768905 -0.963397
  485 6.72328 -0.770081 0.965571
  486 8.16480 -0.0494655 0.263182
  487 7.28144 0.683825 0.0757140
  488 7.61168 0.104670 2.51756
  489 11.1224 2.30091 -0.0146501
  490 7.64512 -0.119336 0.0757903
  491 7.64593 -0.118826 -0.0775699
  492 5.72705 -0.108685 -0.0772384
  493 5.72705 -0.107662 0.0767977
  494 2.99028 0.152397 1.37367
  495 7.91866 -0.377279 -0.671809
  496 7.15538 -0.150972 0.0288155
  497 7.15466 -0.150268 -0.0285748
  498 6.19823 -0.662531 0.789333
  499 3.05167 0.199291 -1.41018
  500 7.94661 -0.644096 -0.380567
  501 0.118769 -0.00876734 0.0947343
  502 6.78148 0.342651 0.0258761
  503 7.67911 -0.0780074 -0.0259755
  504 7.67855 -0.0793437 0.0255984
  505 6.20391 -0.661732 -0.796113
  506 9.08457 -0.479255 0.771767
  507 8.91892 0.325777 0.895789
  508 8.27405 -0.0451211 -0.0718085
  509 7.92208 -0.653559 0.384275
  510 4.71775 -0.00706446 -0.00813869
  511 4.71822 -0.00701329 0.00803247
  512 7.88769 -0.299270 -0.706483
  513 7.56392 0.559313 0.698985
  514 8.80495 0.218742 -0.883107
  515 4.69004 -0.00998856 -0.0285055
  516 4.69073 -0.00986399 0.0282440
  517 15.8340 2.28497 -2.06361
  518 7.88936 0.944658 0.620137
  519 8.28245 -0.0402575 0.0643888
  520 7.40218 -0.703883 0.00578503
  521 6.12455 -0.210338 0.108926
  522 6.12492 -0.212156 -0.108722
  523 8.68742 -0.524101 0.351333
  524 8.29805 -0.161121 -0.893494
  525 9.25705 1.84404 0.504062
  526 7.64744 0.130569 0.872010
  527 7.79850 -0.140318 0.135092
  528 7.59195 -0.804275 -0.910496
  529 7.81414 -0.189836 0.687320
  530 15.6961 0.714643 -0.291363
  531 8.62882 -0.646618 -0.128602
  532 8.22238 -0.0427437 -0.0193755
  533 8.22403 -0.0463359 0.0178851
  534 15.8554 1.06633 1.02869
  535 7.43972 -0.00410872 0.741662
  536 10.6563 1.74883 -0.348759
  537 7.92816 -0.208292 -0.366725
  538 3.35880 -0.0348887 -0.240329
  539 3.37094 -0.0332402 0.237564
  540 5.26930 -0.496751 -1.10774
  541 5.27237 -0.488313 1.09865
  542 7.79457 -0.133823 -0.133445
  543 8.45651 0.312950 -0.965548
  544 7.41713 -0.505471 0.173209
  545 7.92720 0.912467 -0.645715
  546 8.06875 -0.0873020 0.354566
  547 10.2509 0.474945 0.0406516
  548 6.83667 -0.235804 0.000255367
  549 6.83412 -0.234681 -0.000648321
  550 7.47375 -0.350432 0.192603
  551 11.1898 2.16444 0.0110463
  552 7.83048 0.343256 0.906777
  553 3.30435 0.857828 2.04476
  554 7.68427 -0.463312 1.65057
  555 10.3152 0.416351 -1.79585
  556 8.00983 0.663980 -0.847888
  557 7.18109 -0.614801 -1.42495
  558 7.76641 -0.847808 -0.205540
  559 8.13963 -0.818482 -0.338012
  560 1.01386 1.26938 -1.20594
  561 8.17576 -0.0939114 -0.230099
  562 12.4063 2.42825 -0.648546
  563 7.51657 -0.334915 -0.207293
  564 7.58705 -0.240925 0.170536
  565 7.57978 -0.234936 -0.164943
  566 5.03290 -0.0343517 -0.0614749
  567 5.03350 -0.0338986 0.0609111
  568 0.628736 0.0792862 -0.388240
  569 0.672612 0.0828168 0.397929
  570 3.73676 -0.180691 -0.814820
  571 3.76782 -0.181564 0.812711
  572 7.68870 -0.412915 -0.352691
  573 7.86300 -0.851124 0.228138
  574 8.08516 -0.762655 0.152489
  575 6.52344 -0.115612 -0.0172945
  576 6.52286 -0.114608 0.0171643
  577 6.23176 -0.649927 -1.22166
  578 7.03488 -0.571446 1.51310
  579 6.07118 -0.610359 1.23004
  580 7.88610 -0.172483 -0.864392
  581 4.76692 -0.0875385 0.240393
  582 4.76477 -0.0885165 -0.242871
  583 7.45272 0.408353 -0.700592
  584 7.47998 -0.0129037 -0.330219
  585 9.41584 2.07609 -0.235026
  586 6.04469 -0.0958666 -0.0197477
  587 6.04455 -0.0951092 0.0196136
  588 8.05116 -0.0219127 -0.191188
  589 5.41249 -0.194836 -0.258487
  590 5.41199 -0.193977 0.255728
  591 4.47942 0.221044 1.97029
  592 7.83715 -0.355816 -0.501725
  593 4.27560 -0.219339 1.41046
  594 7.70071 -0.395349 0.358144
  595 8.14751 -0.105930 0.252265
  596 8.06060 -0.0619225 -0.0651674
  597 5.46050 -0.0744413 -0.0546099
  598 5.46077 -0.0737617 0.0541916
  599 9.02177 1.82387 -0.447579
  600 4.27305 -0.209920 -1.41678
  601 7.67626 -0.327245 -0.292660
  602 6.87121 -0.124911 -0.00453789
  603 6.87039 -0.123799 0.00450456
  604 13.2654 1.80155 -0.308103
  605 4.37236 -0.0321019 0.134314
  606 4.36849 -0.0324325 -0.135842
  607 7.03082 0.155970 0.596467
  608 10.3808 0.825069 -0.289289
  609 4.78563 0.0472668 -1.95851
  610 2.35106 0.0710419 -1.04874
  611 2.37279 0.0560216 1.04299
  612 5.96851 -0.361399 0.311773
  613 6.03679 -0.372029 -0.300455
  614 10.4167 2.09166 0.324631
  615 8.02359 -0.0646190 0.0602230
  616 6.68661 0.180226 -0.358346
  617 8.47637 1.54070 0.396472
  618 8.44086 1.59958 -0.263540
  619 6.94089 -0.389271 -0.00562340
  620 6.99753 -0.379751 -0.0201427
  621 5.00973 1.07654 -2.84045
  622 5.88211 -0.211699 -0.167686
  623 5.88216 -0.209062 0.166816
  624 15.7020 3.20532 2.40066
  625 7.88568 -0.254592 0.756605
  626 4.33716 -0.163871 -0.522117
  627 12.6462 2.70250 1.67893
  628 4.34786 -0.162807 0.519579
  629 7.62926 -0.296633 -1.94407
  630 5.13310 -0.0307029 -0.0227814
  631 5.13357 -0.0304272 0.0226212
  632 6.41394 0.0528797 0.312023
  633 2.80650 -0.0453047 -0.470772
  634 2.82487 -0.0454028 0.466501
  635 6.84753 -0.492131 0.0898365
  636 7.20735 -0.581777 0.0291179
  637 8.62298 -0.0142227 -0.0840213
  638 4.56863 -0.00962032 0.0366889
  639 4.56733 -0.00977816 -0.0372007
  640 6.41707 -0.147375 -0.0204064
  641 6.41656 -0.146359 0.0200921
  642 7.49076 -0.826058 0.923360
  643 8.55770 0.960016 -0.872370
  644 5.57534 -0.273459 -0.334720
  645 5.57033 -0.268656 0.331819
  646 6.71240 -0.492440 -0.151415
  647 10.7176 2.35811 -0.0125054
  648 8.03421 -0.773105 -0.105754
  649 6.90011 -0.163240 0.00705478
  650 6.89890 -0.162210 -0.00698068
  651 9.62676 1.04391 0.730703
  652 8.03353 -0.108984 -0.385689
  653 6.95775 -0.0112031 -0.296060
  654 3.13615 -0.106210 -1.01971
  655 3.14717 -0.109658 1.01029
  656 6.70017 -0.587747 -0.272967
  657 10.1351 2.27481 0.0118243
  658 7.76394 1.05640 -0.279308
  659 5.01297 -0.0521827 -0.116142
  660 5.01371 -0.0514260 0.114931
  661 7.30620 -0.201633 -0.0713782
  662 7.30765 -0.202083 0.0732084
  663 13.9830 1.83791 0.800912
  664 8.79762 -0.0180791 0.0247634
  665 8.42686 -0.0282093 0.141001
  666 8.38662 -0.0296313 -0.162482
  667 7.92672 -0.734435 0.219644
  668 5.66890 -0.0717476 -0.0273453
  669 5.66908 -0.0711548 0.0271694
  670 8.39930 1.35965 0.606492
  671 10.9157 2.44497 -0.0524885
  672 5.83074 -0.447914 -0.475156
  673 5.82796 -0.443124 0.472165
  674 7.41416 -0.766069 -0.0758384
  675 7.76235 0.461168 -0.851608
  676 9.38678 0.0191767 0.470773
  677 6.05014 -0.117907 -0.0493047
  678 6.05001 -0.116998 0.0489874
  679 5.23558 -0.465978 -1.00054
  680 7.84867 -0.756424 -0.143940
  681 6.47245 -0.719491 0.868524
  682 3.04099 0.976110 -1.96924
  683 6.00070 -0.566175 0.668573
  684 7.22474 0.00168167 0.275822
  685 5.23971 -0.460463 0.992879
  686 7.67136 -0.334109 0.296236
  687 6.00408 -0.564076 -0.675725
  688 6.00660 0.0724251 0.0650128
  689 4.63298 -0.134810 0.367561
  690 4.62875 -0.135089 -0.370744
  691 6.47826 -0.738303 -0.878844
  692 8.06217 -0.526504 -0.614415
  693 7.37486 -0.0945394 -0.0175585
  694 7.37596 -0.0957473 0.0176283
  695 8.25168 -0.519644 0.616397
  696 7.47565 -0.782073 0.103837
  697 9.11800 0.836646 0.877732
  698 8.19489 -0.148752 0.912532
  699 7.88473 -0.277414 0.570182
  700 7.43629 0.608976 -0.531270
  701 9.05657 1.53517 0.690102
  702 7.79706 -0.105308 -0.536607
  703 7.80828 -0.251855 0.314883
  704 7.98279 1.26008 0.151428
  705 7.92798 -0.129585 0.475313
  706 2.43822 1.64577 2.05516
  707 7.39258 -0.848366 -0.499223
  708 8.56233 0.159806 0.935767
  709 8.67339 -0.264639 -0.703337
  710 8.74012 -0.00605402 0.0487632
  711 7.88825 -0.264417 -0.458258
  712 7.40111 -0.855235 0.446406
  713 14.7493 1.30477 -0.220217
  714 4.18237 -0.0209125 0.140957
  715 4.17699 -0.0211588 -0.142566
  716 8.03113 -0.136300 -0.225279
  717 8.79817 -0.00413746 -0.0468972
  718 6.68584 -0.597015 0.274619
  719 8.09121 -0.296180 0.835849
  720 12.5831 2.88462 -0.708090
  721 7.66853 -0.554493 0.317138
  722 8.55392 -0.558070 -0.414351
  723 7.81189 -0.244592 -0.310099
  724 8.80754 -0.00922836 -0.0174916
  725 7.86132 0.00136692 0.929164
  726 0.340917 0.230954 0.392438
  727 9.05483 -0.366957 -1.20727
  728 9.80194 0.562802 0.517395
  729 8.12650 -0.825749 0.289528
  730 5.61319 -0.144136 0.138684
  731 5.61370 -0.146302 -0.139624
  732 7.83000 3.61115 -3.91447
  733 8.25691 -0.540769 -0.577094
  734 5.98046 0.0243558 -0.124193
  735 7.11747 0.0361385 0.585451
  736 7.93880 -0.392582 0.684051
  737 7.61017 -0.641245 0.200209
  738 7.97878 -0.721572 -0.991315
  739 7.55917 -0.598151 -0.211037
  740 9.02312 -0.432143 -0.222318
  741 8.29939 -0.0577170 0.134103
  742 7.32648 -0.441326 0.132594
  743 13.6172 2.72919 -1.41499
  744 7.85366 -0.201657 0.254024
  745 7.69297 0.124723 -0.896750
  746 6.64922 -0.0795941 2.19807
  747 8.27474 0.670549 0.927178
  748 7.11333 -0.565095 0.0106657
  749 5.40637 -0.438145 -0.725531
  750 5.40597 -0.436660 0.718642
  751 7.49186 0.842457 -0.124531
  752 7.67675 -0.0872296 0.808235
  753 7.78058 -0.182534 -0.699617
  754 7.33528 -0.449974 -0.135554
  755 7.08172 -0.640572 0.116903
  756 8.04794 1.34031 -0.173356
  757 7.60023 -0.657599 -0.169982
  758 7.61684 -0.480251 0.304666
  759 7.74667 -0.0883269 0.0524842
  760 7.75231 -0.0855050 -0.0523040
  761 10.4258 2.32091 0.116652
  762 8.56918 -0.724262 -0.147311
  763 7.91313 -0.235753 0.454680
  764 8.30624 -0.0571742 -0.123400
  765 8.31719 0.0586326 -0.956837
  766 9.55497 0.489438 -0.640012
  767 4.40802 -0.00647450 -0.0644754
  768 4.41074 -0.00639918 0.0636657
  769 0.0564767 -0.168762 -0.122318
  770 8.07191 -0.00672516 0.177634
  771 7.30472 -0.0153451 -0.651795
  772 7.58350 -0.0705226 0.582736
  773 7.07969 0.814388 3.26965
  774 8.64392 1.80324 -0.0212405
  775 6.09453 -0.449523 0.358241
  776 0.939470 0.0263537 -0.390564
  777 0.973528 0.0198518 0.394990
  778 7.50609 -0.0539707 -0.653800
  779 6.11357 -0.454375 -0.357835
  780 8.25533 -0.0632791 0.105168
  781 4.01637 -0.179772 0.696427
  782 3.97930 -0.179263 -0.697547
  783 7.85398 -0.195384 -0.247744
  784 4.82312 -0.132212 -0.318211
  785 4.82536 -0.131227 0.314788
  786 8.19634 -0.0695152 -0.270918
  787 6.11987 -0.170634 -0.0863622
  788 6.11969 -0.169335 0.0863400
  789 8.96610 -0.0567893 -0.711999
  790 7.99552 -0.0812650 -0.939611
  791 3.85386 -0.0277175 -0.181729
  792 3.86226 -0.0274646 0.179296
  793 0.116691 0.100677 -0.224258
  794 0.155196 0.105940 0.236812
  795 6.30057 0.0280327 -0.227136
  796 7.32038 -0.823176 -0.353439
  797 -0.0882059 -0.0624325 0.148352
  798 -0.0759535 -0.0710088 -0.145477
  799 7.63159 -0.143836 0.108896
  800 8.30089 -0.642345 -0.373718
  801 8.49626 1.26863 -0.711052
  802 8.29600 -0.0561149 -0.0995741
  803 18.4271 3.61694 -3.45956
  804 7.63017 -0.143185 -0.107604
  805 11.5789 2.24025 0.147345
  806 8.13082 0.238652 -0.976184
  807 9.04045 0.680721 -0.893477
  808 1.34401 -0.0161882 -0.365391
  809 1.37466 -0.0184976 0.364578
  810 4.89262 -0.0779917 0.185148
  811 4.89120 -0.0787070 -0.187212
  812 4.61434 -0.0137165 0.0339460
  813 4.61345 -0.0138518 -0.0343039
  814 9.10612 1.54237 -0.688043
  815 5.19480 -0.0379113 -0.0483879
  816 5.19527 -0.0374514 0.0480102
  817 7.70178 -0.0771396 -0.842353
  818 11.4628 1.05508 0.790929
  819 6.82961 0.145753 -0.500311
  820 2.22409 -0.0214223 0.396639
  821 2.20141 -0.0216044 -0.400220
  822 9.20875 0.194922 2.31003
  823 8.02076 -0.137522 0.232517
  824 7.00619 0.458962 -0.208787
  825 3.08831 -0.00672002 0.273474
  826 3.06977 -0.00518690 -0.275840
  827 4.74106 -0.0287489 -0.0894149
  828 4.74241 -0.0283337 0.0883547
  829 0.829389 0.749384 0.605434
  830 7.35192 0.171621 0.750634
  831 8.22992 1.21848 -0.602490
  832 8.92121 1.03758 -0.875392
  833 5.72864 -0.228098 -0.227321
  834 5.72451 -0.226100 0.226681
  835 9.20961 1.98888 0.319869
  836 8.02707 -0.0542677 -0.0147751
  837 8.02708 -0.0538205 0.0162414
  838 7.88303 -0.230577 -0.570565
  839 6.53960 -0.445384 0.184171
  840 7.27158 -0.818244 0.357524
  841 8.64202 -0.707976 0.569644
  842 6.46638 -0.191762 -0.0375089
  843 6.46600 -0.190820 0.0370211
  844 7.38415 0.682279 0.339758
  845 6.90157 0.0889090 -0.541977
  846 1.92179 2.10020 2.13671
  847 7.10558 -0.635607 -0.0987975
  848 7.12388 -0.318922 0.0648969
  849 7.12784 -0.319229 -0.0651742
  850 7.83943 -0.112995 0.890864
  851 7.80889 -0.509788 -0.455541
  852 6.92807 -0.465141 -0.0357303
  853 16.5547 0.537572 -0.844097
  854 6.57377 -0.631511 0.399246
  855 6.56935 -0.640163 -0.406785
  856 7.84158 -0.0908239 0.457851
  857 12.0057 3.06337 -0.537849
  858 6.14258 -0.570236 -0.521567
  859 6.83941 -0.775545 0.475225
  860 6.13967 -0.562970 0.516213
  861 6.67738 -0.273370 -0.0368247
  862 6.67679 -0.272174 0.0362806
  863 0.919888 0.415210 0.530273
  864 8.43683 0.633211 -0.946774
  865 6.38390 -0.256133 -0.0851131
  866 6.38479 -0.253284 0.0855071
  867 6.29022 -0.106550 -0.00977607
  868 6.28987 -0.105670 0.00966924
  869 6.98561 -0.134769 0.0150753
  870 6.98467 -0.133685 -0.0150843
  871 5.55972 -0.117533 -0.121264
  872 5.55973 -0.116100 0.120551
  873 6.41454 -0.347252 -0.138988
  874 6.41503 -0.344483 0.139537
  875 0.139832 -0.116466 -0.0320930
  876 9.83139 1.84611 0.561875
  877 8.44916 -0.291186 -0.790660
  878 6.83533 -0.764536 -0.481448
  879 7.40427 -0.233656 0.113880
  880 7.40076 -0.230897 -0.111480
  881 8.06449 0.0132603 0.958855
  882 8.88552 -0.634188 -0.257487
  883 7.90521 0.508119 -2.82080
  884 3.42800 -0.0458364 1.36618
  885 -0.184721 0.0802655 -0.0741790
  886 -0.165641 0.0902566 0.0848021
  887 0.911414 0.441757 -0.540420
  888 7.91755 -0.219826 0.365749
  889 8.38603 -0.0460983 -0.156585
  890 7.51594 -0.717341 1.15973
  891 3.41945 -0.0413998 -1.37237
  892 8.37827 -0.679196 0.294427
  893 9.43167 -0.303779 0.963510
  894 6.55919 0.0249296 0.241445
  895 7.63464 0.726681 0.582483
  896 4.04193 -0.231955 1.01374
  897 4.02543 -0.233883 -1.02150
  898 4.86072 -0.243483 -0.564655
  899 5.21296 -0.244486 -1.75434
  900 8.34814 -0.189973 0.870249
  901 11.6173 2.67450 0.244932
  902 8.35968 0.325457 0.965457
  903 7.90517 -0.163390 -0.517378
  904 5.32837 -0.219135 1.79884
  905 10.1505 1.86022 -0.458549
  906 0.936424 0.814339 -0.754735
  907 7.20306 -0.0161634 -0.263107
  908 4.86575 -0.241312 0.558761
  909 5.99929 -0.138476 0.0777148
  910 5.99947 -0.139594 -0.0780027
  911 7.82108 -0.507146 0.468244
  912 8.18726 -0.0396809 0.0430696
  913 5.97018 0.0615502 -2.19431
  914 8.66262 -0.0147663 0.0746483
  915 8.58097 -0.0116104 -0.0929868
  916 6.13956 0.0498058 -0.207778
  917 8.23860 -0.0316611 -0.158644
  918 6.03181 -0.293610 -0.201185
  919 6.03581 -0.288871 0.201648
  920 -0.218818 0.0690565 -0.128664
  921 -0.292519 0.0415763 0.132416
  922 8.18777 -0.0361029 -0.0429859
  923 2.54325 -0.0547763 0.919298
  924 2.52560 -0.0486412 -0.925236
  925 8.64797 1.27157 0.755495
  926 16.1479 0.289590 0.265223
  927 8.11177 0.907621 0.774996
  928 9.36560 -0.341500 0.178287
  929 8.04210 -0.442807 0.694817
  930 10.0389 2.11628 -0.347481
  931 5.98959 0.0205762 0.156273
  932 7.74960 -0.172807 -0.163964
  933 7.99155 0.430666 -0.936354
  934 9.82926 0.267697 -0.307133
  935 7.52953 -0.463810 -0.251628
  936 3.63140 -0.0230779 -0.204597
  937 3.63607 -0.0222765 0.201384
  938 7.96654 -0.179691 -0.416663
  939 0.233152 0.306988 0.0262352
  940 7.64281 -0.791582 0.00736735
  941 6.43369 0.181485 -0.0215695
  942 9.95135 2.21382 -0.231569
  943 1.49854 1.12205 -1.29448
  944 7.58455 -0.0560584 -0.522349
  945 5.11592 -0.0940277 -0.170752
  946 5.11647 -0.0928384 0.168927
  947 0.0355233 -0.228912 0.178178
  948 5.07058 -0.388740 -0.811515
  949 7.77897 -0.445713 -0.439678
  950 4.58782 0.00970199 -0.0136185
  951 4.58832 0.00976567 0.0134899
  952 7.77385 0.946400 -0.469359
  953 8.53704 -0.0152030 -0.0152347
  954 8.53648 -0.0156490 0.0195094
  955 5.07214 -0.387432 0.805103
  956 7.84220 -0.00814134 -0.209171
  957 9.12128 0.0655402 0.695040
  958 8.07846 -0.103648 0.182721
  959 1.18522 0.324648 -0.688040
  960 8.40642 -0.0423492 0.142876
  961 7.48146 0.0574394 0.808078
  962 7.89414 1.10027 0.417790
  963 7.94088 0.0930248 -0.961263
  964 5.36136 -0.300706 -0.476730
  965 8.64983 -0.300460 0.682416
  966 5.36452 -0.299287 0.471073
  967 0.218582 0.249927 0.0157937
  968 0.844063 0.162792 0.502433
  969 4.28860 -0.0829614 0.334812
  970 4.28297 -0.0831513 -0.337190
  971 7.75476 -0.176659 0.171334
  972 8.25409 1.45053 0.234756
  973 4.17176 0.396492 -2.06408
  974 6.91310 -0.437229 0.0258808
  975 6.48500 -0.684925 -0.627384
  976 9.53348 1.83988 0.558325
  977 7.30974 -0.122000 0.0269779
  978 7.30961 -0.121163 -0.0269847
  979 8.05501 -0.140153 -0.305912
  980 7.30929 0.627504 -0.313809
  981 17.5787 5.05060 3.41166
  982 1.41641 0.0906704 -0.679353
  983 1.44294 0.0756520 0.681303
  984 0.105041 -0.200444 0.00412142
  985 7.34154 0.402580 0.644018
  986 6.48144 -0.688797 0.622027
  987 8.09597 -0.377926 -0.779185
  988 8.81804 0.724396 0.950470
  989 8.55393 -0.689973 -0.726498
  990 12.5476 2.65340 0.812896
  991 7.16363 -0.109570 0.00225106
  992 7.16270 -0.108459 -0.00222451
  993 8.44364 -0.338233 0.754580
  994 0.558519 0.794526 0.915315
  995 3.59321 -0.0814488 0.482892
  996 3.58054 -0.0804275 -0.488976
  997 4.36065 -0.224497 0.655671
  998 4.34465 -0.221329 -0.658814
  999 4.93747 -0.215166 0.464742
  1000 5.39517 -0.0487531 -0.0227447
  1001 5.39553 -0.0483517 0.0226220
  1002 14.4157 4.36634 -2.70318
  1003 12.7948 3.19852 1.21773
  1004 4.93359 -0.216459 -0.469441
  1005 8.70237 -0.0355328 0.828122
  1006 7.67303 0.797310 -0.562657
  1007 5.41829 -0.460529 1.45083
  1008 7.03364 -0.829894 -0.741823
  1009 8.05246 -0.0617653 -0.311912
  1010 3.53699 0.260170 1.66888
  1011 4.54646 -0.349444 1.16006
  1012 6.98001 0.351493 -0.401039
  1013 8.12901 -0.157024 -0.920336
  1014 10.8862 3.97283 4.51492
  1015 6.54719 0.193504 0.283346
  1016 9.10642 1.99340 -0.0380611
  1017 6.77071 0.253544 -2.50126
  1018 6.79719 -0.722696 -0.403943
  1019 8.81262 -0.00353132 -0.0386905
  1020 8.29204 0.765195 -0.903974
  1021 4.66041 -0.0351245 0.116906
  1022 4.65849 -0.0354927 -0.118285
  1023 0.162152 -0.00469008 -0.199756
  1024 5.35817 -0.257436 -0.395414
  1025 4.54149 -0.354082 -1.17002
  1026 5.35301 -0.256638 0.390176
  1027 7.93593 -0.237774 0.850766
  1028 7.10210 -0.442433 0.0428974
  1029 7.40893 0.133356 -0.780733
  1030 7.61749 0.954425 0.163902
  1031 10.6566 0.580611 0.214908
  1032 7.88646 -0.595773 0.455725
  1033 4.85964 -0.398479 -0.888461
  1034 7.33462 0.255412 -0.727632
  1035 5.47071 -0.453781 -1.46002
  1036 10.6585 2.35057 -0.0145717
  1037 7.09815 0.460950 0.364734
  1038 9.20323 -0.0581276 -0.563152
  1039 6.84021 -0.722518 0.364681
  1040 7.86708 -0.244661 0.665552
  1041 7.82938 -0.409167 0.503641
  1042 7.78684 -0.387251 0.442445
  1043 9.67340 1.21929 -0.745734
  1044 7.73973 -0.122226 0.662184
  1045 7.01935 -0.832262 0.728817
  1046 7.49517 -0.302199 0.174211
  1047 4.86233 -0.399028 0.882422
  1048 7.00762 -0.522938 -0.0368042
  1049 3.97711 -0.189923 -1.24187
  1050 5.76900 -0.603955 0.973550
  1051 7.90304 -0.0498078 -0.358157
  1052 7.66533 -0.0853047 -0.746364
  1053 6.62393 -0.533769 -0.231373
  1054 3.98411 -0.196084 1.23078
  1055 7.07546 0.0142683 -0.509167
  1056 5.22492 -0.360002 -0.622791
  1057 9.69760 2.09052 0.363649
  1058 2.05387 0.362462 -1.15208
  1059 17.3026 1.22664 1.70522
  1060 3.80055 0.302513 -1.75255
  1061 7.78989 -0.643191 -0.311933
  1062 5.22572 -0.356637 0.616794
  1063 6.98920 0.0688622 0.566182
  1064 3.79366 -0.0828256 0.399155
  1065 3.79122 -0.0849310 -0.403754
  1066 7.85777 -0.215608 -0.786755
  1067 8.47831 -0.0325794 0.0633710
  1068 8.24493 -0.0150091 0.161155
  1069 8.09932 0.272058 0.971818
  1070 7.53851 -0.0567049 0.697670
  1071 5.91145 0.617861 2.71103
  1072 8.87765 -0.00270813 0.0200791
  1073 8.12165 1.10854 0.617501
  1074 6.77579 0.0925769 0.485478
  1075 8.37117 -0.0279969 0.156266
  1076 5.16050 -0.0627274 -0.0934183
  1077 5.16097 -0.0619783 0.0926047
  1078 3.22599 -0.0964153 -0.664464
  1079 3.24055 -0.0998540 0.659003
  1080 6.79693 0.331840 0.202875
  1081 10.7152 0.510658 -0.620549
  1082 9.83936 -0.0556073 -1.35127
  1083 7.62315 -0.00553809 -0.214916
  1084 5.77268 -0.608665 -0.981631
  1085 6.63756 -0.507487 0.201149
  1086 7.67295 -0.0165223 0.224586
  1087 8.10791 -0.583143 -0.528860
  1088 4.82433 -0.0147588 0.0573025
  1089 4.82361 -0.0149966 -0.0577658
  1090 7.77454 -0.661659 0.311920
  1091 7.37378 -0.143403 0.0459098
  1092 7.37262 -0.143467 -0.0453006
  1093 7.16477 -0.726166 0.199286
  1094 9.37889 -0.309805 0.0304067
  1095 3.95595 -0.00822575 -0.112790
  1096 3.96311 -0.00793820 0.111367
  1097 6.29947 -0.388547 -1.67260
  1098 6.63729 -0.159077 0.0140819
  1099 6.63817 -0.160179 -0.0143972
  1100 4.05422 2.11151 2.97369
  1101 9.35431 0.760692 -0.818337
  1102 1.28501 0.651395 -0.842468
  1103 8.08535 -0.109957 -0.176951
  1104 2.05181 0.732131 -1.31858
  1105 4.32116 -0.281224 -0.847294
  1106 8.88976 -0.00426981 0.0111537
  1107 8.89471 -0.00366900 -0.00848180
  1108 7.90766 -0.447028 -0.601549
  1109 7.00696 -0.781591 -1.04508
  1110 2.05416 0.308493 1.09790
  1111 8.58834 0.855010 0.891569
  1112 7.84477 -0.0667517 -0.0177231
  1113 7.84527 -0.0668813 0.0185707
  1114 8.64633 -0.567763 1.25813
  1115 8.76524 1.77951 0.349011
  1116 5.05118 -0.131786 -0.247538
  1117 5.05204 -0.131047 0.245301
  1118 3.90049 0.460894 2.08078
  1119 7.39247 0.0350527 -0.757435
  1120 2.25220 0.748617 1.42406
  1121 9.76252 -0.187775 -0.320577
  1122 9.41423 2.11898 0.112769
  1123 6.41911 -0.519455 0.296888
  1124 5.73736 0.0254742 -0.0304030
  1125 8.29274 -0.0655100 0.206056
  1126 8.62397 -0.00640617 0.0811532
  1127 1.67516 0.00456685 -0.331455
  1128 1.70349 0.00358407 0.328885
  1129 6.53726 0.102038 -0.358166
  1130 6.86819 -0.202119 0.00600790
  1131 6.86630 -0.200899 -0.00609639
  1132 0.696665 0.913463 -0.968771
  1133 1.13340 2.18402 -2.03297
  1134 6.96444 -0.273064 -0.0229027
  1135 6.96765 -0.273343 0.0226345
  1136 7.21832 -0.169103 0.0521596
  1137 7.21728 -0.168564 -0.0513919
  1138 1.82301 1.17609 1.41993
  1139 5.55123 -0.0751216 -0.0425520
  1140 5.55149 -0.0745020 0.0422562
  1141 7.05448 0.527718 -0.00898456
  1142 9.42279 1.04659 -3.14285
  1143 8.73690 1.52029 -0.597052
  1144 7.99474 -0.302939 -0.811999
  1145 7.88066 -0.388293 -0.604018
  1146 6.42484 -0.524643 -0.302491
  1147 6.33052 0.0177733 0.221120
  1148 7.23588 0.446318 -0.537602
  1149 7.12388 0.377814 0.511820
  1150 7.48999 -0.292912 -0.171496
  1151 7.12152 -0.433114 -0.0478020
  1152 6.42751 -0.426582 -0.215336
  1153 7.69791 -0.0435977 0.419227
  1154 14.0480 1.42759 0.201187
  1155 7.76062 -0.163031 0.764431
  1156 7.75394 0.509897 0.817603
  1157 7.19974 -0.713409 -0.129578
  1158 0.791788 0.150277 -0.483397
  1159 7.33539 -0.337521 -0.138682
  1160 4.62340 -0.0100892 -0.00219325
  1161 4.62377 -0.0100541 0.00214856
  1162 9.03716 -0.237923 0.495794
  1163 8.61669 -0.722318 0.197902
  1164 12.4476 2.25641 0.512661
  1165 2.70894 -0.00769235 -0.279616
  1166 2.72844 -0.00706257 0.277139
  1167 6.47968 -0.132726 -0.0163997
  1168 6.47912 -0.131715 0.0161697
  1169 7.36299 -0.652524 0.0565070
  1170 5.79460 0.0225992 0.0991399
  1171 7.54758 -0.536928 0.247878
  1172 0.386640 0.460430 -0.182968
  1173 1.27443 0.659068 0.825400
  1174 4.98420 -0.260607 1.61906
  1175 8.69065 1.67653 -0.425270
  1176 8.40567 -0.0206013 -0.123083
  1177 8.93153 -0.0113327 0.00872987
  1178 8.94249 -0.0166817 -0.00618708
  1179 4.84796 -0.0157802 -0.00854591
  1180 4.84845 -0.0156664 0.00844800
  1181 8.00549 0.514534 0.934911
  1182 12.0716 2.09879 -0.0440518
  1183 8.22969 1.37431 -0.421636
  1184 6.18591 -0.445650 1.66148
  1185 4.95751 -0.249055 -1.61637
  1186 5.46438 -0.380166 -0.553354
  1187 7.75598 -0.208271 0.212996
  1188 10.9091 2.38356 -0.0565026
  1189 5.46405 -0.377578 0.548138
  1190 7.94735 -0.127686 0.161647
  1191 6.91630 0.250224 0.487041
  1192 7.71891 0.238228 0.892941
  1193 11.1863 2.51298 0.159286
  1194 6.49417 -0.172604 0.0321241
  1195 6.49480 -0.173658 -0.0325511
  1196 8.04188 -0.141523 0.317020
  1197 4.52979 -0.0545522 0.185296
  1198 4.52661 -0.0551438 -0.187382
  1199 7.87590 -0.0953711 -0.0790617
  1200 3.18224 1.87270 -2.85573
  1201 6.81146 -0.378722 -1.77725
  1202 6.30051 -0.204170 -0.0739219
  1203 6.30084 -0.203021 0.0739069
  1204 8.52158 -0.0304007 0.0553874
  1205 8.00302 -0.0928356 0.130157
  1206 0.399807 0.472042 0.328476
  1207 8.79214 -0.00619025 0.0446446
  1208 0.976985 1.19159 1.18116
  1209 7.79981 -0.105059 -0.100083
  1210 -0.0148271 -0.197809 -0.172063
  1211 5.42109 -0.527879 -1.24821
  1212 5.40376 -0.514671 1.23462
  1213 8.79250 -0.0121854 -0.0486675
  1214 7.38490 -0.388603 -0.160015
  1215 8.51277 -0.0267120 -0.0583453
  1216 6.65358 -0.218305 -0.0196692
  1217 6.65252 -0.217230 0.0190398
  1218 7.87030 -0.0944822 0.0749388
  1219 7.32983 -0.331131 0.137218
  1220 7.02980 -0.224567 -0.0374992
  1221 7.03268 -0.225467 0.0385366
  1222 8.50814 -0.0275841 -0.0481487
  1223 7.27378 -0.759388 -1.18514
  1224 8.30198 -0.0388854 -0.0508554
  1225 7.83608 -0.108497 0.105706
  1226 5.25211 -0.0652281 -0.0671436
  1227 5.25253 -0.0645463 0.0665803
  1228 5.94839 -0.0924440 -0.0298183
  1229 5.94835 -0.0916822 0.0295782
  1230 9.92432 1.53775 0.650060
  1231 8.32180 -0.632608 0.425408
  1232 5.65631 -0.0186948 2.06514
  1233 4.29975 -0.00985099 0.0708945
  1234 4.29609 -0.00994479 -0.0717784
  1235 7.82279 -0.140903 0.580756
  1236 7.51427 -0.103727 0.0288706
  1237 7.51492 -0.103264 -0.0288513
  1238 8.53905 1.68499 0.196485
  1239 7.93248 -0.826110 0.909303
  1240 4.34170 -0.0680211 0.263964
  1241 4.33713 -0.0686047 -0.266359
  1242 7.49683 -0.175378 0.0964544
  1243 7.49530 -0.176476 -0.0944355
  1244 7.75224 -0.205251 -0.206324
  1245 6.96697 0.000356727 0.264222
  1246 12.4870 3.09751 -0.930049
  1247 7.88040 -0.282498 -0.532360
  1248 1.24630 0.319799 0.709995
  1249 8.15267 -0.428744 0.736681
  1250 6.33548 0.130396 -0.195458
  1251 0.436028 0.352894 0.227816
  1252 10.9292 1.14902 0.0897626
  1253 7.94608 -0.357069 -0.732053
  1254 6.36948 0.0838311 0.298841
  1255 4.35362 -0.281489 0.844750
  1256 8.09910 -0.621811 0.482188
  1257 11.9906 2.15099 0.486149
  1258 2.60629 0.405233 1.40804
  1259 8.15797 -0.0873945 -0.271824
  1260 16.2965 0.177459 -0.169623
  1261 16.8913 0.258188 0.764023
  1262 18.1163 0.638184 -1.79924
  1263 7.85737 -0.240232 -0.646752
  1264 7.87087 -0.353993 0.567626
  1265 8.00975 -0.565153 0.551748
  1266 -0.238310 0.0227137 0.154780
  1267 -0.218347 0.0167296 -0.166697
  1268 7.81666 -0.858876 -0.371749
  1269 8.03045 -0.806248 -0.601163
  1270 5.84334 0.0335962 -0.122911
  1271 7.78935 -0.875724 0.606390
  1272 8.30123 -0.388384 -0.750809
  1273 0.123429 0.229515 -0.00917900
  1274 6.65748 -0.120581 0.0177227
  1275 6.65813 -0.121630 -0.0177704
  1276 8.29298 -0.0568498 0.188960
  1277 7.94812 -0.125077 -0.153015
  1278 7.44840 -0.814154 -0.160732
  1279 6.74139 -0.371581 0.0611877
  1280 6.70493 -0.366745 -0.0728813
  1281 7.99508 -0.161598 0.421539
  1282 8.18713 -0.295853 -0.841739
  1283 0.453583 0.368094 -0.215407
</Section>

newXOutput 3

<Section columns = "stress_xx | stress_yy | stress_xy">
  1 17.9722 0.00455712 0.0394158
  2 17.9749 0.00466745 -0.0395884
  3 9.06576 -0.00613242 -0.0143105
  4 -0.118238 -0.117893 -0.169776
  5 33.9060 12.3324 10.3501
  6 33.5684 12.8311 -10.4706
  7 -0.137033 -0.112938 0.179427
  8 9.06514 -0.00617421 0.0142573
  9 18.1164 -0.0262037 0.0133720
  10 18.0687 -0.0431281 -0.00580636
  11 18.0107 -0.0251734 0.0487023
  12 17.9544 -0.0379756 0.0193749
  13 17.8346 -0.0306995 0.0770371
  14 17.7279 -0.0318599 0.0597536
  15 17.4893 -0.0285714 0.108801
  16 17.1627 -0.0148791 0.158802
  17 16.8685 -0.0186580 0.173731
  18 16.4442 -0.0310958 0.206651
  19 15.8708 0.00193920 0.300965
  20 15.3404 -0.0230238 0.282310
  21 14.7552 -0.0329065 0.392741
  22 13.9074 0.0238718 0.337868
  23 13.3076 0.0321739 0.396227
  24 12.5266 0.0565878 0.307093
  25 11.9926 0.0537190 0.308206
  26 11.2174 0.0805623 0.156169
  27 11.0573 0.127772 0.166540
  28 10.9621 0.101661 -0.0488451
  29 11.0958 0.0535785 -0.108970
  30 11.3401 0.0558449 -0.133070
  31 11.9198 0.0733700 -0.267052
  32 12.4825 0.0577804 -0.340730
  33 13.3205 0.00869609 -0.406095
  34 13.9931 -0.0102531 -0.374387
  35 14.7202 -0.0266551 -0.371998
  36 15.3838 -0.0177280 -0.265135
  37 15.9639 -0.0171959 -0.229721
  38 16.4497 -0.0299314 -0.195598
  39 16.8912 -0.0196711 -0.140231
  40 17.1749 -0.0215530 -0.150560
  41 17.4485 -0.0295767 -0.110909
  42 17.7144 -0.0362382 -0.0530209
  43 17.8529 -0.0281475 -0.0593354
  44 17.9333 -0.0141513 -0.0388841
  45 17.8951 -0.00288872 -0.0352392
  46 18.0917 -0.0445074 0.00269441
  47 18.1245 -0.0277196 -0.0138251
  48 17.4503 0.00139096 -0.0242145
  49 17.0070 -0.0526841 -0.0408667
  50 16.4738 -0.0822452 -0.0306655
  51 15.8289 -0.132163 -0.0409647
  52 15.2244 -0.148115 -0.0526584
  53 14.5840 -0.196129 -0.0493087
  54 14.0215 -0.224427 -0.0300878
  55 13.5287 -0.259632 -0.0147021
  56 12.9619 -0.217644 -0.0151358
  57 12.3091 -0.207747 -0.0195446
  58 11.6787 -0.167937 -0.00953477
  59 11.0800 -0.111092 -0.00540515
  60 10.5089 -0.0820281 -0.00214802
  61 10.0047 -0.0457847 0.00283996
  62 9.48460 -0.0151045 -0.0167541
  63 9.07449 0.0121105 0.0166604
  64 8.89498 0.0395353 0.00966382
  65 9.03144 -0.00125701 0.0255911
  66 8.90601 -0.00751263 0.0301336
  67 8.79602 -0.0102078 0.0378429
  68 8.64307 -0.00317369 0.0509723
  69 8.44939 -0.00193243 0.0653848
  70 8.31694 -0.0151900 0.130999
  71 7.89488 0.0118754 0.144044
  72 7.60466 -0.00211553 0.167705
  73 7.17203 -0.00941428 0.189511
  74 6.67010 -0.0150045 0.231651
  75 6.04397 -0.00432612 0.281266
  76 5.27983 0.00288434 0.308194
  77 4.63598 -0.00921464 0.439398
  78 3.33473 0.0429748 0.410386
  79 2.46729 0.0373477 0.434268
  80 1.44513 -0.00454266 0.475831
  81 0.613194 0.0858287 0.486644
  82 -0.325676 0.123941 0.276148
  83 -0.987278 0.124807 0.0787234
  84 -0.910113 0.115730 -0.0750090
  85 -0.818892 0.0940906 -0.254898
  86 -0.476171 -0.0375603 -0.234606
  87 -0.0633637 -0.457247 -0.256828
  88 0.0367160 -0.853574 -0.330327
  89 0.114491 -1.39537 -0.208773
  90 0.261539 -1.51547 -0.0445865
  91 0.563446 -0.671006 0.667874
  92 1.73732 2.11337 2.48158
  93 10.9211 9.04203 9.13400
  94 40.7820 5.97472 6.96462
  95 36.4662 0.866084 2.31445
  96 33.6377 0.349595 0.708358
  97 32.5878 0.291721 0.0583736
  98 33.1245 0.395138 -0.607159
  99 36.3444 0.795653 -1.82842
  100 43.5943 2.89224 -6.10767
  101 6.39395 9.08795 -7.55345
  102 1.30566 1.20121 -2.01164
  103 0.611699 -0.608938 -0.673841
  104 0.242674 -1.53884 -0.0631232
  105 0.0593394 -1.08078 0.244187
  106 0.0819355 -1.07138 0.289847
  107 0.000805586 -0.399126 0.283869
  108 -0.496063 -0.0276240 0.224313
  109 -0.845515 0.0705486 0.224340
  110 -0.956953 0.141356 0.0807382
  111 -1.02110 0.123671 -0.0701650
  112 -0.394742 0.127074 -0.256644
  113 0.550533 0.0866512 -0.462791
  114 1.38085 0.00425114 -0.467912
  115 2.40159 0.0404393 -0.435534
  116 3.27503 0.0442142 -0.414028
  117 4.58962 -0.00938995 -0.443724
  118 5.23999 0.00331181 -0.311677
  119 6.00937 -0.00414084 -0.285285
  120 6.65211 -0.0164425 -0.233844
  121 7.14877 -0.00908159 -0.190273
  122 7.58737 -0.00154984 -0.169777
  123 7.88103 0.0116957 -0.145990
  124 8.30747 -0.0153205 -0.132658
  125 8.44220 -0.00201855 -0.0664202
  126 8.63810 -0.00325287 -0.0518312
  127 8.79272 -0.0103365 -0.0385306
  128 8.90395 -0.00762245 -0.0306191
  129 9.03008 -0.00135705 -0.0259064
  130 8.89415 0.0394603 -0.00981539
  131 9.07376 0.0120783 -0.0167520
  132 9.48371 -0.0152207 0.0166916
  133 10.0037 -0.0460745 -0.00296199
  134 10.5080 -0.0826839 0.00200237
  135 11.0794 -0.112009 0.00526180
  136 11.6786 -0.169257 0.00939678
  137 12.3096 -0.209398 0.0194382
  138 12.9629 -0.219534 0.0150426
  139 13.5301 -0.261700 0.0146706
  140 14.0232 -0.226473 0.0301591
  141 14.5862 -0.197992 0.0495076
  142 15.2259 -0.149432 0.0533899
  143 15.8295 -0.133334 0.0444044
  144 16.4760 -0.0764711 0.0313800
  145 17.0191 -0.0507872 0.0400031
  146 17.4517 -0.00126981 0.0238877
  147 15.3660 -1.44143 -0.286500
  148 15.3549 -1.42237 0.292172
  149 15.9679 2.30928 -0.881380
  150 17.1792 1.02098 1.91560
  151 12.9901 -1.23537 -2.73744
  152 13.0906 -1.23546 2.64300
  153 12.4442 -0.546307 0.274030
  154 12.4462 -0.554533 -0.274616
  155 18.3303 0.650233 -1.56154
  156 15.3244 -0.538529 0.462898
  157 15.3184 -0.524573 -0.456855
  158 19.8066 4.49252 0.293732
  159 15.5926 -0.0239696 -1.82662
  160 11.3962 -0.923717 -1.20641
  161 11.3945 -0.915340 1.19387
  162 15.6473 -0.348105 1.67018
  163 14.7075 1.06620 1.06528
  164 5.96517 1.00388 -3.26159
  165 6.65157 0.947801 3.44282
  166 19.4848 0.186474 0.452198
  167 15.7373 -0.593665 -1.20289
  168 20.9722 4.62020 -0.326343
  169 14.1062 -0.392915 0.0648900
  170 14.1029 -0.391205 -0.0633455
  171 16.0270 -0.170206 -0.207103
  172 16.0855 -0.149912 0.180467
  173 10.7960 -0.170801 -0.178541
  174 10.7965 -0.168873 0.177215
  175 17.3897 -0.510177 3.46983
  176 14.1958 0.577664 -1.14480
  177 9.19167 -0.702350 -1.99010
  178 9.21975 -0.696982 1.97476
  179 10.2775 -0.360576 -0.633108
  180 10.2774 -0.356109 0.627189
  181 15.8239 -0.403877 1.02138
  182 14.3231 -0.990976 0.0984687
  183 14.2679 -0.983524 -0.0724566
  184 16.4480 -1.57961 -0.0642506
  185 16.5275 -1.50453 -0.144441
  186 22.8455 5.36072 -0.536813
  187 16.2964 2.64232 0.827871
  188 16.4011 1.01197 -1.88965
  189 17.3577 -0.213179 -4.07447
  190 16.3645 -0.914282 -1.40200
  191 16.4998 -0.648202 1.61815
  192 13.6839 -1.55904 1.27129
  193 13.6917 -1.54881 -1.26632
  194 14.4818 0.177641 1.38488
  195 6.45499 -0.143712 -2.41997
  196 6.47281 -0.159246 2.40305
  197 25.9713 3.93265 0.544472
  198 15.4714 -0.915190 0.811963
  199 16.0927 -0.279601 -0.681508
  200 12.5150 -0.316092 -0.113162
  201 12.5146 -0.314083 0.112549
  202 15.3068 -0.195986 -1.27919
  203 17.5052 2.58522 -1.55125
  204 14.4285 1.28962 -0.214606
  205 9.19321 -0.347915 0.910462
  206 9.17829 -0.349333 -0.918721
  207 16.3942 -0.161657 0.390074
  208 15.7732 0.298397 1.87303
  209 12.7381 -0.951757 -0.521756
  210 12.6406 -0.901716 0.541152
  211 18.7518 2.78390 1.49640
  212 22.3992 2.89500 0.120119
  213 1.36183 1.11248 -0.817163
  214 1.25509 1.02849 0.688415
  215 9.01577 2.53731 5.88076
  216 15.3106 -1.01351 -0.660644
  217 16.4654 -0.155545 -0.353259
  218 14.2978 0.117493 -1.27399
  219 9.77626 -0.110908 -0.278086
  220 9.77864 -0.109595 0.274974
  221 13.6763 -0.650174 -0.0355133
  222 13.6823 -0.653549 0.0273545
  223 15.4608 -0.204457 1.09593
  224 18.0934 -1.05351 0.155203
  225 17.6778 3.66671 -0.460285
  226 13.8677 -1.35374 -0.529557
  227 17.7347 -0.302226 1.33847
  228 15.0216 -0.233877 0.0947478
  229 15.0224 -0.231566 -0.0945808
  230 13.7553 -1.34699 0.558645
  231 15.8573 -0.996860 1.16039
  232 22.7968 2.72270 -1.03675
  233 4.79412 2.86491 -4.15712
  234 13.0628 0.442790 0.268862
  235 15.7892 1.39727 1.57032
  236 16.9946 -0.111283 -1.74585
  237 15.8155 -0.561771 -1.58205
  238 8.07665 -0.276798 -1.15351
  239 8.10729 -0.272346 1.14846
  240 15.8564 -0.181535 -0.863311
  241 15.1286 -0.367827 0.264422
  242 15.1216 -0.366874 -0.257490
  243 2.94221 0.300362 -1.49712
  244 2.99786 0.263747 1.49295
  245 17.0197 -1.48110 -1.10112
  246 16.8765 -0.0383219 0.0620905
  247 16.8990 -0.0392656 -0.0649521
  248 15.3862 1.27503 -1.43031
  249 13.3589 0.242353 0.823192
  250 29.4164 4.72054 3.13632
  251 29.2164 3.32994 -1.98992
  252 20.6065 4.51650 -0.0940578
  253 12.8364 -0.605284 3.68237
  254 11.7396 -0.377705 -3.86145
  255 13.3706 -0.273397 -0.0233271
  256 13.3689 -0.271231 0.0229502
  257 10.8998 -0.312271 0.369930
  258 10.9009 -0.316906 -0.374174
  259 16.3370 -0.160667 0.552765
  260 15.7975 -1.11747 -0.987812
  261 9.79253 -0.0258085 -0.0622699
  262 9.79369 -0.0254150 0.0617265
  263 15.5959 -0.619064 -0.776039
  264 6.27458 -0.212453 -1.59115
  265 6.30572 -0.213228 1.57785
  266 15.7676 -0.674334 1.29355
  267 11.9357 -1.26763 2.19519
  268 11.9711 -1.29056 -2.18880
  269 13.2794 0.492536 -0.383081
  270 11.4540 -0.188570 -0.119171
  271 11.4542 -0.187077 0.118514
  272 14.6056 -0.0407918 1.03088
  273 17.6115 3.26042 1.08351
  274 9.06213 -0.123628 0.484795
  275 9.05509 -0.124769 -0.489858
  276 16.2619 -1.34690 0.767448
  277 15.0541 -1.67915 -1.38064
  278 16.9209 -0.0617718 0.187666
  279 11.3873 -0.702898 -0.811001
  280 11.3640 -0.694480 0.806951
  281 21.2469 1.91559 5.17784
  282 9.54015 -0.764600 2.64869
  283 15.5083 2.18942 -0.0942179
  284 20.0422 2.16341 -1.12876
  285 14.9436 -1.15787 0.352347
  286 15.0580 -1.72638 1.22678
  287 9.57421 -0.750974 -2.68271
  288 1.70255 2.09157 1.83680
  289 15.5983 -0.621888 0.789408
  290 20.6776 2.64445 0.962647
  291 17.0766 -0.0547776 -0.162636
  292 15.1248 0.524163 -1.64568
  293 15.0629 -0.848054 0.488126
  294 14.7343 -1.24856 -0.115411
  295 15.0576 0.687860 1.58134
  296 16.1782 -1.34868 -0.703425
  297 23.0710 4.55104 -0.321925
  298 15.0587 -0.814409 -0.468525
  299 12.6737 3.47373 -7.29235
  300 15.4458 -1.63305 -0.117921
  301 15.3309 -1.67701 0.298609
  302 11.0559 -1.01871 -1.73038
  303 9.70868 -0.0452625 -0.137953
  304 9.71049 -0.0444851 0.136488
  305 11.0586 -1.01902 1.71944
  306 16.2762 -0.0224332 -1.91331
  307 17.7323 -0.729646 -0.968334
  308 13.2774 -0.816563 -0.229670
  309 13.2661 -0.818284 0.234936
  310 16.1797 -1.39151 2.29508
  311 15.9980 -0.119460 0.654664
  312 19.7514 0.0262290 0.590656
  313 12.9697 -0.468662 -0.115905
  314 12.9699 -0.466599 0.114744
  315 11.6991 -0.321168 -0.229123
  316 11.6983 -0.317805 0.228497
  317 13.2035 0.167221 -0.797095
  318 17.3928 1.27748 -1.86860
  319 27.4383 7.32509 -3.31157
  320 15.9343 -0.115703 -0.0728047
  321 15.9231 -0.113918 0.0742333
  322 8.30673 0.0110686 3.30510
  323 11.6609 -0.552723 -0.516316
  324 11.6352 -0.550159 0.517372
  325 8.30617 -0.00680268 -3.29266
  326 16.4798 1.95511 -1.55056
  327 18.6780 0.913908 1.50754
  328 16.1940 -1.15641 -2.56925
  329 14.7077 -0.561376 0.252540
  330 14.6915 -0.556539 -0.245383
  331 15.7863 -0.307586 -0.397913
  332 14.6187 -0.0306761 -0.965176
  333 16.6011 0.0804227 1.88906
  334 16.6875 -0.102218 -0.385702
  335 9.67725 -0.612273 1.32611
  336 9.66692 -0.616134 -1.33824
  337 15.3375 -0.0356705 1.72727
  338 9.09231 -0.0850137 -0.283494
  339 9.09796 -0.0841769 0.280265
  340 15.8925 -0.348205 0.588482
  341 19.0112 3.91850 -0.868659
  342 15.7750 -0.310625 0.411163
  343 16.6764 2.10947 1.56143
  344 15.9978 -0.290746 1.82426
  345 12.4925 -0.240379 0.0358586
  346 12.4931 -0.242178 -0.0362996
  347 15.0395 -0.0559889 -1.52976
  348 20.1552 4.26519 0.649888
  349 16.5666 3.07139 0.0327615
  350 10.1868 1.19801 -4.96757
  351 0.901221 0.454003 -0.604617
  352 1.00487 0.489986 0.657959
  353 -0.0896204 0.0950191 0.341150
  354 -0.0201169 0.0400372 -0.352850
  355 30.3134 2.10060 0.741544
  356 13.7505 -1.13198 -0.263857
  357 15.9090 -0.335239 -0.574937
  358 14.2505 -0.239490 0.0440572
  359 14.2488 -0.237165 -0.0440900
  360 15.1248 1.67242 -0.773003
  361 12.9596 -1.33816 1.04135
  362 1.05592 1.54772 -1.09021
  363 12.9758 -1.33866 -1.06396
  364 15.3384 1.74771 0.822675
  365 15.8263 -0.410155 -0.977160
  366 16.8522 -0.929673 -1.24120
  367 17.7979 3.81434 0.319243
  368 16.9026 -1.04310 1.06507
  369 6.58372 -0.175870 1.06928
  370 6.53911 -0.172566 -1.07773
  371 3.63754 0.102442 -1.45532
  372 3.68373 0.0859185 1.44818
  373 13.4379 0.0317786 0.809177
  374 26.6776 7.61770 2.67337
  375 16.4246 -0.0935388 -0.476437
  376 12.5884 -1.08789 -0.785868
  377 12.5748 -1.08412 0.784529
  378 15.6985 -0.353847 -1.20978
  379 18.0944 -0.872600 0.378051
  380 13.7498 -1.13052 0.275352
  381 20.0266 0.0722798 -1.34685
  382 10.7728 -0.0980825 -0.0401765
  383 10.7736 -0.0971462 0.0396879
  384 15.3792 -0.0859605 -0.759013
  385 7.92877 -0.125624 -0.700637
  386 7.93458 -0.129378 0.690998
  387 18.5388 2.36517 -1.64095
  388 9.92041 0.712800 4.59654
  389 14.4195 -0.759254 0.185749
  390 14.4343 -0.757531 -0.186750
  391 16.9038 2.88686 -1.00011
  392 16.0763 -0.469508 -1.74407
  393 16.2531 -1.65205 1.16259
  394 13.3212 -0.356730 -0.0320814
  395 13.3191 -0.354523 0.0312216
  396 15.5402 -1.19531 0.713473
  397 16.8704 -0.0690140 0.289808
  398 10.1149 -0.392885 -0.801659
  399 10.1183 -0.392528 0.793417
  400 15.6741 0.525483 -1.84312
  401 14.8787 -0.308297 0.146021
  402 14.8784 -0.308808 -0.143616
  403 15.3067 -0.177100 1.41954
  404 14.0993 1.01651 0.364894
  405 15.9571 -0.665023 1.54233
  406 23.3084 4.92897 0.748045
  407 7.44253 -0.404281 -2.12867
  408 7.46477 -0.404621 2.11021
  409 3.27515 1.80615 -2.44181
  410 17.3586 -0.0355375 0.0878387
  411 8.26034 -0.0802435 -0.441653
  412 8.27237 -0.0785367 0.437127
  413 15.7157 -0.401760 1.19023
  414 14.2425 -1.55325 0.615683
  415 16.2300 -0.180723 0.283820
  416 16.3755 0.837147 1.93952
  417 3.45122 1.92307 2.56131
  418 14.2666 -1.54563 -0.554756
  419 14.7563 -1.37672 0.0195574
  420 4.49278 -0.0910087 -1.33033
  421 4.53308 -0.0949250 1.31993
  422 11.2643 -0.883736 -3.19716
  423 17.0054 -0.244261 1.71073
  424 11.2131 -0.899408 3.16620
  425 15.6721 -0.872830 -1.04697
  426 14.3229 0.955098 -0.805776
  427 15.6769 -0.667066 0.985884
  428 17.0563 -0.0610494 -0.203201
  429 0.461766 0.456055 0.138571
  430 3.29798 3.70205 3.65584
  431 14.9358 -0.0560194 0.724881
  432 12.2428 0.154562 0.345701
  433 12.4858 0.191802 -0.471168
  434 10.6568 -0.192825 -0.260518
  435 10.6570 -0.190187 0.258247
  436 15.4557 -1.19507 -0.665330
  437 15.5460 -0.299774 -1.59773
  438 12.3201 0.215397 -0.128108
  439 23.3376 5.53850 0.897156
  440 3.00321 1.05029 -1.81978
  441 3.32980 0.964888 1.95668
  442 14.4065 -0.509610 0.153504
  443 14.4004 -0.507801 -0.149146
  444 19.2468 4.32752 -0.0748949
  445 12.3507 4.68680 7.45027
  446 18.7423 -0.281686 -0.529091
  447 10.3860 -0.565621 -1.08887
  448 10.3900 -0.561266 1.07792
  449 10.3897 -0.250858 0.417252
  450 10.3887 -0.252944 -0.422006
  451 14.2477 0.305465 -1.30757
  452 17.4631 -0.0119581 -0.0601752
  453 13.7936 0.618769 0.728374
  454 17.7887 2.20628 1.72601
  455 14.7751 -1.09967 -0.286558
  456 16.2266 -0.170472 -0.274991
  457 17.1346 -0.0538773 0.187415
  458 17.4163 -0.0119982 0.0345865
  459 17.4344 -0.0151724 -0.0266952
  460 8.98662 -0.0208545 0.102474
  461 8.98274 -0.0211403 -0.103842
  462 16.2237 -1.02110 1.26211
  463 14.3934 0.558275 1.26527
  464 15.1464 0.0592470 -1.67931
  465 15.9856 -0.322208 0.740528
  466 23.7500 3.59621 -4.21068
  467 15.9953 -0.879387 -1.37743
  468 0.0676461 0.288930 0.0686349
  469 0.0699195 0.290203 0.0102234
  470 12.4938 -0.728596 0.416171
  471 12.4484 -0.719762 -0.412539
  472 20.2835 0.251096 2.17252
  473 5.54414 4.80850 -5.54769
  474 15.7323 -0.0425729 0.574298
  475 18.1226 -1.06777 -1.15500
  476 9.25130 -0.552662 1.54363
  477 19.2234 3.41521 -1.24361
  478 15.7616 -0.845074 1.16797
  479 13.0892 -0.639797 -0.167604
  480 13.1010 -0.628569 0.166620
  481 13.4340 0.0667190 -0.715814
  482 9.22108 -0.550932 -1.55525
  483 13.8197 -0.000402578 0.723236
  484 13.4711 -1.53659 -1.92812
  485 13.4352 -1.53894 1.93253
  486 16.3137 -0.0990678 0.524016
  487 14.5554 1.36704 0.151028
  488 15.2049 0.210259 5.03338
  489 22.2214 4.59510 -0.0292450
  490 15.2757 -0.238938 0.150135
  491 15.2773 -0.237920 -0.153688
  492 11.4507 -0.216982 -0.155051
  493 11.4507 -0.214945 0.154176
  494 5.98036 0.304077 2.74795
  495 15.8232 -0.754105 -1.33767
  496 14.2992 -0.301959 0.0564743
  497 14.2978 -0.300561 -0.0559974
  498 12.3881 -1.32387 1.57973
  499 6.10296 0.397735 -2.82091
  500 15.8782 -1.28716 -0.755535
  501 0.238160 -0.0157546 0.187786
  502 13.5582 0.685404 0.0516503
  503 15.3433 -0.156424 -0.0514208
  504 15.3422 -0.159089 0.0506677
  505 12.3994 -1.32226 -1.59327
  506 18.1467 -0.956824 1.54736
  507 17.8199 0.650719 1.78353
  508 16.5293 -0.0906985 -0.142510
  509 15.8292 -1.30605 0.762959
  510 9.43860 -0.0140086 -0.0163510
  511 9.43957 -0.0139066 0.0161399
  512 15.7616 -0.598213 -1.40714
  513 15.1184 1.11790 1.39380
  514 17.5924 0.436906 -1.75835
  515 9.38310 -0.0198589 -0.0570935
  516 9.38453 -0.0196107 0.0565734
  517 31.6135 4.56212 -4.11936
  518 15.7679 1.88773 1.23638
  519 16.5460 -0.0810046 0.127769
  520 14.7914 -1.40644 0.0154281
  521 12.2432 -0.420124 0.219033
  522 12.2439 -0.423745 -0.218621
  523 17.3561 -1.04736 0.696153
  524 16.5807 -0.322221 -1.77972
  525 18.4980 3.68382 1.00313
  526 15.2842 0.260972 1.73853
  527 15.5817 -0.280854 0.268049
  528 15.1684 -1.60719 -1.82312
  529 15.6153 -0.379546 1.36936
  530 31.3357 1.42693 -0.581479
  531 17.2388 -1.29205 -0.251413
  532 16.4260 -0.0859854 -0.0383646
  533 16.4294 -0.0931568 0.0353861
  534 31.6539 2.12869 2.05268
  535 14.8699 -0.00814734 1.47865
  536 21.2871 3.49533 -0.688421
  537 15.8412 -0.416556 -0.729597
  538 6.72191 -0.0696617 -0.480493
  539 6.74612 -0.0663690 0.474980
  540 10.5333 -0.992841 -2.21555
  541 10.5395 -0.975982 2.19742
  542 15.5739 -0.267890 -0.264795
  543 16.8978 0.625139 -1.92375
  544 14.8215 -1.01005 0.342483
  545 15.8434 1.82345 -1.28727
  546 16.1222 -0.174758 0.705958
  547 20.4756 0.950357 0.0736255
  548 13.6636 -0.471226 -0.00124559
  549 13.6585 -0.468994 0.000458516
  550 14.9345 -0.700380 0.381745
  551 22.3516 4.32584 0.0134266
  552 15.6495 0.685929 1.80781
  553 6.60608 1.71456 4.08975
  554 15.3514 -0.925499 3.30159
  555 20.5993 0.835243 -3.59347
  556 16.0077 1.32683 -1.69022
  557 14.3477 -1.22864 -2.85061
  558 15.5177 -1.69412 -0.415060
  559 16.2620 -1.63551 -0.680015
  560 2.02817 2.54146 -2.41439
  561 16.3344 -0.188101 -0.457606
  562 24.7816 4.84959 -1.29823
  563 15.0199 -0.669427 -0.411117
  564 15.1603 -0.481719 0.338225
  565 15.1458 -0.469770 -0.327085
  566 10.0665 -0.0684567 -0.123202
  567 10.0678 -0.0675542 0.122081
  568 1.26172 0.158357 -0.777263
  569 1.34928 0.165423 0.796626
  570 7.47442 -0.361103 -1.62941
  571 7.53644 -0.362853 1.62523
  572 15.3635 -0.825275 -0.700875
  573 15.7104 -1.70076 0.460293
  574 16.1541 -1.52403 0.299725
  575 13.0390 -0.231100 -0.0349231
  576 13.0379 -0.229102 0.0346631
  577 12.4538 -1.29901 -2.44384
  578 14.0560 -1.14203 3.02667
  579 12.1334 -1.21996 2.46052
  580 15.7592 -0.344838 -1.72249
  581 9.53458 -0.174707 0.481015
  582 9.53027 -0.176657 -0.485949
  583 14.8965 0.816343 -1.39706
  584 14.9501 -0.0257990 -0.658201
  585 18.8157 4.14705 -0.467389
  586 12.0843 -0.191467 -0.0396893
  587 12.0840 -0.189960 0.0394221
  588 16.0878 -0.0438811 -0.380833
  589 10.8224 -0.389033 -0.517617
  590 10.8215 -0.387325 0.512121
  591 8.95388 0.441174 3.94015
  592 15.6601 -0.711226 -0.998388
  593 8.54824 -0.438839 2.82086
  594 15.3875 -0.790171 0.711793
  595 16.2782 -0.212090 0.501767
  596 16.1038 -0.124311 -0.129271
  597 10.9192 -0.148548 -0.109585
  598 10.9198 -0.147195 0.108753
  599 18.0286 3.64359 -0.890982
  600 8.54310 -0.420049 -2.83347
  601 15.3386 -0.654151 -0.581395
  602 13.7325 -0.249805 -0.00944158
  603 13.7309 -0.247592 0.00937425
  604 26.4938 3.59725 -0.615740
  605 8.74755 -0.0640368 0.268673
  606 8.73981 -0.0646954 -0.271714
  607 14.0551 0.312022 1.18962
  608 20.7353 1.64996 -0.569808
  609 9.56535 0.0938104 -3.91644
  610 4.70389 0.141581 -2.09807
  611 4.74727 0.111606 2.08659
  612 11.9313 -0.721863 0.624764
  613 12.0675 -0.743097 -0.602212
  614 20.8109 4.17901 0.641883
  615 16.0301 -0.129698 0.119418
  616 13.3689 0.360689 -0.714790
  617 16.9401 3.07822 0.789970
  618 16.8694 3.19584 -0.525102
  619 13.8714 -0.777769 -0.0137997
  620 13.9844 -0.758782 -0.0376448
  621 10.0105 2.15180 -5.67887
  622 11.7595 -0.422763 -0.336340
  623 11.7596 -0.417507 0.334612
  624 31.3522 6.40043 4.79453
  625 15.7579 -0.508946 1.50723
  626 8.67498 -0.327290 -1.04410
  627 25.2508 5.40691 3.36618
  628 8.69636 -0.325171 1.03906
  629 15.2411 -0.592366 -3.88784
  630 10.2666 -0.0611605 -0.0456501
  631 10.2675 -0.0606118 0.0453316
  632 12.8254 0.105953 0.622418
  633 5.61710 -0.0905171 -0.941309
  634 5.65374 -0.0907136 0.932797
  635 13.6850 -0.983217 0.182299
  636 14.4028 -1.16240 0.0547637
  637 17.2254 -0.0286325 -0.167083
  638 9.14060 -0.0191424 0.0735226
  639 9.13797 -0.0194570 -0.0745410
  640 12.8268 -0.294488 -0.0416186
  641 12.8258 -0.292466 0.0409924
  642 14.9667 -1.65071 1.84871
  643 17.1009 1.91811 -1.73820
  644 11.1470 -0.546136 -0.670187
  645 11.1370 -0.536552 0.664404
  646 13.4154 -0.983773 -0.305164
  647 21.4132 4.71011 -0.0211891
  648 16.0525 -1.54489 -0.206464
  649 13.7901 -0.326369 0.0129163
  650 13.7877 -0.324321 -0.0127710
  651 19.2329 2.08589 1.45288
  652 16.0519 -0.218097 -0.767916
  653 13.9096 -0.0222710 -0.590360
  654 6.27359 -0.212511 -2.03933
  655 6.29558 -0.219387 2.02056
  656 13.3906 -1.17422 -0.548201
  657 20.2516 4.54337 0.0232676
  658 15.5181 2.11119 -0.556859
  659 10.0264 -0.104073 -0.232595
  660 10.0279 -0.102565 0.230186
  661 14.6000 -0.403185 -0.140801
  662 14.6029 -0.404074 0.144446
  663 27.9244 3.66970 1.59966
  664 17.5721 -0.0363931 0.0491558
  665 16.8352 -0.0566021 0.280544
  666 16.7552 -0.0594058 -0.323402
  667 15.8381 -1.46763 0.434095
  668 11.3349 -0.143208 -0.0548702
  669 11.3353 -0.142029 0.0545204
  670 16.7858 2.71654 1.20860
  671 21.8081 4.88371 -0.109254
  672 11.6558 -0.894745 -0.951304
  673 11.6503 -0.885194 0.945347
  674 14.8152 -1.53069 -0.155451
  675 15.5138 0.921651 -1.69790
  676 18.7520 0.0384635 0.933862
  677 12.0951 -0.235490 -0.0992241
  678 12.0948 -0.233681 0.0985930
  679 10.4665 -0.931231 -2.00113
  680 15.6824 -1.51154 -0.282983
  681 12.9350 -1.43779 1.73826
  682 6.08004 1.95081 -3.93889
  683 11.9943 -1.13122 1.33817
  684 14.4417 0.00337462 0.549893
  685 10.4748 -0.920220 1.98586
  686 15.3288 -0.667847 0.588503
  687 12.0010 -1.12702 -1.35243
  688 12.0132 0.145120 0.129709
  689 9.26645 -0.269165 0.735225
  690 9.25799 -0.269717 -0.741560
  691 12.9465 -1.47538 -1.75888
  692 16.1092 -1.05226 -1.22252
  693 14.7368 -0.189373 -0.0346608
  694 14.7390 -0.191780 0.0347991
  695 16.4873 -1.03859 1.22615
  696 14.9379 -1.56270 0.211480
  697 18.2179 1.67151 1.74738
  698 16.3751 -0.297507 1.81799
  699 15.7553 -0.554603 1.13527
  700 14.8640 1.21732 -1.05943
  701 18.0972 3.06698 1.37404
  702 15.5814 -0.210570 -1.06915
  703 15.6019 -0.503582 0.625993
  704 15.9550 2.51796 0.301887
  705 15.8419 -0.259176 0.946657
  706 4.87507 3.29108 4.11124
  707 14.7714 -1.69523 -1.00131
  708 17.1085 0.319045 1.86394
  709 17.3290 -0.528969 -1.39930
  710 17.4580 -0.0123659 0.0968709
  711 15.7619 -0.528667 -0.912003
  712 14.7885 -1.70895 0.895779
  713 29.4504 2.60528 -0.439642
  714 8.36800 -0.0417014 0.281939
  715 8.35726 -0.0421919 -0.285144
  716 16.0459 -0.272795 -0.447821
  717 17.5737 -0.00849503 -0.0931891
  718 13.3621 -1.19275 0.551508
  719 16.1678 -0.592088 1.66489
  720 25.1293 5.76629 -1.42487
  721 15.3233 -1.10806 0.629478
  722 17.0899 -1.11525 -0.822192
  723 15.6091 -0.489085 -0.616471
  724 17.5917 -0.0187305 -0.0346639
  725 15.7103 0.00259714 1.85203
  726 0.682331 0.466383 0.787270
  727 18.0863 -0.732137 -2.41728
  728 19.5811 1.12504 1.02636
  729 16.2360 -1.64999 0.583226
  730 11.2233 -0.287779 0.278095
  731 11.2243 -0.292095 -0.279965
  732 15.6312 7.22585 -7.82445
  733 16.4976 -1.08076 -1.14766
  734 11.9610 0.0490439 -0.247783
  735 14.2277 0.0723854 1.16746
  736 15.8633 -0.784695 1.36200
  737 15.2066 -1.28134 0.395858
  738 15.9400 -1.44183 -1.98481
  739 15.1049 -1.19524 -0.417645
  740 18.0257 -0.863355 -0.438130
  741 16.5803 -0.115800 0.266468
  742 14.6406 -0.881874 0.261719
  743 27.1967 5.45039 -2.82794
  744 15.6922 -0.403340 0.504822
  745 15.3749 0.249289 -1.78780
  746 13.2850 -0.158810 4.39520
  747 16.5360 1.33973 1.84794
  748 14.2153 -1.12907 0.0246014
  749 10.8083 -0.875371 -1.45140
  750 10.8075 -0.872418 1.43767
  751 14.9752 1.68392 -0.248296
  752 15.3420 -0.174423 1.61096
  753 15.5485 -0.364908 -1.39397
  754 14.6582 -0.899172 -0.267602
  755 14.1520 -1.27985 0.236924
  756 16.0850 2.67818 -0.345491
  757 15.1868 -1.31403 -0.335470
  758 15.2201 -0.959743 0.604857
  759 15.4781 -0.177037 0.103984
  760 15.4893 -0.171406 -0.103620
  761 20.8311 4.63564 0.229884
  762 17.1193 -1.44715 -0.299626
  763 15.8116 -0.471384 0.904952
  764 16.5938 -0.114733 -0.245145
  765 16.6195 0.116942 -1.90639
  766 19.0886 0.978280 -1.27167
  767 8.81947 -0.0128472 -0.129033
  768 8.82494 -0.0126971 0.127421
  769 0.113341 -0.336059 -0.243453
  770 16.1292 -0.0135665 0.353807
  771 14.6008 -0.0305178 -1.29955
  772 15.1562 -0.140971 1.16148
  773 14.1416 1.62959 6.53572
  774 17.2749 3.60249 -0.0423171
  775 12.1824 -0.897958 0.717887
  776 1.88392 0.0525610 -0.781567
  777 1.95186 0.0395727 0.790413
  778 15.0020 -0.107850 -1.30328
  779 12.2204 -0.907633 -0.717089
  780 16.4922 -0.126965 0.208839
  781 8.03349 -0.359199 1.39262
  782 7.95946 -0.358176 -1.39482
  783 15.6928 -0.390815 -0.492330
  784 9.64619 -0.263941 -0.636601
  785 9.65071 -0.261979 0.629784
  786 16.3760 -0.139263 -0.539206
  787 12.2340 -0.340802 -0.173704
  788 12.2336 -0.338215 0.173664
  789 17.9132 -0.113536 -1.41623
  790 15.9777 -0.162550 -1.87251
  791 7.71144 -0.0553180 -0.363384
  792 7.72821 -0.0548131 0.358536
  793 0.237090 0.201247 -0.449386
  794 0.313924 0.211779 0.474498
  795 12.5995 0.0561589 -0.453065
  796 14.6276 -1.64484 -0.709957
  797 -0.176068 -0.124558 0.296299
  798 -0.151673 -0.141787 -0.290647
  799 15.2488 -0.287863 0.215877
  800 16.5850 -1.28367 -0.741353
  801 16.9790 2.53472 -1.41681
  802 16.5732 -0.112635 -0.197745
  803 36.7778 7.22348 -6.90501
  804 15.2460 -0.286569 -0.213312
  805 23.1318 4.47380 0.295965
  806 16.2481 0.476757 -1.94557
  807 18.0630 1.36006 -1.77893
  808 2.69345 -0.0324280 -0.730975
  809 2.75458 -0.0370392 0.729356
  810 9.78576 -0.155651 0.370580
  811 9.78291 -0.157075 -0.374689
  812 9.23206 -0.0273088 0.0679828
  813 9.23025 -0.0275785 -0.0686948
  814 18.1960 3.08145 -1.36976
  815 10.3895 -0.0755705 -0.0969984
  816 10.3904 -0.0746548 0.0962474
  817 15.3920 -0.154203 -1.67902
  818 22.8910 2.11241 1.58892
  819 13.6540 0.291703 -0.997901
  820 4.45314 -0.0428253 0.793247
  821 4.40790 -0.0431901 -0.800386
  822 18.3914 0.391794 4.61932
  823 16.0253 -0.275234 0.462211
  824 14.0063 0.917780 -0.416421
  825 6.18111 -0.0133664 0.546783
  826 6.14414 -0.0103028 -0.551497
  827 9.48411 -0.0572965 -0.179038
  828 9.48684 -0.0564691 0.176928
  829 1.66008 1.49938 1.21341
  830 14.6952 0.343188 1.49685
  831 16.4477 2.43467 -1.20081
  832 17.8260 2.07307 -1.74348
  833 11.4532 -0.455510 -0.455531
  834 11.4450 -0.451533 0.454268
  835 18.4039 3.97300 0.636488
  836 16.0368 -0.109039 -0.0292773
  837 16.0369 -0.108143 0.0322013
  838 15.7521 -0.461025 -1.13623
  839 13.0707 -0.889756 0.370392
  840 14.5303 -1.63498 0.718028
  841 17.2640 -1.41434 1.14323
  842 12.9251 -0.383132 -0.0762805
  843 12.9243 -0.381260 0.0753089
  844 14.7602 1.36387 0.677596
  845 13.7974 0.177987 -1.08093
  846 3.84201 4.20681 4.27467
  847 14.1996 -1.26992 -0.200773
  848 14.2364 -0.637331 0.127192
  849 14.2444 -0.637959 -0.127751
  850 15.6663 -0.225953 1.77547
  851 15.6035 -1.01881 -0.905731
  852 13.8457 -0.929301 -0.0741881
  853 33.0464 1.07300 -1.68375
  854 13.1383 -1.26170 0.800465
  855 13.1294 -1.27896 -0.815517
  856 15.6701 -0.181634 0.912171
  857 23.9815 6.12081 -1.08205
  858 12.2778 -1.13923 -1.04446
  859 13.6680 -1.54960 0.952718
  860 12.2720 -1.12473 1.03377
  861 13.3458 -0.546185 -0.0754149
  862 13.3447 -0.543808 0.0743287
  863 1.84184 0.830129 1.06254
  864 16.8592 1.26512 -1.88661
  865 12.7605 -0.511669 -0.171723
  866 12.7622 -0.505990 0.172513
  867 12.5739 -0.212906 -0.0197609
  868 12.5732 -0.211153 0.0195481
  869 13.9606 -0.269562 0.0292910
  870 13.9588 -0.267404 -0.0293108
  871 11.1168 -0.234623 -0.243093
  872 11.1169 -0.231767 0.241674
  873 12.8214 -0.693650 -0.279704
  874 12.8224 -0.688137 0.280814
  875 0.280217 -0.229913 -0.0661549
  876 19.6431 3.68831 1.11642
  877 16.8818 -0.582093 -1.57401
  878 13.6597 -1.52760 -0.965128
  879 14.7957 -0.467158 0.225304
  880 14.7887 -0.461660 -0.220525
  881 16.1155 0.0263033 1.91092
  882 17.7502 -1.26692 -0.520086
  883 15.7900 1.01740 -5.63929
  884 6.85522 -0.0921429 2.73257
  885 -0.366612 0.160491 -0.149299
  886 -0.328565 0.180486 0.170518
  887 1.82500 0.883197 -1.08292
  888 15.8200 -0.439607 0.727606
  889 16.7533 -0.0925140 -0.311380
  890 15.0164 -1.43347 2.32089
  891 6.83812 -0.0833100 -2.74491
  892 16.7391 -1.35732 0.582880
  893 18.8387 -0.605617 1.93060
  894 13.1152 0.0499195 0.481573
  895 15.2597 1.45238 1.16149
  896 8.08314 -0.463678 2.02722
  897 8.05019 -0.467530 -2.04270
  898 9.72004 -0.486335 -1.12939
  899 10.4190 -0.489163 -3.50834
  900 16.6806 -0.379889 1.73325
  901 23.2054 5.34481 0.498025
  902 16.7048 0.650090 1.92384
  903 15.7964 -0.326743 -1.03045
  904 10.6495 -0.438439 3.59728
  905 20.2795 3.71688 -0.909280
  906 1.87424 1.62898 -1.51219
  907 14.3985 -0.0322263 -0.524544
  908 9.73011 -0.482008 1.11765
  909 11.9936 -0.276568 0.156213
  910 11.9939 -0.278792 -0.156784
  911 15.6279 -1.01353 0.931082
  912 16.3562 -0.0798859 0.0854075
  913 11.9297 0.122663 -4.38749
  914 17.3043 -0.0297058 0.148417
  915 17.1421 -0.0233882 -0.184981
  916 12.2784 0.0997643 -0.414505
  917 16.4609 -0.0633473 -0.315925
  918 12.0579 -0.586427 -0.403632
  919 12.0659 -0.576979 0.404571
  920 -0.436439 0.138265 -0.256504
  921 -0.583846 0.0832475 0.264146
  922 16.3572 -0.0727316 -0.0852684
  923 5.08878 -0.109747 1.83887
  924 5.05357 -0.0975054 -1.85071
  925 17.2816 2.54048 1.50515
  926 32.2353 0.578186 0.528860
  927 16.2114 1.81357 1.54486
  928 18.7084 -0.681677 0.362387
  929 16.0694 -0.885052 1.38320
  930 20.0582 4.22771 -0.689093
  931 11.9794 0.0413868 0.311774
  932 15.4843 -0.345746 -0.325409
  933 15.9708 0.860568 -1.86656
  934 19.6348 0.535729 -0.606384
  935 15.0458 -0.926873 -0.499080
  936 7.26679 -0.0460481 -0.409049
  937 7.27611 -0.0444486 0.402643
  938 15.9181 -0.359397 -0.829327
  939 0.467393 0.614813 0.0544581
  940 15.2714 -1.58173 0.0104363
  941 12.8647 0.363302 -0.0430213
  942 19.8842 4.42214 -0.459191
  943 2.99791 2.24434 -2.59142
  944 15.1583 -0.112058 -1.04110
  945 10.2314 -0.187652 -0.341884
  946 10.2325 -0.185282 0.338253
  947 0.0714678 -0.456885 0.355448
  948 10.1378 -0.776707 -1.62307
  949 15.5438 -0.890809 -0.874284
  950 9.17954 0.0194179 -0.0272980
  951 9.18058 0.0195444 0.0270424
  952 15.5376 1.89138 -0.935782
  953 17.0528 -0.0308642 -0.0302844
  954 17.0518 -0.0317501 0.0388014
  955 10.1410 -0.774104 1.61029
  956 15.6718 -0.0163935 -0.416768
  957 18.2229 0.130868 1.38213
  958 16.1401 -0.207581 0.363091
  959 2.37297 0.648776 -1.37771
  960 16.7939 -0.0850147 0.284076
  961 14.9532 0.114918 1.61118
  962 15.7778 2.19871 0.832959
  963 15.8691 0.185812 -1.91604
  964 10.7195 -0.600619 -0.953943
  965 17.2819 -0.600640 1.35753
  966 10.7258 -0.597798 0.942668
  967 0.438382 0.500605 0.0296579
  968 1.69127 0.325268 1.00614
  969 8.57888 -0.165623 0.669580
  970 8.56762 -0.165997 -0.674311
  971 15.4947 -0.353424 0.340089
  972 16.4966 2.89826 0.467877
  973 8.33912 0.791861 -4.12779
  974 13.8159 -0.873560 0.0544110
  975 12.9606 -1.36853 -1.25635
  976 19.0492 3.67561 1.11043
  977 14.6070 -0.244154 0.0530742
  978 14.6067 -0.242488 -0.0530896
  979 16.0940 -0.280448 -0.608578
  980 14.6109 1.25448 -0.625823
  981 35.0861 10.0885 6.81496
  982 2.83643 0.181011 -1.35951
  983 2.88934 0.151014 1.36339
  984 0.210359 -0.397965 0.00987098
  985 14.6748 0.804873 1.28436
  986 12.9535 -1.37628 1.24566
  987 16.1771 -0.755402 -1.55166
  988 17.6195 1.44716 1.89320
  989 17.0879 -1.37840 -1.45649
  990 25.0638 5.29940 1.62692
  991 14.3156 -0.219292 0.00421492
  992 14.3138 -0.217080 -0.00416287
  993 16.8706 -0.676130 1.50197
  994 1.11720 1.59577 1.83337
  995 7.18923 -0.162684 0.965534
  996 7.16394 -0.160643 -0.977655
  997 8.72123 -0.448479 1.31123
  998 8.68926 -0.442137 -1.31748
  999 9.87363 -0.429744 0.929734
  1000 10.7891 -0.0972278 -0.0455470
  1001 10.7898 -0.0964292 0.0453029
  1002 28.7792 8.72773 -5.40798
  1003 25.5565 6.38905 2.43740
  1004 9.86585 -0.432317 -0.939095
  1005 17.3874 -0.0712792 1.64855
  1006 15.3363 1.59351 -1.12187
  1007 10.8298 -0.920732 2.90158
  1008 14.0549 -1.65836 -1.48563
  1009 16.0900 -0.123620 -0.621214
  1010 7.07206 0.519364 3.33801
  1011 9.09007 -0.698565 2.32003
  1012 13.9540 0.702956 -0.799898
  1013 16.2437 -0.314000 -1.83365
  1014 21.7264 7.95135 9.02235
  1015 13.0910 0.387218 0.565260
  1016 18.1983 3.98206 -0.0757515
  1017 13.5267 0.507080 -5.00086
  1018 13.5839 -1.44393 -0.810154
  1019 17.6022 -0.00734108 -0.0768642
  1020 16.5706 1.52891 -1.80165
  1021 9.32294 -0.0700285 0.233978
  1022 9.31907 -0.0707622 -0.236724
  1023 0.324786 -0.00472515 -0.401884
  1024 10.7135 -0.514149 -0.791341
  1025 9.08009 -0.707830 -2.33990
  1026 10.7032 -0.512565 0.780904
  1027 15.8584 -0.475348 1.69505
  1028 14.1930 -0.884017 0.0827910
  1029 14.8087 0.266660 -1.55676
  1030 15.2259 1.90753 0.326821
  1031 21.2839 1.16251 0.437513
  1032 15.7583 -1.19061 0.905798
  1033 9.71639 -0.796259 -1.77693
  1034 14.6608 0.510694 -1.45103
  1035 10.9343 -0.907269 -2.91989
  1036 21.2958 4.69458 -0.0305178
  1037 14.1896 0.921679 0.727493
  1038 18.3860 -0.116017 -1.11862
  1039 13.6698 -1.44360 0.731810
  1040 15.7206 -0.489127 1.32566
  1041 15.6445 -0.817792 1.00203
  1042 15.5595 -0.774010 0.880007
  1043 19.3264 2.43631 -1.48296
  1044 15.4672 -0.244386 1.31957
  1045 14.0264 -1.66309 1.45963
  1046 14.9771 -0.604074 0.345294
  1047 9.72179 -0.797366 1.76490
  1048 14.0044 -1.04477 -0.0765735
  1049 7.95271 -0.379931 -2.48357
  1050 11.5311 -1.20695 1.94760
  1051 15.7926 -0.0997076 -0.713505
  1052 15.3192 -0.170549 -1.48762
  1053 13.2387 -1.06635 -0.464928
  1054 7.96672 -0.392224 2.46147
  1055 14.1440 0.0286550 -1.01532
  1056 10.4466 -0.719164 -1.24592
  1057 19.3776 4.17590 0.722768
  1058 4.10920 0.724092 -2.30535
  1059 34.5372 2.44826 3.40185
  1060 7.59838 0.603889 -3.50509
  1061 15.5654 -1.28530 -0.618701
  1062 10.4482 -0.712456 1.23397
  1063 13.9721 0.137893 1.12918
  1064 7.59001 -0.165433 0.798140
  1065 7.58513 -0.169635 -0.807307
  1066 15.7024 -0.431012 -1.56759
  1067 16.9363 -0.0655662 0.125782
  1068 16.4736 -0.0301520 0.320890
  1069 16.1854 0.543462 1.93698
  1070 15.0666 -0.113342 1.39073
  1071 11.8116 1.23506 5.41999
  1072 17.7316 -0.00560481 0.0398327
  1073 16.2316 2.21504 1.23089
  1074 13.5467 0.185341 0.968334
  1075 16.7247 -0.0561165 0.311086
  1076 10.3208 -0.125113 -0.187160
  1077 10.3218 -0.123621 0.185541
  1078 6.45462 -0.192681 -1.32868
  1079 6.48367 -0.199554 1.31780
  1080 13.5890 0.663758 0.404699
  1081 21.4000 1.02275 -1.24724
  1082 19.6510 -0.109061 -2.70530
  1083 15.2355 -0.0111246 -0.428312
  1084 11.5384 -1.21635 -1.96373
  1085 13.2660 -1.01386 0.404541
  1086 15.3348 -0.0330688 0.447570
  1087 16.2003 -1.16543 -1.05151
  1088 9.65079 -0.0293508 0.114718
  1089 9.64931 -0.0298245 -0.115639
  1090 15.5347 -1.32220 0.618670
  1091 14.7347 -0.286929 0.0905469
  1092 14.7324 -0.287061 -0.0893358
  1093 14.3175 -1.45091 0.401710
  1094 18.7351 -0.618612 0.0543654
  1095 7.91582 -0.0164038 -0.225556
  1096 7.93013 -0.0158304 0.222723
  1097 12.5880 -0.776865 -3.34502
  1098 13.2660 -0.317942 0.0291693
  1099 13.2678 -0.320135 -0.0297987
  1100 8.10155 4.22241 5.94544
  1101 18.6891 1.51998 -1.62831
  1102 2.57169 1.30237 -1.68722
  1103 16.1537 -0.220184 -0.351610
  1104 4.10445 1.46318 -2.63866
  1105 8.64150 -0.561961 -1.69441
  1106 17.7553 -0.00878862 0.0221784
  1107 17.7651 -0.00758855 -0.0168545
  1108 15.8010 -0.893462 -1.19724
  1109 14.0010 -1.56195 -2.09156
  1110 4.10983 0.616278 2.19693
  1111 17.1618 1.70823 1.77639
  1112 15.6735 -0.133973 -0.0351345
  1113 15.6745 -0.134229 0.0368229
  1114 17.2714 -1.13364 2.51841
  1115 17.5168 3.55504 0.695131
  1116 10.1017 -0.263090 -0.495457
  1117 10.1035 -0.261621 0.491004
  1118 7.79742 0.920646 4.16131
  1119 14.7757 0.0701616 -1.51021
  1120 4.50474 1.49624 2.84942
  1121 19.4999 -0.374199 -0.647019
  1122 18.8127 4.23255 0.224300
  1123 12.8300 -1.03772 0.595659
  1124 11.4764 0.0511866 -0.0606588
  1125 16.5679 -0.131222 0.409940
  1126 17.2277 -0.0130056 0.161413
  1127 3.35611 0.00906761 -0.662924
  1128 3.41259 0.00710755 0.657801
  1129 13.0712 0.204349 -0.714466
  1130 13.7265 -0.403964 0.0104833
  1131 13.7227 -0.401538 -0.0106624
  1132 1.39358 1.83598 -1.94072
  1133 2.26603 4.37918 -4.06784
  1134 13.9184 -0.545690 -0.0437072
  1135 13.9248 -0.546233 0.0431661
  1136 14.4247 -0.338178 0.102789
  1137 14.4227 -0.337109 -0.101263
  1138 3.64638 2.35180 2.84182
  1139 11.1002 -0.149925 -0.0853815
  1140 11.1007 -0.148692 0.0847935
  1141 14.1027 1.05519 -0.0178952
  1142 18.8165 2.09628 -6.28278
  1143 17.4597 3.03740 -1.18919
  1144 15.9754 -0.605552 -1.61747
  1145 15.7471 -0.776116 -1.20241
  1146 12.8414 -1.04807 -0.606862
  1147 12.6593 0.0356743 0.441089
  1148 14.4642 0.892353 -1.07216
  1149 14.2409 0.755474 1.02083
  1150 14.9668 -0.585535 -0.339895
  1151 14.2317 -0.865418 -0.0926097
  1152 12.8470 -0.852135 -0.432480
  1153 15.3842 -0.0872050 0.835431
  1154 28.0535 2.85036 0.401621
  1155 15.5090 -0.325930 1.52334
  1156 15.4972 1.01900 1.63014
  1157 14.3874 -1.42540 -0.262502
  1158 1.58690 0.300232 -0.968078
  1159 14.6584 -0.674571 -0.274288
  1160 9.25061 -0.0200528 -0.00442454
  1161 9.25139 -0.0199829 0.00433579
  1162 18.0543 -0.475472 0.984275
  1163 17.2141 -1.44319 0.400763
  1164 24.8644 4.50587 1.02570
  1165 5.42302 -0.0153025 -0.559088
  1166 5.46190 -0.0140437 0.554154
  1167 12.9517 -0.265253 -0.0333941
  1168 12.9506 -0.263242 0.0329355
  1169 14.7133 -1.30380 0.109174
  1170 11.5906 0.0453665 0.197818
  1171 15.0819 -1.07294 0.491352
  1172 0.774400 0.922151 -0.368468
  1173 2.55040 1.31778 1.65296
  1174 9.96274 -0.521375 3.23784
  1175 17.3678 3.34944 -0.847078
  1176 16.7934 -0.0412819 -0.245040
  1177 17.8386 -0.0227756 0.0173092
  1178 17.8603 -0.0334522 -0.0122449
  1179 9.69815 -0.0313729 -0.0171534
  1180 9.69917 -0.0311463 0.0169588
  1181 15.9987 1.02809 1.86373
  1182 24.1143 4.19081 -0.0879796
  1183 16.4476 2.74598 -0.840309
  1184 12.3616 -0.890959 3.32280
  1185 9.90939 -0.498334 -3.23244
  1186 10.9247 -0.759404 -1.10726
  1187 15.4973 -0.416547 0.422998
  1188 21.7938 4.76251 -0.105863
  1189 10.9241 -0.754249 1.09687
  1190 15.8786 -0.255636 0.320996
  1191 13.8269 0.500522 0.971467
  1192 15.4269 0.476116 1.78029
  1193 22.3480 5.01964 0.323399
  1194 12.9806 -0.344889 0.0652817
  1195 12.9818 -0.346986 -0.0661330
  1196 16.0679 -0.283200 0.630707
  1197 9.06153 -0.108852 0.370745
  1198 9.05515 -0.110030 -0.374899
  1199 15.7358 -0.191107 -0.156746
  1200 6.36095 3.74425 -5.71051
  1201 13.6096 -0.756931 -3.55442
  1202 12.5942 -0.407844 -0.149065
  1203 12.5949 -0.405558 0.149038
  1204 17.0224 -0.0611810 0.110003
  1205 15.9894 -0.186039 0.258427
  1206 0.800464 0.946529 0.659601
  1207 17.5620 -0.0125339 0.0887111
  1208 1.95465 2.38607 2.36532
  1209 15.5842 -0.210453 -0.198477
  1210 -0.0294049 -0.394942 -0.343592
  1211 10.8358 -1.05518 -2.49646
  1212 10.8013 -1.02879 2.46934
  1213 17.5626 -0.0244921 -0.0967314
  1214 14.7572 -0.776600 -0.316639
  1215 17.0049 -0.0538179 -0.115820
  1216 13.2984 -0.436215 -0.0408574
  1217 13.2963 -0.434079 0.0396018
  1218 15.7246 -0.189337 0.148551
  1219 14.6473 -0.661789 0.271394
  1220 14.0488 -0.448886 -0.0731097
  1221 14.0545 -0.450672 0.0751747
  1222 16.9955 -0.0555734 -0.0955601
  1223 14.5332 -1.51754 -2.37155
  1224 16.5848 -0.0782592 -0.100877
  1225 15.6565 -0.217313 0.209690
  1226 10.5036 -0.130109 -0.134627
  1227 10.5045 -0.128751 0.133507
  1228 11.8922 -0.184615 -0.0600316
  1229 11.8921 -0.183099 0.0595538
  1230 19.8276 3.07252 1.29176
  1231 16.6267 -1.26426 0.844590
  1232 11.3035 -0.0377099 4.12951
  1233 8.60318 -0.0195917 0.141861
  1234 8.59585 -0.0197787 -0.143621
  1235 15.6326 -0.281735 1.15703
  1236 15.0147 -0.207749 0.0569960
  1237 15.0160 -0.206828 -0.0569578
  1238 17.0654 3.36638 0.391468
  1239 15.8480 -1.65064 1.82101
  1240 8.68543 -0.135774 0.527949
  1241 8.67629 -0.136936 -0.532718
  1242 14.9802 -0.350807 0.190932
  1243 14.9771 -0.353008 -0.186912
  1244 15.4898 -0.410530 -0.409709
  1245 13.9281 0.000759840 0.526856
  1246 24.9427 6.18737 -1.86260
  1247 15.7466 -0.564755 -1.05980
  1248 2.49498 0.639116 1.42155
  1249 16.2901 -0.856971 1.46660
  1250 12.6689 0.261105 -0.389920
  1251 0.874070 0.705805 0.457508
  1252 21.8293 2.29784 0.170556
  1253 15.8780 -0.713713 -1.45787
  1254 12.7367 0.167929 0.596182
  1255 8.70633 -0.562500 1.68937
  1256 16.1826 -1.24267 0.958319
  1257 23.9473 4.30192 0.981877
  1258 5.21272 0.809549 2.81705
  1259 16.2993 -0.175045 -0.540832
  1260 32.5311 0.354442 -0.338335
  1261 33.7161 0.515161 1.52365
  1262 36.1577 1.27277 -3.58887
  1263 15.7011 -0.480284 -1.28819
  1264 15.7275 -0.707589 1.12988
  1265 16.0044 -1.12948 1.09739
  1266 -0.476059 0.0455673 0.309044
  1267 -0.436119 0.0336334 -0.332912
  1268 15.6177 -1.71625 -0.747127
  1269 16.0438 -1.61103 -1.20567
  1270 11.6878 0.0673578 -0.245227
  1271 15.5629 -1.74985 1.21583
  1272 16.5865 -0.776300 -1.49460
  1273 0.248327 0.459364 -0.0167356
  1274 13.3063 -0.241085 0.0355729
  1275 13.3076 -0.243174 -0.0356686
  1276 16.5681 -0.114012 0.375801
  1277 15.8800 -0.250429 -0.303814
  1278 14.8833 -1.62679 -0.325138
  1279 13.4734 -0.742362 0.124578
  1280 13.4007 -0.732683 -0.147860
  1281 15.9752 -0.323227 0.839202
  1282 16.3592 -0.591421 -1.67648
  1283 0.909205 0.736197 -0.432867
</Section>

newXOutput 4

<Section columns = "stress_xx | stress_yy | stress_xy">
  1 26.9207 0.00653625 0.0588853
  2 26.9247 0.00670778 -0.0591412
  3 13.6054 -0.00910162 -0.0213792
  4 -0.177311 -0.176764 -0.254605
  5 50.7341 18.4909 15.5040
  6 50.2297 19.2369 -15.6798
  7 -0.205504 -0.169308 0.269115
  8 13.6044 -0.00916407 0.0213003
  9 27.1360 -0.0393875 0.0199336
  10 27.0648 -0.0647582 -0.00881309
  11 26.9787 -0.0379354 0.0726556
  12 26.8948 -0.0570829 0.0287305
  13 26.7166 -0.0461952 0.114916
  14 26.5577 -0.0479053 0.0890271
  15 26.2020 -0.0429437 0.162355
  16 25.7148 -0.0225552 0.237016
  17 25.2759 -0.0281359 0.259396
  18 24.6426 -0.0466733 0.308660
  19 23.7862 0.00275678 0.449683
  20 22.9941 -0.0345576 0.421936
  21 22.1195 -0.0492805 0.587158
  22 20.8526 0.0357306 0.505257
  23 19.9559 0.0482808 0.592639
  24 18.7881 0.0848317 0.459425
  25 17.9895 0.0807208 0.461140
  26 16.8301 0.120859 0.233697
  27 16.5905 0.191650 0.249242
  28 16.4480 0.152591 -0.0731102
  29 16.6480 0.0806058 -0.163057
  30 17.0134 0.0838708 -0.199140
  31 17.8805 0.110087 -0.399588
  32 18.7221 0.0867011 -0.509734
  33 19.9750 0.0131917 -0.607443
  34 20.9805 -0.0152813 -0.559857
  35 22.0673 -0.0399009 -0.556137
  36 23.0588 -0.0266147 -0.396289
  37 23.9253 -0.0258665 -0.343253
  38 24.6506 -0.0449442 -0.292169
  39 25.3096 -0.0296022 -0.209334
  40 25.7328 -0.0325117 -0.224697
  41 26.1410 -0.0444807 -0.165493
  42 26.5374 -0.0544524 -0.0789711
  43 26.7438 -0.0423377 -0.0884649
  44 26.8634 -0.0214166 -0.0579156
  45 26.8060 -0.00462206 -0.0524944
  46 27.0992 -0.0667894 0.00415711
  47 27.1480 -0.0416483 -0.0206081
  48 26.1412 0.00154391 -0.0361828
  49 25.4791 -0.0796480 -0.0611648
  50 24.6823 -0.124098 -0.0457458
  51 23.7185 -0.198933 -0.0611437
  52 22.8149 -0.222796 -0.0785361
  53 21.8574 -0.294567 -0.0735648
  54 21.0162 -0.336817 -0.0447973
  55 20.2791 -0.389323 -0.0217828
  56 19.4313 -0.326287 -0.0224090
  57 18.4551 -0.311292 -0.0290520
  58 17.5122 -0.251502 -0.0140674
  59 16.6168 -0.166237 -0.00793626
  60 15.7628 -0.122652 -0.00309106
  61 15.0089 -0.0683406 0.00434281
  62 14.2314 -0.0224652 -0.0250182
  63 13.6184 0.0181950 0.0250221
  64 13.3499 0.0591832 0.0145774
  65 13.5535 -0.00182939 0.0384738
  66 13.3655 -0.0111761 0.0453324
  67 13.2004 -0.0152088 0.0569187
  68 12.9710 -0.00467895 0.0765971
  69 12.6805 -0.00284801 0.0982072
  70 12.4815 -0.0226449 0.196559
  71 11.8490 0.0178099 0.216093
  72 11.4138 -0.00312841 0.251483
  73 10.7651 -0.0140526 0.284208
  74 10.0126 -0.0224217 0.347367
  75 9.07388 -0.00644012 0.421763
  76 7.92829 0.00434327 0.462205
  77 6.96249 -0.0137383 0.659001
  78 5.01161 0.0643718 0.615632
  79 3.71048 0.0559313 0.651465
  80 2.17668 -0.00693015 0.714000
  81 0.927758 0.128544 0.730496
  82 -0.481976 0.185767 0.415068
  83 -1.47612 0.187103 0.119021
  84 -1.36221 0.173648 -0.111464
  85 -1.22719 0.141251 -0.381717
  86 -0.713766 -0.0561295 -0.351566
  87 -0.0948156 -0.685396 -0.384932
  88 0.0553073 -1.27911 -0.494795
  89 0.171967 -2.08945 -0.311895
  90 0.392579 -2.26641 -0.0648453
  91 0.845434 -0.993984 1.00482
  92 2.60494 3.18803 3.72547
  93 16.3489 13.5752 13.6863
  94 61.0315 8.94521 10.4185
  95 54.5814 1.29630 3.46051
  96 50.3567 0.523557 1.05911
  97 48.7888 0.437053 0.0871674
  98 49.5908 0.591757 -0.907961
  99 54.4003 1.19120 -2.73386
  100 65.2268 4.32965 -9.13265
  101 9.57508 13.6499 -11.3211
  102 1.95752 1.82452 -3.02145
  103 0.917936 -0.900887 -1.01496
  104 0.364328 -2.30071 -0.0971675
  105 0.0893992 -1.61780 0.364681
  106 0.123163 -1.60564 0.434056
  107 0.00132284 -0.598149 0.425478
  108 -0.743615 -0.0411901 0.336086
  109 -1.26707 0.105912 0.335896
  110 -1.43236 0.212077 0.120022
  111 -1.52663 0.185375 -0.106205
  112 -0.585299 0.190461 -0.385825
  113 0.834065 0.129773 -0.694729
  114 2.08057 0.00625055 -0.702121
  115 3.61224 0.0605595 -0.653353
  116 4.92233 0.0662249 -0.621078
  117 6.89316 -0.0140016 -0.665469
  118 7.86872 0.00498343 -0.467413
  119 9.02213 -0.00616452 -0.427773
  120 9.98570 -0.0245753 -0.350639
  121 10.7303 -0.0135524 -0.285341
  122 11.3879 -0.00228136 -0.254579
  123 11.8282 0.0175415 -0.219000
  124 12.4673 -0.0228398 -0.199036
  125 12.6697 -0.00297665 -0.0997531
  126 12.9635 -0.00479731 -0.0778792
  127 13.1954 -0.0154013 -0.0579452
  128 13.3624 -0.0113404 -0.0460567
  129 13.5514 -0.00197881 -0.0389441
  130 13.3486 0.0590719 -0.0148033
  131 13.6172 0.0181471 -0.0251588
  132 14.2300 -0.0226387 0.0249254
  133 15.0074 -0.0687735 -0.00452453
  134 15.7614 -0.123631 0.00287425
  135 16.6159 -0.167606 0.00772300
  136 17.5120 -0.253471 0.0138621
  137 18.4557 -0.313754 0.0288936
  138 19.4329 -0.329107 0.0222699
  139 20.2813 -0.392411 0.0217357
  140 21.0187 -0.339873 0.0449039
  141 21.8607 -0.297348 0.0738623
  142 22.8171 -0.224762 0.0796294
  143 23.7194 -0.200682 0.0662863
  144 24.6857 -0.115445 0.0468109
  145 25.4972 -0.0768047 0.0598711
  146 26.1433 -0.00244347 0.0356933
  147 23.0279 -2.16023 -0.422814
  148 23.0111 -2.13166 0.431308
  149 23.9356 3.46096 -1.31771
  150 25.7454 1.52967 2.86229
  151 19.4683 -1.85193 -4.10682
  152 19.6190 -1.85201 3.96536
  153 18.6564 -0.818424 0.413171
  154 18.6594 -0.830727 -0.414037
  155 27.4663 0.974463 -2.33011
  156 22.9654 -0.807509 0.689306
  157 22.9565 -0.786619 -0.680313
  158 29.6830 6.73000 0.436994
  159 23.3708 -0.0360081 -2.73075
  160 17.0862 -1.38400 -1.81071
  161 17.0836 -1.37147 1.79196
  162 23.4518 -0.521971 2.49616
  163 22.0490 1.59859 1.59337
  164 8.94657 1.50402 -4.89329
  165 9.97477 1.42011 5.16498
  166 29.1915 0.280432 0.667080
  167 23.5850 -0.890061 -1.79636
  168 31.4257 6.92243 -0.480452
  169 21.1429 -0.589132 0.0949222
  170 21.1378 -0.586586 -0.0926175
  171 24.0152 -0.255894 -0.308243
  172 24.1025 -0.225506 0.268557
  173 16.1916 -0.255634 -0.268491
  174 16.1923 -0.252753 0.266514
  175 26.0510 -0.762624 5.20591
  176 21.2833 0.866423 -1.71239
  177 13.7839 -1.05279 -2.98490
  178 13.8260 -1.04475 2.96199
  179 15.4140 -0.539989 -0.950252
  180 15.4140 -0.533310 0.941415
  181 23.7144 -0.605678 1.52531
  182 21.4673 -1.48502 0.142814
  183 21.3847 -1.47385 -0.103934
  184 24.6462 -2.36736 -0.103776
  185 24.7655 -2.25486 -0.208789
  186 34.2287 8.03212 -0.813371
  187 24.4275 3.95974 1.23761
  188 24.5815 1.51646 -2.82464
  189 26.0020 -0.317195 -6.11157
  190 24.5235 -1.37052 -2.09297
  191 24.7264 -0.971844 2.41668
  192 20.5091 -2.33646 1.90985
  193 20.5206 -2.32110 -1.90242
  194 21.7106 0.266518 2.07119
  195 9.68295 -0.216075 -3.63008
  196 9.70963 -0.239314 3.60476
  197 38.9048 5.88948 0.816262
  198 23.1861 -1.37178 1.21057
  199 24.1155 -0.419553 -1.01720
  200 18.7628 -0.473587 -0.171149
  201 18.7622 -0.470591 0.170234
  202 22.9430 -0.293866 -1.91204
  203 26.2354 3.87384 -2.31755
  204 21.6320 1.93365 -0.320956
  205 13.7899 -0.521116 1.36577
  206 13.7675 -0.523229 -1.37811
  207 24.5651 -0.242941 0.581662
  208 23.6416 0.447125 2.80033
  209 19.0953 -1.42595 -0.785376
  210 18.9496 -1.35096 0.814288
  211 28.1005 4.17151 2.23323
  212 33.5537 4.34231 0.193630
  213 2.04533 1.66906 -1.22940
  214 1.88519 1.54306 1.03593
  215 13.5131 3.80432 8.81811
  216 22.9453 -1.51905 -0.983886
  217 24.6713 -0.233748 -0.526736
  218 21.4354 0.176409 -1.90540
  219 14.6657 -0.165912 -0.417504
  220 14.6693 -0.163949 0.412858
  221 20.4996 -0.974300 -0.0565312
  222 20.5087 -0.979378 0.0443166
  223 23.1730 -0.306582 1.63787
  224 27.1083 -1.57829 0.241376
  225 26.4960 5.49384 -0.687332
  226 20.7850 -2.02853 -0.798311
  227 26.5740 -0.453184 1.99641
  228 22.5117 -0.351177 0.140531
  229 22.5129 -0.347722 -0.140283
  230 20.6170 -2.01842 0.841794
  231 23.7641 -1.49425 1.73167
  232 34.1459 4.08544 -1.56717
  233 7.18993 4.29608 -6.23724
  234 19.5893 0.664534 0.402312
  235 23.6670 2.09416 2.34801
  236 25.4676 -0.167125 -2.60760
  237 23.7029 -0.842217 -2.36378
  238 12.1169 -0.414690 -1.72986
  239 12.1628 -0.408029 1.72234
  240 23.7636 -0.272402 -1.28967
  241 22.6722 -0.551796 0.393168
  242 22.6616 -0.550383 -0.382813
  243 4.41760 0.449906 -2.24736
  244 4.50085 0.395045 2.24107
  245 25.5004 -2.21941 -1.65733
  246 25.2843 -0.0582035 0.0923293
  247 25.3178 -0.0596257 -0.0966508
  248 23.0640 1.91122 -2.13890
  249 20.0320 0.363897 1.23153
  250 44.0559 7.06934 4.69821
  251 43.7547 4.98671 -2.97987
  252 30.8802 6.76561 -0.138455
  253 19.2371 -0.907557 5.52294
  254 17.5949 -0.566865 -5.79117
  255 20.0426 -0.409903 -0.0360813
  256 20.0401 -0.406670 0.0355160
  257 16.3461 -0.467613 0.555901
  258 16.3477 -0.474542 -0.562240
  259 24.4808 -0.241298 0.825086
  260 23.6742 -1.67492 -1.47312
  261 14.6914 -0.0384625 -0.0935962
  262 14.6932 -0.0378748 0.0927856
  263 23.3723 -0.928182 -1.15755
  264 9.41515 -0.318547 -2.38643
  265 9.46175 -0.319706 2.36654
  266 23.6305 -1.01094 1.93185
  267 17.8913 -1.90010 3.29359
  268 17.9442 -1.93447 -3.28399
  269 19.9132 0.739104 -0.573105
  270 17.1760 -0.282348 -0.179256
  271 17.1764 -0.280120 0.178277
  272 21.8955 -0.0610062 1.54145
  273 26.3959 4.88529 1.61853
  274 13.5956 -0.185022 0.727303
  275 13.5850 -0.186727 -0.734864
  276 24.3689 -2.01877 1.14231
  277 22.5590 -2.51657 -2.07479
  278 25.3515 -0.0932621 0.279634
  279 17.0741 -1.05296 -1.21776
  280 17.0392 -1.04037 1.21172
  281 31.8181 2.87931 7.76583
  282 14.3039 -1.14657 3.97292
  283 23.2480 3.28162 -0.140835
  284 30.0288 3.24300 -1.67994
  285 22.3959 -1.73523 0.522218
  286 22.5652 -2.58732 1.84427
  287 14.3548 -1.12617 -4.02380
  288 2.55526 3.13936 2.75935
  289 23.3759 -0.932393 1.17752
  290 30.9797 3.96385 1.43054
  291 25.5839 -0.0827208 -0.242339
  292 22.6723 0.785850 -2.46097
  293 22.5745 -1.27111 0.726231
  294 22.0824 -1.87108 -0.167395
  295 22.5720 1.03119 2.36490
  296 24.2437 -2.02139 -1.04655
  297 34.5676 6.81646 -0.484940
  298 22.5681 -1.22071 -0.697023
  299 18.9860 5.20959 -10.9315
  300 23.1465 -2.44738 -0.183256
  301 22.9746 -2.51328 0.453855
  302 16.5756 -1.52667 -2.59605
  303 14.5654 -0.0676208 -0.207254
  304 14.5682 -0.0664592 0.205068
  305 16.5797 -1.52715 2.57970
  306 24.3932 -0.0338647 -2.85951
  307 26.5695 -1.09352 -1.44196
  308 19.9026 -1.22346 -0.347695
  309 19.8858 -1.22604 0.355616
  310 24.2422 -2.08497 3.44557
  311 23.9755 -0.179336 0.977944
  312 29.5891 0.0415133 0.895280
  313 19.4427 -0.702224 -0.176015
  314 19.4431 -0.699150 0.174281
  315 17.5421 -0.481018 -0.344887
  316 17.5410 -0.475994 0.343958
  317 19.7996 0.251108 -1.19245
  318 26.0653 1.91422 -2.79171
  319 41.0999 10.9748 -4.96815
  320 23.8762 -0.174281 -0.108261
  321 23.8595 -0.171603 0.110399
  322 12.4552 0.0156508 4.95746
  323 17.4840 -0.827930 -0.776070
  324 17.4457 -0.824112 0.777668
  325 12.4543 -0.0111947 -4.93880
  326 24.7007 2.92993 -2.31779
  327 27.9868 1.36960 2.24884
  328 24.2631 -1.73262 -3.85638
  329 22.0428 -0.841599 0.374679
  330 22.0184 -0.834373 -0.363978
  331 23.6559 -0.461644 -0.592850
  332 21.9151 -0.0458845 -1.44317
  333 24.8793 0.120119 2.82279
  334 25.0042 -0.153689 -0.575561
  335 14.5130 -0.917366 1.98932
  336 14.4975 -0.923137 -2.00744
  337 22.9894 -0.0534687 2.58245
  338 13.6417 -0.127169 -0.425463
  339 13.6503 -0.125919 0.420642
  340 23.8155 -0.522423 0.877734
  341 28.4911 5.87102 -1.29534
  342 23.6392 -0.466178 0.612641
  343 24.9949 3.16105 2.33388
  344 23.9763 -0.436042 2.72637
  345 18.7292 -0.360199 0.0545084
  346 18.7302 -0.362882 -0.0551671
  347 22.5439 -0.0838692 -2.28724
  348 30.2031 6.39033 0.966333
  349 24.8324 4.60253 0.0489702
  350 15.2681 1.79506 -7.44913
  351 1.35587 0.680679 -0.909282
  352 1.51116 0.734673 0.989220
  353 -0.133018 0.143183 0.510139
  354 -0.0290902 0.0608981 -0.527740
  355 45.3924 3.14553 1.10974
  356 20.6102 -1.69617 -0.399870
  357 23.8400 -0.503018 -0.857506
  358 21.3586 -0.359405 0.0651225
  359 21.3561 -0.355930 -0.0651733
  360 22.6736 2.50700 -1.15601
  361 19.4257 -2.00523 1.56462
  362 1.58557 2.32491 -1.63957
  363 19.4498 -2.00594 -1.59846
  364 22.9933 2.61975 1.23030
  365 23.7179 -0.615111 -1.45912
  366 25.2530 -1.39355 -1.85148
  367 26.6760 5.71493 0.476672
  368 25.3280 -1.56355 1.58756
  369 9.88009 -0.263510 1.60361
  370 9.81332 -0.258557 -1.61623
  371 5.46190 0.153305 -2.18355
  372 5.53099 0.128568 2.17285
  373 20.1502 0.0481013 1.21043
  374 39.9589 11.4162 4.01756
  375 24.6123 -0.140571 -0.711406
  376 18.8708 -1.62997 -1.18124
  377 18.8505 -1.62435 1.17924
  378 23.5276 -0.530628 -1.80742
  379 27.1105 -1.30755 0.557400
  380 20.6092 -1.69399 0.417109
  381 29.9992 0.110688 -2.02807
  382 16.1573 -0.146718 -0.0606802
  383 16.1585 -0.145321 0.0599523
  384 23.0514 -0.128974 -1.13441
  385 11.8971 -0.188101 -1.05067
  386 11.9058 -0.193731 1.03626
  387 27.7811 3.54419 -2.44961
  388 14.8698 1.06795 6.89339
  389 21.6116 -1.13790 0.274093
  390 21.6337 -1.13533 -0.275580
  391 25.3365 4.32596 -1.49448
  392 24.0935 -0.703952 -2.60600
  393 24.3534 -2.47574 1.74893
  394 19.9687 -0.534685 -0.0499835
  395 19.9655 -0.531395 0.0486963
  396 23.2888 -1.79148 1.06249
  397 25.2773 -0.103842 0.432360
  398 15.1702 -0.588400 -1.20287
  399 15.1753 -0.587878 1.19056
  400 23.4936 0.787589 -2.75575
  401 22.2982 -0.462615 0.216517
  402 22.2978 -0.463391 -0.212928
  403 22.9430 -0.265591 2.12196
  404 21.1394 1.52443 0.545905
  405 23.9144 -0.997006 2.30390
  406 34.9228 7.38305 1.12541
  407 11.1635 -0.606278 -3.19278
  408 11.1968 -0.606780 3.16518
  409 4.91442 2.70824 -3.66593
  410 26.0049 -0.0538371 0.130797
  411 12.3949 -0.120034 -0.662369
  412 12.4129 -0.117482 0.655609
  413 23.5533 -0.602435 1.77803
  414 21.3458 -2.32766 0.927890
  415 24.3190 -0.271596 0.422790
  416 24.5432 1.25439 2.89928
  417 5.17798 2.88355 3.84477
  418 21.3819 -2.31621 -0.836587
  419 22.1153 -2.06311 0.0235566
  420 6.74487 -0.136608 -1.99561
  421 6.80515 -0.142467 1.98006
  422 16.8843 -1.32527 -4.79547
  423 25.4835 -0.366478 2.55492
  424 16.8079 -1.34868 4.74913
  425 23.4868 -1.30835 -1.56233
  426 21.4738 1.43230 -1.20527
  427 23.4940 -1.00008 1.47141
  428 25.5541 -0.0920494 -0.302904
  429 0.693815 0.686630 0.211236
  430 4.94710 5.55668 5.48708
  431 22.3891 -0.0839314 1.08365
  432 18.3632 0.232300 0.517297
  433 18.7265 0.288136 -0.704963
  434 15.9830 -0.288608 -0.391509
  435 15.9833 -0.284666 0.388120
  436 23.1624 -1.79110 -0.990459
  437 23.3004 -0.449507 -2.38803
  438 18.4787 0.323626 -0.191672
  439 34.9651 8.29848 1.35352
  440 4.50754 1.57439 -2.73242
  441 4.99702 1.44633 2.93751
  442 21.5920 -0.763971 0.226779
  443 21.5830 -0.761280 -0.220265
  444 28.8453 6.48285 -0.111493
  445 18.4983 7.03391 11.1685
  446 28.0807 -0.421489 -0.783016
  447 15.5748 -0.847357 -1.63377
  448 15.5809 -0.840848 1.61739
  449 15.5828 -0.375573 0.626578
  450 15.5812 -0.378688 -0.633677
  451 21.3608 0.458328 -1.95577
  452 26.1608 -0.0184246 -0.0895497
  453 20.6821 0.928257 1.08967
  454 26.6588 3.30589 2.57827
  455 22.1437 -1.64802 -0.424009
  456 24.3138 -0.256256 -0.409660
  457 25.6711 -0.0813034 0.279364
  458 26.0906 -0.0185528 0.0514644
  459 26.1175 -0.0233178 -0.0396860
  460 13.4850 -0.0311176 0.153890
  461 13.4792 -0.0315448 -0.155933
  462 24.3125 -1.53060 1.88351
  463 21.5788 0.837282 1.89254
  464 22.7039 0.0888507 -2.51095
  465 23.9555 -0.483412 1.10528
  466 35.5647 5.39927 -6.32113
  467 23.9711 -1.31822 -2.05666
  468 0.104471 0.433499 0.104833
  469 0.107747 0.435535 0.0133581
  470 18.7302 -1.09155 0.626688
  471 18.6623 -1.07828 -0.621155
  472 30.3825 0.380465 3.26495
  473 8.30942 7.21546 -8.32014
  474 23.5789 -0.0640077 0.858145
  475 27.1505 -1.59931 -1.73909
  476 13.8747 -0.828143 2.31530
  477 28.8069 5.11747 -1.85462
  478 23.6210 -1.26679 1.74346
  479 19.6214 -0.958597 -0.254103
  480 19.6389 -0.941798 0.252640
  481 20.1443 0.100224 -1.07072
  482 13.8294 -0.825536 -2.33265
  483 20.7211 -0.000361278 1.08169
  484 20.1895 -2.30307 -2.89415
  485 20.1359 -2.30659 2.90086
  486 24.4467 -0.148806 0.782517
  487 21.8219 2.04966 0.225944
  488 22.7796 0.316767 7.54746
  489 33.2970 6.88258 -0.0437851
  490 22.8918 -0.358801 0.223046
  491 22.8942 -0.357279 -0.228367
  492 17.1708 -0.324891 -0.233432
  493 17.1709 -0.321850 0.232127
  494 8.97023 0.455044 4.12282
  495 23.7135 -1.13048 -1.99761
  496 21.4314 -0.452959 0.0829862
  497 21.4293 -0.450875 -0.0822772
  498 18.5697 -1.98402 2.37118
  499 9.15386 0.595335 -4.23217
  500 23.7947 -1.92919 -1.12494
  501 0.358171 -0.0209671 0.279160
  502 20.3302 1.02826 0.0773229
  503 22.9927 -0.235245 -0.0763403
  504 22.9911 -0.239230 0.0752126
  505 18.5864 -1.98158 -2.39144
  506 27.1863 -1.43271 2.32674
  507 26.7030 0.974834 2.66328
  508 24.7657 -0.136727 -0.212114
  509 23.7213 -1.95748 1.13609
  510 14.1625 -0.0208329 -0.0246362
  511 14.1640 -0.0206804 0.0243216
  512 23.6217 -0.896828 -2.10201
  513 22.6634 1.67577 2.08447
  514 26.3624 0.654501 -2.62577
  515 14.0791 -0.0296116 -0.0857628
  516 14.0813 -0.0292408 0.0849867
  517 47.3388 6.83147 -6.16729
  518 23.6358 2.82922 1.84873
  519 24.7907 -0.122236 0.190149
  520 22.1678 -2.10767 0.0289008
  521 18.3560 -0.629358 0.330311
  522 18.3570 -0.634767 -0.329686
  523 26.0061 -1.56978 1.03450
  524 24.8480 -0.483296 -2.65872
  525 27.7228 5.51937 1.49724
  526 22.9102 0.391211 2.59960
  527 23.3497 -0.421601 0.398887
  528 22.7295 -2.40875 -2.73784
  529 23.4036 -0.569128 2.04615
  530 46.9189 2.13688 -0.870354
  531 25.8300 -1.93631 -0.368469
  532 24.6110 -0.129720 -0.0569707
  533 24.6161 -0.140457 0.0525063
  534 47.3959 3.18710 3.07199
  535 22.2905 -0.0121152 2.21099
  536 31.8926 5.23950 -1.01905
  537 23.7392 -0.624790 -1.08864
  538 10.0893 -0.104319 -0.720491
  539 10.1255 -0.0993867 0.712247
  540 15.7921 -1.48827 -3.32343
  541 15.8015 -1.46301 3.29629
  542 23.3379 -0.402197 -0.394066
  543 25.3239 0.936573 -2.87464
  544 22.2132 -1.51374 0.507851
  545 23.7487 2.73295 -1.92468
  546 24.1603 -0.262368 1.05420
  547 30.6740 1.42624 0.0989747
  548 20.4807 -0.706264 -0.00448821
  549 20.4732 -0.702941 0.00330581
  550 22.3821 -1.04984 0.567450
  551 33.4856 6.48422 0.00720634
  552 23.4570 1.02802 2.70312
  553 9.90518 2.57020 6.13497
  554 23.0013 -1.38656 4.95306
  555 30.8523 1.25667 -5.39281
  556 23.9937 1.98855 -2.52704
  557 21.4999 -1.84152 -4.27694
  558 23.2538 -2.53895 -0.628532
  559 24.3671 -2.45108 -1.02598
  560 3.04293 3.81623 -3.62532
  561 24.4759 -0.282566 -0.682542
  562 37.1260 7.26405 -1.94902
  563 22.5099 -1.00354 -0.611497
  564 22.7198 -0.722380 0.503090
  565 22.6980 -0.704499 -0.486448
  566 15.1009 -0.102316 -0.185179
  567 15.1028 -0.100968 0.183507
  568 1.89893 0.237214 -1.16706
  569 2.02998 0.247818 1.19609
  570 11.2130 -0.541236 -2.44377
  571 11.3058 -0.543866 2.43756
  572 23.0245 -1.23708 -1.04458
  573 23.5422 -2.54890 0.696435
  574 24.2069 -2.28413 0.441744
  575 19.5467 -0.346462 -0.0528825
  576 19.5450 -0.343480 0.0524930
  577 18.6663 -1.94724 -3.66653
  578 21.0634 -1.71176 4.54069
  579 18.1867 -1.82881 3.69145
  580 23.6192 -0.517061 -2.57433
  581 14.3029 -0.261508 0.721862
  582 14.2964 -0.264421 -0.729228
  583 22.3312 1.22397 -2.08944
  584 22.4104 -0.0386858 -0.983957
  585 28.1995 6.21291 -0.697104
  586 18.1187 -0.286802 -0.0598226
  587 18.1184 -0.284553 0.0594236
  588 24.1100 -0.0659047 -0.568946
  589 16.2298 -0.582593 -0.777382
  590 16.2284 -0.580047 0.769169
  591 13.4234 0.660392 5.90956
  592 23.4688 -1.06623 -1.49002
  593 12.8179 -0.658498 4.23122
  594 23.0603 -1.18447 1.06098
  595 24.3923 -0.318477 0.748527
  596 24.1297 -0.187160 -0.192321
  597 16.3761 -0.222320 -0.164920
  598 16.3770 -0.220300 0.163680
  599 27.0206 5.45918 -1.33023
  600 12.8101 -0.630386 -4.25005
  601 22.9869 -0.980719 -0.866235
  602 20.5839 -0.374682 -0.0147078
  603 20.5815 -0.371376 0.0146058
  604 39.6855 5.38714 -0.922910
  605 13.1255 -0.0958052 0.403073
  606 13.1139 -0.0967894 -0.407616
  607 21.0729 0.468156 1.77947
  608 31.0637 2.47469 -0.841616
  609 14.3391 0.139634 -5.87380
  610 7.05848 0.211619 -3.14800
  611 7.12343 0.166754 3.13079
  612 17.8883 -1.08139 0.938960
  613 18.0921 -1.11321 -0.905257
  614 31.1827 6.26206 0.951808
  615 24.0195 -0.195232 0.177592
  616 20.0470 0.541388 -1.06934
  617 25.3912 4.61259 1.18051
  618 25.2856 4.78879 -0.784696
  619 20.7915 -1.16549 -0.0245084
  620 20.9606 -1.13710 -0.0525274
  621 15.0024 3.22579 -8.51524
  622 17.6322 -0.633195 -0.505950
  623 17.6324 -0.625338 0.503375
  624 46.9509 9.58538 7.18163
  625 23.6166 -0.763062 2.25192
  626 13.0134 -0.490259 -1.56596
  627 37.8140 8.11321 5.06165
  628 13.0455 -0.487095 1.55843
  629 22.8357 -0.887198 -5.83132
  630 15.4003 -0.0913736 -0.0686050
  631 15.4019 -0.0905545 0.0681300
  632 19.2345 0.159218 0.931190
  633 8.43175 -0.135637 -1.41161
  634 8.48655 -0.135932 1.39888
  635 20.5124 -1.47326 0.277366
  636 21.5865 -1.74188 0.0769635
  637 25.8072 -0.0432280 -0.249193
  638 13.7158 -0.0285667 0.110499
  639 13.7119 -0.0290368 -0.112019
  640 19.2293 -0.441337 -0.0636296
  641 19.2278 -0.438321 0.0626936
  642 22.4279 -2.47397 2.77602
  643 25.6295 2.87428 -2.59752
  644 16.7149 -0.818032 -1.00639
  645 16.7000 -0.803690 0.997743
  646 20.1089 -1.47400 -0.461228
  647 32.0869 7.05601 -0.0260810
  648 24.0548 -2.31535 -0.302165
  649 20.6701 -0.489385 0.0175947
  650 20.6665 -0.486331 -0.0173811
  651 28.8184 3.12597 2.16657
  652 24.0551 -0.327340 -1.14670
  653 20.8554 -0.0332041 -0.882910
  654 9.41231 -0.318902 -3.05887
  655 9.44521 -0.329186 3.03079
  656 20.0715 -1.75943 -0.825684
  657 30.3493 6.80572 0.0343322
  658 23.2625 3.16437 -0.832660
  659 15.0401 -0.155671 -0.349356
  660 15.0425 -0.153418 0.345759
  661 21.8815 -0.604655 -0.208285
  662 21.8858 -0.605971 0.213728
  663 41.8243 5.49540 2.39624
  664 26.3234 -0.0549392 0.0731803
  665 25.2252 -0.0851769 0.418640
  666 25.1058 -0.0893222 -0.482772
  667 23.7343 -2.19958 0.643388
  668 16.9979 -0.214383 -0.0825728
  669 16.9985 -0.212623 0.0820510
  670 25.1595 4.07068 1.80635
  671 32.6773 7.31627 -0.170262
  672 17.4752 -1.34049 -1.42843
  673 17.4671 -1.32621 1.41953
  674 22.2031 -2.29387 -0.238810
  675 23.2544 1.38145 -2.53891
  676 28.0957 0.0578664 1.38931
  677 18.1348 -0.352749 -0.149752
  678 18.1344 -0.350051 0.148811
  679 15.6927 -1.39576 -3.00177
  680 23.5011 -2.26534 -0.417161
  681 19.3877 -2.15491 2.60920
  682 9.11714 2.92411 -5.90893
  683 17.9809 -1.69515 2.00879
  684 21.6510 0.00507877 0.822223
  685 15.7052 -1.37927 2.97894
  686 22.9723 -1.00121 0.876829
  687 17.9908 -1.68883 -2.03011
  688 18.0197 0.218082 0.194089
  689 13.9004 -0.403067 1.10298
  690 13.8877 -0.403884 -1.11244
  691 19.4048 -2.21123 -2.64010
  692 24.1411 -1.57727 -1.82435
  693 22.0858 -0.284496 -0.0513107
  694 22.0890 -0.288094 0.0515160
  695 24.7068 -1.55683 1.82930
  696 22.3866 -2.34190 0.322903
  697 27.2999 2.50461 2.60898
  698 24.5405 -0.446261 2.71642
  699 23.6118 -0.831566 1.69529
  700 22.2831 1.82505 -1.58449
  701 27.1218 4.59544 2.05184
  702 23.3529 -0.315784 -1.59766
  703 23.3809 -0.755179 0.933357
  704 23.9166 3.77366 0.451382
  705 23.7418 -0.388772 1.41406
  706 7.31052 4.93595 6.16822
  707 22.1363 -2.54060 -1.50625
  708 25.6386 0.477722 2.78455
  709 25.9670 -0.792986 -2.08795
  710 26.1538 -0.0189332 0.144329
  711 23.6210 -0.792748 -1.36127
  712 22.1622 -2.56114 1.34810
  713 44.1035 3.90155 -0.658280
  714 12.5569 -0.0623672 0.422945
  715 12.5407 -0.0630996 -0.427732
  716 24.0444 -0.409482 -0.667648
  717 26.3266 -0.0130707 -0.138881
  718 20.0289 -1.78721 0.830647
  719 24.2299 -0.887722 2.48717
  720 37.6386 8.64502 -2.15026
  721 22.9642 -1.66071 0.937054
  722 25.6080 -1.67153 -1.22356
  723 23.3916 -0.733478 -0.919141
  724 26.3526 -0.0285037 -0.0515198
  725 23.5469 0.00369386 2.76863
  726 1.02424 0.706270 1.18448
  727 27.0946 -1.09554 -3.63002
  728 29.3374 1.68671 1.52695
  729 24.3284 -2.47272 0.881063
  730 16.8304 -0.430929 0.418225
  731 16.8318 -0.437382 -0.421014
  732 23.4038 10.8440 -11.7299
  733 24.7222 -1.61997 -1.71173
  734 17.9417 0.0740629 -0.370772
  735 21.3308 0.108741 1.74605
  736 23.7736 -1.17634 2.03389
  737 22.7894 -1.92029 0.586978
  738 23.8837 -2.16079 -2.98045
  739 22.6373 -1.79128 -0.619857
  740 27.0078 -1.29363 -0.647477
  741 24.8428 -0.174246 0.397108
  742 21.9425 -1.32164 0.387400
  743 40.7385 8.16361 -4.23884
  744 23.5156 -0.605047 0.752421
  745 23.0459 0.373701 -2.67317
  746 19.9075 -0.237648 6.59140
  747 24.7838 2.00756 2.76231
  748 21.3058 -1.69192 0.0417821
  749 16.2057 -1.31168 -2.17761
  750 16.2046 -1.30728 2.15708
  751 22.4500 2.52438 -0.371300
  752 22.9959 -0.261579 2.40820
  753 23.3039 -0.547120 -2.08310
  754 21.9688 -1.34759 -0.396171
  755 21.2109 -1.91785 0.360039
  756 24.1113 4.01362 -0.516411
  757 22.7597 -1.96929 -0.496497
  758 22.8098 -1.43848 0.900604
  759 23.1943 -0.266126 0.154507
  760 23.2110 -0.257697 -0.153957
  761 31.2159 6.94423 0.339721
  762 25.6503 -2.16866 -0.456910
  763 23.6954 -0.706891 1.35085
  764 24.8627 -0.172673 -0.365249
  765 24.9068 0.174934 -2.84869
  766 28.6009 1.46654 -1.89502
  767 13.2343 -0.0191185 -0.193672
  768 13.2425 -0.0188941 0.191265
  769 0.170593 -0.501894 -0.363410
  770 24.1720 -0.0205232 0.528531
  771 21.8883 -0.0455182 -1.94330
  772 22.7181 -0.211345 1.73624
  773 21.1858 2.44560 9.79821
  774 25.8931 5.39779 -0.0632309
  775 18.2637 -1.34531 1.07892
  776 2.83333 0.0786228 -1.17300
  777 2.93496 0.0591637 1.18626
  778 22.4877 -0.161639 -1.94848
  779 18.3204 -1.35978 -1.07775
  780 24.7107 -0.191052 0.311025
  781 12.0513 -0.538280 2.08857
  782 11.9405 -0.536740 -2.09181
  783 23.5165 -0.586290 -0.733779
  784 14.4692 -0.395187 -0.955164
  785 14.4760 -0.392258 0.944983
  786 24.5391 -0.209242 -0.804885
  787 18.3423 -0.510504 -0.262017
  788 18.3418 -0.506641 0.261961
  789 26.8414 -0.170234 -2.11274
  790 23.9464 -0.243851 -2.79875
  791 11.5727 -0.0828018 -0.544964
  792 11.5978 -0.0820458 0.537717
  793 0.361184 0.301708 -0.675380
  794 0.476169 0.317519 0.713055
  795 18.8967 0.0843785 -0.677792
  796 21.9218 -2.46499 -1.06953
  797 -0.263588 -0.186378 0.443842
  798 -0.227161 -0.212336 -0.435511
  799 22.8518 -0.432076 0.320959
  800 24.8523 -1.92397 -1.10294
  801 25.4482 3.79827 -2.11730
  802 24.8316 -0.169557 -0.294524
  803 55.0525 10.8197 -10.3364
  804 22.8475 -0.430149 -0.317138
  805 34.6587 6.70067 0.445844
  806 24.3520 0.714321 -2.90821
  807 27.0677 2.03803 -2.65641
  808 4.04829 -0.0487187 -1.09675
  809 4.13972 -0.0556242 1.09433
  810 14.6794 -0.232978 0.556291
  811 14.6751 -0.235106 -0.562427
  812 13.8531 -0.0407774 0.102109
  813 13.8503 -0.0411805 -0.103171
  814 27.2696 4.61726 -2.04520
  815 15.5840 -0.112978 -0.145829
  816 15.5855 -0.111611 0.144709
  817 23.0707 -0.231189 -2.51003
  818 34.2850 3.17199 2.39390
  819 20.4731 0.437849 -1.49278
  820 6.68711 -0.0642086 1.18982
  821 6.61946 -0.0647569 -1.20049
  822 27.5480 0.590610 6.92784
  823 24.0137 -0.413134 0.689103
  824 21.0004 1.37646 -0.622907
  825 9.27837 -0.0199392 0.819924
  826 9.22306 -0.0153478 -0.826967
  827 14.2291 -0.0856437 -0.268867
  828 14.2332 -0.0844071 0.265717
  829 2.49206 2.24999 1.82390
  830 22.0298 0.514703 2.23867
  831 24.6534 3.64858 -1.79498
  832 26.7146 3.10647 -2.60431
  833 17.1737 -0.682238 -0.684621
  834 17.1614 -0.676302 0.682750
  835 27.5829 5.95238 0.949874
  836 24.0293 -0.164307 -0.0435091
  837 24.0294 -0.162960 0.0478819
  838 23.6072 -0.691341 -1.69702
  839 19.5932 -1.33312 0.558645
  840 21.7762 -2.45022 1.08149
  841 25.8661 -2.11911 1.72074
  842 19.3761 -0.574110 -0.116304
  843 19.3750 -0.571320 0.114852
  844 22.1281 2.04478 1.01352
  845 20.6875 0.267234 -1.61687
  846 5.76064 6.31978 6.41385
  847 21.2821 -1.90295 -0.305901
  848 21.3377 -0.955225 0.186906
  849 21.3496 -0.956191 -0.187751
  850 23.4807 -0.338871 2.65386
  851 23.3840 -1.52708 -1.35061
  852 20.7530 -1.39248 -0.115351
  853 49.4754 1.60629 -2.51898
  854 19.6935 -1.89056 1.20364
  855 19.6802 -1.91640 -1.22618
  856 23.4857 -0.272429 1.36298
  857 35.9275 9.17232 -1.63254
  858 18.4055 -1.70698 -1.56865
  859 20.4857 -2.32218 1.43246
  860 18.3970 -1.68528 1.55267
  861 20.0054 -0.818444 -0.115756
  862 20.0037 -0.814902 0.114129
  863 2.76586 1.24476 1.59680
  864 25.2671 1.89575 -2.81955
  865 19.1296 -0.766607 -0.259816
  866 19.1324 -0.758118 0.261003
  867 18.8511 -0.319066 -0.0299525
  868 18.8501 -0.316450 0.0296345
  869 20.9251 -0.404377 0.0426544
  870 20.9223 -0.401155 -0.0426866
  871 16.6713 -0.351269 -0.365479
  872 16.6714 -0.347002 0.363364
  873 19.2205 -1.03920 -0.422134
  874 19.2220 -1.03097 0.423816
  875 0.421152 -0.340349 -0.102179
  876 29.4352 5.52663 1.66368
  877 25.2979 -0.872717 -2.35008
  878 20.4733 -2.28919 -1.45102
  879 22.1743 -0.700503 0.334292
  880 22.1638 -0.692286 -0.327153
  881 24.1529 0.0391332 2.85624
  882 26.5942 -1.89819 -0.787759
  883 23.6545 1.52785 -8.45547
  884 10.2816 -0.138917 4.09915
  885 -0.545682 0.240677 -0.225356
  886 -0.488780 0.270687 0.257144
  887 2.74074 1.32432 -1.62750
  888 23.7075 -0.659340 1.08560
  889 25.1018 -0.139244 -0.464398
  890 22.5015 -2.14839 3.48347
  891 10.2560 -0.125728 -4.11760
  892 25.0827 -2.03436 0.865397
  893 28.2211 -0.905520 2.90124
  894 19.6680 0.0749697 0.720390
  895 22.8752 2.17711 1.73704
  896 12.1236 -0.695169 3.04044
  897 12.0743 -0.700940 -3.06358
  898 14.5779 -0.728560 -1.69421
  899 15.6183 -0.734031 -5.26199
  900 24.9975 -0.569742 2.58905
  901 34.7645 8.01093 0.759211
  902 25.0353 0.973906 2.87519
  903 23.6736 -0.490058 -1.53923
  904 15.9632 -0.657910 5.39532
  905 30.3871 5.56999 -1.35224
  906 2.81343 2.44391 -2.27234
  907 21.5863 -0.0481894 -0.784320
  908 14.5930 -0.722088 1.67666
  909 17.9828 -0.414276 0.235486
  910 17.9833 -0.417596 -0.236337
  911 23.4204 -1.51915 1.38855
  912 24.5069 -0.120609 0.127020
  913 17.8785 0.183341 -6.57955
  914 25.9252 -0.0448167 0.221312
  915 25.6834 -0.0353319 -0.275991
  916 18.4164 0.149875 -0.620186
  917 24.6670 -0.0950581 -0.471856
  918 18.0783 -0.878453 -0.607331
  919 18.0904 -0.864324 0.608757
  920 -0.652868 0.207626 -0.383523
  921 -0.873984 0.125013 0.395191
  922 24.5083 -0.109881 -0.126853
  923 7.63655 -0.164911 2.75871
  924 7.58389 -0.146591 -2.77642
  925 25.9008 3.80672 2.24900
  926 48.2624 0.865793 0.790922
  927 24.2990 2.71785 2.30962
  928 28.0284 -1.02053 0.552259
  929 24.0820 -1.32673 2.06520
  930 30.0579 6.33431 -1.02487
  931 17.9694 0.0624310 0.466506
  932 23.2042 -0.518814 -0.484352
  933 23.9377 1.28971 -2.79064
  934 29.4166 0.804102 -0.897804
  935 22.5490 -1.38919 -0.742384
  936 10.9061 -0.0689111 -0.613355
  937 10.9201 -0.0665163 0.603773
  938 23.8546 -0.539115 -1.23802
  939 0.702720 0.923470 0.0846619
  940 22.8859 -2.37044 0.00923718
  941 19.2931 0.545447 -0.0643558
  942 29.7987 6.62499 -0.682894
  943 4.49812 3.36684 -3.89078
  944 22.7212 -0.167998 -1.55628
  945 15.3464 -0.280874 -0.513393
  946 15.3482 -0.277333 0.507970
  947 0.107832 -0.683922 0.531815
  948 15.2018 -1.16390 -2.43464
  949 23.2945 -1.33529 -1.30385
  950 13.7751 0.0291478 -0.0410378
  951 13.7767 0.0293363 0.0406566
  952 23.2914 2.83496 -1.39928
  953 25.5475 -0.0469791 -0.0451504
  954 25.5460 -0.0482988 0.0578776
  955 15.2066 -1.16002 2.41554
  956 23.4887 -0.0247558 -0.622801
  957 27.3049 0.195990 2.06133
  958 24.1849 -0.311793 0.541130
  959 3.56325 0.972388 -2.06900
  960 25.1624 -0.127993 0.423613
  961 22.4152 0.172436 2.40934
  962 23.6510 3.29533 1.24552
  963 23.7847 0.278365 -2.86437
  964 16.0743 -0.899743 -1.43163
  965 25.8963 -0.900538 2.02539
  966 16.0839 -0.895534 1.41478
  967 0.659397 0.752033 0.0415990
  968 2.54159 0.487427 1.51112
  969 12.8708 -0.247986 1.00430
  970 12.8539 -0.248538 -1.01136
  971 23.2198 -0.530293 0.506288
  972 24.7274 4.34319 0.699373
  973 12.5021 1.18611 -6.19110
  974 20.7085 -1.30899 0.0855695
  975 19.4267 -2.05082 -1.88689
  976 28.5472 5.50719 1.65636
  977 21.8917 -0.366458 0.0782960
  978 21.8913 -0.363971 -0.0783221
  979 24.1169 -0.420880 -0.908025
  980 21.9047 1.88092 -0.936050
  981 52.5227 15.1137 10.2099
  982 4.26004 0.271023 -2.04046
  983 4.33919 0.226089 2.04625
  984 0.315952 -0.592571 0.0172432
  985 21.9998 1.20688 1.92104
  986 19.4163 -2.06245 1.87089
  987 24.2435 -1.13243 -2.31747
  988 26.4045 2.16830 2.82824
  989 25.6021 -2.06528 -2.18994
  990 37.5484 7.93802 2.44205
  991 21.4560 -0.329164 0.00589409
  992 21.4532 -0.325859 -0.00581758
  993 25.2811 -1.01369 2.24222
  994 1.67603 2.40370 2.75414
  995 10.7880 -0.243706 1.44792
  996 10.7502 -0.240648 -1.46603
  997 13.0817 -0.671944 1.96666
  998 13.0338 -0.662426 -1.97599
  999 14.8084 -0.643735 1.39497
  1000 16.1817 -0.145425 -0.0684059
  1001 16.1829 -0.144233 0.0680418
  1002 43.0910 13.0842 -8.11430
  1003 38.2854 9.57161 3.65897
  1004 14.7967 -0.647576 -1.40895
  1005 26.0550 -0.107233 2.46133
  1006 22.9899 2.38860 -1.67765
  1007 16.2346 -1.38061 4.35225
  1008 21.0637 -2.48541 -2.23141
  1009 24.1128 -0.185563 -0.927925
  1010 10.6052 0.777586 5.00738
  1011 13.6308 -1.04736 3.47991
  1012 20.9219 1.05439 -1.19659
  1013 24.3440 -0.470925 -2.73999
  1014 32.5209 11.9355 13.5223
  1015 19.6315 0.581141 0.845745
  1016 27.2757 5.96598 -0.113074
  1017 20.2680 0.760610 -7.49880
  1018 20.3601 -2.16371 -1.21861
  1019 26.3688 -0.0114267 -0.114526
  1020 24.8358 2.29114 -2.69305
  1021 13.9875 -0.104713 0.351215
  1022 13.9817 -0.105809 -0.355314
  1023 0.487900 -0.000119780 -0.606373
  1024 16.0659 -0.770139 -1.18777
  1025 13.6158 -1.06125 -3.50963
  1026 16.0506 -0.767782 1.17217
  1027 23.7673 -0.712719 2.53289
  1028 21.2726 -1.32475 0.119704
  1029 22.1994 0.399911 -2.32811
  1030 22.8252 2.85931 0.488763
  1031 31.8822 1.74571 0.667759
  1032 23.6154 -1.78450 1.35026
  1033 14.5702 -1.19334 -2.66539
  1034 21.9784 0.765848 -2.17022
  1035 16.3909 -1.36046 -4.37959
  1036 31.9119 7.03206 -0.0478273
  1037 21.2745 1.38219 1.08829
  1038 27.5484 -0.173663 -1.66644
  1039 20.4888 -2.16325 1.10137
  1040 23.5604 -0.733396 1.98035
  1041 23.4455 -1.22588 1.49519
  1042 23.3180 -1.16027 1.31272
  1043 28.9590 3.65109 -2.21174
  1044 23.1826 -0.366479 1.97218
  1045 21.0213 -2.49249 2.19243
  1046 22.4458 -0.905624 0.513274
  1047 14.5784 -1.19501 2.64743
  1048 20.9902 -1.56549 -0.119285
  1049 11.9268 -0.570024 -3.72510
  1050 17.2864 -1.80899 2.92214
  1051 23.6687 -0.149698 -1.06606
  1052 22.9615 -0.255732 -2.22378
  1053 19.8443 -1.59776 -0.700645
  1054 11.9478 -0.588418 3.69205
  1055 21.2056 0.0431599 -1.51849
  1056 15.6650 -1.07749 -1.86937
  1057 29.0400 6.25618 1.07739
  1058 6.16597 1.08489 -3.45979
  1059 51.7041 3.66489 5.08994
  1060 11.3935 0.904133 -5.25763
  1061 23.3265 -1.92633 -0.920337
  1062 15.6675 -1.06746 1.85151
  1063 20.9487 0.207092 1.68900
  1064 11.3890 -0.247822 1.19695
  1065 11.3817 -0.254114 -1.21066
  1066 23.5340 -0.646212 -2.34253
  1067 25.3742 -0.0989562 0.187241
  1068 24.6860 -0.0454276 0.479213
  1069 24.2582 0.814218 2.89551
  1070 22.5843 -0.169910 2.07919
  1071 17.7003 1.85159 8.12687
  1072 26.5621 -0.00868819 0.0592638
  1073 24.3298 3.31952 1.84019
  1074 20.3128 0.278291 1.44858
  1075 25.0607 -0.0843578 0.464469
  1076 15.4808 -0.187158 -0.281220
  1077 15.4823 -0.184928 0.278805
  1078 9.68587 -0.288798 -1.99264
  1079 9.72933 -0.299101 1.97640
  1080 20.3762 0.995753 0.605476
  1081 32.0544 1.53626 -1.88003
  1082 29.4352 -0.160365 -4.06206
  1083 22.8371 -0.0167594 -0.640196
  1084 17.2972 -1.82307 -2.94629
  1085 19.8852 -1.51911 0.610158
  1086 22.9854 -0.0496393 0.668962
  1087 24.2772 -1.74685 -1.56798
  1088 14.4793 -0.0437768 0.172243
  1089 14.4770 -0.0444845 -0.173619
  1090 23.2806 -1.98163 0.920284
  1091 22.0828 -0.430575 0.133922
  1092 22.0793 -0.430779 -0.132116
  1093 21.4584 -2.17423 0.607249
  1094 28.0686 -0.926419 0.0719194
  1095 11.8796 -0.0245342 -0.338297
  1096 11.9010 -0.0236768 0.334065
  1097 18.8656 -1.16495 -5.01725
  1098 19.8862 -0.476595 0.0452531
  1099 19.8888 -0.479866 -0.0461959
  1100 12.1420 6.33270 8.91524
  1101 28.0043 2.27788 -2.42997
  1102 3.86001 1.95294 -2.53423
  1103 24.2052 -0.330679 -0.523993
  1104 6.15788 2.19314 -3.96022
  1105 12.9610 -0.842211 -2.54133
  1106 26.5968 -0.0135539 0.0330752
  1107 26.6114 -0.0117561 -0.0251190
  1108 23.6800 -1.33930 -1.78710
  1109 20.9822 -2.34109 -3.13944
  1110 6.16698 0.923359 3.29708
  1111 25.7205 2.55966 2.65450
  1112 23.4862 -0.201659 -0.0522368
  1113 23.4878 -0.202037 0.0547594
  1114 25.8753 -1.69765 3.78080
  1115 26.2548 5.32663 1.03837
  1116 15.1516 -0.393915 -0.743748
  1117 15.1543 -0.391723 0.737102
  1118 11.6908 1.37926 6.24157
  1119 22.1498 0.105328 -2.25836
  1120 6.75762 2.24287 4.27608
  1121 29.2122 -0.559272 -0.979285
  1122 28.1954 6.34076 0.334603
  1123 19.2327 -1.55480 0.896295
  1124 17.2170 0.0771365 -0.0907678
  1125 24.8254 -0.197133 0.611670
  1126 25.8113 -0.0197967 0.240787
  1127 5.04281 0.0135029 -0.994406
  1128 5.12727 0.0105710 0.986744
  1129 19.6017 0.306930 -1.06891
  1130 20.5748 -0.605532 0.0134392
  1131 20.5693 -0.601916 -0.0137111
  1132 2.09074 2.76751 -2.91583
  1133 3.39787 6.58540 -6.10458
  1134 20.8620 -0.817877 -0.0624307
  1135 20.8715 -0.818669 0.0616119
  1136 21.6193 -0.507223 0.151902
  1137 21.6161 -0.505633 -0.149625
  1138 5.47008 3.52713 4.26565
  1139 16.6469 -0.224410 -0.128486
  1140 16.6477 -0.222569 0.127609
  1141 21.1445 1.58240 -0.0267324
  1142 28.1813 3.14905 -9.41977
  1143 26.1683 4.55135 -1.77644
  1144 23.9419 -0.907837 -2.41645
  1145 23.5995 -1.16347 -1.79521
  1146 19.2496 -1.57029 -0.913096
  1147 18.9863 0.0537024 0.659910
  1148 21.6849 1.33811 -1.60370
  1149 21.3509 1.13298 1.52704
  1150 22.4303 -0.877867 -0.505221
  1151 21.3306 -1.29691 -0.134447
  1152 19.2585 -1.27666 -0.651413
  1153 23.0588 -0.130821 1.24863
  1154 42.0167 4.26833 0.601304
  1155 23.2450 -0.488694 2.27675
  1156 23.2297 1.52732 2.43765
  1157 21.5629 -2.13597 -0.398746
  1158 2.38533 0.449865 -1.45404
  1159 21.9690 -1.01115 -0.406844
  1160 13.8816 -0.0298916 -0.00669350
  1161 13.8828 -0.0297868 0.00656130
  1162 27.0516 -0.712642 1.46549
  1163 25.7923 -2.16262 0.608548
  1164 37.2505 6.74842 1.53910
  1165 8.14221 -0.0228304 -0.838414
  1166 8.20035 -0.0209436 0.831042
  1167 19.4161 -0.397579 -0.0509780
  1168 19.4144 -0.394577 0.0502920
  1169 22.0510 -1.95383 0.158028
  1170 17.3879 0.0683013 0.296037
  1171 22.6029 -1.60804 0.730454
  1172 1.16328 1.38516 -0.556490
  1173 3.82787 1.97613 2.48266
  1174 14.9356 -0.782304 4.85632
  1175 26.0316 5.01874 -1.26544
  1176 25.1634 -0.0620409 -0.365878
  1177 26.7212 -0.0343274 0.0257395
  1178 26.7536 -0.0503101 -0.0181747
  1179 14.5505 -0.0467792 -0.0258218
  1180 14.5521 -0.0464407 0.0255317
  1181 23.9797 1.54069 2.78648
  1182 36.1281 6.27609 -0.131784
  1183 24.6538 4.11502 -1.25603
  1184 18.5270 -1.33593 4.98395
  1185 14.8556 -0.747833 -4.84819
  1186 16.3809 -1.13772 -1.66171
  1187 23.2239 -0.624826 0.630031
  1188 32.6541 7.13686 -0.148135
  1189 16.3800 -1.13001 1.64617
  1190 23.7937 -0.383845 0.478066
  1191 20.7318 0.750895 1.45329
  1192 23.1239 0.713667 2.66207
  1193 33.4851 7.52001 0.492298
  1194 19.4592 -0.516854 0.0994637
  1195 19.4611 -0.519982 -0.100736
  1196 24.0780 -0.425029 0.941086
  1197 13.5952 -0.162899 0.556342
  1198 13.5856 -0.164660 -0.562544
  1199 23.5796 -0.287204 -0.233066
  1200 9.53609 5.61463 -8.56433
  1201 20.3944 -1.13463 -5.33148
  1202 18.8811 -0.611020 -0.225418
  1203 18.8822 -0.607611 0.225382
  1204 25.5024 -0.0923367 0.163854
  1205 23.9592 -0.279605 0.384827
  1206 1.20197 1.42345 0.993364
  1207 26.3096 -0.0190296 0.132205
  1208 2.93297 3.58344 3.55246
  1209 23.3531 -0.316177 -0.295197
  1210 -0.0437343 -0.591403 -0.514588
  1211 16.2441 -1.58189 -3.74476
  1212 16.1926 -1.54236 3.70414
  1213 26.3105 -0.0369189 -0.144197
  1214 22.1169 -1.16399 -0.469899
  1215 25.4764 -0.0813136 -0.172431
  1216 19.9345 -0.653727 -0.0635518
  1217 19.9314 -0.650545 0.0616730
  1218 23.5630 -0.284560 0.220848
  1219 21.9524 -0.991976 0.402551
  1220 21.0570 -0.672957 -0.106847
  1221 21.0656 -0.675615 0.109930
  1222 25.4622 -0.0839636 -0.142241
  1223 21.7782 -2.27446 -3.55921
  1224 24.8484 -0.118116 -0.150071
  1225 23.4613 -0.326445 0.311968
  1226 15.7544 -0.194643 -0.202447
  1227 15.7558 -0.192614 0.200777
  1228 17.8314 -0.276512 -0.0906359
  1229 17.8314 -0.274250 0.0899232
  1230 29.7097 4.60433 1.92514
  1231 24.9146 -1.89496 1.25759
  1232 16.9417 -0.0570428 6.19312
  1233 12.9102 -0.0292227 0.212897
  1234 12.8992 -0.0295023 -0.215525
  1235 23.4293 -0.422495 1.72885
  1236 22.5014 -0.312061 0.0843826
  1237 22.5033 -0.310686 -0.0843259
  1238 25.5792 5.04421 0.584959
  1239 23.7465 -2.47360 2.73510
  1240 13.0311 -0.203261 0.791951
  1241 13.0174 -0.204996 -0.799072
  1242 22.4501 -0.526284 0.283449
  1243 22.4455 -0.529593 -0.277444
  1244 23.2126 -0.615834 -0.610176
  1245 20.8833 0.00120914 0.787910
  1246 37.3671 9.26962 -2.79760
  1247 23.5985 -0.846771 -1.58236
  1248 3.74605 0.957953 2.13467
  1249 24.4122 -1.28468 2.18980
  1250 19.0003 0.392126 -0.583388
  1251 1.31412 1.05873 0.689071
  1252 32.7004 3.44645 0.242443
  1253 23.7958 -1.06993 -2.17750
  1254 19.1017 0.252292 0.892028
  1255 13.0581 -0.843033 2.53386
  1256 24.2504 -1.86257 1.42843
  1257 35.8704 6.45279 1.48710
  1258 7.81925 1.21295 4.22700
  1259 24.4240 -0.262948 -0.807045
  1260 48.7041 0.530950 -0.506141
  1261 50.4748 0.770928 2.27892
  1262 54.1247 1.90377 -5.36895
  1263 23.5314 -0.720153 -1.92435
  1264 23.5699 -1.06079 1.68680
  1265 23.9840 -1.69298 1.63698
  1266 -0.713248 0.0685604 0.462795
  1267 -0.653319 0.0507110 -0.498646
  1268 23.4031 -2.57213 -1.12611
  1269 24.0402 -2.41436 -1.81351
  1270 17.5332 0.101284 -0.366950
  1271 23.3207 -2.62239 1.82829
  1272 24.8560 -1.16375 -2.23143
  1273 0.374690 0.689544 -0.0226752
  1274 19.9465 -0.361511 0.0535494
  1275 19.9484 -0.364630 -0.0536933
  1276 24.8253 -0.171484 0.560540
  1277 23.7958 -0.376053 -0.452415
  1278 22.3048 -2.43792 -0.493193
  1279 20.1961 -1.11234 0.190153
  1280 20.0872 -1.09781 -0.224918
  1281 23.9403 -0.484886 1.25302
  1282 24.5163 -0.886700 -2.50426
  1283 1.36686 1.10431 -0.652372
</Section>

newXOutput 5

<Section columns = "stress_xx | stress_yy | stress_xy">
  1 35.8443 0.00831833 0.0781974
  2 35.8494 0.00855502 -0.0785349
  3 18.1494 -0.0120066 -0.0283907
  4 -0.236354 -0.235586 -0.339394
  5 67.4796 24.6443 20.6437
  6 66.8098 25.6363 -20.8717
  7 -0.273946 -0.225611 0.358785
  8 18.1480 -0.0120895 0.0282866
  9 36.1300 -0.0526248 0.0264135
  10 36.0358 -0.0864313 -0.0118877
  11 35.9219 -0.0508124 0.0963465
  12 35.8109 -0.0762686 0.0378678
  13 35.5751 -0.0617868 0.152373
  14 35.3648 -0.0640266 0.117903
  15 34.8934 -0.0573730 0.215350
  16 34.2473 -0.0303875 0.314448
  17 33.6654 -0.0377121 0.344267
  18 32.8253 -0.0622704 0.409799
  19 31.6883 0.00347374 0.597235
  20 30.6369 -0.0461057 0.560553
  21 29.4751 -0.0656019 0.780282
  22 27.7922 0.0475385 0.671623
  23 26.6005 0.0644010 0.787924
  24 25.0484 0.113043 0.610952
  25 23.9866 0.107817 0.613297
  26 22.4453 0.161167 0.310857
  27 22.1266 0.255524 0.331567
  28 21.9371 0.203585 -0.0972709
  29 22.2029 0.107791 -0.216881
  30 22.6889 0.111966 -0.264900
  31 23.8416 0.146825 -0.531468
  32 24.9606 0.115642 -0.677836
  33 26.6256 0.0177850 -0.807667
  34 27.9619 -0.0202443 -0.744186
  35 29.4056 -0.0530928 -0.739045
  36 30.7226 -0.0355165 -0.526508
  37 31.8731 -0.0345851 -0.455907
  38 32.8357 -0.0599880 -0.387930
  39 33.7101 -0.0395963 -0.277769
  40 34.2711 -0.0435905 -0.298079
  41 34.8124 -0.0594609 -0.219503
  42 35.3377 -0.0727290 -0.104552
  43 35.6112 -0.0566044 -0.117240
  44 35.7693 -0.0288065 -0.0766768
  45 35.6926 -0.00654558 -0.0695094
  46 36.0813 -0.0890894 0.00569560
  47 36.1458 -0.0556220 -0.0273058
  48 34.8093 0.00133988 -0.0480592
  49 33.9303 -0.107020 -0.0813732
  50 32.8720 -0.166431 -0.0606594
  51 31.5916 -0.266156 -0.0811225
  52 30.3908 -0.297886 -0.104116
  53 29.1183 -0.393247 -0.0975579
  54 28.0001 -0.449321 -0.0592862
  55 27.0202 -0.518929 -0.0286853
  56 25.8932 -0.434806 -0.0294879
  57 24.5952 -0.414615 -0.0383845
  58 23.3418 -0.334797 -0.0184453
  59 22.1514 -0.221115 -0.0103544
  60 21.0163 -0.163017 -0.00394779
  61 20.0143 -0.0906735 0.00590019
  62 18.9811 -0.0296989 -0.0332076
  63 18.1665 0.0242989 0.0334043
  64 17.8096 0.0787519 0.0195447
  65 18.0797 -0.00236456 0.0514136
  66 17.8292 -0.0147781 0.0606178
  67 17.6090 -0.0201416 0.0760960
  68 17.3032 -0.00613015 0.102313
  69 16.9159 -0.00373000 0.131115
  70 16.6500 -0.0300069 0.262157
  71 15.8074 0.0237422 0.288159
  72 15.2274 -0.00411145 0.335210
  73 14.3628 -0.0186450 0.378864
  74 13.3600 -0.0297823 0.463007
  75 12.1090 -0.00852136 0.562167
  76 10.5824 0.00581353 0.616157
  77 9.29462 -0.0182060 0.878539
  78 6.69479 0.0857090 0.820910
  79 4.96000 0.0744553 0.868701
  80 2.91420 -0.00939414 0.952337
  81 1.24761 0.171127 0.974697
  82 -0.633934 0.247498 0.554550
  83 -1.96177 0.249329 0.159941
  84 -1.81235 0.231602 -0.147221
  85 -1.63473 0.188488 -0.508117
  86 -0.951036 -0.0745586 -0.468298
  87 -0.126115 -0.913229 -0.512832
  88 0.0740534 -1.70381 -0.658801
  89 0.229595 -2.78114 -0.414175
  90 0.523799 -3.01283 -0.0837535
  91 1.12760 -1.30865 1.34376
  92 3.47186 4.27459 4.97139
  93 21.7550 18.1163 18.2288
  94 81.1874 11.9045 13.8535
  95 72.6186 1.72466 4.59920
  96 67.0097 0.696965 1.40761
  97 64.9282 0.582034 0.115702
  98 65.9936 0.787748 -1.20693
  99 72.3792 1.58524 -3.63350
  100 86.7503 5.76132 -12.1386
  101 12.7457 18.2236 -15.0827
  102 2.60872 2.46289 -4.03388
  103 1.22443 -1.18452 -1.35885
  104 0.486192 -3.05757 -0.132860
  105 0.119718 -2.15259 0.484113
  106 0.164562 -2.13895 0.577790
  107 0.00191611 -0.796812 0.566872
  108 -0.990848 -0.0545929 0.447603
  109 -1.68782 0.141334 0.447043
  110 -1.90573 0.282825 0.158584
  111 -2.02882 0.246990 -0.142880
  112 -0.771329 0.253749 -0.515577
  113 1.12308 0.172760 -0.927026
  114 2.78647 0.00816682 -0.936496
  115 4.82941 0.0806143 -0.871203
  116 6.57612 0.0881717 -0.828150
  117 9.20247 -0.0185575 -0.887133
  118 10.5032 0.00666569 -0.623077
  119 12.0402 -0.00815697 -0.570157
  120 13.3242 -0.0326491 -0.467349
  121 14.3164 -0.0179767 -0.380362
  122 15.1929 -0.00298403 -0.339322
  123 15.7798 0.0233860 -0.292019
  124 16.6311 -0.0302659 -0.265446
  125 16.9015 -0.00390078 -0.133166
  126 17.2931 -0.00628741 -0.104014
  127 17.6023 -0.0203975 -0.0774577
  128 17.8250 -0.0149964 -0.0615785
  129 18.0768 -0.00256291 -0.0520372
  130 17.8078 0.0786052 -0.0198441
  131 18.1649 0.0242357 -0.0335856
  132 18.9792 -0.0299293 0.0330852
  133 20.0122 -0.0912482 -0.00614074
  134 21.0143 -0.164315 0.00366094
  135 22.1502 -0.222931 0.0100723
  136 23.3414 -0.337410 0.0181736
  137 24.5960 -0.417882 0.0381750
  138 25.8952 -0.438549 0.0293034
  139 27.0231 -0.523028 0.0286226
  140 28.0034 -0.453378 0.0594278
  141 29.1227 -0.396940 0.0979536
  142 30.3939 -0.300494 0.105568
  143 31.5929 -0.268476 0.0879567
  144 32.8766 -0.154903 0.0620710
  145 33.9544 -0.103232 0.0796505
  146 34.8123 -0.00397159 0.0474076
  147 30.6756 -2.87777 -0.554548
  148 30.6533 -2.83969 0.565855
  149 31.8924 4.61068 -1.75116
  150 34.2960 2.03717 3.80164
  151 25.9352 -2.46773 -5.47663
  152 26.1362 -2.46777 5.28829
  153 24.8621 -1.08985 0.553711
  154 24.8659 -1.10621 -0.554850
  155 36.5830 1.29811 -3.09062
  156 30.5924 -1.07630 0.912388
  157 30.5805 -1.04850 -0.900490
  158 39.5416 8.96167 0.577874
  159 31.1371 -0.0480791 -3.62879
  160 22.7707 -1.84324 -2.41573
  161 22.7674 -1.82658 2.39081
  162 31.2437 -0.695711 3.31611
  163 29.3823 2.13051 2.11846
  164 11.9272 2.00298 -6.52559
  165 13.2962 1.89137 6.88764
  166 38.8745 0.374877 0.874550
  167 31.4187 -1.18616 -2.38455
  168 41.8577 9.21946 -0.628578
  169 28.1686 -0.785186 0.123363
  170 28.1619 -0.781815 -0.120307
  171 31.9866 -0.341965 -0.407793
  172 32.1025 -0.301518 0.355233
  173 21.5855 -0.340089 -0.358888
  174 21.5866 -0.336264 0.356267
  175 34.6900 -1.01332 6.94275
  176 28.3639 1.15513 -2.27681
  177 18.3736 -1.40273 -3.97953
  178 18.4297 -1.39203 3.94909
  179 20.5490 -0.718822 -1.26778
  180 20.5490 -0.709945 1.25605
  181 31.5907 -0.807385 2.02477
  182 28.6000 -1.97809 0.183934
  183 28.4901 -1.96323 -0.132278
  184 32.8273 -3.15374 -0.148189
  185 32.9865 -3.00390 -0.267936
  186 45.5855 10.6976 -1.09530
  187 32.5471 5.27467 1.64456
  188 32.7486 2.01996 -3.75311
  189 34.6234 -0.419501 -8.14856
  190 32.6671 -1.82614 -2.77731
  191 32.9375 -1.29518 3.20823
  192 27.3231 -3.11247 2.55033
  193 27.3382 -3.09197 -2.54046
  194 28.9313 0.355433 2.75345
  195 12.9112 -0.288772 -4.84025
  196 12.9467 -0.319676 4.80659
  197 51.8037 7.84002 1.08775
  198 30.8868 -1.82770 1.60432
  199 32.1227 -0.559603 -1.34956
  200 25.0041 -0.630715 -0.230062
  201 25.0033 -0.626742 0.228850
  202 30.5677 -0.391670 -2.54043
  203 34.9507 5.15982 -3.07768
  204 28.8283 2.57714 -0.426675
  205 18.3866 -0.693813 1.82113
  206 18.3568 -0.696613 -1.83750
  207 32.7186 -0.324526 0.770975
  208 31.4978 0.595545 3.72151
  209 25.4447 -1.89902 -1.05080
  210 25.2510 -1.79913 1.08911
  211 37.4309 5.55624 2.96253
  212 44.6783 5.78952 0.276017
  213 2.73055 2.22587 -1.64406
  214 2.51698 2.05784 1.38564
  215 18.0033 5.07024 11.7534
  216 30.5663 -2.02377 -1.30245
  217 32.8595 -0.312235 -0.698134
  218 28.5656 0.235437 -2.53310
  219 19.5560 -0.220617 -0.557165
  220 19.5608 -0.218010 0.551000
  221 27.3131 -1.29779 -0.0796995
  222 27.3252 -1.30458 0.0634444
  223 30.8730 -0.408637 2.17582
  224 36.1021 -2.10176 0.333213
  225 35.3005 7.31685 -0.912329
  226 27.6914 -2.70194 -1.06969
  227 35.3947 -0.604033 2.64689
  228 29.9882 -0.468713 0.185265
  229 29.9898 -0.464121 -0.184939
  230 27.4681 -2.68848 1.12747
  231 31.6564 -1.99095 2.29706
  232 45.4621 5.44911 -2.10553
  233 9.58490 5.72640 -8.31838
  234 26.1124 0.886510 0.535112
  235 31.5335 2.78988 3.12076
  236 33.9244 -0.223095 -3.46197
  237 31.5766 -1.12237 -3.13935
  238 16.1584 -0.552243 -2.30593
  239 16.2194 -0.543385 2.29598
  240 31.6569 -0.363334 -1.71254
  241 30.2020 -0.735798 0.519630
  242 30.1879 -0.733937 -0.505879
  243 5.89581 0.599027 -2.99871
  244 6.00651 0.525962 2.99027
  245 33.9618 -2.95624 -2.21727
  246 33.6718 -0.0785591 0.122037
  247 33.7163 -0.0804641 -0.127837
  248 30.7318 2.54654 -2.84314
  249 26.7008 0.485684 1.63771
  250 58.6498 9.41054 6.25593
  251 58.2466 6.63805 -3.96649
  252 41.1344 9.00866 -0.181116
  253 25.6261 -1.20958 7.36308
  254 23.4404 -0.756226 -7.72020
  255 26.7057 -0.546278 -0.0495541
  256 26.7025 -0.541989 0.0488003
  257 21.7900 -0.622428 0.742532
  258 21.7920 -0.631637 -0.750948
  259 32.6082 -0.322125 1.09473
  260 31.5365 -2.23153 -1.95275
  261 19.5920 -0.0509505 -0.125048
  262 19.5945 -0.0501704 0.123973
  263 31.1343 -1.23702 -1.53477
  264 12.5579 -0.424552 -3.18149
  265 12.6198 -0.426092 3.15507
  266 31.4793 -1.34717 2.56454
  267 23.8388 -2.53167 4.39251
  268 23.9090 -2.57745 -4.37969
  269 26.5430 0.985870 -0.762126
  270 22.8946 -0.375788 -0.239670
  271 22.8951 -0.372833 0.238371
  272 29.1768 -0.0810999 2.04881
  273 35.1660 6.50662 2.14910
  274 18.1305 -0.246137 0.969878
  275 18.1164 -0.248400 -0.979916
  276 32.4599 -2.68959 1.51132
  277 30.0491 -3.35258 -2.77147
  278 33.7623 -0.125150 0.370374
  279 22.7561 -1.40210 -1.62535
  280 22.7098 -1.38536 1.61733
  281 42.3545 3.84697 10.3532
  282 19.0635 -1.52831 5.29706
  283 30.9781 4.37215 -0.187128
  284 39.9925 4.32119 -2.22239
  285 29.8350 -2.31154 0.687926
  286 30.0577 -3.44676 2.46445
  287 19.1311 -1.50118 -5.36470
  288 3.40891 4.18845 3.68465
  289 31.1391 -1.24260 1.56129
  290 41.2574 5.28140 1.88956
  291 34.0707 -0.111029 -0.320979
  292 30.2099 1.04728 -3.27127
  293 30.0728 -1.69351 0.960402
  294 29.4180 -2.49242 -0.215600
  295 30.0768 1.37412 3.14377
  296 32.2934 -2.69302 -1.38399
  297 46.0383 9.07518 -0.649304
  298 30.0643 -1.62640 -0.921714
  299 25.2819 6.94477 -14.5659
  300 30.8326 -3.26026 -0.252801
  301 30.6038 -3.34807 0.613024
  302 22.0898 -2.03371 -3.46203
  303 19.4237 -0.0897980 -0.276768
  304 19.4274 -0.0882552 0.273868
  305 22.0954 -2.03437 3.44030
  306 32.4963 -0.0454338 -3.79879
  307 35.3876 -1.45676 -1.90861
  308 26.5189 -1.62943 -0.467823
  309 26.4966 -1.63288 0.478413
  310 32.2866 -2.77690 4.59800
  311 31.9386 -0.239308 1.29854
  312 39.4014 0.0582436 1.20604
  313 25.9079 -0.935273 -0.237547
  314 25.9085 -0.931201 0.235244
  315 23.3809 -0.640381 -0.461443
  316 23.3793 -0.633707 0.460216
  317 26.3919 0.335177 -1.58570
  318 34.7218 2.54964 -3.70741
  319 54.7233 14.6159 -6.62520
  320 31.8013 -0.233337 -0.143093
  321 31.7791 -0.229764 0.145937
  322 16.6005 0.0196022 6.60968
  323 23.3023 -1.10237 -1.03687
  324 23.2514 -1.09732 1.03902
  325 16.5992 -0.0162432 -6.58479
  326 32.9089 3.90295 -3.07969
  327 37.2756 1.82447 2.98187
  328 32.3137 -2.30749 -5.14517
  329 29.3653 -1.12151 0.494092
  330 29.3329 -1.11192 -0.479870
  331 31.5100 -0.615875 -0.785136
  332 29.2028 -0.0610067 -1.91813
  333 33.1427 0.159478 3.74936
  334 33.3028 -0.205399 -0.763447
  335 19.3469 -1.22177 2.65262
  336 19.3262 -1.22943 -2.67670
  337 30.6302 -0.0712400 3.43204
  338 18.1933 -0.169092 -0.567577
  339 18.2047 -0.167431 0.561178
  340 31.7231 -0.696713 1.16369
  341 37.9538 7.81908 -1.71697
  342 31.4879 -0.621887 0.811411
  343 33.3003 4.21054 3.10085
  344 31.9413 -0.581284 3.62184
  345 24.9597 -0.479771 0.0736326
  346 24.9609 -0.483330 -0.0745071
  347 30.0380 -0.111672 -3.03983
  348 40.2313 8.51051 1.27716
  349 33.0866 6.13065 0.0650644
  350 20.3414 2.39081 -9.92920
  351 1.81319 0.907139 -1.21551
  352 2.02001 0.979157 1.32199
  353 -0.175478 0.191780 0.678074
  354 -0.0373428 0.0823182 -0.701610
  355 60.4199 4.18691 1.47623
  356 27.4597 -2.25917 -0.538576
  357 31.7555 -0.670899 -1.13684
  358 28.4553 -0.479428 0.0855526
  359 28.4519 -0.474814 -0.0856226
  360 30.2134 3.34050 -1.53671
  361 25.8828 -2.67095 2.08960
  362 2.11633 3.10430 -2.19175
  363 25.9147 -2.67186 -2.13461
  364 30.6386 3.49059 1.63547
  365 31.5950 -0.819986 -1.93672
  366 33.6370 -1.85678 -2.45493
  367 35.5403 7.61116 0.632649
  368 33.7363 -2.08327 2.10339
  369 13.1794 -0.350952 2.13774
  370 13.0906 -0.344352 -2.15448
  371 7.28996 0.203931 -2.91214
  372 7.38181 0.171012 2.89791
  373 26.8581 0.0647112 1.60946
  374 53.2021 15.2077 5.36667
  375 32.7835 -0.187776 -0.944231
  376 25.1453 -2.17081 -1.57823
  377 25.1185 -2.16336 1.57557
  378 31.3433 -0.707312 -2.40026
  379 36.1058 -1.74161 0.730355
  380 27.4582 -2.25628 0.561555
  381 39.9449 0.150607 -2.71444
  382 21.5405 -0.195085 -0.0814575
  383 21.5422 -0.193231 0.0804932
  384 30.7119 -0.172009 -1.50710
  385 15.8679 -0.250357 -1.40051
  386 15.8795 -0.257861 1.38135
  387 37.0052 4.72087 -3.25046
  388 19.8121 1.42227 9.18928
  389 28.7920 -1.51588 0.359447
  390 28.8214 -1.51248 -0.361410
  391 33.7565 5.76218 -1.98509
  392 32.0966 -0.938184 -3.46126
  393 32.4364 -3.29787 2.33859
  394 26.6074 -0.712366 -0.0691123
  395 26.6032 -0.708005 0.0673993
  396 31.0233 -2.38665 1.40640
  397 33.6654 -0.138881 0.573360
  398 20.2239 -0.783301 -1.60434
  399 20.2308 -0.782622 1.58799
  400 31.3014 1.04928 -3.66246
  401 29.7045 -0.617042 0.285355
  402 29.7040 -0.618087 -0.280594
  403 30.5678 -0.354042 2.81952
  404 28.1733 2.03212 0.725964
  405 31.8575 -1.32863 3.05912
  406 46.5107 9.83024 1.50496
  407 14.8843 -0.808179 -4.25672
  408 14.9286 -0.808837 4.22004
  409 6.55480 3.60968 -4.89218
  410 34.6292 -0.0724858 0.173122
  411 16.5323 -0.159606 -0.883007
  412 16.5563 -0.156212 0.874032
  413 31.3772 -0.802971 2.36100
  414 28.4372 -3.10059 1.24298
  415 32.3908 -0.362804 0.559822
  416 32.6974 1.67075 3.85243
  417 6.90549 3.84335 5.13009
  418 28.4851 -3.08528 -1.12135
  419 29.4614 -2.74819 0.0237402
  420 9.00073 -0.182268 -2.66096
  421 9.08087 -0.190060 2.64028
  422 22.4962 -1.76658 -6.39358
  423 33.9452 -0.488745 3.39172
  424 22.3949 -1.79768 6.33194
  425 31.2874 -1.74327 -2.07231
  426 28.6177 1.90926 -1.60251
  427 31.2969 -1.33276 1.95204
  428 34.0318 -0.123362 -0.401357
  429 0.926636 0.918895 0.286142
  430 6.59628 7.41370 7.32050
  431 29.8326 -0.111779 1.44000
  432 24.4829 0.310342 0.688062
  433 24.9657 0.384758 -0.937571
  434 21.3078 -0.383973 -0.522979
  435 21.3083 -0.378736 0.518484
  436 30.8551 -2.38612 -1.31061
  437 31.0425 -0.599134 -3.17266
  438 24.6363 0.432207 -0.254910
  439 46.5651 11.0523 1.81501
  440 6.01368 2.09779 -3.64687
  441 6.66578 1.92711 3.91998
  442 28.7659 -1.01803 0.297759
  443 28.7539 -1.01448 -0.289105
  444 38.4273 8.63260 -0.147529
  445 24.6274 9.38348 14.8820
  446 37.3973 -0.560593 -1.02992
  447 20.7608 -1.12838 -2.17895
  448 20.7690 -1.11973 2.15720
  449 20.7748 -0.499815 0.836362
  450 20.7725 -0.503949 -0.845786
  451 28.4666 0.611279 -2.60027
  452 34.8361 -0.0252119 -0.118454
  453 27.5649 1.23781 1.44905
  454 35.5127 4.40315 3.42342
  455 29.4997 -2.19536 -0.557612
  456 32.3837 -0.342400 -0.542465
  457 34.1871 -0.109050 0.370155
  458 34.7424 -0.0254727 0.0680687
  459 34.7780 -0.0318311 -0.0524418
  460 17.9867 -0.0412719 0.205423
  461 17.9788 -0.0418394 -0.208135
  462 32.3859 -2.03939 2.49854
  463 28.7566 1.11620 2.51626
  464 30.2509 0.118443 -3.33726
  465 31.9100 -0.644680 1.46639
  466 47.3396 7.20563 -8.43490
  467 31.9322 -1.75647 -2.72962
  468 0.143288 0.578136 0.142280
  469 0.147478 0.581020 0.0151805
  470 24.9596 -1.45360 0.838804
  471 24.8693 -1.43589 -0.831316
  472 40.4533 0.512372 4.36144
  473 11.0702 9.62421 -11.0916
  474 31.4125 -0.0855405 1.13981
  475 36.1562 -2.12929 -2.32755
  476 18.4965 -1.10306 3.08686
  477 38.3719 6.81621 -2.45849
  478 31.4660 -1.68796 2.31334
  479 26.1452 -1.27667 -0.342379
  480 26.1686 -1.25432 0.340445
  481 26.8502 0.133825 -1.42363
  482 18.4362 -1.09957 -3.10990
  483 27.6167 -0.000159226 1.43805
  484 26.8965 -3.06833 -3.86147
  485 26.8252 -3.07302 3.87055
  486 32.5638 -0.198678 1.03870
  487 29.0808 2.73167 0.300462
  488 30.3360 0.424193 10.0598
  489 44.3492 9.16340 -0.0582707
  490 30.4935 -0.478921 0.294536
  491 30.4966 -0.476898 -0.301618
  492 22.8874 -0.432415 -0.312375
  493 22.8876 -0.428378 0.310647
  494 11.9599 0.605300 5.49827
  495 31.5897 -1.50639 -2.65169
  496 28.5522 -0.603969 0.108361
  497 28.5493 -0.601207 -0.107424
  498 24.7429 -2.64297 3.16366
  499 12.2043 0.792094 -5.64394
  500 31.6963 -2.57019 -1.48883
  501 0.478801 -0.0244102 0.368861
  502 27.0974 1.37121 0.102894
  503 30.6272 -0.314465 -0.100738
  504 30.6251 -0.319761 0.0992373
  505 24.7649 -2.63969 -3.19063
  506 36.2037 -1.90692 3.10988
  507 35.5682 1.29813 3.53507
  508 32.9834 -0.183202 -0.280630
  509 31.5985 -2.60785 1.50370
  510 18.8893 -0.0275380 -0.0329934
  511 18.8914 -0.0273354 0.0325766
  512 31.4681 -1.19511 -2.79112
  513 30.1989 2.23293 2.77101
  514 35.1150 0.871534 -3.48541
  515 18.7781 -0.0392471 -0.114512
  516 18.7811 -0.0387545 0.113483
  517 63.0100 9.09308 -8.20741
  518 31.4928 3.76914 2.45723
  519 33.0166 -0.163947 0.251537
  520 29.5312 -2.80758 0.0461751
  521 24.4628 -0.838041 0.442747
  522 24.4641 -0.845224 -0.441906
  523 34.6376 -2.09136 1.36642
  524 33.1000 -0.644343 -3.53054
  525 36.9316 7.35070 1.98641
  526 30.5255 0.521289 3.45524
  527 31.1025 -0.562558 0.527623
  528 30.2751 -3.20895 -3.65465
  529 31.1789 -0.758581 2.71772
  530 62.4462 2.84450 -1.15800
  531 34.4025 -2.57938 -0.479810
  532 32.7774 -0.173941 -0.0751972
  533 32.7842 -0.188231 0.0692491
  534 63.0815 4.24158 4.08664
  535 29.7016 -0.0160115 2.93871
  536 42.4728 6.98136 -1.34071
  537 31.6221 -0.832992 -1.44389
  538 13.4609 -0.138862 -0.960320
  539 13.5090 -0.132293 0.949363
  540 21.0456 -1.98305 -4.43135
  541 21.0582 -1.94939 4.39526
  542 31.0867 -0.536739 -0.521275
  543 33.7349 1.24726 -3.81827
  544 29.5921 -2.01653 0.669341
  545 31.6430 3.64097 -2.55797
  546 32.1832 -0.350127 1.39931
  547 40.8463 1.90260 0.116752
  548 27.2882 -0.940917 -0.00945794
  549 27.2781 -0.936519 0.00787897
  550 29.8168 -1.39882 0.749745
  551 44.5917 8.63960 -0.00754963
  552 31.2531 1.36954 3.59275
  553 13.2016 3.42475 8.18038
  554 30.6342 -1.84651 6.60495
  555 41.0743 1.68063 -7.19385
  556 31.9677 2.64916 -3.35836
  557 28.6377 -2.45344 -5.70395
  558 30.9749 -3.38229 -0.845926
  559 32.4550 -3.26520 -1.37588
  560 4.05813 5.09367 -4.83872
  561 32.6004 -0.377303 -0.904927
  562 49.4396 9.67167 -2.60090
  563 29.9868 -1.33724 -0.808459
  564 30.2655 -0.962905 0.665151
  565 30.2365 -0.939121 -0.643053
  566 20.1358 -0.135930 -0.247403
  567 20.1384 -0.134140 0.245185
  568 2.54035 0.315858 -1.55764
  569 2.71471 0.330005 1.59631
  570 14.9524 -0.721090 -3.25788
  571 15.0760 -0.724605 3.24969
  572 30.6717 -1.64833 -1.38385
  573 31.3584 -3.39556 0.936535
  574 32.2436 -3.04296 0.578580
  575 26.0465 -0.461696 -0.0711697
  576 26.0442 -0.457740 0.0706511
  577 24.8691 -2.59462 -4.88970
  578 28.0571 -2.28064 6.05515
  579 24.2311 -2.43690 4.92279
  580 31.4663 -0.689151 -3.41995
  581 19.0719 -0.347942 0.962926
  582 19.0632 -0.351812 -0.972703
  583 29.7570 1.63124 -2.77773
  584 29.8609 -0.0515642 -1.30750
  585 37.5673 8.27369 -0.924189
  586 24.1481 -0.381870 -0.0801458
  587 24.1477 -0.378887 0.0796161
  588 32.1177 -0.0879830 -0.755538
  589 21.6346 -0.775517 -1.03777
  590 21.6328 -0.772145 1.02686
  591 17.8879 0.878702 7.87852
  592 31.2633 -1.42083 -1.97666
  593 17.0845 -0.878316 5.64150
  594 30.7193 -1.57823 1.40573
  595 32.4896 -0.425086 0.992565
  596 32.1383 -0.250464 -0.254325
  597 21.8311 -0.295759 -0.220613
  598 21.8324 -0.293077 0.218970
  599 35.9976 7.27065 -1.76536
  600 17.0742 -0.840928 -5.66651
  601 30.6214 -1.30695 -1.14721
  602 27.4254 -0.499537 -0.0203334
  603 27.4222 -0.495149 0.0201960
  604 52.8405 7.17125 -1.22961
  605 17.5062 -0.127408 0.537513
  606 17.4907 -0.128715 -0.543543
  607 28.0841 0.624371 2.36603
  608 41.3660 3.29927 -1.10477
  609 19.1070 0.184742 -7.83056
  610 9.41481 0.281159 -4.19852
  611 9.50124 0.221469 4.17558
  612 23.8396 -1.44000 1.25435
  613 24.1106 -1.48236 -1.20958
  614 41.5322 8.34083 1.25445
  615 31.9920 -0.261215 0.234756
  616 26.7206 0.722321 -1.42200
  617 33.8298 6.14382 1.56811
  618 33.6895 6.37846 -1.04233
  619 27.7012 -1.55245 -0.0377291
  620 27.9262 -1.51469 -0.0648115
  621 19.9854 4.29850 -11.3496
  622 23.5002 -0.842996 -0.676506
  623 23.5005 -0.832555 0.673096
  624 62.4982 12.7602 9.56196
  625 31.4619 -1.01694 2.99069
  626 17.3525 -0.652778 -2.08767
  627 50.3359 10.8214 6.76524
  628 17.3951 -0.648579 2.07768
  629 30.4130 -1.18113 -7.77448
  630 20.5344 -0.121343 -0.0916450
  631 20.5365 -0.120256 0.0910153
  632 25.6410 0.212676 1.23835
  633 11.2504 -0.180664 -1.88167
  634 11.3233 -0.181058 1.86476
  635 27.3298 -1.96227 0.375016
  636 28.7582 -2.32021 0.0957431
  637 34.3686 -0.0580072 -0.330360
  638 18.2943 -0.0378935 0.147617
  639 18.2889 -0.0385181 -0.149633
  640 25.6244 -0.587922 -0.0864322
  641 25.6224 -0.583922 0.0851886
  642 29.8744 -3.29583 3.70528
  643 34.1437 3.82855 -3.45037
  644 22.2790 -1.08915 -1.34332
  645 22.2593 -1.07007 1.33183
  646 26.7930 -1.96313 -0.619588
  647 42.7387 9.39586 -0.0272111
  648 32.0413 -3.08449 -0.392890
  649 27.5400 -0.652285 0.0211000
  650 27.5352 -0.648236 -0.0208210
  651 38.3833 4.16414 2.87183
  652 32.0433 -0.436709 -1.52208
  653 27.7953 -0.0440030 -1.17372
  654 12.5523 -0.425381 -4.07831
  655 12.5960 -0.439054 4.04098
  656 26.7426 -2.34337 -1.10539
  657 40.4285 9.06188 0.0450206
  658 30.9971 4.21594 -1.10672
  659 20.0543 -0.206979 -0.466420
  660 20.0574 -0.203986 0.461647
  661 29.1506 -0.806039 -0.273845
  662 29.1564 -0.807771 0.281072
  663 55.6829 7.31503 3.19066
  664 35.0518 -0.0737151 0.0968403
  665 33.5968 -0.113932 0.555300
  666 33.4385 -0.119379 -0.640603
  667 31.6153 -2.93030 0.847557
  668 22.6580 -0.285272 -0.110451
  669 22.6589 -0.282937 0.109759
  670 33.5205 5.42207 2.39977
  671 43.5235 9.74265 -0.235478
  672 23.2890 -1.78517 -1.90652
  673 23.2782 -1.76618 1.89471
  674 29.5780 -3.05561 -0.325888
  675 30.9842 1.84058 -3.37467
  676 37.4179 0.0773909 1.83718
  677 24.1692 -0.469685 -0.200883
  678 24.1688 -0.466106 0.199634
  679 20.9143 -1.85957 -4.00246
  680 31.3049 -3.01784 -0.546508
  681 25.8305 -2.87085 3.48132
  682 12.1523 3.89600 -7.87934
  683 23.9603 -2.25795 2.68040
  684 28.8524 0.00679406 1.09282
  685 20.9310 -1.83762 3.97211
  686 30.6020 -1.33421 1.16124
  687 23.9734 -2.24951 -2.70875
  688 24.0262 0.291312 0.258154
  689 18.5347 -0.536516 1.47083
  690 18.5178 -0.537591 -1.48339
  691 25.8530 -2.94587 -3.52248
  692 32.1579 -2.10152 -2.41995
  693 29.4218 -0.379904 -0.0675120
  694 29.4262 -0.384684 0.0677830
  695 32.9104 -2.07437 2.42588
  696 29.8220 -3.11965 0.438076
  697 36.3638 3.33595 3.46259
  698 32.6913 -0.595011 3.60786
  699 31.4542 -1.10830 2.25029
  700 29.6936 2.43215 -2.10646
  701 36.1305 6.12056 2.72355
  702 31.1118 -0.420950 -2.12216
  703 31.1453 -1.00664 1.23700
  704 31.8677 5.02718 0.599918
  705 31.6276 -0.518371 1.87755
  706 9.74457 6.58035 8.22608
  707 29.4876 -3.38448 -2.01400
  708 34.1527 0.635846 3.69765
  709 34.5873 -1.05669 -2.76931
  710 34.8276 -0.0257534 0.191142
  711 31.4656 -1.05666 -1.80608
  712 29.5223 -3.41183 1.80333
  713 58.7089 5.19362 -0.876134
  714 16.7489 -0.0829102 0.563972
  715 16.7274 -0.0838825 -0.570327
  716 32.0266 -0.546358 -0.884780
  717 35.0571 -0.0178624 -0.183977
  718 26.6860 -2.38039 1.11202
  719 32.2774 -1.18308 3.30273
  720 50.1112 11.5208 -2.88418
  721 30.5914 -2.21245 1.23990
  722 34.1083 -2.22692 -1.61851
  723 31.1595 -0.977769 -1.21814
  724 35.0904 -0.0385451 -0.0680622
  725 31.3711 0.00466024 3.67900
  726 1.36663 0.950599 1.58406
  727 36.0797 -1.45718 -4.84544
  728 39.0711 2.24784 2.01922
  729 32.4039 -3.29394 1.18301
  730 22.4343 -0.573589 0.559067
  731 22.4362 -0.582163 -0.562765
  732 31.1478 14.4657 -15.6308
  733 32.9307 -2.15840 -2.26936
  734 23.9224 0.0994116 -0.493162
  735 28.4266 0.145204 2.32122
  736 31.6697 -1.56751 2.69975
  737 30.3585 -2.55810 0.773600
  738 31.8100 -2.87844 -3.97824
  739 30.1563 -2.38627 -0.817702
  740 35.9695 -1.72298 -0.850401
  741 33.0870 -0.233050 0.526037
  742 29.2321 -1.76064 0.509662
  743 54.2428 10.8689 -5.64767
  744 31.3240 -0.806775 0.996843
  745 30.7059 0.497961 -3.55290
  746 26.5165 -0.316108 8.78665
  747 33.0181 2.67405 3.67034
  748 28.3850 -2.25366 0.0621828
  749 21.5986 -1.74708 -2.90414
  750 21.5973 -1.74124 2.87686
  751 29.9163 3.36385 -0.493547
  752 30.6383 -0.348696 3.19998
  753 31.0466 -0.729170 -2.76704
  754 29.2671 -1.79524 -0.521288
  755 28.2585 -2.55455 0.486223
  756 32.1267 5.34663 -0.686124
  757 30.3190 -2.62339 -0.653093
  758 30.3859 -1.91646 1.19194
  759 30.8953 -0.355588 0.204062
  760 30.9175 -0.344373 -0.203323
  761 41.5804 9.24670 0.446185
  762 34.1624 -2.88879 -0.619129
  763 31.5646 -0.942272 1.79239
  764 33.1131 -0.230989 -0.483725
  765 33.1793 0.232614 -3.78379
  766 38.0920 1.95422 -2.51013
  767 17.6525 -0.0252889 -0.258390
  768 17.6635 -0.0249907 0.255195
  769 0.228230 -0.666272 -0.482190
  770 32.2002 -0.0275947 0.701816
  771 29.1672 -0.0603464 -2.58305
  772 30.2693 -0.281644 2.30706
  773 28.2123 3.26242 13.0571
  774 34.4983 7.18913 -0.0839831
  775 24.3384 -1.79158 1.44133
  776 3.78768 0.104540 -1.56487
  777 3.92283 0.0786255 1.58254
  778 29.9631 -0.215336 -2.58941
  779 24.4137 -1.81081 -1.43980
  780 32.9108 -0.255537 0.411739
  781 16.0699 -0.717016 2.78428
  782 15.9223 -0.714953 -2.78852
  783 31.3250 -0.781807 -0.972117
  784 19.2921 -0.525953 -1.27389
  785 19.3012 -0.522064 1.26038
  786 32.6856 -0.279449 -1.06797
  787 24.4448 -0.679739 -0.351291
  788 24.4442 -0.674614 0.351224
  789 35.7506 -0.226879 -2.80157
  790 31.9019 -0.325165 -3.71835
  791 15.4376 -0.110169 -0.726465
  792 15.4710 -0.109163 0.716837
  793 0.488962 0.402062 -0.902237
  794 0.641922 0.423159 0.952480
  795 25.1922 0.112691 -0.901321
  796 29.2029 -3.28364 -1.43213
  797 -0.350765 -0.247893 0.590982
  798 -0.302415 -0.282655 -0.580069
  799 30.4405 -0.576471 0.424156
  800 33.1030 -2.56326 -1.45853
  801 33.9040 5.05930 -2.81255
  802 33.0713 -0.226875 -0.389923
  803 73.2514 14.4055 -13.7538
  804 30.4348 -0.573920 -0.419098
  805 46.1597 8.92090 0.596970
  806 32.4424 0.951350 -3.86412
  807 36.0546 2.71463 -3.52595
  808 5.40851 -0.0650597 -1.46271
  809 5.53006 -0.0742520 1.45950
  810 19.5735 -0.309975 0.742277
  811 19.5677 -0.312801 -0.750420
  812 18.4774 -0.0541229 0.136323
  813 18.4736 -0.0546586 -0.137732
  814 36.3271 6.14981 -2.71438
  815 20.7782 -0.150135 -0.194877
  816 20.7803 -0.148321 0.193392
  817 30.7378 -0.308097 -3.33542
  818 45.6447 4.23380 3.20582
  819 27.2870 0.584192 -1.98496
  820 8.92596 -0.0855718 1.58635
  821 8.83604 -0.0863042 -1.60054
  822 36.6788 0.791366 9.23558
  823 31.9859 -0.551218 0.913215
  824 27.9883 1.83499 -0.828252
  825 12.3800 -0.0264385 1.09289
  826 12.3065 -0.0203218 -1.10225
  827 18.9760 -0.113791 -0.358898
  828 18.9815 -0.112148 0.354718
  829 3.32533 3.00120 2.43690
  830 29.3557 0.686165 2.97612
  831 32.8470 4.86021 -2.38502
  832 35.5868 4.13782 -3.45793
  833 22.8900 -0.908283 -0.914579
  834 22.8738 -0.900407 0.912116
  835 36.7465 7.92704 1.26005
  836 32.0046 -0.220067 -0.0574725
  837 32.0048 -0.218268 0.0632858
  838 31.4484 -0.921525 -2.25296
  839 26.1073 -1.77547 0.748912
  840 29.0093 -3.26397 1.44788
  841 34.4484 -2.82227 2.30213
  842 25.8195 -0.764695 -0.157568
  843 25.8180 -0.761000 0.155640
  844 29.4879 2.72500 1.34754
  845 27.5719 0.356649 -2.14980
  846 7.67764 8.43907 8.55421
  847 28.3531 -2.53468 -0.414157
  848 28.4277 -1.27260 0.244059
  849 28.4435 -1.27392 -0.245193
  850 31.2826 -0.451747 3.52606
  851 31.1503 -2.03458 -1.79020
  852 27.6499 -1.85469 -0.159199
  853 65.8421 2.13747 -3.34983
  854 26.2396 -2.51811 1.60874
  855 26.2217 -2.55248 -1.63875
  856 31.2883 -0.363209 1.81030
  857 47.8439 12.2179 -2.18926
  858 24.5259 -2.27349 -2.09414
  859 27.2927 -3.09328 1.91442
  860 24.5147 -2.24464 2.07288
  861 26.6560 -1.09015 -0.157832
  862 26.6537 -1.08546 0.155668
  863 3.69192 1.65909 2.13303
  864 33.6606 2.52509 -3.74563
  865 25.4915 -1.02095 -0.349379
  866 25.4951 -1.00967 0.350965
  867 25.1217 -0.425029 -0.0403489
  868 25.1204 -0.421559 0.0399266
  869 27.8790 -0.539211 0.0551726
  870 27.8753 -0.534934 -0.0552189
  871 22.2231 -0.467473 -0.488416
  872 22.2233 -0.461805 0.485613
  873 25.6119 -1.38389 -0.566261
  874 25.6140 -1.37297 0.568525
  875 0.562635 -0.447783 -0.140160
  876 39.2078 7.36109 2.20369
  877 33.6976 -1.16305 -3.11894
  878 27.2759 -3.04931 -1.93910
  879 29.5400 -0.933690 0.440861
  880 29.5261 -0.922773 -0.431384
  881 32.1769 0.0517543 3.79485
  882 35.4176 -2.52801 -1.06047
  883 31.4987 2.03945 -11.2693
  884 13.7072 -0.186156 5.46592
  885 -0.721939 0.320824 -0.302347
  886 -0.646294 0.360861 0.344679
  887 3.65862 1.76512 -2.17414
  888 31.5799 -0.879023 1.43975
  889 33.4317 -0.186285 -0.615654
  890 29.9712 -2.86210 4.64745
  891 13.6730 -0.168651 -5.49045
  892 33.4089 -2.71034 1.14201
  893 37.5791 -1.20349 3.87540
  894 26.2176 0.100080 0.957901
  895 30.4810 2.90086 2.30914
  896 16.1633 -0.926428 4.05340
  897 16.0976 -0.934114 -4.08414
  898 19.4343 -0.970158 -2.25909
  899 20.8106 -0.979087 -7.01528
  900 33.2987 -0.759529 3.43768
  901 46.2946 10.6729 1.02842
  902 33.3513 1.29691 3.81955
  903 31.5370 -0.653332 -2.04376
  904 21.2697 -0.877547 7.19295
  905 40.4733 7.41958 -1.78749
  906 3.75398 3.25913 -3.03517
  907 28.7664 -0.0640530 -1.04244
  908 19.4545 -0.961555 2.23578
  909 23.9670 -0.551600 0.315527
  910 23.9676 -0.556005 -0.316652
  911 31.1987 -2.02402 1.84068
  912 32.6393 -0.161846 0.167913
  913 23.8167 0.243587 -8.77047
  914 34.5253 -0.0600977 0.293343
  915 34.2050 -0.0474402 -0.366024
  916 24.5537 0.200137 -0.824823
  917 32.8569 -0.126793 -0.626443
  918 24.0930 -1.16969 -0.812267
  919 24.1091 -1.15091 0.814193
  920 -0.868107 0.277138 -0.509723
  921 -1.16294 0.166873 0.525554
  922 32.6411 -0.147544 -0.167747
  923 10.1866 -0.220266 3.67881
  924 10.1165 -0.195896 -3.70236
  925 34.5057 5.07031 2.98707
  926 64.2296 1.15242 1.05142
  927 32.3746 3.62047 3.06930
  928 37.3258 -1.35806 0.747863
  929 32.0798 -1.76785 2.74084
  930 40.0380 8.43609 -1.35486
  931 23.9595 0.0837078 0.620472
  932 30.9093 -0.692008 -0.640815
  933 31.8924 1.71810 -3.70864
  934 39.1748 1.07282 -1.18144
  935 30.0389 -1.85076 -0.981571
  936 14.5494 -0.0916669 -0.817514
  937 14.5679 -0.0884800 0.804774
  938 31.7761 -0.718844 -1.64277
  939 0.939129 1.23296 0.116840
  940 30.4862 -3.15773 0.00380016
  941 25.7188 0.727921 -0.0855739
  942 39.6947 8.82240 -0.902704
  943 5.99913 4.48956 -5.19257
  944 30.2733 -0.223878 -2.06791
  945 20.4609 -0.373695 -0.685270
  946 20.4633 -0.368991 0.678073
  947 0.144616 -0.910025 0.707279
  948 20.2624 -1.55033 -3.24624
  949 31.0312 -1.77915 -1.72842
  950 18.3744 0.0388917 -0.0548371
  951 18.3767 0.0391413 0.0543318
  952 31.0351 3.77712 -1.85988
  953 34.0211 -0.0635428 -0.0598343
  954 34.0192 -0.0652902 0.0767399
  955 20.2689 -1.54517 3.22086
  956 31.2930 -0.0332276 -0.827279
  957 36.3673 0.260914 2.73267
  958 32.2131 -0.416282 0.716854
  959 4.75603 1.29548 -2.76189
  960 33.5121 -0.171282 0.561501
  961 29.8675 0.229994 3.20258
  962 31.5138 4.39012 1.65549
  963 31.6877 0.370689 -3.80629
  964 21.4259 -1.19808 -1.90978
  965 34.4931 -1.20015 2.68603
  966 21.4387 -1.19250 1.88738
  967 0.881622 1.00421 0.0516234
  968 3.39503 0.649272 2.01736
  969 17.1643 -0.330052 1.33896
  970 17.1418 -0.330775 -1.34833
  971 30.9301 -0.707261 0.669949
  972 32.9466 5.78533 0.929250
  973 16.6606 1.57925 -8.25402
  974 27.5907 -1.74354 0.119335
  975 25.8833 -2.73180 -2.51898
  976 38.0275 7.33466 2.19614
  977 29.1640 -0.488909 0.102651
  978 29.1634 -0.485608 -0.102690
  979 32.1239 -0.561448 -1.20427
  980 29.1907 2.50683 -1.24450
  981 69.8886 20.1264 13.5965
  982 5.68723 0.360708 -2.72219
  983 5.79246 0.300876 2.72988
  984 0.421819 -0.784271 0.0262328
  985 29.3165 1.60861 2.55407
  986 25.8697 -2.74732 2.49770
  987 32.2952 -1.50900 -3.07666
  988 35.1729 2.88783 3.75564
  989 34.0965 -2.75061 -2.92684
  990 50.0017 10.5693 3.25825
  991 28.5847 -0.439180 0.00729107
  992 28.5810 -0.434793 -0.00719112
  993 33.6749 -1.35090 2.97536
  994 2.23502 3.21828 3.67760
  995 14.3895 -0.324514 1.93005
  996 14.3392 -0.320440 -1.95410
  997 17.4420 -0.894896 2.62197
  998 17.3783 -0.882195 -2.63434
  999 19.7419 -0.857141 1.86044
  1000 21.5731 -0.193345 -0.0913207
  1001 21.5747 -0.191764 0.0908377
  1002 57.3511 17.4357 -10.8221
  1003 50.9814 12.7462 4.88240
  1004 19.7263 -0.862236 -1.87901
  1005 34.7053 -0.143388 3.26651
  1006 30.6337 3.18258 -2.23002
  1007 21.6327 -1.84016 5.80281
  1008 28.0602 -3.31104 -2.97913
  1009 32.1207 -0.247593 -1.23206
  1010 14.1364 1.03484 6.67698
  1011 18.1687 -1.39584 4.63969
  1012 27.8838 1.40579 -1.59111
  1013 32.4300 -0.627795 -3.63939
  1014 43.2699 15.9251 18.0146
  1015 26.1685 0.775271 1.12481
  1016 36.3386 7.94519 -0.150030
  1017 26.9947 1.01414 -9.99506
  1018 27.1258 -2.88204 -1.62930
  1019 35.1125 -0.0157855 -0.151679
  1020 33.0876 3.05191 -3.57822
  1021 18.6541 -0.139178 0.468612
  1022 18.6463 -0.140635 -0.474052
  1023 0.651492 0.00911149 -0.813216
  1024 21.4154 -1.02541 -1.58470
  1025 18.1486 -1.41433 -4.67919
  1026 21.3951 -1.02229 1.56398
  1027 31.6628 -0.949884 3.36433
  1028 28.3411 -1.76464 0.153660
  1029 29.5809 0.533112 -3.09480
  1030 30.4153 3.80978 0.649731
  1031 42.4515 2.33020 0.905589
  1032 31.4580 -2.37746 1.78913
  1033 19.4211 -1.58973 -3.55383
  1034 29.2876 1.02087 -2.88521
  1035 21.8403 -1.81337 -5.83912
  1036 42.5070 9.36303 -0.0664896
  1037 28.3526 1.84247 1.44712
  1038 36.6904 -0.231061 -2.20667
  1039 27.2973 -2.88147 1.47333
  1040 31.3868 -0.977468 2.62966
  1041 31.2323 -1.63342 1.98317
  1042 31.0625 -1.54605 1.74061
  1043 38.5712 4.86364 -2.93212
  1044 30.8857 -0.488503 2.62004
  1045 28.0040 -3.32047 2.92719
  1046 29.9014 -1.20685 0.678174
  1047 19.4320 -1.59198 3.53000
  1048 27.9652 -2.08511 -0.164915
  1049 15.8994 -0.760199 -4.96645
  1050 23.0348 -2.41007 3.89716
  1051 31.5313 -0.199779 -1.41585
  1052 30.5925 -0.340853 -2.95489
  1053 26.4408 -2.12798 -0.938505
  1054 15.9274 -0.784665 4.92252
  1055 28.2602 0.0577826 -2.01867
  1056 20.8801 -1.43498 -2.49314
  1057 38.6848 8.33136 1.42753
  1058 8.22416 1.44486 -4.61541
  1059 68.8036 4.87655 6.76954
  1060 15.1858 1.20325 -7.01015
  1061 31.0732 -2.56628 -1.21688
  1062 20.8835 -1.42165 2.46941
  1063 27.9189 0.276459 2.24566
  1064 15.1906 -0.329993 1.59558
  1065 15.1809 -0.338366 -1.61380
  1066 31.3524 -0.861205 -3.11163
  1067 33.7919 -0.132745 0.247756
  1068 32.8822 -0.0608351 0.636136
  1069 32.3178 1.08433 3.84745
  1070 30.0916 -0.226409 2.76310
  1071 23.5778 2.46747 10.8317
  1072 35.3691 -0.0119565 0.0783753
  1073 32.4164 4.42198 2.44541
  1074 27.0741 0.371428 1.92623
  1075 33.3791 -0.112720 0.616427
  1076 20.6405 -0.248864 -0.375595
  1077 20.6426 -0.245901 0.372392
  1078 12.9197 -0.384764 -2.65634
  1079 12.9775 -0.398493 2.63478
  1080 27.1585 1.32782 0.805209
  1081 42.6786 2.05121 -2.51887
  1082 39.1918 -0.209525 -5.42152
  1083 30.4278 -0.0224421 -0.850577
  1084 23.0491 -2.42881 -3.92929
  1085 26.4953 -2.02326 0.817979
  1086 30.6249 -0.0662336 0.888769
  1087 32.3386 -2.32741 -2.07832
  1088 19.3098 -0.0580373 0.229877
  1089 19.3067 -0.0589772 -0.231702
  1090 31.0122 -2.63994 1.21680
  1091 29.4180 -0.574337 0.176045
  1092 29.4133 -0.574618 -0.173652
  1093 28.5872 -2.89613 0.815877
  1094 37.3795 -1.23323 0.0831116
  1095 15.8472 -0.0326172 -0.451012
  1096 15.8757 -0.0314774 0.445393
  1097 25.1322 -1.55281 -6.68928
  1098 26.4978 -0.635034 0.0623249
  1099 26.5012 -0.639371 -0.0635800
  1100 16.1756 8.44237 11.8831
  1101 37.3002 3.03441 -3.22336
  1102 5.14997 2.60308 -3.38350
  1103 32.2398 -0.441436 -0.694119
  1104 8.21211 2.92202 -5.28325
  1105 17.2796 -1.12197 -3.38807
  1106 35.4144 -0.0185631 0.0438449
  1107 35.4336 -0.0161692 -0.0332762
  1108 31.5447 -1.78454 -2.37117
  1109 27.9505 -3.11901 -4.18870
  1110 8.22561 1.22974 4.39833
  1111 34.2644 3.40932 3.52594
  1112 31.2830 -0.269803 -0.0690327
  1113 31.2852 -0.270300 0.0723827
  1114 34.4580 -2.25978 5.04530
  1115 34.9792 7.09427 1.37876
  1116 20.2009 -0.524262 -0.992407
  1117 20.2045 -0.521355 0.983587
  1118 15.5805 1.83674 8.32155
  1119 29.5147 0.140551 -3.00191
  1120 9.01082 2.98851 5.70402
  1121 38.8996 -0.742993 -1.31733
  1122 37.5625 8.44361 0.443683
  1123 25.6272 -2.07070 1.19878
  1124 22.9591 0.103323 -0.120731
  1125 33.0654 -0.263242 0.811261
  1126 34.3749 -0.0267779 0.319283
  1127 6.73522 0.0178732 -1.32590
  1128 6.84750 0.0139749 1.31571
  1129 26.1289 0.409780 -1.42150
  1130 27.4133 -0.806824 0.0148882
  1131 27.4059 -0.802032 -0.0152550
  1132 2.78814 3.70801 -3.89407
  1133 4.52892 8.80263 -8.14315
  1134 27.7951 -1.08963 -0.0790901
  1135 27.8077 -1.09065 0.0779888
  1136 28.8019 -0.676234 0.199510
  1137 28.7978 -0.674132 -0.196490
  1138 7.29410 4.70208 5.69140
  1139 22.1913 -0.298578 -0.171861
  1140 22.1924 -0.296136 0.170699
  1141 28.1800 2.10937 -0.0354968
  1142 37.5172 4.20491 -12.5538
  1143 34.8628 6.06213 -2.35883
  1144 31.8944 -1.20979 -3.20897
  1145 31.4377 -1.55035 -2.38245
  1146 25.6496 -2.09129 -1.22117
  1147 25.3116 0.0718570 0.877589
  1148 28.8981 1.78358 -2.13223
  1149 28.4540 1.51033 2.03046
  1150 29.8807 -1.16991 -0.667498
  1151 28.4183 -1.72760 -0.173336
  1152 25.6621 -1.70016 -0.872119
  1153 30.7218 -0.174447 1.65884
  1154 55.9376 5.68151 0.800238
  1155 30.9689 -0.651322 3.02470
  1156 30.9516 2.03485 3.24014
  1157 28.7263 -2.84513 -0.538285
  1158 3.18706 0.599178 -1.94126
  1159 29.2673 -1.34726 -0.536371
  1160 18.5162 -0.0396060 -0.00899978
  1161 18.5180 -0.0394667 0.00882472
  1162 36.0289 -0.949430 1.93948
  1163 34.3513 -2.88060 0.821222
  1164 49.6058 8.98409 2.05285
  1165 10.8665 -0.0302763 -1.11759
  1166 10.9438 -0.0277622 1.10780
  1167 25.8728 -0.529704 -0.0691462
  1168 25.8706 -0.525721 0.0682339
  1169 29.3762 -2.60261 0.203099
  1170 23.1865 0.0914030 0.393797
  1171 30.1106 -2.14222 0.965214
  1172 1.55326 1.84944 -0.747026
  1173 5.10685 2.63411 3.31450
  1174 19.9028 -1.04339 6.47450
  1175 34.6819 6.68445 -1.68039
  1176 33.5155 -0.0828778 -0.485607
  1177 35.5796 -0.0459869 0.0340221
  1178 35.6225 -0.0672544 -0.0239777
  1179 19.4050 -0.0619996 -0.0345503
  1180 19.4072 -0.0615502 0.0341660
  1181 31.9484 2.05232 3.70319
  1182 48.1131 8.35467 -0.175467
  1183 32.8483 5.48145 -1.66882
  1184 24.6821 -1.78055 6.64492
  1185 19.7962 -0.997551 -6.46362
  1186 21.8330 -1.51511 -2.21669
  1187 30.9358 -0.833104 0.834115
  1188 43.4899 9.50663 -0.183373
  1189 21.8319 -1.50488 2.19605
  1190 31.6928 -0.512309 0.632876
  1191 27.6309 1.00134 1.93252
  1192 30.8100 0.950884 3.53831
  1193 44.5977 10.0141 0.665942
  1194 25.9301 -0.688499 0.134661
  1195 25.9325 -0.692645 -0.136352
  1196 32.0724 -0.567007 1.24818
  1197 18.1307 -0.216694 0.742083
  1198 18.1179 -0.219034 -0.750316
  1199 31.4076 -0.383655 -0.308031
  1200 12.7077 7.48386 -11.4172
  1201 27.1659 -1.51181 -7.10843
  1202 25.1612 -0.813701 -0.302970
  1203 25.1627 -0.809180 0.302927
  1204 33.9619 -0.123864 0.216945
  1205 31.9125 -0.373528 0.509370
  1206 1.60431 1.90279 1.32975
  1207 35.0350 -0.0256759 0.175130
  1208 3.91195 4.78367 4.74255
  1209 31.1067 -0.422226 -0.390256
  1210 -0.0578158 -0.787191 -0.685052
  1211 21.6461 -2.10802 -4.99308
  1212 21.5776 -2.05538 4.93903
  1213 35.0362 -0.0494645 -0.191069
  1214 29.4640 -1.55078 -0.619819
  1215 33.9275 -0.109195 -0.228187
  1216 26.5619 -0.870843 -0.0877395
  1217 26.5578 -0.866629 0.0852404
  1218 31.3854 -0.380145 0.291840
  1219 29.2452 -1.32169 0.530713
  1220 28.0544 -0.896777 -0.138726
  1221 28.0658 -0.900293 0.142817
  1222 33.9083 -0.112750 -0.188197
  1223 29.0088 -3.03016 -4.74810
  1224 33.0930 -0.158451 -0.198445
  1225 31.2506 -0.435886 0.412553
  1226 21.0046 -0.258831 -0.270600
  1227 21.0064 -0.256137 0.268385
  1228 23.7660 -0.368135 -0.121628
  1229 23.7660 -0.365135 0.120682
  1230 39.5710 6.13320 2.55027
  1231 33.1858 -2.52469 1.66444
  1232 22.5708 -0.0766910 8.25595
  1233 17.2208 -0.0387444 0.284001
  1234 17.2061 -0.0391160 -0.287489
  1235 31.2131 -0.563183 2.29624
  1236 29.9744 -0.416659 0.111036
  1237 29.9769 -0.414834 -0.110962
  1238 34.0803 6.71847 0.776964
  1239 31.6282 -3.29499 3.65154
  1240 17.3788 -0.270481 1.05597
  1241 17.3605 -0.272784 -1.06542
  1242 29.9066 -0.701805 0.374021
  1243 29.9004 -0.706228 -0.366049
  1244 30.9208 -0.821161 -0.807749
  1245 27.8326 0.00170442 1.04739
  1246 49.7603 12.3443 -3.73503
  1247 31.4363 -1.12854 -2.10005
  1248 4.99947 1.27631 2.84932
  1249 32.5192 -1.71187 2.90631
  1250 25.3295 0.523457 -0.775868
  1251 1.75617 1.41168 0.922496
  1252 43.5427 4.59487 0.305490
  1253 31.6996 -1.42573 -2.89097
  1254 25.4644 0.336919 1.18639
  1255 17.4089 -1.12309 3.37820
  1256 32.3026 -2.48151 1.89256
  1257 47.7600 8.60361 2.00174
  1258 10.4259 1.61544 5.63790
  1259 32.5322 -0.351102 -1.07048
  1260 64.8158 0.706986 -0.673049
  1261 67.1675 1.02549 3.02985
  1262 72.0177 2.53123 -7.13954
  1263 31.3481 -0.959839 -2.55526
  1264 31.3982 -1.41359 2.23842
  1265 31.9487 -2.25565 2.17053
  1266 -0.949878 0.0916926 0.616034
  1267 -0.869946 0.0679618 -0.663900
  1268 31.1730 -3.42650 -1.50866
  1269 32.0195 -3.21622 -2.42464
  1270 23.3796 0.135374 -0.488084
  1271 31.0628 -3.49333 2.44375
  1272 33.1095 -1.55072 -2.96132
  1273 0.502514 0.920055 -0.0270030
  1274 26.5780 -0.481856 0.0716506
  1275 26.5806 -0.485995 -0.0718432
  1276 33.0647 -0.229262 0.743191
  1277 31.6955 -0.501944 -0.598836
  1278 29.7129 -3.24753 -0.664868
  1279 26.9094 -1.48153 0.257893
  1280 26.7646 -1.46214 -0.304037
  1281 31.8906 -0.646573 1.66301
  1282 32.6583 -1.18169 -3.32512
  1283 1.82653 1.47243 -0.873914
</Section>

newXOutput 6

<Section columns = "stress_xx | stress_yy | stress_xy">
  1 44.7430 0.00990524 0.0973536
  2 44.7492 0.0102110 -0.0977707
  3 22.6978 -0.0148475 -0.0353454
  4 -0.295366 -0.294358 -0.424144
  5 84.1430 30.7926 25.7694
  6 83.3090 32.0291 -26.0463
  7 -0.342358 -0.281848 0.448437
  8 22.6959 -0.0149508 0.0352166
  9 45.0986 -0.0659150 0.0328121
  10 44.9815 -0.108146 -0.0150294
  11 44.8404 -0.0638032 0.119777
  12 44.7028 -0.0955316 0.0467889
  13 44.4103 -0.0774732 0.189412
  14 44.1493 -0.0802229 0.146385
  15 43.5638 -0.0718587 0.267792
  16 42.7605 -0.0383746 0.391103
  17 42.0371 -0.0473859 0.428352
  18 40.9922 -0.0778869 0.510074
  19 39.5772 0.00409062 0.743629
  20 38.2687 -0.0576679 0.698165
  21 36.8218 -0.0818711 0.972121
  22 34.7262 0.0592956 0.836971
  23 33.2412 0.0805344 0.982087
  24 31.3073 0.141220 0.761677
  25 29.9839 0.135007 0.764681
  26 28.0631 0.201485 0.387648
  27 27.6656 0.319394 0.413516
  28 27.4293 0.254646 -0.121328
  29 27.7606 0.135134 -0.270441
  30 28.3665 0.140129 -0.330352
  31 29.8032 0.183584 -0.662695
  32 31.1978 0.144603 -0.845039
  33 33.2723 0.0224757 -1.00677
  34 34.9372 -0.0251424 -0.927379
  35 36.7352 -0.0662310 -0.920730
  36 38.3752 -0.0444332 -0.655797
  37 39.8072 -0.0433514 -0.567689
  38 41.0049 -0.0750625 -0.482885
  39 42.0925 -0.0496531 -0.345542
  40 42.7900 -0.0547884 -0.370713
  41 43.4629 -0.0745164 -0.272944
  42 44.1154 -0.0910673 -0.129767
  43 44.4550 -0.0709466 -0.145663
  44 44.6511 -0.0363199 -0.0951701
  45 44.5550 -0.00865742 -0.0862865
  46 45.0380 -0.111407 0.00730902
  47 45.1182 -0.0696400 -0.0339189
  48 43.4549 0.000782366 -0.0598444
  49 42.3607 -0.134797 -0.101492
  50 41.0430 -0.209238 -0.0754078
  51 39.4483 -0.333825 -0.100903
  52 37.9524 -0.373380 -0.129400
  53 36.3668 -0.492167 -0.121290
  54 34.9732 -0.561935 -0.0735563
  55 33.7521 -0.648447 -0.0354112
  56 32.3474 -0.543202 -0.0363740
  57 30.7296 -0.517717 -0.0475435
  58 29.1674 -0.417823 -0.0226696
  59 27.6839 -0.275727 -0.0126605
  60 26.2693 -0.203123 -0.00471898
  61 25.0208 -0.112784 0.00751160
  62 23.7337 -0.0368062 -0.0413229
  63 22.7190 0.0304221 0.0418068
  64 22.2741 0.0982419 0.0245652
  65 22.6099 -0.00286265 0.0644098
  66 22.2971 -0.0183189 0.0759889
  67 22.0217 -0.0250066 0.0953735
  68 21.6394 -0.00752753 0.128118
  69 21.1555 -0.00457852 0.164106
  70 20.8225 -0.0372765 0.327793
  71 19.7702 0.0296725 0.360240
  72 19.0454 -0.00506471 0.418885
  73 17.9650 -0.0231918 0.473478
  74 16.7122 -0.0370863 0.578571
  75 15.1493 -0.0105698 0.702477
  76 13.2421 0.00729525 0.770048
  77 11.6324 -0.0226179 1.09801
  78 8.38424 0.106987 1.02622
  79 6.21581 0.0929202 1.08598
  80 3.65765 -0.0119340 1.19084
  81 1.57273 0.213579 1.21925
  82 -0.781563 0.309134 0.694592
  83 -2.44424 0.311484 0.201481
  84 -2.26053 0.289592 -0.182282
  85 -2.04151 0.235801 -0.634099
  86 -1.18798 -0.0928478 -0.584802
  87 -0.157261 -1.14075 -0.640525
  88 0.0929538 -2.12768 -0.822346
  89 0.287374 -3.47043 -0.515615
  90 0.655198 -3.75474 -0.101315
  91 1.40993 -1.61502 1.68468
  92 4.33807 5.37299 6.21930
  93 27.1395 22.6653 22.7614
  94 101.250 14.8527 17.2698
  95 90.5781 2.15115 5.73057
  96 83.5968 0.869823 1.75386
  97 81.0063 0.726667 0.143979
  98 82.3333 0.983114 -1.50409
  99 90.2816 1.97779 -4.52739
  100 108.166 7.18727 -15.1256
  101 15.9058 22.8089 -18.8382
  102 3.25926 3.11624 -5.04891
  103 1.53117 -1.45987 -1.70551
  104 0.608266 -3.80943 -0.170196
  105 0.150295 -2.68514 0.602486
  106 0.206133 -2.67131 0.721050
  107 0.00258518 -0.995117 0.708050
  108 -1.23776 -0.0678328 0.558866
  109 -2.10778 0.176815 0.557784
  110 -2.37707 0.353602 0.196427
  111 -2.52769 0.308519 -0.180190
  112 -0.952845 0.316938 -0.645897
  113 1.41757 0.215613 -1.15968
  114 3.49852 0.0100006 -1.17104
  115 6.05308 0.100604 -1.08908
  116 8.23636 0.110055 -1.03524
  117 11.5175 -0.0230578 -1.10872
  118 13.1434 0.00835871 -0.778669
  119 15.0636 -0.0101181 -0.712435
  120 16.6677 -0.0406642 -0.583971
  121 17.9072 -0.0223545 -0.475335
  122 19.0024 -0.00365790 -0.424004
  123 19.7357 0.0292293 -0.365044
  124 20.7988 -0.0375990 -0.331886
  125 21.1374 -0.00479108 -0.166658
  126 21.6268 -0.00772342 -0.130234
  127 22.0132 -0.0253254 -0.0970669
  128 22.2917 -0.0185910 -0.0771834
  129 22.6062 -0.00310951 -0.0651850
  130 22.2717 0.0980606 -0.0249370
  131 22.7168 0.0303438 -0.0420322
  132 23.7312 -0.0370929 0.0411716
  133 25.0181 -0.113500 -0.00781012
  134 26.2668 -0.204738 0.00436316
  135 27.6823 -0.277985 0.0123108
  136 29.1669 -0.421071 0.0223327
  137 30.7306 -0.521780 0.0472837
  138 32.3499 -0.547858 0.0361447
  139 33.7557 -0.653548 0.0353329
  140 34.9774 -0.566984 0.0737327
  141 36.3723 -0.496762 0.121783
  142 37.9562 -0.376624 0.131209
  143 39.4500 -0.336711 0.109417
  144 41.0487 -0.194840 0.0771614
  145 42.3908 -0.130065 0.0993414
  146 43.4587 -0.00585071 0.0590311
  147 38.3094 -3.59404 -0.681732
  148 38.2813 -3.54646 0.695843
  149 39.8383 5.75844 -2.18173
  150 42.8310 2.54349 4.73368
  151 32.3909 -3.08279 -6.84684
  152 32.6423 -3.08274 6.61177
  153 31.0611 -1.36059 0.695638
  154 31.0659 -1.38097 -0.697040
  155 45.6804 1.62120 -3.84312
  156 38.2055 -1.34490 1.13217
  157 38.1905 -1.31022 -1.11741
  158 49.3822 11.1875 0.716387
  159 38.8913 -0.0601801 -4.52079
  160 28.4498 -2.30143 -3.02144
  161 28.4458 -2.28067 2.99040
  162 39.0229 -0.869323 4.13006
  163 36.7074 2.66195 2.64055
  164 14.9069 2.50074 -8.15847
  165 16.6159 2.36157 8.61078
  166 48.5339 0.469812 1.07466
  167 39.2385 -1.48197 -2.96750
  168 52.2680 11.5113 -0.770763
  169 35.1834 -0.981076 0.150227
  170 35.1750 -0.976892 -0.146426
  171 39.9412 -0.428413 -0.505766
  172 40.0855 -0.377943 0.440508
  173 26.9777 -0.424168 -0.449727
  174 26.9791 -0.419405 0.446469
  175 43.3067 -1.26226 8.68034
  176 35.4376 1.44380 -2.83805
  177 22.9609 -1.75218 -4.97398
  178 23.0310 -1.73883 4.93607
  179 25.6824 -0.897075 -1.58568
  180 25.6826 -0.886014 1.57109
  181 39.4527 -1.00900 2.51978
  182 35.7210 -2.47021 0.221852
  183 35.5841 -2.45165 -0.157510
  184 40.9914 -3.93876 -0.197458
  185 41.1905 -3.75165 -0.321917
  186 56.9161 13.3571 -1.38255
  187 40.6553 6.58713 2.04875
  188 40.9024 2.52247 -4.67511
  189 43.2220 -0.520101 -10.1854
  190 40.7952 -2.28116 -3.45505
  191 41.1332 -1.61820 3.99285
  192 34.1260 -3.88709 3.19271
  193 34.1445 -3.86145 -3.18042
  194 36.1439 0.444387 3.43168
  195 16.1397 -0.361803 -6.05047
  196 16.1840 -0.400329 6.00853
  197 64.6681 9.78430 1.35894
  198 38.5736 -2.28295 1.99322
  199 40.1143 -0.699749 -1.67859
  200 31.2388 -0.787475 -0.289892
  201 31.2379 -0.782538 0.288386
  202 38.1809 -0.489398 -3.16439
  203 43.6511 6.44317 -3.83168
  204 36.0174 3.22012 -0.531765
  205 22.9833 -0.866008 2.27652
  206 22.9461 -0.869486 -2.29690
  207 40.8547 -0.406406 0.958029
  208 39.3418 0.743661 4.63663
  209 31.7862 -2.37098 -1.31802
  210 31.5449 -2.24624 1.36559
  211 46.7432 6.93812 3.68435
  212 55.7731 7.23662 0.367215
  213 3.41748 2.78291 -2.06113
  214 3.15044 2.57283 1.73754
  215 22.4865 6.33507 14.6867
  216 38.1737 -2.52769 -1.61637
  217 41.0300 -0.391001 -0.867469
  218 35.6882 0.294579 -3.15711
  219 24.4470 -0.275024 -0.697066
  220 24.4532 -0.271778 0.689395
  221 34.1168 -1.62063 -0.105000
  222 34.1319 -1.62915 0.0847202
  223 38.5610 -0.510622 2.70980
  224 45.0749 -2.62393 0.430673
  225 44.0913 9.13574 -1.13529
  226 34.5869 -3.37397 -1.34366
  227 44.1968 -0.754767 3.28996
  228 37.4509 -0.586479 0.228959
  229 37.4529 -0.580758 -0.228557
  230 34.3085 -3.35717 1.41564
  231 39.5342 -2.48696 2.85660
  232 56.7457 6.81371 -2.65175
  233 11.9790 7.15586 -10.4005
  234 32.6322 1.10872 0.667265
  235 39.3889 3.48444 3.88858
  236 42.3650 -0.279187 -4.30900
  237 39.4368 -1.40222 -3.90881
  238 20.2010 -0.689460 -2.88172
  239 20.2773 -0.678415 2.86937
  240 39.5362 -0.454329 -2.13193
  241 37.7180 -0.919829 0.643823
  242 37.7004 -0.917530 -0.626705
  243 7.37683 0.747727 -3.75115
  244 7.51484 0.656498 3.74055
  245 42.4039 -3.69159 -2.78092
  246 42.0393 -0.0993838 0.151218
  247 42.0945 -0.101776 -0.158516
  248 38.3894 3.18098 -3.54305
  249 33.3653 0.607713 2.04174
  250 73.1983 11.7442 7.80947
  251 72.6923 8.28399 -4.94980
  252 51.3690 11.2457 -0.222053
  253 32.0034 -1.51136 9.20279
  254 29.2763 -0.945787 -9.64854
  255 33.3600 -0.682521 -0.0637391
  256 33.3560 -0.677187 0.0627968
  257 27.2314 -0.776717 0.929815
  258 27.2339 -0.788191 -0.940291
  259 40.7191 -0.403145 1.36170
  260 39.3841 -2.78729 -2.42674
  261 24.4942 -0.0632731 -0.156623
  262 24.4974 -0.0623024 0.155288
  263 38.8821 -1.54558 -1.90772
  264 15.7027 -0.530467 -3.97635
  265 15.7800 -0.532386 3.94343
  266 39.3143 -1.68302 3.19167
  267 29.7782 -3.16235 5.49193
  268 29.8656 -3.21952 -5.47589
  269 33.1687 1.23283 -0.950145
  270 28.6097 -0.468892 -0.300408
  271 28.6105 -0.465216 0.298794
  272 36.4495 -0.101073 2.55297
  273 43.9219 8.12443 2.67523
  274 22.6669 -0.306974 1.21252
  275 22.6492 -0.309791 -1.22501
  276 40.5350 -3.35936 1.87451
  277 37.5246 -4.18716 -3.47064
  278 42.1533 -0.157431 0.459895
  279 28.4335 -1.75033 -2.03375
  280 28.3758 -1.72946 2.02378
  281 52.8565 4.81854 12.9398
  282 23.8189 -1.90984 6.62110
  283 38.6985 5.46101 -0.233096
  284 49.9334 5.39801 -2.75617
  285 37.2612 -2.88680 0.849502
  286 37.5357 -4.30471 3.08730
  287 23.9030 -1.87600 -6.70541
  288 4.26350 5.23886 4.61267
  289 38.8881 -1.55252 1.94073
  290 51.5108 6.59709 2.33976
  291 42.5370 -0.139697 -0.398563
  292 37.7375 1.30845 -4.07661
  293 37.5579 -2.11527 1.19067
  294 36.7409 -3.11260 -0.260056
  295 37.5720 1.71666 3.91795
  296 40.3274 -3.36357 -1.71579
  297 57.4832 11.3272 -0.815005
  298 37.5473 -2.03149 -1.14263
  299 31.5615 8.67928 -18.1957
  300 38.5039 -4.07169 -0.326526
  301 38.2186 -4.18138 0.776087
  302 27.5985 -2.53982 -4.32830
  303 24.2834 -0.111795 -0.346491
  304 24.2882 -0.109874 0.342885
  305 27.6056 -2.54067 4.30123
  306 40.5853 -0.0571363 -4.73119
  307 44.1865 -1.81936 -2.36833
  308 33.1262 -2.03448 -0.590036
  309 33.0986 -2.03879 0.603310
  310 40.3128 -3.46729 5.75234
  311 39.8874 -0.299375 1.61649
  312 49.1885 0.0764191 1.52290
  313 32.3653 -1.16781 -0.300487
  314 32.3660 -1.16275 0.297620
  315 29.2152 -0.799256 -0.578781
  316 29.2133 -0.790947 0.577262
  317 32.9804 0.419429 -1.97683
  318 43.3624 3.18375 -4.61575
  319 68.3086 18.2486 -8.28270
  320 39.7096 -0.292863 -0.177307
  321 39.6821 -0.288396 0.180854
  322 20.7424 0.0229257 8.26175
  323 29.1157 -1.37604 -1.29871
  324 29.0523 -1.36977 1.30142
  325 20.7408 -0.0219452 -8.23063
  326 41.1044 4.87416 -3.83628
  327 46.5443 2.27852 3.70671
  328 40.3457 -2.88104 -6.43559
  329 36.6753 -1.40111 0.610800
  330 36.6350 -1.38916 -0.593080
  331 39.3485 -0.770275 -0.974791
  332 36.4818 -0.0760430 -2.39006
  333 41.3912 0.198508 4.66882
  334 41.5834 -0.257345 -0.949373
  335 24.1788 -1.52547 3.31601
  336 24.1529 -1.53502 -3.34600
  337 38.2598 -0.0889827 4.27607
  338 22.7469 -0.210782 -0.709830
  339 22.7612 -0.208713 0.701868
  340 39.6152 -0.871074 1.44638
  341 47.3995 9.76269 -2.13357
  342 39.3211 -0.777749 1.00749
  343 41.5926 5.25796 3.86237
  344 39.8928 -0.726466 4.51071
  345 31.1838 -0.599094 0.0932271
  346 31.1853 -0.603521 -0.0943156
  347 37.5219 -0.139397 -3.78755
  348 50.2398 10.6258 1.58241
  349 41.3291 7.65576 0.0810446
  350 25.4068 2.98527 -12.4078
  351 2.27317 1.13338 -1.52329
  352 2.53140 1.22344 1.65627
  353 -0.217002 0.240810 0.844958
  354 -0.0448769 0.104296 -0.874463
  355 75.3962 5.22475 1.84103
  356 34.2988 -2.82096 -0.679953
  357 39.6555 -0.838879 -1.41296
  358 35.5405 -0.599555 0.105353
  359 35.5364 -0.593811 -0.105443
  360 37.7441 4.17292 -1.91510
  361 32.3308 -3.33533 2.61628
  362 2.64821 3.88589 -2.74673
  363 32.3704 -3.33642 -2.67239
  364 38.2744 4.36022 2.03818
  365 39.4579 -1.02478 -2.40997
  366 42.0042 -2.31937 -3.05160
  367 44.3907 9.50304 0.787182
  368 42.1275 -2.60224 2.61262
  369 16.4817 -0.438198 2.67165
  370 16.3709 -0.429952 -2.69247
  371 9.12171 0.254320 -3.64110
  372 9.23617 0.213252 3.62334
  373 33.5614 0.0816070 2.00630
  374 66.4072 18.9924 6.72063
  375 40.9383 -0.235152 -1.17493
  376 31.4120 -2.71040 -1.97680
  377 31.3787 -2.70117 1.97349
  378 39.1456 -0.883898 -2.98834
  379 45.0805 -2.17476 0.896956
  380 34.2970 -2.81739 0.708670
  381 49.8637 0.192035 -3.40590
  382 26.9223 -0.243183 -0.102506
  383 26.9244 -0.240877 0.101308
  384 38.3609 -0.215065 -1.87709
  385 19.8413 -0.312390 -1.75014
  386 19.8558 -0.321769 1.72627
  387 46.2113 5.89520 -4.04355
  388 24.7472 1.77577 11.4842
  389 35.9606 -1.89321 0.441834
  390 35.9973 -1.88899 -0.444264
  391 42.1638 7.19553 -2.47195
  392 40.0857 -1.17220 -4.30987
  393 40.5020 -4.11845 2.93156
  394 33.2374 -0.889771 -0.0894572
  395 33.2322 -0.884352 0.0873198
  396 38.7435 -2.98083 1.74524
  397 42.0348 -0.174130 0.712820
  398 25.2761 -0.977588 -2.00604
  399 25.2848 -0.976761 1.98568
  400 39.0976 1.31055 -4.56330
  401 37.0976 -0.771573 0.352547
  402 37.0970 -0.772894 -0.346627
  403 38.1813 -0.442451 3.51225
  404 35.2008 2.53959 0.905075
  405 39.7866 -1.65991 3.80804
  406 58.0723 12.2706 1.88667
  407 18.6048 -1.00998 -5.32050
  408 18.6602 -1.01079 5.27479
  409 8.19627 4.51045 -6.12054
  410 43.2318 -0.0914801 0.214819
  411 20.6724 -0.198959 -1.10357
  412 20.7024 -0.194728 1.09239
  413 39.1877 -1.00337 2.93917
  414 35.5167 -3.87206 1.56092
  415 40.4454 -0.454342 0.694930
  416 40.8382 2.08624 4.79899
  417 8.63373 4.80244 6.41724
  418 35.5762 -3.85287 -1.40903
  419 36.7948 -3.43197 0.0201362
  420 11.2603 -0.227990 -3.32638
  421 11.3602 -0.237704 3.30061
  422 28.1000 -2.20766 -7.99150
  423 42.3906 -0.611059 4.22116
  424 27.9740 -2.24638 7.91461
  425 39.0739 -2.17759 -2.57695
  426 35.7544 2.38599 -1.99750
  427 39.0856 -1.66509 2.42781
  428 42.4893 -0.154984 -0.498569
  429 1.16023 1.15284 0.363282
  430 8.24549 9.27308 9.15606
  431 37.2664 -0.139561 1.79393
  432 30.6018 0.388685 0.857998
  433 31.2033 0.481665 -1.16900
  434 26.6311 -0.478921 -0.654923
  435 26.6318 -0.472398 0.649332
  436 38.5338 -2.98013 -1.62582
  437 38.7722 -0.748655 -3.95166
  438 30.7927 0.541137 -0.317824
  439 58.1379 13.8000 2.28157
  440 7.52160 2.62048 -4.56312
  441 8.33606 2.40722 4.90409
  442 35.9280 -1.27180 0.366464
  443 35.9130 -1.26739 -0.355686
  444 47.9928 10.7768 -0.183009
  445 30.7381 11.7355 18.5910
  446 46.6921 -0.698997 -1.26985
  447 25.9440 -1.40869 -2.72442
  448 25.9542 -1.39792 2.69734
  449 25.9654 -0.623584 1.04660
  450 25.9626 -0.628729 -1.05833
  451 35.5651 0.764317 -3.24108
  452 43.4891 -0.0323169 -0.146894
  453 34.4422 1.54744 1.80651
  454 44.3504 5.49808 4.26150
  455 36.8431 -2.74171 -0.687396
  456 40.4363 -0.428899 -0.673422
  457 42.6828 -0.137115 0.459796
  458 43.3719 -0.0327544 0.0844019
  459 43.4161 -0.0407085 -0.0649648
  460 22.4917 -0.0513178 0.257072
  461 22.4818 -0.0520248 -0.260446
  462 40.4440 -2.54748 3.10723
  463 35.9270 1.39504 3.13644
  464 37.7875 0.148027 -4.15830
  465 39.8493 -0.806009 1.82388
  466 59.0748 9.01525 -10.5519
  467 39.8789 -2.19415 -3.39635
  468 0.184091 0.722841 0.180971
  469 0.189106 0.726657 0.0156945
  470 31.1821 -1.81477 1.05250
  471 31.0694 -1.79260 -1.04301
  472 50.4958 0.646811 5.46195
  473 13.8264 12.0347 -13.8621
  474 39.2332 -0.107170 1.41931
  475 45.1397 -2.65770 -2.92032
  476 23.1168 -1.37741 3.85831
  477 47.9181 8.51143 -3.05526
  478 39.2968 -2.10857 2.87763
  479 32.6608 -1.59401 -0.432417
  480 32.6899 -1.56615 0.430021
  481 33.5516 0.167522 -1.77457
  482 23.0415 -1.37302 -3.88697
  483 34.5066 0.000202846 1.79233
  484 33.5921 -3.83238 -4.83006
  485 33.5032 -3.83825 4.84158
  486 40.6651 -0.248682 1.29259
  487 36.3323 3.41308 0.374586
  488 37.8740 0.532534 12.5703
  489 55.3781 11.4376 -0.0727022
  490 38.0808 -0.599293 0.364614
  491 38.0846 -0.596772 -0.373452
  492 28.6006 -0.539553 -0.391875
  493 28.6008 -0.534529 0.389728
  494 14.9493 0.754848 6.87430
  495 39.4519 -1.88185 -3.29992
  496 35.6614 -0.754985 0.132607
  497 35.6578 -0.751554 -0.131447
  498 30.9078 -3.30075 3.95716
  499 15.2544 0.988016 -7.05623
  500 39.5829 -3.21016 -1.84722
  501 0.600047 -0.0260893 0.456893
  502 33.8597 1.71426 0.128364
  503 38.2470 -0.394078 -0.124620
  504 38.2444 -0.400678 0.122746
  505 30.9351 -3.29661 -3.99082
  506 45.1987 -2.37945 3.89675
  507 44.4156 1.62062 4.39895
  508 41.1824 -0.230119 -0.348066
  509 39.4608 -3.25715 1.86583
  510 23.6191 -0.0341244 -0.0414220
  511 23.6218 -0.0338721 0.0409043
  512 39.3008 -1.49307 -3.47451
  513 37.7249 2.78937 3.45344
  514 43.8501 1.08801 -4.33733
  515 23.4798 -0.0487658 -0.143340
  516 23.4837 -0.0481525 0.142061
  517 78.6275 11.3470 -10.2398
  518 39.3391 4.70749 3.06189
  519 41.2237 -0.206131 0.311943
  520 36.8818 -3.50617 0.0672231
  521 30.5638 -1.04617 0.556330
  522 30.5653 -1.05512 -0.555269
  523 43.2504 -2.61209 1.69195
  524 41.3367 -0.805357 -4.39521
  525 46.1244 9.17782 2.47067
  526 38.1301 0.651208 4.30548
  527 38.8401 -0.703719 0.654274
  528 37.8054 -4.00781 -4.57352
  529 38.9413 -0.947904 3.38410
  530 77.9177 3.54980 -1.44441
  531 42.9562 -3.22127 -0.585473
  532 40.9253 -0.218643 -0.0930475
  533 40.9338 -0.236474 0.0856179
  534 78.7110 5.29216 5.09667
  535 37.1031 -0.0198356 3.66183
  536 53.0278 8.72093 -1.65346
  537 39.4900 -1.04116 -1.79536
  538 16.8366 -0.173289 -1.19998
  539 16.8967 -0.165089 1.18633
  540 26.2938 -2.47716 -5.53932
  541 26.3097 -2.43514 5.49431
  542 38.8203 -0.671513 -0.646439
  543 42.1307 1.55721 -4.75467
  544 36.9584 -2.51844 0.826981
  545 39.5263 4.54753 -3.18715
  546 40.1909 -0.438037 1.74132
  547 50.9927 2.37944 0.127010
  548 34.0858 -1.17519 -0.0161403
  549 34.0733 -1.16973 0.0141635
  550 37.2385 -1.74732 0.928655
  551 55.6701 10.7920 -0.0307768
  552 39.0378 1.71049 4.47671
  553 16.4954 4.27820 10.2260
  554 38.2501 -2.30533 8.25726
  555 51.2656 2.10711 -8.99656
  556 39.9299 3.30865 -4.18422
  557 35.7611 -3.06441 -7.13161
  558 38.6809 -4.22415 -1.06722
  559 40.5257 -4.07788 -1.72968
  560 5.07376 6.37376 -6.05457
  561 40.7079 -0.472308 -1.12478
  562 61.7225 12.0725 -3.25384
  563 37.4504 -1.67054 -1.00203
  564 37.7975 -1.20329 0.824431
  565 37.7614 -1.17363 -0.796922
  566 25.1714 -0.169301 -0.309869
  567 25.1747 -0.167072 0.307112
  568 3.18597 0.394289 -1.94898
  569 3.40344 0.411983 1.99728
  570 18.6926 -0.900666 -4.07175
  571 18.8469 -0.905068 4.06162
  572 38.3051 -2.05903 -1.71870
  573 39.1592 -4.24074 1.18056
  574 40.2642 -3.80051 0.710268
  575 32.5384 -0.576801 -0.0897817
  576 32.5356 -0.571880 0.0891343
  577 31.0622 -3.24116 -6.11336
  578 35.0371 -2.84865 7.57004
  579 30.2666 -3.04423 6.15455
  580 39.3005 -0.861105 -4.25939
  581 23.8416 -0.434009 1.20420
  582 23.8307 -0.438830 -1.21637
  583 37.1737 2.03816 -3.46197
  584 37.3016 -0.0644343 -1.62884
  585 46.9192 10.3294 -1.14866
  586 30.1723 -0.476671 -0.100657
  587 30.1718 -0.472962 0.0999978
  588 40.1110 -0.110116 -0.940619
  589 27.0368 -0.967808 -1.29878
  590 27.0346 -0.963619 1.28520
  591 22.3474 1.09611 9.84701
  592 39.0437 -1.77501 -2.45834
  593 21.3482 -1.09829 7.05171
  594 38.3644 -1.97147 1.74608
  595 40.5703 -0.531917 1.23390
  596 40.1297 -0.314218 -0.315293
  597 27.2842 -0.368865 -0.276659
  598 27.2859 -0.365529 0.274617
  599 44.9598 9.07803 -2.19638
  600 21.3351 -1.05167 -7.08285
  601 38.2420 -1.63283 -1.42434
  602 34.2571 -0.624369 -0.0263151
  603 34.2530 -0.618908 0.0261417
  604 65.9590 8.94959 -1.53584
  605 21.8896 -0.158845 0.671990
  606 21.8702 -0.160473 -0.679495
  607 35.0887 0.780667 2.94932
  608 51.6423 4.12369 -1.35934
  609 23.8689 0.229136 -9.78673
  610 11.7729 0.350202 -5.24960
  611 11.8807 0.275753 5.22096
  612 29.7851 -1.79767 1.57091
  613 30.1229 -1.85056 -1.51516
  614 51.8593 10.4154 1.54987
  615 39.9475 -0.327642 0.290917
  616 33.3899 0.903489 -1.77279
  617 42.2557 7.67192 1.95278
  618 42.0811 7.96484 -1.29802
  619 34.6006 -1.93863 -0.0534416
  620 34.8811 -1.89157 -0.0745176
  621 24.9595 5.36995 -14.1818
  622 29.3634 -1.05217 -0.847999
  623 29.3639 -1.03916 0.843765
  624 77.9943 15.9250 11.9355
  625 39.2937 -1.27057 3.72360
  626 21.6921 -0.814849 -2.60923
  627 62.8167 13.5315 8.47684
  628 21.7454 -0.809624 2.59682
  629 37.9730 -1.47417 -9.71732
  630 25.6687 -0.151070 -0.114769
  631 25.6714 -0.149718 0.113986
  632 32.0450 0.266325 1.54389
  633 14.0731 -0.225597 -2.35148
  634 14.1639 -0.226092 2.33042
  635 34.1372 -2.45023 0.475228
  636 35.9182 -2.89740 0.111128
  637 42.9097 -0.0729687 -0.410590
  638 22.8760 -0.0471233 0.184874
  639 22.8691 -0.0479013 -0.187382
  640 32.0122 -0.734242 -0.110019
  641 32.0097 -0.729269 0.108470
  642 37.3062 -4.11629 4.63646
  643 42.6434 4.78093 -4.29679
  644 27.8394 -1.35949 -1.68096
  645 27.8149 -1.33570 1.66664
  646 33.4677 -2.45116 -0.780223
  647 53.3687 11.7297 -0.0246090
  648 40.0120 -3.85231 -0.478673
  649 34.3999 -0.815067 0.0234422
  650 34.3939 -0.810035 -0.0231007
  651 47.9278 5.20043 3.56872
  652 40.0164 -0.546202 -1.89406
  653 34.7291 -0.0546685 -1.46279
  654 15.6935 -0.531948 -5.09765
  655 15.7480 -0.548989 5.05112
  656 33.4041 -2.92605 -1.38731
  657 50.4890 11.3119 0.0553350
  658 38.7219 5.26591 -1.37905
  659 25.0687 -0.257997 -0.583782
  660 25.0727 -0.254270 0.577846
  661 36.4074 -1.00733 -0.337497
  662 36.4147 -1.00947 0.346492
  663 69.5002 9.12864 3.98292
  664 43.7573 -0.0927182 0.120139
  665 41.9501 -0.142866 0.690536
  666 41.7533 -0.149575 -0.796908
  667 39.4811 -3.65978 1.04664
  668 28.3151 -0.355875 -0.138503
  669 28.3163 -0.352971 0.137643
  670 41.8687 6.77074 2.98886
  671 54.3465 12.1629 -0.304870
  672 29.0970 -2.22876 -2.38557
  673 29.0837 -2.20510 2.37087
  674 36.9398 -3.81591 -0.416657
  675 38.7030 2.29903 -4.20518
  676 46.7188 0.0970429 2.27750
  677 30.1984 -0.586297 -0.252611
  678 30.1979 -0.581846 0.251059
  679 26.1312 -2.32265 -5.00318
  680 39.0938 -3.76903 -0.671056
  681 32.2635 -3.58561 4.35460
  682 15.1855 4.86649 -9.85011
  683 29.9327 -2.81963 3.35300
  684 36.0461 0.00852041 1.36170
  685 26.1522 -2.29527 4.96535
  686 38.2178 -1.66683 1.44177
  687 29.9488 -2.80906 -3.38833
  688 30.0324 0.364808 0.321906
  689 23.1695 -0.669514 1.83876
  690 23.1483 -0.670841 -1.85439
  691 32.2913 -3.67928 -4.40601
  692 40.1597 -2.62503 -3.00935
  693 36.7450 -0.475592 -0.0832684
  694 36.7506 -0.481546 0.0836037
  695 41.0979 -2.59120 3.01594
  696 37.2440 -3.89597 0.556973
  697 45.4098 4.16556 4.30825
  698 40.8275 -0.743752 4.49235
  699 39.2826 -1.38481 2.80028
  700 37.0955 3.03862 -2.62537
  701 45.1233 7.64237 3.38919
  702 38.8580 -0.526068 -2.64267
  703 38.8951 -1.25798 1.53695
  704 39.8082 6.27853 0.747499
  705 39.4995 -0.647973 2.33714
  706 12.1772 8.22429 10.2848
  707 36.8251 -4.22687 -2.52455
  708 42.6508 0.793423 4.60329
  709 43.1900 -1.32006 -3.44344
  710 43.4794 -0.0328243 0.237316
  711 39.2957 -1.32040 -2.24647
  712 36.8687 -4.26100 2.26146
  713 73.2666 6.48149 -1.09321
  714 20.9440 -0.103331 0.705017
  715 20.9172 -0.104541 -0.712927
  716 39.9926 -0.683420 -1.09924
  717 43.7651 -0.0228682 -0.228484
  718 33.3337 -2.97230 1.39560
  719 40.3105 -1.47815 4.11160
  720 62.5472 14.3937 -3.62654
  721 38.2048 -2.76326 1.53804
  722 42.5908 -2.78142 -2.00707
  723 38.9127 -1.22196 -1.51349
  724 43.8052 -0.0488519 -0.0842942
  725 39.1831 0.00549942 4.58317
  726 1.70951 1.19935 1.98600
  727 45.0417 -1.81705 -6.06353
  728 48.7822 2.80843 2.50322
  729 40.4626 -4.11367 1.48904
  730 28.0351 -0.715758 0.700611
  731 28.0374 -0.726440 -0.705208
  732 38.8634 18.0907 -19.5271
  733 41.1232 -2.69605 -2.82057
  734 29.9031 0.125089 -0.614955
  735 35.5152 0.181775 2.89301
  736 39.5516 -1.95821 3.35962
  737 37.9140 -3.19477 0.955756
  738 39.7188 -3.59479 -4.97813
  739 37.6619 -2.98020 -1.01121
  740 44.9108 -2.15139 -1.04694
  741 41.3129 -0.292209 0.653270
  742 36.5094 -2.19886 0.628532
  743 67.7098 13.5663 -7.05442
  744 39.1174 -1.00852 1.23811
  745 38.3548 0.622072 -4.42701
  746 33.1123 -0.394188 10.9809
  747 41.2391 3.33919 4.57204
  748 35.4528 -2.81428 0.0857787
  749 26.9870 -2.18156 -3.63098
  750 26.9855 -2.17430 3.59700
  751 37.3741 4.20233 -0.615039
  752 38.2693 -0.435771 3.98635
  753 38.7768 -0.911056 -3.44581
  754 36.5531 -2.24212 -0.642977
  755 35.2946 -3.18998 0.615453
  756 40.1313 6.67723 -0.854635
  757 37.8647 -3.27632 -0.805289
  758 37.9485 -2.39368 1.47889
  759 38.5811 -0.445419 0.252656
  760 38.6088 -0.431429 -0.251726
  761 51.9245 11.5431 0.549302
  762 42.6556 -3.60756 -0.786250
  763 39.4193 -1.17753 2.22962
  764 41.3450 -0.289677 -0.600586
  765 41.4370 0.289988 -4.71173
  766 47.5619 2.44133 -3.11703
  767 22.0739 -0.0313588 -0.323184
  768 22.0877 -0.0309874 0.319210
  769 0.286252 -0.829196 -0.599799
  770 40.2139 -0.0347803 0.873670
  771 36.4374 -0.0750027 -3.21882
  772 37.8096 -0.351867 2.87394
  773 35.2212 4.08005 16.3124
  774 43.0907 8.97653 -0.104575
  775 30.4064 -2.23677 1.80511
  776 4.74694 0.130313 -1.95717
  777 4.91543 0.0979590 1.97924
  778 37.4284 -0.268940 -3.22609
  779 30.5001 -2.26074 -1.80323
  780 41.0926 -0.320414 0.510993
  781 20.0891 -0.895407 3.47973
  782 19.9048 -0.892817 -3.48493
  783 39.1186 -0.977364 -1.20737
  784 24.1148 -0.656239 -1.59279
  785 24.1262 -0.651400 1.57596
  786 40.8157 -0.349881 -1.32849
  787 30.5415 -0.848510 -0.441517
  788 30.5409 -0.842133 0.441441
  789 44.6411 -0.283464 -3.48277
  790 39.8440 -0.406489 -4.63135
  791 19.3061 -0.137421 -0.907887
  792 19.3478 -0.136165 0.895894
  793 0.620410 0.502308 -1.12995
  794 0.811170 0.528700 1.19277
  795 31.4859 0.141096 -1.12366
  796 36.4709 -4.10079 -1.79774
  797 -0.437601 -0.309104 0.737719
  798 -0.377438 -0.352745 -0.724322
  799 38.0150 -0.721045 0.525485
  800 41.3370 -3.20152 -1.80815
  801 42.3462 6.31781 -3.50259
  802 41.2924 -0.284586 -0.483953
  803 91.3751 17.9811 -17.1573
  804 38.0078 -0.717878 -0.519206
  805 57.6349 11.1345 0.749329
  806 40.5194 1.18785 -4.81335
  807 45.0237 3.38989 -4.38761
  808 6.77409 -0.0814502 -1.82885
  809 6.92557 -0.0929219 1.82486
  810 24.4680 -0.386643 0.928531
  811 24.4607 -0.390160 -0.938663
  812 23.1049 -0.0673457 0.170624
  813 23.1001 -0.0680132 -0.172376
  814 45.3683 7.67912 -3.37735
  815 25.9722 -0.187042 -0.244140
  816 25.9749 -0.184785 0.242294
  817 38.3934 -0.384923 -4.15521
  818 56.9703 5.29785 4.02461
  819 34.0955 0.730730 -2.47446
  820 11.1697 -0.106915 1.98285
  821 11.0576 -0.107832 -2.00053
  822 45.7837 0.994057 11.5425
  823 39.9421 -0.689483 1.13457
  824 34.9701 2.29338 -1.03246
  825 15.4861 -0.0328643 1.36569
  826 15.3944 -0.0252250 -1.37734
  827 23.7247 -0.141739 -0.449127
  828 23.7317 -0.139693 0.443928
  829 4.15987 3.75301 3.05240
  830 36.6729 0.857577 3.70921
  831 41.0285 6.06958 -2.97095
  832 44.4427 5.16711 -4.30436
  833 28.6022 -1.13365 -1.14540
  834 28.5821 -1.12385 1.14236
  835 45.8949 9.89701 1.56703
  836 39.9627 -0.276313 -0.0711701
  837 39.9630 -0.274059 0.0784151
  838 39.2756 -1.15158 -2.80411
  839 32.6128 -2.21682 0.941175
  840 36.2297 -4.07621 1.81717
  841 43.0108 -3.52383 2.88738
  842 32.2551 -0.954887 -0.200061
  843 32.2534 -0.950299 0.197661
  844 36.8396 3.40454 1.67967
  845 34.4505 0.446232 -2.67976
  846 9.59302 10.5646 10.6957
  847 35.4126 -3.16514 -0.525518
  848 35.5064 -1.58947 0.298671
  849 35.5261 -1.59116 -0.300100
  850 39.0720 -0.564578 4.39212
  851 38.9024 -2.54132 -2.22456
  852 34.5365 -2.31591 -0.205709
  853 82.1468 2.66653 -4.17632
  854 32.7763 -3.14434 2.01577
  855 32.7539 -3.18721 -2.05322
  856 39.0779 -0.453973 2.25416
  857 59.7306 15.2577 -2.75215
  858 30.6389 -2.83877 -2.62091
  859 34.0888 -3.86291 2.39859
  860 30.6251 -2.80279 2.59440
  861 33.2977 -1.36130 -0.201629
  862 33.2949 -1.35547 0.198929
  863 4.62001 2.07314 2.67123
  864 42.0396 3.15316 -4.66488
  865 31.8459 -1.27470 -0.440399
  866 31.8505 -1.26064 0.442385
  867 31.3858 -0.530794 -0.0509484
  868 31.3842 -0.526478 0.0504225
  869 34.8224 -0.674061 0.0668527
  870 34.8178 -0.668740 -0.0669148
  871 27.7722 -0.583236 -0.611898
  872 27.7725 -0.576178 0.608414
  873 31.9955 -1.72774 -0.712071
  874 31.9982 -1.71415 0.714928
  875 0.704665 -0.552224 -0.180091
  876 48.9608 9.19171 2.73651
  877 42.0808 -1.45310 -3.88060
  878 34.0677 -3.80797 -2.42935
  879 36.8930 -1.16672 0.545031
  880 36.8756 -1.15312 -0.533237
  881 40.1874 0.0641707 4.72678
  882 44.2203 -3.15638 -1.33819
  883 39.3227 2.55221 -14.0808
  884 17.1319 -0.233859 6.83287
  885 -0.895390 0.400931 -0.380270
  886 -0.801115 0.451007 0.433118
  887 4.57864 2.20561 -2.72283
  888 39.4374 -1.09865 1.79009
  889 41.7431 -0.233634 -0.765162
  890 37.4256 -3.57461 5.81281
  891 17.0893 -0.212077 -6.86344
  892 41.7179 -3.38524 1.41277
  893 46.9127 -1.49953 4.85305
  894 32.7639 0.125249 1.19411
  895 38.0773 3.62364 2.87781
  896 20.2023 -1.15745 5.06609
  897 20.1202 -1.16705 -5.10438
  898 24.2893 -1.21113 -2.82404
  899 25.9961 -1.22433 -8.76821
  900 41.5844 -0.949246 4.27920
  901 57.7959 13.3307 1.30559
  902 41.6528 1.61912 4.75695
  903 39.3865 -0.816565 -2.54406
  904 26.5689 -1.09735 8.99015
  905 50.5381 9.26566 -2.21507
  906 4.69590 4.07464 -3.80068
  907 35.9388 -0.0798178 -1.29893
  908 24.3145 -1.20041 2.79500
  909 29.9462 -0.688541 0.396328
  910 29.9469 -0.694019 -0.397724
  911 38.9627 -2.52812 2.28752
  912 40.7537 -0.203589 0.208093
  913 29.7443 0.303404 -10.9603
  914 43.1047 -0.0755470 0.364515
  915 42.7070 -0.0597115 -0.455089
  916 30.6900 0.250551 -1.02842
  917 41.0306 -0.158552 -0.779698
  918 30.1020 -1.46014 -1.01843
  919 30.1220 -1.43673 1.02086
  920 -1.08216 0.346801 -0.635106
  921 -1.45070 0.208827 0.655235
  922 40.7558 -0.185717 -0.207955
  923 12.7388 -0.275811 4.59916
  924 12.6515 -0.245419 -4.62852
  925 43.0963 6.33127 3.71939
  926 80.1371 1.43806 1.31036
  927 40.4380 4.52144 3.82392
  928 46.6007 -1.69427 0.949159
  929 40.0629 -2.20840 3.41017
  930 49.9987 10.5331 -1.67909
  931 29.9497 0.105216 0.773674
  932 38.5997 -0.865324 -0.794817
  933 39.8348 2.14574 -4.62058
  934 48.9096 1.34189 -1.45736
  935 37.5158 -2.31158 -1.21667
  936 18.1966 -0.114316 -1.02152
  937 18.2196 -0.110340 1.00564
  938 39.6827 -0.898581 -2.04360
  939 1.17661 1.54327 0.150984
  940 38.0724 -3.94359 -0.00584484
  941 32.1416 0.910720 -0.106676
  942 49.5723 11.0144 -1.11865
  943 7.50094 5.61249 -6.49674
  944 37.8145 -0.279699 -2.57601
  945 25.5748 -0.466116 -0.857512
  946 25.5779 -0.460259 0.848556
  947 0.181817 -1.13520 0.881842
  948 25.3196 -1.93598 -4.05784
  949 38.7538 -2.22239 -2.14802
  950 22.9775 0.0486495 -0.0686953
  951 22.9804 0.0489594 0.0680673
  952 38.7687 4.71789 -2.31758
  953 42.4737 -0.0805507 -0.0743375
  954 42.4714 -0.0827200 0.0953898
  955 25.3278 -1.92957 4.02623
  956 39.0847 -0.0418082 -1.03021
  957 45.4102 0.325646 3.39621
  958 40.2245 -0.521044 0.890283
  959 5.95131 1.61806 -3.45639
  960 41.8430 -0.214878 0.697752
  961 37.3101 0.287594 3.99093
  962 39.3661 5.48310 2.06287
  963 39.5781 0.462786 -4.74183
  964 26.7742 -1.49563 -2.38839
  965 43.0722 -1.49947 3.33950
  966 26.7902 -1.48869 2.36049
  967 1.10505 1.25713 0.0597373
  968 4.25156 0.810802 2.52486
  969 21.4594 -0.411820 1.67357
  970 21.4313 -0.412709 -1.68522
  971 38.6256 -0.884326 0.831091
  972 41.1543 7.22470 1.15752
  973 20.8147 1.97128 -10.3165
  974 34.4628 -2.17718 0.155686
  975 32.3306 -3.41147 -3.15260
  976 47.4901 9.15803 2.72982
  977 36.4238 -0.611503 0.126146
  978 36.4230 -0.607396 -0.126199
  979 40.1150 -0.702149 -1.49735
  980 36.4690 3.13221 -1.55118
  981 87.1844 25.1264 16.9747
  982 7.11797 0.450068 -3.40471
  983 7.24914 0.375378 3.41428
  984 0.527960 -0.973073 0.0368342
  985 36.6250 2.01005 3.18348
  986 32.3138 -3.43089 3.12606
  987 40.3321 -1.88512 -3.82925
  988 43.9249 3.60576 4.67542
  989 42.5711 -3.43441 -3.66714
  990 62.4237 13.1933 4.07549
  991 35.7019 -0.549338 0.00840832
  992 35.6972 -0.543876 -0.00828597
  993 42.0523 -1.68777 3.70143
  994 2.79414 4.03948 4.60374
  995 17.9937 -0.405110 2.41192
  996 17.9309 -0.400022 -2.44187
  997 21.8022 -1.11733 3.27714
  998 21.7226 -1.10145 -3.29252
  999 24.6739 -1.06996 2.32613
  1000 26.9630 -0.240990 -0.114290
  1001 26.9651 -0.239023 0.113690
  1002 71.5598 21.7822 -13.5313
  1003 63.6446 15.9129 6.10766
  1004 24.6544 -1.07630 -2.34925
  1005 43.3384 -0.179738 4.06412
  1006 38.2678 3.97547 -2.77900
  1007 27.0240 -2.29938 7.25327
  1008 35.0443 -4.13525 -3.72878
  1009 40.1138 -0.309709 -1.53364
  1010 17.6657 1.29113 8.34679
  1011 22.7037 -1.74399 5.79936
  1012 34.8396 1.75716 -1.98349
  1013 40.5018 -0.784607 -4.53189
  1014 53.9738 19.9202 22.4994
  1015 32.7021 0.969608 1.40246
  1016 45.3870 9.91971 -0.186623
  1017 33.7068 1.26766 -12.4897
  1018 33.8810 -3.59892 -2.04219
  1019 43.8334 -0.0204149 -0.188329
  1020 41.3260 3.81122 -4.45719
  1021 23.3227 -0.173426 0.586166
  1022 23.3129 -0.175239 -0.592935
  1023 0.815560 0.0229541 -1.02240
  1024 26.7620 -1.27996 -1.98211
  1025 22.6785 -1.76707 -5.84858
  1026 26.7368 -1.27610 1.95631
  1027 39.5449 -1.18684 4.18940
  1028 35.3984 -2.20369 0.184681
  1029 36.9533 0.666264 -3.85685
  1030 37.9964 4.75893 0.809730
  1031 52.9920 2.91598 1.15094
  1032 39.2861 -2.96949 2.22247
  1033 24.2691 -1.98542 -4.44225
  1034 36.5883 1.27577 -3.59603
  1035 27.2827 -2.26598 -7.29846
  1036 53.0810 11.6875 -0.0864940
  1037 35.4241 2.30253 1.80400
  1038 45.8121 -0.288206 -2.73936
  1039 34.0952 -3.59826 1.84767
  1040 39.1996 -1.22134 3.27362
  1041 39.0050 -2.04042 2.46600
  1042 38.7928 -1.93132 2.16372
  1043 48.1632 6.07398 -3.64416
  1044 38.5767 -0.610458 3.26319
  1045 34.9745 -4.14702 3.66390
  1046 37.3438 -1.50774 0.840018
  1047 24.2828 -1.98825 4.41259
  1048 34.9294 -2.60364 -0.213441
  1049 19.8704 -0.950456 -6.20762
  1050 28.7764 -3.01020 4.87265
  1051 39.3806 -0.249950 -1.76288
  1052 38.2119 -0.425909 -3.68097
  1053 33.0281 -2.65703 -1.17849
  1054 19.9054 -0.980962 6.15287
  1055 35.3079 0.0725228 -2.51588
  1056 26.0918 -1.79164 -3.11722
  1057 48.3121 10.4015 1.77323
  1058 10.2838 1.80401 -5.77218
  1059 85.8360 6.08326 8.44069
  1060 18.9755 1.50124 -8.76264
  1061 38.8057 -3.20515 -1.50835
  1062 26.0962 -1.77502 3.08766
  1063 34.8828 0.345993 2.79917
  1064 18.9948 -0.411947 1.99403
  1065 18.9827 -0.422392 -2.01673
  1066 39.1578 -1.07599 -3.87490
  1067 42.1895 -0.166929 0.307336
  1068 41.0623 -0.0763735 0.791668
  1069 40.3642 1.35381 4.79284
  1070 37.5884 -0.282839 3.44246
  1071 29.4440 3.08270 13.5344
  1072 44.1527 -0.0154078 0.0971703
  1073 40.4913 5.52243 3.04658
  1074 33.8304 0.464749 2.40128
  1075 41.6801 -0.141201 0.766970
  1076 25.7999 -0.310232 -0.470281
  1077 25.8025 -0.306542 0.466298
  1078 16.1561 -0.480581 -3.31978
  1079 16.2282 -0.497731 3.29295
  1080 33.9359 1.65997 1.00390
  1081 53.2726 2.56759 -3.16370
  1082 48.9211 -0.256545 -6.78364
  1083 38.0078 -0.0281726 -1.05947
  1084 28.7940 -3.03359 -4.91273
  1085 33.0962 -2.52630 1.02799
  1086 38.2533 -0.0828516 1.10700
  1087 40.3846 -2.90712 -2.58257
  1088 24.1423 -0.0721332 0.287618
  1089 24.1384 -0.0733034 -0.289888
  1090 38.7295 -3.29714 1.50824
  1091 36.7405 -0.718212 0.216928
  1092 36.7346 -0.718573 -0.213954
  1093 35.7042 -3.61662 1.02757
  1094 46.6680 -1.53903 0.0879848
  1095 19.8185 -0.0406529 -0.563699
  1096 19.8542 -0.0392325 0.556704
  1097 31.3880 -1.94045 -8.36110
  1098 33.1008 -0.793257 0.0803760
  1099 33.1051 -0.798649 -0.0819425
  1100 20.2022 10.5514 14.8489
  1101 46.5766 3.78957 -4.00854
  1102 6.44156 3.25281 -4.23500
  1103 40.2577 -0.552453 -0.862006
  1104 10.2671 3.64982 -6.60774
  1105 21.5973 -1.40125 -4.23460
  1106 44.2081 -0.0238139 0.0544888
  1107 44.2318 -0.0208253 -0.0413270
  1108 39.3951 -2.22919 -2.94949
  1109 34.9060 -3.89570 -5.23931
  1110 10.2857 1.53541 5.50069
  1111 42.7935 4.25721 4.39074
  1112 39.0639 -0.338400 -0.0855247
  1113 39.0666 -0.339012 0.0896956
  1114 43.0197 -2.82004 6.31187
  1115 43.6899 8.85799 1.71630
  1116 25.2493 -0.654132 -1.24142
  1117 25.2539 -0.650518 1.23045
  1118 19.4667 2.29309 10.4013
  1119 36.8704 0.175833 -3.74086
  1120 11.2643 3.73315 7.13322
  1121 48.5621 -0.925363 -1.66112
  1122 46.9138 10.5411 0.551547
  1123 32.0135 -2.58542 1.50309
  1124 28.7028 0.129745 -0.150548
  1125 41.2879 -0.329546 1.00873
  1126 42.9184 -0.0339478 0.396907
  1127 8.43333 0.0221791 -1.65740
  1128 8.57325 0.0173199 1.64470
  1129 32.6526 0.512899 -1.77224
  1130 34.2420 -1.00784 0.0148431
  1131 34.2327 -1.00188 -0.0153070
  1132 3.48577 4.65744 -4.87542
  1133 5.65917 11.0308 -10.1835
  1134 34.7178 -1.36093 -0.0937025
  1135 34.7335 -1.36218 0.0923138
  1136 35.9727 -0.845210 0.245625
  1137 35.9675 -0.842605 -0.241872
  1138 9.11844 5.87663 7.11907
  1139 27.7333 -0.372429 -0.215506
  1140 27.7348 -0.369392 0.214061
  1141 35.2092 2.63608 -0.0441890
  1142 46.8244 5.26384 -15.6849
  1143 43.5433 7.56978 -2.93638
  1144 39.8329 -1.51142 -3.99509
  1145 39.2619 -1.93676 -2.96418
  1146 32.0412 -2.61109 -1.53108
  1147 31.6349 0.0901377 1.09413
  1148 36.1036 2.22877 -2.65776
  1149 35.5501 1.88753 2.53110
  1150 37.3180 -1.46165 -0.826749
  1151 35.4946 -2.15748 -0.209300
  1152 32.0576 -2.12264 -1.09458
  1153 38.3732 -0.218081 2.06609
  1154 69.8164 7.08994 0.998425
  1155 38.6805 -0.813813 3.76722
  1156 38.6628 2.54161 4.03765
  1157 35.8777 -3.55289 -0.681092
  1158 3.99206 0.748171 -2.42976
  1159 36.5533 -1.68289 -0.662892
  1160 23.1545 -0.0491967 -0.0113430
  1161 23.1568 -0.0490229 0.0111257
  1162 44.9864 -1.18583 2.40630
  1163 42.8912 -3.59714 1.03875
  1164 61.9306 11.2129 2.56694
  1165 13.5957 -0.0376400 -1.39662
  1166 13.6921 -0.0344995 1.38443
  1167 32.3219 -0.661625 -0.0878934
  1168 32.3192 -0.656672 0.0867559
  1169 36.6887 -3.25015 0.244413
  1170 28.9864 0.114671 0.491100
  1171 37.6052 -2.67549 1.19566
  1172 1.94436 2.31500 -0.940064
  1173 6.38732 3.29174 4.14845
  1174 24.8644 -1.30463 8.09236
  1175 43.3187 8.34658 -2.09192
  1176 41.8500 -0.103792 -0.604234
  1177 44.4138 -0.0577527 0.0421584
  1178 44.4671 -0.0842839 -0.0296551
  1179 24.2615 -0.0770351 -0.0433385
  1180 24.2644 -0.0764757 0.0428611
  1181 39.9050 2.56299 4.61391
  1182 60.0694 10.4266 -0.219028
  1183 41.0311 6.84527 -2.07869
  1184 30.8271 -2.22484 8.30570
  1185 24.7312 -1.24749 -8.07871
  1186 27.2810 -1.89158 -2.77219
  1187 38.6332 -1.04138 1.03527
  1188 54.3015 11.8718 -0.211630
  1189 27.2798 -1.87884 2.74649
  1190 39.5760 -0.641025 0.785442
  1191 34.5243 1.25186 2.40917
  1192 38.4853 1.18777 4.40905
  1193 55.6859 12.5020 0.844288
  1194 32.3932 -0.859824 0.170864
  1195 32.3962 -0.864976 -0.172972
  1196 40.0509 -0.709131 1.55202
  1197 22.6680 -0.270240 0.927964
  1198 22.6520 -0.273154 -0.938209
  1199 39.2196 -0.480457 -0.381653
  1200 15.8757 9.35192 -14.2690
  1201 33.9241 -1.88848 -8.88527
  1202 31.4345 -1.01589 -0.381709
  1203 31.4363 -1.01027 0.381663
  1204 42.4008 -0.155758 0.269285
  1205 39.8493 -0.467806 0.632073
  1206 2.00750 2.38455 1.66876
  1207 43.7384 -0.0324714 0.217493
  1208 4.89157 5.98675 5.93558
  1209 38.8450 -0.528597 -0.483667
  1210 -0.0716502 -0.982310 -0.854985
  1211 27.0416 -2.63358 -6.24142
  1212 26.9564 -2.56786 6.17398
  1213 43.7398 -0.0621278 -0.237353
  1214 36.7987 -1.93696 -0.766425
  1215 42.3581 -0.137458 -0.283094
  1216 33.1805 -1.08756 -0.113408
  1217 33.1754 -1.08233 0.110291
  1218 39.1920 -0.476088 0.361539
  1219 36.5257 -1.65093 0.655902
  1220 35.0410 -1.12035 -0.168763
  1221 35.0552 -1.12471 0.173852
  1222 42.3339 -0.141930 -0.233435
  1223 36.2252 -3.78462 -5.93820
  1224 41.3186 -0.199258 -0.246006
  1225 39.0244 -0.545634 0.511458
  1226 26.2540 -0.322676 -0.339081
  1227 26.2564 -0.319322 0.336328
  1228 29.6960 -0.459485 -0.153003
  1229 29.6960 -0.455755 0.151828
  1230 49.4112 7.65913 3.16719
  1231 41.4401 -3.15348 2.06518
  1232 28.1908 -0.0966520 10.3180
  1233 21.5350 -0.0481573 0.355171
  1234 21.5166 -0.0486202 -0.359513
  1235 38.9839 -0.703798 2.85924
  1236 37.4336 -0.521537 0.136964
  1237 37.4367 -0.519267 -0.136871
  1238 42.5688 8.38918 0.967491
  1239 39.4930 -4.11481 4.57033
  1240 21.7284 -0.337435 1.31999
  1241 21.7055 -0.340301 -1.33175
  1242 37.3497 -0.877367 0.462663
  1243 37.3419 -0.882910 -0.452741
  1244 38.6143 -1.02651 -1.00245
  1245 34.7760 0.00224548 1.30531
  1246 62.1223 15.4114 -4.67484
  1247 39.2600 -1.41007 -2.61293
  1248 6.25525 1.59419 3.56551
  1249 40.6110 -2.13853 3.61619
  1250 31.6565 0.655096 -0.967363
  1251 2.20020 1.76464 1.15778
  1252 54.3561 5.74311 0.359758
  1253 39.5892 -1.78109 -3.59833
  1254 31.8248 0.421810 1.47926
  1255 21.7587 -1.40266 4.22239
  1256 40.3394 -3.09951 2.35075
  1257 59.6161 10.7544 2.52571
  1258 13.0326 2.01702 7.04972
  1259 40.6238 -0.439503 -1.33117
  1260 80.8666 0.882552 -0.839065
  1261 83.7948 1.27887 3.77647
  1262 89.8370 3.15515 -8.90069
  1263 39.1513 -1.19934 -3.18095
  1264 39.2124 -1.76599 2.78477
  1265 39.8983 -2.81750 2.69810
  1266 -1.18595 0.114963 0.768761
  1267 -1.08600 0.0853852 -0.828674
  1268 38.9273 -4.27939 -1.89476
  1269 39.9819 -4.01663 -3.03904
  1270 29.2269 0.169628 -0.608629
  1271 38.7892 -4.36269 3.06219
  1272 41.3473 -1.93722 -3.68432
  1273 0.631792 1.15090 -0.0297242
  1274 33.2010 -0.602118 0.0898754
  1275 33.2041 -0.607268 -0.0901168
  1276 41.2864 -0.287344 0.923772
  1277 39.5791 -0.628098 -0.743094
  1278 37.1077 -4.05564 -0.840136
  1279 33.6134 -1.84991 0.327781
  1280 33.4328 -1.82567 -0.385201
  1281 39.8260 -0.808287 2.06920
  1282 40.7855 -1.47638 -4.13911
  1283 2.28822 1.84055 -1.09748
</Section>

newXOutput 7

<Section columns = "stress_xx | stress_yy | stress_xy">
  1 53.6170 0.0112989 0.116355
  2 53.6243 0.0116777 -0.116850
  3 27.2505 -0.0176248 -0.0422437
  4 -0.354347 -0.353081 -0.508855
  5 100.725 36.9356 30.8809
  6 99.7280 38.4153 -31.2036
  7 -0.410741 -0.338020 0.538072
  8 27.2480 -0.0177483 0.0420907
  9 54.0419 -0.0792571 0.0391303
  10 53.9023 -0.129903 -0.0182374
  11 53.7344 -0.0769065 0.142950
  12 53.5705 -0.114871 0.0554959
  13 53.2222 -0.0932533 0.226037
  14 52.9114 -0.0964936 0.174477
  15 52.2132 -0.0864001 0.319683
  16 51.2544 -0.0465155 0.466988
  17 50.3911 -0.0571565 0.511655
  18 49.1434 -0.0935227 0.609493
  19 47.4528 0.00460794 0.888872
  20 45.8896 -0.0692438 0.834780
  21 44.1596 -0.0980881 1.16268
  22 41.6543 0.0710022 1.00131
  23 39.8782 0.0966809 1.17513
  24 37.5648 0.169366 0.911603
  25 35.9814 0.162292 0.915296
  26 33.6832 0.241815 0.464072
  27 33.2074 0.383259 0.495091
  28 32.9244 0.305771 -0.145281
  29 33.3209 0.162634 -0.323739
  30 34.0461 0.168360 -0.395496
  31 35.7650 0.220364 -0.793269
  32 37.4337 0.173585 -1.01135
  33 39.9151 0.0272633 -1.20476
  34 41.9063 -0.0299759 -1.10944
  35 44.0560 -0.0793159 -1.10120
  36 46.0165 -0.0533648 -0.784164
  37 47.7276 -0.0521651 -0.678605
  38 49.1583 -0.0901675 -0.577042
  39 50.4571 -0.0597720 -0.412656
  40 51.2894 -0.0661045 -0.442605
  41 52.0924 -0.0896466 -0.325820
  42 52.8706 -0.109467 -0.154620
  43 53.2756 -0.0853636 -0.173738
  44 53.5088 -0.0439555 -0.113398
  45 53.3934 -0.0109558 -0.102828
  46 53.9696 -0.133741 0.00899647
  47 54.0651 -0.0837015 -0.0404481
  48 52.0779 -0.000125168 -0.0715389
  49 50.7705 -0.162973 -0.121522
  50 49.1953 -0.252514 -0.0899921
  51 47.2886 -0.401935 -0.120486
  52 45.4995 -0.449271 -0.154391
  53 43.6029 -0.591320 -0.144763
  54 41.9357 -0.674655 -0.0876092
  55 40.4747 -0.777875 -0.0419618
  56 38.7939 -0.651473 -0.0430689
  57 36.8582 -0.620596 -0.0565304
  58 34.9890 -0.500579 -0.0267417
  59 33.2141 -0.330072 -0.0148555
  60 31.5217 -0.242972 -0.00540538
  61 30.0284 -0.134674 0.00917650
  62 28.4891 -0.0437877 -0.0493646
  63 27.2756 0.0365646 0.0502293
  64 26.7433 0.117654 0.0296384
  65 27.1442 -0.00332382 0.0774617
  66 26.7691 -0.0217987 0.0914446
  67 26.4385 -0.0298040 0.114750
  68 25.9797 -0.00887134 0.154012
  69 25.3991 -0.00539369 0.197180
  70 24.9988 -0.0444540 0.393463
  71 23.7372 0.0356008 0.432335
  72 22.8678 -0.00598826 0.502508
  73 21.5718 -0.0276930 0.568050
  74 20.0693 -0.0443340 0.694059
  75 18.1948 -0.0125854 0.842693
  76 15.9074 0.00878853 0.923877
  77 13.9756 -0.0269738 1.31741
  78 10.0799 0.128206 1.23156
  79 7.47789 0.111327 1.30328
  80 4.40702 -0.0145490 1.42950
  81 1.90310 0.255901 1.46414
  82 -0.924874 0.370674 0.835191
  83 -2.92354 0.373568 0.243639
  84 -2.70675 0.347616 -0.216650
  85 -2.44753 0.283190 -0.759664
  86 -1.42460 -0.110998 -0.701080
  87 -0.188256 -1.36795 -0.768014
  88 0.112008 -2.55072 -0.985430
  89 0.345306 -4.15735 -0.616219
  90 0.786774 -4.49215 -0.117534
  91 1.69243 -1.91314 2.02757
  92 5.20357 6.48316 7.46918
  93 32.5026 27.2219 27.2842
  94 121.220 17.7898 20.6674
  95 108.461 2.57581 6.85469
  96 100.119 1.04213 2.09789
  97 97.0236 0.870952 0.172001
  98 98.6101 1.17786 -1.79944
  99 108.108 2.36885 -5.41558
  100 129.473 8.60756 -18.0938
  101 19.0554 27.4058 -22.5875
  102 3.90915 3.78451 -6.06651
  103 1.83817 -1.72696 -2.05492
  104 0.730548 -4.55630 -0.209170
  105 0.181130 -3.21547 0.719801
  106 0.247875 -3.20272 0.863836
  107 0.00332982 -1.19306 0.849012
  108 -1.48436 -0.0809102 0.669875
  109 -2.52694 0.212354 0.668117
  110 -2.84638 0.424407 0.233553
  111 -3.02324 0.369959 -0.218132
  112 -1.12986 0.380028 -0.776783
  113 1.71750 0.258332 -1.39269
  114 4.21669 0.0117527 -1.40574
  115 7.28321 0.120529 -1.30699
  116 9.90302 0.131876 -1.24235
  117 13.8382 -0.0275024 -1.33021
  118 15.7893 0.0100626 -0.934188
  119 18.0922 -0.0120480 -0.854607
  120 20.0160 -0.0486205 -0.700505
  121 21.5026 -0.0266861 -0.570260
  122 22.8162 -0.00430304 -0.508627
  123 23.6958 0.0350714 -0.438076
  124 24.9703 -0.0448396 -0.398354
  125 25.3774 -0.00564767 -0.200228
  126 25.9645 -0.00910560 -0.156539
  127 26.4282 -0.0301854 -0.116772
  128 26.7625 -0.0221242 -0.0928704
  129 27.1395 -0.00361877 -0.0783866
  130 26.7403 0.117439 -0.0300817
  131 27.2729 0.0364714 -0.0504982
  132 28.4859 -0.0441303 0.0491849
  133 30.0250 -0.135529 -0.00953216
  134 31.5187 -0.244900 0.00498166
  135 33.2121 -0.332768 0.0144393
  136 34.9884 -0.504457 0.0263406
  137 36.8593 -0.625448 0.0562211
  138 38.7969 -0.657033 0.0427952
  139 40.4789 -0.783969 0.0418680
  140 41.9407 -0.680688 0.0878201
  141 43.6095 -0.596810 0.145354
  142 45.5042 -0.453145 0.156554
  143 47.2907 -0.405382 0.130669
  144 49.2022 -0.235252 0.0920836
  145 50.8065 -0.157299 0.118944
  146 52.0827 -0.00807737 0.0705645
  147 45.9291 -4.30904 -0.804399
  148 45.8953 -4.25198 0.821305
  149 47.7734 6.90424 -2.60944
  150 51.3506 3.04864 5.65844
  151 38.8354 -3.69709 -8.21745
  152 39.1371 -3.69693 7.93578
  153 37.2536 -1.63064 0.838938
  154 37.2592 -1.65503 -0.840595
  155 54.7586 1.94371 -4.58765
  156 45.8045 -1.61330 1.34867
  157 45.7866 -1.57177 -1.33110
  158 59.2051 13.4076 0.852548
  159 46.6336 -0.0723086 -5.40678
  160 34.1234 -2.75858 -3.62785
  161 34.1188 -2.73374 3.59072
  162 46.7894 -1.04280 4.93806
  163 44.0242 3.19292 3.15965
  164 17.8858 2.99733 -9.79191
  165 19.9339 2.83072 10.3344
  166 58.1697 0.565243 1.26745
  167 47.0443 -1.77749 -3.54525
  168 62.6568 13.7980 -0.907052
  169 42.1873 -1.17680 0.175526
  170 42.1772 -1.17181 -0.170989
  171 47.8792 -0.515236 -0.602175
  172 48.0516 -0.454777 0.524394
  173 32.3682 -0.507872 -0.541001
  174 32.3700 -0.502179 0.537114
  175 51.9013 -1.50945 10.4186
  176 42.5044 1.73241 -3.39615
  177 27.5457 -2.10114 -5.96824
  178 27.6298 -2.08515 5.92292
  179 30.8142 -1.07475 -1.90396
  180 30.8145 -1.06152 1.88652
  181 47.3005 -1.21051 3.01039
  182 42.8306 -2.96137 0.256593
  183 42.6667 -2.93913 -0.179657
  184 49.1384 -4.72242 -0.251548
  185 49.3775 -4.49812 -0.370766
  186 68.2205 16.0107 -1.67508
  187 48.7521 7.89712 2.45018
  188 49.0428 3.02400 -5.59067
  189 51.7978 -0.618998 -12.2222
  190 48.9079 -2.73557 -4.12625
  191 49.3136 -1.94090 4.77058
  192 40.9177 -4.66031 3.83698
  193 40.9396 -4.62952 -3.82229
  194 43.3484 0.533379 4.10589
  195 19.3684 -0.435164 -7.26075
  196 19.4215 -0.481273 7.21056
  197 77.4981 11.7223 1.62981
  198 46.2465 -2.73753 2.37732
  199 48.0903 -0.839988 -2.00433
  200 37.4670 -0.943868 -0.350632
  201 37.4660 -0.937976 0.348834
  202 45.7827 -0.587048 -3.78394
  203 52.3366 7.72391 -4.57957
  204 43.1992 3.86257 -0.636231
  205 27.5799 -1.03770 2.73194
  206 27.5353 -1.04185 -2.75630
  207 48.9736 -0.488579 1.14284
  208 47.1737 0.891475 5.54570
  209 38.1197 -2.84183 -1.58700
  210 37.8312 -2.69228 1.64373
  211 56.0375 8.31716 4.39873
  212 66.8382 8.68363 0.467156
  213 4.10611 3.34018 -2.48060
  214 3.78557 3.08802 2.09161
  215 26.9627 7.59882 17.6179
  216 45.7674 -3.03081 -1.92568
  217 49.1829 -0.470044 -1.03476
  218 42.8033 0.353833 -3.77746
  219 29.3388 -0.329135 -0.837203
  220 29.3463 -0.325254 0.828041
  221 40.9107 -1.94284 -0.132416
  222 40.9288 -1.95309 0.108126
  223 46.2370 -0.612536 3.23985
  224 54.0267 -3.14478 0.533720
  225 52.8684 10.9505 -1.35623
  226 41.4714 -4.04462 -1.62021
  227 52.9804 -0.905381 3.92564
  228 44.9001 -0.704472 0.271621
  229 44.9023 -0.697629 -0.271145
  230 41.1384 -4.02451 1.70629
  231 47.3974 -2.98228 3.41032
  232 67.9968 8.17923 -3.20579
  233 14.3722 8.58447 -12.4836
  234 39.1485 1.33115 0.798772
  235 47.2330 4.17785 4.65152
  236 50.7896 -0.335396 -5.14872
  237 47.2834 -1.68178 -4.67219
  238 24.2449 -0.826340 -3.45723
  239 24.3362 -0.813119 3.44250
  240 47.4016 -0.545387 -2.54787
  241 45.2203 -1.10389 0.765767
  242 45.1992 -1.10116 -0.745309
  243 8.86065 0.896007 -4.50468
  244 9.02581 0.786657 4.49190
  245 50.8269 -4.42545 -3.34823
  246 50.3867 -0.120673 0.179877
  247 50.4525 -0.123556 -0.188692
  248 46.0369 3.81456 -4.23866
  249 40.0255 0.729983 2.44363
  250 87.7015 14.0703 9.35885
  251 87.0920 9.92454 -5.92980
  252 61.5841 13.4767 -0.261279
  253 38.3692 -1.81289 11.0421
  254 35.1025 -1.13555 -11.5762
  255 40.0055 -0.818630 -0.0786300
  256 40.0007 -0.812261 0.0774993
  257 32.6703 -0.930483 1.11774
  258 32.6732 -0.944206 -1.13026
  259 48.8137 -0.484357 1.62604
  260 47.2173 -3.34219 -2.89512
  261 29.3980 -0.0754311 -0.188321
  262 29.4019 -0.0742715 0.186727
  263 46.6156 -1.85386 -2.27643
  264 18.8496 -0.636292 -4.77099
  265 18.9422 -0.638587 4.73162
  266 47.1353 -2.01850 3.81326
  267 35.7095 -3.79214 6.59186
  268 35.8139 -3.86068 -6.57258
  269 39.7904 1.47999 -1.13717
  270 34.3215 -0.561660 -0.361467
  271 34.3225 -0.557270 0.359541
  272 43.7136 -0.120926 3.05394
  273 52.6636 9.73873 3.19696
  274 27.2047 -0.367534 1.45521
  275 27.1835 -0.370901 -1.47014
  276 48.5943 -4.02809 2.23192
  277 44.9854 -5.02032 -4.17230
  278 50.5246 -0.190102 0.548207
  279 34.1062 -2.09764 -2.44295
  280 34.0373 -2.07267 2.43105
  281 63.3241 5.79401 15.5258
  282 28.5701 -2.29114 7.94503
  283 46.4092 6.54821 -0.278744
  284 59.8515 6.47346 -3.28134
  285 44.6745 -3.46103 1.00697
  286 44.9992 -5.16118 3.71281
  287 28.6706 -2.25062 -8.04591
  288 5.11902 6.29057 5.54340
  289 46.6228 -1.86213 2.31589
  290 61.7400 7.91096 2.78120
  291 50.9829 -0.168723 -0.475101
  292 45.2552 1.56936 -4.87700
  293 45.0299 -2.53638 1.41705
  294 44.0513 -3.73161 -0.300790
  295 45.0576 2.05881 4.68748
  296 48.3459 -4.03303 -2.04198
  297 68.9023 13.5727 -0.982028
  298 45.0171 -2.43598 -1.35979
  299 37.8248 10.4131 -21.8207
  300 46.1606 -4.88166 -0.404401
  301 45.8190 -5.01320 0.943016
  302 33.1017 -3.04501 -5.19486
  303 29.1446 -0.133612 -0.416421
  304 29.1504 -0.131315 0.412116
  305 33.1103 -3.04607 5.16248
  306 48.6604 -0.0689682 -5.65675
  307 52.9664 -2.18132 -2.82117
  308 39.7245 -2.43861 -0.714316
  309 39.6916 -2.44379 0.730287
  310 48.3209 -4.15617 6.90859
  311 47.8220 -0.359537 1.93178
  312 58.9505 0.0960392 1.84580
  313 38.8148 -1.39983 -0.364824
  314 38.8157 -1.39381 0.361397
  315 35.0452 -0.957646 -0.696894
  316 35.0430 -0.947713 0.695089
  317 39.5650 0.503863 -2.36588
  318 51.9872 3.81656 -5.51676
  319 81.8558 21.8727 -9.94060
  320 47.6013 -0.352856 -0.210907
  321 47.5684 -0.347493 0.215154
  322 24.8811 0.0256242 9.91366
  323 34.9242 -1.64896 -1.56157
  324 34.8484 -1.64149 1.56485
  325 24.8790 -0.0282979 -9.87631
  326 49.2872 5.84358 -4.58760
  327 55.7931 2.73176 4.42339
  328 48.3594 -3.45327 -7.72761
  329 43.9729 -1.68039 0.724824
  330 43.9246 -1.66612 -0.703630
  331 47.1715 -0.924841 -1.16184
  332 43.7521 -0.0909935 -2.85899
  333 49.6249 0.237211 5.58120
  334 49.8461 -0.309524 -1.13335
  335 29.0087 -1.82849 3.97948
  336 28.9776 -1.83991 -4.01533
  337 45.8783 -0.106695 5.11456
  338 27.3026 -0.252241 -0.852221
  339 27.3198 -0.249768 0.842709
  340 47.4921 -1.04550 1.72583
  341 56.8281 11.7019 -2.54518
  342 47.1389 -0.933759 1.20091
  343 49.8719 6.30330 4.61846
  344 47.8308 -0.871588 5.39303
  345 37.4016 -0.718169 0.113287
  346 37.4033 -0.723453 -0.114588
  347 44.9955 -0.167043 -4.53043
  348 60.2287 12.7361 1.88211
  349 49.5599 9.17787 0.0969110
  350 30.4641 3.57844 -14.8848
  351 2.73581 1.35941 -1.83263
  352 3.04533 1.46752 1.99205
  353 -0.257593 0.290272 1.01079
  354 -0.0516944 0.126830 -1.04630
  355 90.3214 6.25906 2.20414
  356 41.1276 -3.38157 -0.823980
  357 47.5401 -1.00696 -1.68590
  358 42.6145 -0.719784 0.124528
  359 42.6095 -0.712919 -0.124640
  360 45.2658 5.00427 -2.29120
  361 38.7697 -3.99838 3.14462
  362 3.18119 4.66965 -3.30450
  363 38.8170 -3.99963 -3.21178
  364 45.9006 5.22866 2.43847
  365 47.3065 -1.22948 -2.87891
  366 50.3546 -2.78131 -3.64153
  367 53.2274 11.3906 0.940279
  368 50.5016 -3.12048 3.11528
  369 19.7868 -0.525246 3.20533
  370 19.6542 -0.515357 -3.23021
  371 10.9571 0.304476 -4.37042
  372 11.0941 0.255289 4.34915
  373 40.2601 0.0987875 2.40094
  374 79.5745 22.7703 8.07936
  375 49.0768 -0.282698 -1.40351
  376 37.6709 -3.24877 -2.37695
  377 37.6312 -3.23776 2.37299
  378 46.9345 -1.06038 -3.57167
  379 54.0346 -2.60701 1.05725
  380 41.1255 -3.37731 0.858432
  381 59.7557 0.234973 -4.10243
  382 32.3028 -0.291013 -0.123822
  383 32.3054 -0.288260 0.122394
  384 45.9983 -0.258142 -2.24440
  385 23.8172 -0.374203 -2.09958
  386 23.8345 -0.385455 2.07102
  387 55.3994 7.06721 -4.82892
  388 29.6751 2.12844 13.7781
  389 43.1175 -2.26989 0.521277
  390 43.1615 -2.26485 -0.524166
  391 50.5583 8.62604 -2.95509
  392 48.0609 -1.40601 -5.15188
  393 48.5503 -4.93748 3.52779
  394 39.8587 -1.06690 -0.111008
  395 39.8525 -1.06044 0.108447
  396 46.4496 -3.57402 2.07904
  397 50.3855 -0.209585 0.850753
  398 30.3268 -1.17126 -2.40798
  399 30.3373 -1.17030 2.38364
  400 46.8822 1.57141 -5.45829
  401 44.4776 -0.926205 0.418108
  402 44.4768 -0.927807 -0.411041
  403 45.7834 -0.530818 4.20018
  404 42.2219 3.04683 1.08324
  405 47.7017 -1.99082 4.55068
  406 69.6075 14.7041 2.27053
  407 22.3250 -1.21169 -6.38411
  408 22.3914 -1.21264 6.32941
  409 9.83883 5.41057 -7.35100
  410 51.8126 -0.110816 0.255893
  411 24.8154 -0.238093 -1.32404
  412 24.8513 -0.233031 1.31069
  413 46.9847 -1.20363 3.51256
  414 42.5842 -4.64205 1.88169
  415 48.4828 -0.546208 0.828131
  416 48.9657 2.50087 5.73901
  417 10.3627 5.76084 7.70621
  418 42.6555 -4.61898 -1.69960
  419 44.1154 -4.11445 0.0127722
  420 13.5236 -0.273771 -3.99186
  421 13.6431 -0.285397 3.96102
  422 33.6958 -2.64852 -9.58920
  423 50.8197 -0.733412 5.04330
  424 33.5454 -2.69480 9.49714
  425 46.8462 -2.61131 -3.07628
  426 42.8841 2.86249 -2.39027
  427 46.8601 -1.99707 2.89874
  428 50.9269 -0.186913 -0.594552
  429 1.39458 1.38847 0.442648
  430 9.89472 11.1348 10.9937
  431 44.6905 -0.167279 2.14547
  432 36.7198 0.467330 1.02711
  433 37.4393 0.578857 -1.39924
  434 31.9528 -0.573454 -0.787334
  435 31.9537 -0.565655 0.780659
  436 46.1985 -3.57315 -1.93611
  437 46.4896 -0.898067 -4.72507
  438 36.9480 0.650417 -0.380415
  439 69.6833 16.5417 2.75316
  440 9.03129 3.14248 -5.48116
  441 10.0078 2.88666 5.88981
  442 43.0784 -1.52526 0.432911
  443 43.0605 -1.52002 -0.420024
  444 57.5418 12.9154 -0.217935
  445 36.8305 14.0899 22.2952
  446 55.9654 -0.836697 -1.50286
  447 31.1243 -1.68828 -3.27017
  448 31.1367 -1.67541 3.23778
  449 31.1549 -0.746883 1.25728
  450 31.1514 -0.753029 -1.27129
  451 42.6564 0.917441 -3.87822
  452 52.1198 -0.0397365 -0.174871
  453 41.3139 1.85713 2.16208
  454 53.1720 6.59070 5.09254
  455 44.1740 -3.28707 -0.813387
  456 48.4717 -0.515750 -0.802544
  457 51.1582 -0.165494 0.548298
  458 51.9791 -0.0403942 0.100466
  459 52.0317 -0.0499464 -0.0772570
  460 26.9998 -0.0612559 0.308834
  461 26.9879 -0.0621012 -0.312863
  462 48.4868 -3.05487 3.70961
  463 43.0898 1.67379 3.75310
  464 45.3136 0.177602 -4.97407
  465 47.7734 -0.967399 2.17778
  466 70.7704 10.8281 -12.6722
  467 47.8109 -2.63124 -4.05689
  468 0.226874 0.867613 0.220902
  469 0.232627 0.872445 0.0149045
  470 37.3975 -2.17504 1.26777
  471 37.2626 -2.14841 -1.25621
  472 60.5102 0.783776 6.56645
  473 16.5781 14.4470 -16.6316
  474 47.0409 -0.128897 1.69665
  475 54.1013 -3.18456 -3.51738
  476 27.7355 -1.65119 4.62964
  477 57.4458 10.2032 -3.64499
  478 47.1134 -2.52864 3.43638
  479 39.1680 -1.91062 -0.524202
  480 39.2030 -1.87727 0.521351
  481 40.2484 0.201315 -2.12354
  482 27.6452 -1.64591 -4.66388
  483 41.3907 0.000724212 2.14453
  484 40.2764 -4.59523 -5.79992
  485 40.1700 -4.60226 5.81394
  486 48.7507 -0.298819 1.54419
  487 43.5762 4.09389 0.448315
  488 45.3937 0.641791 15.0791
  489 66.3837 13.7051 -0.0870801
  490 45.6536 -0.719913 0.433294
  491 45.6581 -0.716897 -0.443882
  492 34.3102 -0.646306 -0.471925
  493 34.3106 -0.640304 0.469366
  494 17.9384 0.903690 8.25089
  495 47.3000 -2.25685 -3.94235
  496 42.7591 -0.906005 0.155735
  497 42.7548 -0.901913 -0.154356
  498 37.0643 -3.95734 4.75167
  499 18.3040 1.18310 -8.46901
  500 47.4546 -3.84911 -2.20016
  501 0.721907 -0.0260096 0.543263
  502 40.6173 2.05741 0.153733
  503 45.8520 -0.474080 -0.147988
  504 45.8490 -0.481975 0.145744
  505 37.0968 -3.95233 -4.79199
  506 54.1716 -2.85031 4.68731
  507 53.2452 1.94231 5.25498
  508 49.3629 -0.277473 -0.414433
  509 47.3082 -3.90539 2.22252
  510 28.3517 -0.0405928 -0.0499211
  511 28.3551 -0.0402910 0.0493039
  512 47.1199 -1.79069 -4.15222
  513 45.2414 3.34510 4.13178
  514 52.5680 1.30394 -5.18156
  515 28.1844 -0.0581684 -0.172246
  516 28.1891 -0.0574352 0.170719
  517 94.1913 13.5932 -12.2644
  518 47.1746 5.64427 3.66272
  519 49.4122 -0.248785 0.371373
  520 44.2196 -4.20345 0.0920170
  521 36.6588 -1.25376 0.671050
  522 36.6606 -1.26445 -0.669766
  523 51.8448 -3.13198 2.01113
  524 49.5581 -0.966334 -5.25278
  525 55.3012 11.0008 2.95005
  526 45.7241 0.780970 5.15035
  527 46.5626 -0.845081 0.778857
  528 45.3203 -4.80531 -5.49444
  529 46.6909 -1.13709 4.04533
  530 93.3336 4.25280 -1.72961
  531 51.4914 -3.86198 -0.685495
  532 49.0547 -0.263822 -0.110525
  533 49.0649 -0.285180 0.101616
  534 94.2847 6.33884 6.10208
  535 44.4950 -0.0235869 4.38037
  536 63.5576 10.4582 -1.95736
  537 47.3429 -1.24929 -2.14309
  538 20.2165 -0.207601 -1.43947
  539 20.2884 -0.197774 1.42313
  540 31.5368 -2.97062 -6.64732
  541 31.5560 -2.92024 6.59343
  542 46.5389 -0.806514 -0.769574
  543 50.5114 1.86642 -5.68388
  544 44.3120 -3.01946 0.980798
  545 47.3987 5.45262 -3.81226
  546 48.1834 -0.526093 2.08024
  547 61.1131 2.85677 0.129800
  548 40.8738 -1.40907 -0.0245211
  549 40.8589 -1.40257 0.0221451
  550 44.6473 -2.09532 1.10420
  551 66.7209 12.9414 -0.0624111
  552 46.8110 2.05088 5.35505
  553 19.7865 5.13058 12.2718
  554 45.8490 -2.76304 9.90998
  555 61.4261 2.53610 -10.8009
  556 47.8801 3.96704 -5.00464
  557 42.8702 -3.67442 -8.55992
  558 46.3719 -5.06453 -1.29237
  559 48.5794 -4.88910 -2.08736
  560 6.08980 7.65650 -7.27284
  561 48.7985 -0.567579 -1.34212
  562 73.9748 14.4665 -3.90784
  563 44.9009 -2.00343 -1.19223
  564 45.3158 -1.44354 0.980950
  565 45.2725 -1.40803 -0.948076
  566 30.2075 -0.202428 -0.372576
  567 30.2116 -0.199765 0.369285
  568 3.83576 0.472508 -2.34108
  569 4.09616 0.493754 2.39901
  570 22.4337 -1.07996 -4.88536
  571 22.6184 -1.08526 4.87333
  572 45.9248 -2.46917 -2.04916
  573 46.9445 -5.08444 1.42849
  574 48.2687 -4.55679 0.836842
  575 39.0224 -0.691775 -0.108715
  576 39.0191 -0.685898 0.107940
  577 37.2457 -3.88686 -7.33749
  578 42.0035 -3.41582 9.08533
  579 36.2931 -3.65082 7.38671
  580 47.1217 -1.03292 -5.09267
  581 28.6118 -0.519712 1.44569
  582 28.5986 -0.525476 -1.46022
  583 44.5815 2.44471 -4.14216
  584 44.7324 -0.0772960 -1.94800
  585 56.2552 12.3801 -1.37053
  586 36.1913 -0.571205 -0.121354
  587 36.1908 -0.566777 0.120567
  588 48.0899 -0.132302 -1.12420
  589 32.4363 -1.15947 -1.56040
  590 32.4338 -1.15447 1.54416
  591 26.8020 1.31261 11.8150
  592 46.8100 -2.12879 -2.93509
  593 25.6088 -1.31842 8.46184
  594 45.9957 -2.36419 2.08207
  595 48.6344 -0.638965 1.47256
  596 48.1040 -0.378416 -0.375232
  597 32.7354 -0.441640 -0.333054
  598 32.7375 -0.437654 0.330618
  599 53.9072 10.8813 -2.62332
  600 25.5931 -1.26262 -8.49905
  601 45.8488 -1.95837 -1.69766
  602 41.0789 -0.749175 -0.0326498
  603 41.0740 -0.742651 0.0324397
  604 79.0410 10.7222 -1.84160
  605 26.2757 -0.190117 0.806501
  606 26.2523 -0.192063 -0.815468
  607 42.0867 0.937044 3.52935
  608 61.8927 4.94797 -1.60537
  609 28.6249 0.272820 -11.7423
  610 14.1326 0.418752 -6.30126
  611 14.2617 0.329606 6.26690
  612 35.7249 -2.15442 1.88864
  613 36.1292 -2.21780 -1.82198
  614 62.1643 12.4856 1.83811
  615 47.8861 -0.394508 0.346084
  616 40.0548 1.08489 -2.12171
  617 50.6690 9.19689 2.33453
  618 50.4604 9.54795 -1.55177
  619 41.4896 -2.32405 -0.0716259
  620 41.8255 -2.26774 -0.0816665
  621 29.9247 6.44013 -17.0120
  622 35.2219 -1.26071 -1.02042
  623 35.2226 -1.24516 1.01537
  624 93.4394 19.0796 14.3023
  625 47.1122 -1.52396 4.45067
  626 26.0322 -0.976473 -3.13064
  627 75.2566 16.2434 10.1964
  628 26.0961 -0.970231 3.11583
  629 45.5158 -1.76631 -11.6598
  630 30.8031 -0.180555 -0.137976
  631 30.8064 -0.178940 0.137042
  632 38.4464 0.320164 1.84784
  633 16.8997 -0.270438 -2.82105
  634 17.0084 -0.271032 2.79587
  635 40.9345 -2.93716 0.577980
  636 43.0664 -3.47345 0.123145
  637 51.4304 -0.0881106 -0.489891
  638 27.4607 -0.0562565 0.222268
  639 27.4524 -0.0571867 -0.225262
  640 38.3926 -0.880297 -0.134384
  641 38.3897 -0.874360 0.132532
  642 44.7233 -4.93537 5.56956
  643 51.1286 5.73143 -5.13680
  644 33.3960 -1.62906 -2.01930
  645 33.3668 -1.60058 2.00218
  646 40.1329 -2.93809 -0.943114
  647 63.9768 14.0575 -0.0183042
  648 47.9669 -4.61882 -0.559547
  649 41.2497 -0.977730 0.0246311
  650 41.2425 -0.971726 -0.0242300
  651 57.4518 6.23485 4.25728
  652 47.9745 -0.655818 -2.26267
  653 41.6570 -0.0652010 -1.75014
  654 18.8359 -0.638600 -6.11689
  655 18.9012 -0.658990 6.06120
  656 40.0559 -3.50747 -1.67142
  657 60.5309 13.5557 0.0652780
  658 46.4369 6.31429 -1.64966
  659 30.0834 -0.308727 -0.701438
  660 30.0883 -0.304271 0.694349
  661 43.6520 -1.20854 -0.399256
  662 43.6606 -1.21107 0.410003
  663 83.2765 10.9362 4.77303
  664 52.4400 -0.111946 0.143079
  665 50.2852 -0.171977 0.824357
  666 50.0503 -0.179909 -0.951698
  667 47.3317 -4.38802 1.24066
  668 33.9692 -0.426192 -0.166727
  669 33.9706 -0.422726 0.165701
  670 50.2042 8.11670 3.57367
  671 65.1465 14.5770 -0.378404
  672 34.8994 -2.67129 -2.86556
  673 34.8836 -2.64298 2.84799
  674 44.2885 -4.57477 -0.511090
  675 46.4111 2.75681 -5.03050
  676 55.9984 0.116828 2.71033
  677 36.2223 -0.702585 -0.304930
  678 36.2217 -0.697273 0.303077
  679 31.3434 -2.78502 -6.00391
  680 46.8679 -4.51892 -0.790838
  681 38.6866 -4.29919 5.22904
  682 18.2166 5.83558 -11.8212
  683 35.8980 -3.38020 4.02657
  684 43.2320 0.0102578 1.62886
  685 31.3687 -2.75221 5.95866
  686 45.8198 -1.99908 1.71845
  687 35.9171 -3.36749 -4.06884
  688 36.0385 0.438569 0.385345
  689 27.8045 -0.802062 2.20678
  690 27.7791 -0.803635 -2.22544
  691 38.7197 -4.41148 -5.29067
  692 48.1465 -3.14778 -3.59260
  693 44.0554 -0.571555 -0.0985837
  694 44.0620 -0.578675 0.0989818
  695 49.2696 -3.10733 3.59952
  696 44.6527 -4.67087 0.679565
  697 54.4379 4.99343 5.14601
  698 48.9491 -0.892481 5.36992
  699 47.0970 -1.66109 3.34532
  700 44.4889 3.64448 -3.14122
  701 54.1002 9.16087 4.04880
  702 46.5915 -0.631135 -3.15922
  703 46.6305 -1.50917 1.83324
  704 47.7381 7.52770 0.894129
  705 47.3574 -0.777576 2.79287
  706 14.6084 9.86777 12.3444
  707 44.1490 -5.06777 -3.03787
  708 51.1328 0.950461 5.50149
  709 51.7751 -1.58312 -4.11037
  710 52.1094 -0.0401434 0.282858
  711 47.1113 -1.58397 -2.68247
  712 44.2015 -5.10866 2.72246
  713 87.7770 7.76519 -1.30950
  714 25.1422 -0.123630 0.846079
  715 25.1101 -0.125075 -0.855530
  716 47.9424 -0.820664 -1.31104
  717 52.4509 -0.0280861 -0.272406
  718 39.9718 -3.56294 1.68137
  719 48.3290 -1.77295 4.91382
  720 74.9468 17.2637 -4.37726
  721 45.8046 -3.31315 1.83152
  722 51.0555 -3.33502 -2.38928
  723 46.6515 -1.46604 -1.80522
  724 52.4969 -0.0594216 -0.100218
  725 46.9827 0.00621447 5.48118
  726 2.05288 1.45251 2.39029
  727 53.9807 -2.17516 -7.28426
  728 58.4708 3.36849 2.97900
  729 48.5043 -4.93189 1.79911
  730 33.6328 -0.857439 0.842850
  731 33.6354 -0.870213 -0.848336
  732 46.5508 21.7190 -23.4187
  733 49.2996 -3.23292 -3.36542
  734 35.8836 0.151093 -0.736154
  735 42.5965 0.218453 3.46142
  736 47.4194 -2.34843 4.01355
  737 45.4558 -3.83030 1.13348
  738 47.6103 -4.30983 -5.98012
  739 45.1543 -3.57308 -1.20042
  740 53.8318 -2.57887 -1.23715
  741 49.5206 -0.351718 0.778819
  742 43.7745 -2.63630 0.744035
  743 81.1394 16.2558 -8.45909
  744 46.8958 -1.21028 1.47625
  745 45.9928 0.746036 -5.29554
  746 39.6947 -0.471889 13.1743
  747 49.4466 4.00300 5.46746
  748 42.5093 -3.37379 0.112545
  749 32.3709 -2.61514 -4.35813
  750 32.3693 -2.60647 4.31749
  751 44.8233 5.03982 -0.735782
  752 45.8889 -0.522804 4.76732
  753 46.4945 -1.09278 -4.11944
  754 43.8268 -2.68822 -0.761265
  755 42.3194 -3.82412 0.747703
  756 48.1251 8.00542 -1.02195
  757 45.3969 -3.92809 -0.953116
  758 45.4976 -2.87014 1.76149
  759 46.2519 -0.535612 0.300298
  760 46.2849 -0.518860 -0.299173
  761 62.2483 13.8334 0.649095
  762 51.1299 -4.32496 -0.958237
  763 47.2594 -1.41265 2.66256
  764 49.5585 -0.348734 -0.715846
  765 49.6798 0.347060 -5.63254
  766 57.0108 2.92788 -3.71578
  767 26.4986 -0.0373288 -0.388055
  768 26.5152 -0.0368847 0.383307
  769 0.344656 -0.990671 -0.716238
  770 48.2131 -0.0420792 1.04410
  771 43.6989 -0.0894873 -3.85065
  772 45.3392 -0.422016 3.43693
  773 42.2126 4.89848 19.5641
  774 51.6702 10.7600 -0.125007
  775 36.4678 -2.68088 2.17022
  776 5.71110 0.155944 -2.34990
  777 5.91275 0.117165 2.37635
  778 44.8835 -0.322453 -3.85855
  779 36.5798 -2.70956 -2.16801
  780 49.2562 -0.385680 0.608800
  781 24.1089 -1.07345 4.17493
  782 23.8882 -1.07033 -4.18105
  783 46.8971 -1.17296 -1.43955
  784 28.9374 -0.786047 -1.91183
  785 28.9511 -0.780267 1.89173
  786 48.9292 -0.420537 -1.58645
  787 36.6324 -1.01682 -0.532685
  788 36.6317 -1.00920 0.532605
  789 53.5127 -0.339985 -4.15639
  790 47.7729 -0.487819 -5.53779
  791 23.1781 -0.164556 -1.08923
  792 23.2280 -0.163052 1.07489
  793 0.755519 0.602448 -1.35853
  794 0.983902 0.634141 1.43392
  795 37.7777 0.169594 -1.34481
  796 43.7259 -4.91644 -2.16633
  797 -0.524097 -0.370011 0.884054
  798 -0.452229 -0.422607 -0.868270
  799 45.5753 -0.865793 0.624960
  800 49.5544 -3.83876 -2.15184
  801 50.7751 7.57383 -4.18745
  802 49.4950 -0.342684 -0.576625
  803 109.424 21.5464 -20.5469
  804 45.5667 -0.862019 -0.617478
  805 69.0842 13.3415 0.902908
  806 48.5829 1.42382 -5.75594
  807 53.9752 4.06381 -5.24143
  808 8.14498 -0.0978896 -2.19518
  809 8.32624 -0.111633 2.19041
  810 29.3629 -0.462982 1.11505
  811 29.3540 -0.467185 -1.12715
  812 27.7355 -0.0804464 0.205009
  813 27.7297 -0.0812448 -0.207102
  814 54.3935 9.20521 -4.03415
  815 31.1659 -0.223701 -0.293614
  816 31.1692 -0.221003 0.291412
  817 46.0374 -0.461667 -4.96944
  818 68.2619 6.36413 4.85022
  819 40.8988 0.877462 -2.96128
  820 13.4182 -0.128236 2.37930
  821 13.2842 -0.129339 -2.40044
  822 54.8629 1.19868 13.8487
  823 47.8822 -0.827926 1.35318
  824 41.9458 2.75162 -1.23554
  825 18.5965 -0.0392168 1.63832
  826 18.4868 -0.0300575 -1.65224
  827 28.4752 -0.169489 -0.539553
  828 28.4837 -0.167043 0.533343
  829 4.99567 4.50542 3.67039
  830 43.9814 1.02894 4.43797
  831 49.1980 7.27670 -3.55280
  832 53.2824 6.19435 -5.14366
  833 34.3103 -1.35833 -1.37706
  834 34.2862 -1.34663 1.37346
  835 55.0280 11.8623 1.87083
  836 47.9037 -0.333039 -0.0846040
  837 47.9042 -0.330329 0.0932722
  838 47.0891 -1.38149 -3.35047
  839 39.1098 -2.65717 1.13542
  840 43.4373 -4.88697 2.18935
  841 51.5534 -4.22380 3.47646
  842 38.6831 -1.14469 -0.243774
  843 38.6811 -1.13922 0.240904
  844 44.1831 4.08340 2.00991
  845 41.3232 0.535982 -3.20674
  846 11.5067 12.6964 12.8383
  847 42.4607 -3.79431 -0.639959
  848 42.5739 -1.90582 0.350762
  849 42.5975 -1.90789 -0.352490
  850 46.8489 -0.677363 5.25205
  851 46.6404 -3.04730 -2.65370
  852 41.4127 -2.77617 -0.254860
  853 98.3896 3.19350 -4.99848
  854 39.3039 -3.76926 2.42469
  855 39.2768 -3.82058 -2.46956
  856 46.8546 -0.544721 2.69457
  857 71.5878 18.2915 -3.32115
  858 36.7445 -3.40282 -3.14893
  859 40.8742 -4.63106 2.88495
  860 36.7281 -3.35974 3.11720
  861 39.9304 -1.63190 -0.247132
  862 39.9272 -1.62495 0.243897
  863 5.55013 2.48689 3.21139
  864 50.4044 3.77997 -5.57735
  865 38.1930 -1.52785 -0.532862
  866 38.1986 -1.51104 0.535250
  867 37.6433 -0.636361 -0.0617489
  868 37.6414 -0.631208 0.0611202
  869 41.7552 -0.808924 0.0777017
  870 41.7497 -0.802568 -0.0777815
  871 33.3186 -0.698560 -0.735918
  872 33.3190 -0.690123 0.731762
  873 38.3715 -2.07074 -0.859547
  874 38.3748 -2.05451 0.863007
  875 0.847240 -0.653682 -0.221965
  876 58.6944 11.0185 3.26218
  877 50.4477 -1.74286 -4.63513
  878 40.8486 -4.56517 -2.92176
  879 44.2333 -1.39958 0.646822
  880 44.2125 -1.38332 -0.632730
  881 48.1845 0.0763865 5.65206
  882 53.0026 -3.78329 -1.62087
  883 47.1265 3.06613 -16.8900
  884 20.5558 -0.282021 8.19998
  885 -1.06604 0.480998 -0.459121
  886 -0.953250 0.541125 0.522458
  887 5.50078 2.64578 -3.27357
  888 47.2799 -1.31823 2.13665
  889 50.0359 -0.281288 -0.912935
  890 44.8647 -4.28591 6.97953
  891 20.5047 -0.256004 -8.23656
  892 50.0097 -4.05906 1.67771
  893 56.2219 -1.79365 5.83415
  894 39.3068 0.150478 1.42903
  895 45.6640 4.34546 3.44308
  896 24.2405 -1.38825 6.07849
  897 24.1420 -1.39975 -6.12429
  898 29.1427 -1.45148 -3.38903
  899 31.1747 -1.46975 -10.5208
  900 49.8545 -1.13889 5.11363
  901 69.2684 15.9844 1.59064
  902 49.9398 1.94052 5.68742
  903 47.2221 -0.979756 -3.04017
  904 31.8609 -1.31731 10.7869
  905 60.5816 11.1083 -2.63504
  906 5.63916 4.89043 -4.56884
  907 43.1035 -0.0954842 -1.55377
  908 29.1730 -1.43865 3.35432
  909 35.9203 -0.825099 0.477882
  910 35.9211 -0.831640 -0.479544
  911 46.7127 -3.03147 2.72908
  912 48.8499 -0.245835 0.247566
  913 35.6613 0.362795 -13.1489
  914 51.6635 -0.0911632 0.434836
  915 51.1894 -0.0721446 -0.543192
  916 36.8254 0.301114 -1.23099
  917 49.1883 -0.190335 -0.931630
  918 36.1052 -1.74980 -1.22580
  919 36.1293 -1.72180 1.22876
  920 -1.29503 0.416614 -0.759675
  921 -1.73729 0.250875 0.784237
  922 48.8523 -0.224393 -0.247483
  923 15.2932 -0.331544 5.51975
  924 15.1887 -0.295159 -5.55488
  925 51.6727 7.58961 4.44600
  926 95.9852 1.72274 1.56776
  927 48.4895 5.42076 4.57352
  928 55.8530 -2.02915 1.15611
  929 48.0314 -2.64838 4.07322
  930 59.9400 12.6253 -1.99761
  931 35.9399 0.126956 0.926114
  932 46.2753 -1.03876 -0.946377
  933 47.7649 2.57264 -5.52650
  934 58.6208 1.61131 -1.72559
  935 44.9795 -2.77166 -1.44771
  936 21.8475 -0.136858 -1.22538
  937 21.8751 -0.132096 1.20638
  938 47.5745 -1.07833 -2.44055
  939 1.41517 1.85440 0.187089
  940 45.6445 -4.72803 -0.0196680
  941 38.5617 1.09384 -0.127663
  942 59.4316 13.2010 -1.33075
  943 9.00354 6.73563 -7.80330
  944 45.3450 -0.335461 -3.08059
  945 30.6882 -0.558139 -1.03011
  946 30.6920 -0.551136 1.01941
  947 0.219435 -1.35944 1.05551
  948 30.3735 -2.32087 -4.86944
  949 46.4623 -2.66502 -2.56268
  950 27.5842 0.0584211 -0.0826116
  951 27.5878 0.0587906 0.0818623
  952 46.4923 5.65725 -2.77240
  953 50.9055 -0.0979981 -0.0886615
  954 50.9029 -0.100583 0.113829
  955 30.3834 -2.31322 4.83165
  956 46.8639 -0.0504969 -1.23161
  957 54.4337 0.390193 4.05199
  958 48.2194 -0.626075 1.06143
  959 7.14906 1.94013 -4.15248
  960 50.1552 -0.258777 0.832380
  961 44.7430 0.345237 4.77440
  962 47.2080 6.57427 2.46768
  963 47.4560 0.554660 -5.67103
  964 32.1192 -1.79240 -2.86744
  965 51.6338 -1.79849 3.98584
  966 32.1385 -1.78412 2.83407
  967 1.32968 1.51078 0.0659472
  968 5.11118 0.972021 3.03360
  969 25.7560 -0.493291 2.00812
  970 25.7223 -0.494341 -2.02202
  971 46.3065 -1.06148 0.989736
  972 49.3503 8.66130 1.38418
  973 24.9644 2.36220 -12.3786
  974 41.3246 -2.60994 0.194603
  975 38.7685 -4.08984 -3.78774
  976 56.9351 10.9773 3.25742
  977 43.6713 -0.734236 0.148788
  978 43.6703 -0.729330 -0.148858
  979 48.0902 -0.842980 -1.78727
  980 43.7396 3.75706 -1.85609
  981 104.410 30.1140 20.3445
  982 8.55225 0.539103 -4.08801
  983 8.70921 0.449596 4.09943
  984 0.634373 -1.15899 0.0490422
  985 43.9251 2.41121 3.80928
  986 38.7485 -4.11315 3.75597
  987 48.3544 -2.26078 -4.57530
  988 52.6605 4.32211 5.58764
  989 51.0261 -4.11667 -4.41082
  990 74.8145 15.8100 4.89377
  991 42.8075 -0.659634 0.00924829
  992 42.8019 -0.653106 -0.00910456
  993 50.4132 -2.02429 4.42049
  994 3.35341 4.86728 5.53252
  995 21.6006 -0.485492 2.89352
  996 21.5254 -0.479393 -2.92932
  997 26.1622 -1.33926 3.93218
  998 26.0668 -1.32018 -3.95053
  999 29.6045 -1.28220 2.79204
  1000 32.3516 -0.288358 -0.137314
  1001 32.3542 -0.286010 0.136597
  1002 85.7174 26.1238 -16.2418
  1003 76.2752 19.0718 7.33470
  1004 29.5810 -1.28977 -2.81968
  1005 51.9543 -0.216277 4.85422
  1006 45.8921 4.76725 -3.32460
  1007 32.4085 -2.75828 8.70361
  1008 42.0161 -4.95805 -4.48034
  1009 48.0922 -0.371910 -1.83268
  1010 21.1929 1.54645 10.0168
  1011 27.2357 -2.09181 6.95891
  1012 41.7893 2.10850 -2.37372
  1013 48.5593 -0.941357 -5.41753
  1014 64.6327 23.9207 26.9765
  1015 39.2322 1.16415 1.67869
  1016 54.4210 11.8895 -0.222855
  1017 40.4043 1.52118 -14.9826
  1018 40.6258 -4.31436 -2.45727
  1019 52.5317 -0.0253124 -0.224480
  1020 49.5510 4.56908 -5.32999
  1021 27.9932 -0.207456 0.703873
  1022 27.9814 -0.209624 -0.711959
  1023 0.980102 0.0413937 -1.23392
  1024 32.1056 -1.53380 -2.38000
  1025 27.2054 -2.11948 -7.01780
  1026 32.0755 -1.52920 2.34915
  1027 47.4136 -1.42359 5.00813
  1028 42.4445 -2.64189 0.212790
  1029 44.3165 0.799368 -4.61430
  1030 45.5683 5.70678 0.968764
  1031 63.5037 3.50306 1.40377
  1032 47.0996 -3.56057 2.65030
  1033 29.1141 -2.38042 -5.33065
  1034 43.8805 1.53055 -4.30270
  1035 32.7180 -2.71829 -8.75762
  1036 63.6340 14.0056 -0.107830
  1037 42.4889 2.76238 2.15894
  1038 54.9137 -0.345093 -3.26454
  1039 40.8825 -4.31364 2.22438
  1040 46.9989 -1.46501 3.91227
  1041 46.7635 -2.44687 2.94371
  1042 46.5091 -2.31610 2.58208
  1043 57.7350 7.28211 -4.34789
  1044 46.2556 -0.732344 3.90164
  1045 41.9329 -4.97216 4.40253
  1046 44.7730 -1.80831 0.998828
  1047 29.1306 -2.38384 5.29521
  1048 41.8828 -3.12106 -0.264840
  1049 23.8399 -1.14079 -7.44858
  1050 34.5111 -3.60938 5.84859
  1051 47.2164 -0.300209 -2.10718
  1052 45.8199 -0.510901 -4.40206
  1053 39.6062 -3.18490 -1.42058
  1054 23.8819 -1.17731 7.38309
  1055 42.3486 0.0873803 -3.01014
  1056 31.3003 -2.14746 -3.74159
  1057 57.9219 12.4665 2.11450
  1058 12.3447 2.16234 -6.93010
  1059 102.802 7.28505 10.1035
  1060 22.7623 1.79811 -10.5151
  1061 46.5238 -3.84294 -1.79480
  1062 31.3056 -2.12759 3.70625
  1063 41.8403 0.415694 3.34956
  1064 22.8015 -0.493684 2.39229
  1065 22.7870 -0.506193 -2.41945
  1066 46.9502 -1.29057 -4.63240
  1067 50.5671 -0.201504 0.365988
  1068 49.2262 -0.0920418 0.945819
  1069 48.3974 1.62266 5.73171
  1070 45.0749 -0.339197 4.11731
  1071 35.2989 3.69727 16.2350
  1072 52.9131 -0.0190405 0.115652
  1073 48.5545 6.62089 3.64373
  1074 40.5817 0.558254 2.87377
  1075 49.9637 -0.169800 0.916109
  1076 30.9589 -0.371262 -0.565273
  1077 30.9622 -0.366852 0.560519
  1078 19.3950 -0.576247 -3.98296
  1079 19.4812 -0.596814 3.95089
  1080 40.7083 1.99219 1.20156
  1081 63.8366 3.08540 -3.81448
  1082 58.6232 -0.301429 -8.14841
  1083 45.5769 -0.0339506 -1.26687
  1084 34.5320 -3.63739 -5.89659
  1085 39.6880 -3.02823 1.24016
  1086 45.8706 -0.0994930 1.32367
  1087 48.4153 -3.48596 -3.08075
  1088 28.9767 -0.0860649 0.345464
  1089 28.9719 -0.0874636 -0.348174
  1090 46.4325 -3.95324 1.79465
  1091 44.0502 -0.862196 0.256579
  1092 44.0431 -0.862641 -0.253032
  1093 42.8092 -4.33570 1.24230
  1094 55.9340 -1.84383 0.0865813
  1095 23.7936 -0.0486414 -0.676356
  1096 23.8363 -0.0469420 0.667996
  1097 37.6328 -2.32784 -10.0327
  1098 39.6953 -0.951264 0.0993977
  1099 39.7004 -0.957699 -0.101275
  1100 24.2220 12.6599 17.8127
  1101 55.8337 4.54337 -4.78555
  1102 7.73475 3.90213 -5.08874
  1103 48.2587 -0.663725 -1.02767
  1104 12.3229 4.37655 -7.93368
  1105 25.9141 -1.68005 -5.08092
  1106 52.9780 -0.0293037 0.0650079
  1107 53.0062 -0.0257220 -0.0492724
  1108 47.2314 -2.67324 -3.52209
  1109 41.8488 -4.67118 -6.29127
  1110 12.3472 1.84039 6.60413
  1111 51.3078 5.10336 5.24894
  1112 46.8289 -0.407445 -0.101715
  1113 46.8323 -0.408168 0.106700
  1114 51.5604 -3.37845 7.58049
  1115 52.3871 10.6178 2.05101
  1116 30.2971 -0.783526 -1.49080
  1117 30.3026 -0.779213 1.47769
  1118 23.3493 2.74832 12.4807
  1119 44.2169 0.211174 -4.47526
  1120 13.5181 4.47681 8.56368
  1121 58.1999 -1.10638 -2.01060
  1122 56.2494 12.6333 0.658204
  1123 38.3917 -3.09897 1.80922
  1124 34.4478 0.156402 -0.180219
  1125 49.4930 -0.396043 1.20409
  1126 51.4420 -0.0413048 0.473666
  1127 10.1371 0.0264213 -1.98890
  1128 10.3045 0.0206064 1.97371
  1129 39.1728 0.616285 -2.12115
  1130 41.0607 -1.20857 0.0133164
  1131 41.0497 -1.20147 -0.0138797
  1132 4.18362 5.61578 -5.85985
  1133 6.78859 13.2699 -12.2256
  1134 41.6300 -1.63180 -0.106284
  1135 41.6489 -1.63326 0.104604
  1136 43.1317 -1.01415 0.290260
  1137 43.1255 -1.01105 -0.285781
  1138 10.9431 7.05079 8.54862
  1139 33.2729 -0.445964 -0.259416
  1140 33.2748 -0.442337 0.257692
  1141 42.2320 3.16255 -0.0528094
  1142 56.1030 6.32583 -18.8130
  1143 52.2096 9.07430 -3.50913
  1144 47.7574 -1.81271 -4.77483
  1145 47.0720 -2.32270 -3.54042
  1146 38.4246 -3.12968 -1.84280
  1147 37.9563 0.108544 1.30954
  1148 43.3015 2.67369 -3.18031
  1149 42.6393 2.26457 3.02898
  1150 44.7422 -1.75311 -0.982996
  1151 42.5598 -2.58655 -0.242362
  1152 38.4452 -2.54410 -1.31879
  1153 46.0130 -0.261723 2.47038
  1154 83.6534 8.49364 1.19587
  1155 46.3798 -0.976166 4.50435
  1156 46.3633 3.04759 4.83019
  1157 43.0171 -4.25923 -0.827144
  1158 4.80034 0.896847 -2.91951
  1159 43.8270 -2.01805 -0.786432
  1160 27.7964 -0.0586643 -0.0137228
  1161 27.7992 -0.0584562 0.0134638
  1162 53.9242 -1.42184 2.86598
  1163 51.4121 -4.31225 1.26110
  1164 74.2249 13.4349 3.08135
  1165 16.3300 -0.0449218 -1.67550
  1166 16.4453 -0.0411557 1.66092
  1167 38.7633 -0.793342 -0.107214
  1168 38.7601 -0.787429 0.105853
  1169 43.9887 -3.89646 0.281997
  1170 34.7873 0.138105 0.587948
  1171 45.0865 -3.20785 1.42183
  1172 2.33655 2.78182 -1.13560
  1173 7.66927 3.94901 4.98451
  1174 29.8203 -1.56603 9.70989
  1175 51.9422 10.0051 -2.50007
  1176 50.1667 -0.124782 -0.721767
  1177 53.2240 -0.0696235 0.0501498
  1178 53.2875 -0.101397 -0.0352081
  1179 29.1201 -0.0918865 -0.0521855
  1180 29.1236 -0.0912181 0.0516162
  1181 47.8493 3.07272 5.51865
  1182 71.9971 12.4918 -0.262470
  1183 49.2022 8.20648 -2.48566
  1184 36.9618 -2.66878 9.96628
  1185 29.6606 -1.49764 -9.69347
  1186 32.7248 -2.26713 -3.32820
  1187 46.3160 -1.24965 1.23353
  1188 65.0889 14.2325 -0.232960
  1189 32.7235 -2.25191 3.29747
  1190 47.4432 -0.769989 0.935783
  1191 41.4119 1.50245 2.88326
  1192 46.1496 1.42433 5.27430
  1193 66.7497 14.9836 1.02730
  1194 38.8485 -1.03083 0.208064
  1195 38.8520 -1.03697 -0.210586
  1196 48.0138 -0.851399 1.85262
  1197 27.2071 -0.323535 1.11398
  1198 27.1878 -0.327019 -1.12622
  1199 47.0158 -0.577605 -0.453944
  1200 19.0401 11.2188 -17.1199
  1201 40.6691 -2.26464 -10.6620
  1202 37.7009 -1.21757 -0.461626
  1203 37.7032 -1.21087 0.461579
  1204 50.8193 -0.188016 0.320879
  1205 47.7696 -0.562432 0.752949
  1206 2.41151 2.86872 2.01037
  1207 52.4199 -0.0394146 0.259297
  1208 5.87182 7.19265 7.13152
  1209 46.5680 -0.635284 -0.575444
  1210 -0.0852381 -1.17676 -1.02439
  1211 32.4308 -3.15855 -7.48977
  1212 32.3289 -3.07978 7.40900
  1213 52.4214 -0.0749075 -0.283054
  1214 44.1208 -2.32254 -0.909742
  1215 50.7685 -0.166099 -0.337160
  1216 39.7904 -1.30388 -0.140544
  1217 39.7844 -1.29765 0.136813
  1218 46.9828 -0.572384 0.429955
  1219 43.7940 -1.97970 0.778141
  1220 42.0169 -1.34366 -0.196971
  1221 42.0339 -1.34885 0.203050
  1222 50.7390 -0.171497 -0.277961
  1223 43.4273 -4.53787 -7.12951
  1224 49.5253 -0.240533 -0.292762
  1225 46.7827 -0.655683 0.608698
  1226 31.5026 -0.386177 -0.407886
  1227 31.5055 -0.382169 0.404602
  1228 35.6213 -0.550561 -0.184758
  1229 35.6214 -0.546108 0.183355
  1230 59.2306 9.18216 3.77596
  1231 49.6777 -3.78130 2.45985
  1232 33.8018 -0.116923 12.3792
  1233 25.8525 -0.0574619 0.426407
  1234 25.8304 -0.0580156 -0.431593
  1235 46.7418 -0.844338 3.41786
  1236 44.8791 -0.626691 0.162170
  1237 44.8828 -0.623981 -0.162061
  1238 51.0446 10.0564 1.15655
  1239 47.3411 -4.93307 5.49143
  1240 26.0798 -0.404125 1.58402
  1241 26.0524 -0.407549 -1.59807
  1242 44.7794 -1.05297 0.549391
  1243 44.7701 -1.05963 -0.537537
  1244 46.2933 -1.23187 -1.19430
  1245 41.7135 0.00283212 1.56167
  1246 74.4534 18.4709 -5.61699
  1247 47.0695 -1.69136 -3.12102
  1248 7.51335 1.91159 4.28323
  1249 48.6877 -2.56467 4.31946
  1250 37.9813 0.787042 -1.15788
  1251 2.64622 2.11762 1.39490
  1252 65.1409 6.89117 0.405311
  1253 47.4649 -2.13603 -4.29960
  1254 38.1828 0.506964 1.77066
  1255 26.1075 -1.68176 5.06642
  1256 48.3606 -3.71655 2.80304
  1257 71.4389 12.9051 3.05894
  1258 15.6394 2.41769 8.46246
  1259 48.6990 -0.528149 -1.58912
  1260 96.8567 1.05765 -1.00420
  1261 100.357 1.53105 4.51881
  1262 107.583 3.77556 -10.6525
  1263 46.9410 -1.43866 -3.80147
  1264 47.0124 -2.11799 3.32588
  1265 47.8330 -3.37852 3.21972
  1266 -1.42147 0.138373 0.920977
  1267 -1.30149 0.102981 -0.992971
  1268 46.6662 -5.13079 -2.28438
  1269 47.9275 -4.81559 -3.65669
  1270 35.0751 0.204045 -0.728588
  1271 46.4999 -5.23047 3.68358
  1272 49.5693 -2.32324 -4.40048
  1273 0.762520 1.38206 -0.0308442
  1274 39.8152 -0.722295 0.108222
  1275 39.8190 -0.728446 -0.108513
  1276 49.4904 -0.345726 1.10230
  1277 47.4468 -0.754511 -0.885206
  1278 44.4891 -4.86224 -1.01897
  1279 40.3081 -2.21750 0.399799
  1280 40.0918 -2.18839 -0.468391
  1281 47.7466 -0.970024 2.47162
  1282 48.8977 -1.77078 -4.94626
  1283 2.75192 2.20868 -1.32308
</Section>

newXOutput 8

<Section columns = "stress_xx | stress_yy | stress_xy">
  1 62.4664 0.0125011 0.135202
  2 62.4747 0.0129567 -0.135774
  3 31.8073 -0.0203386 -0.0490859
  4 -0.413298 -0.411753 -0.593526
  5 117.225 43.0733 35.9783
  6 116.067 44.7949 -36.3436
  7 -0.479093 -0.394125 0.627689
  8 31.8043 -0.0204822 0.0489093
  9 62.9599 -0.0926505 0.0453687
  10 62.7981 -0.151700 -0.0215108
  11 62.6039 -0.0901209 0.165867
  12 62.4143 -0.134286 0.0639909
  13 62.0111 -0.109126 0.262250
  14 61.6510 -0.112838 0.202182
  15 60.8416 -0.100997 0.371030
  16 59.7289 -0.0548088 0.542108
  17 58.7274 -0.0670233 0.594184
  18 57.2789 -0.109178 0.708059
  19 55.3153 0.00502622 1.03297
  20 53.4995 -0.0808333 0.970403
  21 51.4886 -0.114253 1.35197
  22 48.5768 0.0826586 1.16463
  23 46.5112 0.112840 1.36707
  24 43.8210 0.197478 1.06073
  25 41.9789 0.189669 1.06514
  26 39.3056 0.282155 0.540130
  27 38.7520 0.447120 0.576293
  28 38.4226 0.356962 -0.169131
  29 38.8838 0.190290 -0.376775
  30 39.7276 0.196660 -0.460334
  31 41.7272 0.257165 -0.923195
  32 43.6683 0.202586 -1.17677
  33 46.5539 0.0321475 -1.40164
  34 48.8692 -0.0347452 -1.29038
  35 51.3681 -0.0923478 -1.28046
  36 53.6466 -0.0623111 -0.911612
  37 55.6345 -0.0610259 -0.788661
  38 57.2960 -0.105303 -0.670405
  39 58.8037 -0.0699527 -0.479119
  40 59.7694 -0.0775379 -0.513760
  41 60.7011 -0.104851 -0.378136
  42 61.6035 -0.127926 -0.179113
  43 62.0729 -0.0998543 -0.201467
  44 62.3427 -0.0517120 -0.131363
  45 62.2078 -0.0134389 -0.119135
  46 62.8762 -0.156092 0.0107571
  47 62.9868 -0.0978058 -0.0468943
  48 60.6786 -0.00137930 -0.0831435
  49 59.1596 -0.191544 -0.141463
  50 57.3289 -0.296253 -0.104414
  51 55.1125 -0.470480 -0.139873
  52 53.0324 -0.525555 -0.179090
  53 50.8266 -0.690703 -0.167980
  54 48.8874 -0.787479 -0.101447
  55 47.1880 -0.907210 -0.0483387
  56 45.2328 -0.759616 -0.0495742
  57 42.9810 -0.723253 -0.0653466
  58 40.8066 -0.583066 -0.0306627
  59 38.7421 -0.384153 -0.0169404
  60 36.7737 -0.282563 -0.00600774
  61 35.0371 -0.156343 0.0108944
  62 33.2472 -0.0506441 -0.0573330
  63 31.8364 0.0427263 0.0586713
  64 31.2172 0.136987 0.0347636
  65 31.6823 -0.00374821 0.0905685
  66 31.2452 -0.0252179 0.106984
  67 30.8592 -0.0345342 0.134224
  68 30.3241 -0.0101618 0.179993
  69 29.6468 -0.00617562 0.230335
  70 29.1789 -0.0515398 0.459168
  71 27.7084 0.0415271 0.504443
  72 26.6944 -0.00688216 0.586076
  73 25.1830 -0.0321487 0.662577
  74 23.4311 -0.0515253 0.809468
  75 21.2453 -0.0145681 0.982813
  76 18.5781 0.0102935 1.07764
  77 16.3244 -0.0312738 1.53674
  78 11.7818 0.149366 1.43692
  79 8.74620 0.129675 1.52063
  80 5.16229 -0.0172384 1.66833
  81 2.23871 0.298092 1.70938
  82 -1.06388 0.432121 0.976344
  83 -3.39967 0.435582 0.286413
  84 -3.15102 0.405676 -0.250326
  85 -2.85279 0.330654 -0.884813
  86 -1.66090 -0.129009 -0.817130
  87 -0.219099 -1.59484 -0.895298
  88 0.131216 -2.97293 -1.14806
  89 0.403388 -4.84188 -0.715988
  90 0.918528 -5.22508 -0.132414
  91 1.97510 -2.20302 2.37242
  92 6.06834 7.60505 8.72100
  93 37.8442 31.7862 31.7970
  94 141.099 20.7159 24.0465
  95 126.266 2.99863 7.97159
  96 116.575 1.21390 2.43971
  97 112.980 1.01489 0.199770
  98 114.824 1.37199 -2.09301
  99 125.859 2.75844 -6.29812
  100 150.674 10.0222 -21.0433
  101 22.1946 32.0140 -26.3306
  102 4.55837 4.46764 -7.08665
  103 2.14541 -1.98581 -2.40707
  104 0.853038 -5.29819 -0.249777
  105 0.212222 -3.74357 0.836062
  106 0.289788 -3.73318 1.00615
  107 0.00414981 -1.39065 0.989759
  108 -1.73063 -0.0938256 0.780630
  109 -2.94530 0.247951 0.778046
  110 -3.31367 0.495240 0.269963
  111 -3.51547 0.431313 -0.256704
  112 -1.30239 0.443020 -0.908233
  113 2.02287 0.300919 -1.62605
  114 4.94097 0.0134237 -1.64060
  115 8.51979 0.140390 -1.52493
  116 11.5761 0.153634 -1.44948
  117 16.1646 -0.0318911 -1.55163
  118 18.4408 0.0117775 -1.08963
  119 21.1260 -0.0139465 -0.996671
  120 23.3691 -0.0565183 -0.816951
  121 25.1025 -0.0309714 -0.665135
  122 26.6344 -0.00491952 -0.593187
  123 27.6602 0.0409123 -0.511112
  124 29.1457 -0.0519881 -0.464849
  125 29.6214 -0.00647066 -0.233875
  126 30.3063 -0.0104342 -0.182927
  127 30.8471 -0.0349778 -0.136571
  128 31.2373 -0.0255965 -0.108639
  129 31.6768 -0.00409082 -0.0916415
  130 31.2134 0.136739 -0.0352776
  131 31.8330 0.0426185 -0.0589833
  132 33.2434 -0.0510420 0.0571256
  133 35.0329 -0.157336 -0.0113064
  134 36.7700 -0.284802 0.00551717
  135 38.7396 -0.387282 0.0164588
  136 40.8058 -0.587567 0.0301986
  137 42.9822 -0.728886 0.0649886
  138 45.2362 -0.766072 0.0492566
  139 47.1930 -0.914289 0.0482293
  140 48.8933 -0.794486 0.101692
  141 50.8344 -0.697081 0.168667
  142 53.0378 -0.530053 0.181605
  143 55.1151 -0.474483 0.151715
  144 57.3371 -0.276132 0.106839
  145 59.2017 -0.184930 0.138460
  146 60.6843 -0.0106482 0.0820085
  147 53.5348 -5.02278 -0.922579
  148 53.4953 -4.95625 0.942271
  149 55.6977 8.04810 -3.03431
  150 59.8547 3.55262 6.57599
  151 45.2687 -4.31065 -9.58844
  152 45.6208 -4.31034 9.26031
  153 43.4394 -1.90001 0.983598
  154 43.4459 -1.92838 -0.985502
  155 63.8177 2.26568 -5.32425
  156 53.3896 -1.88150 1.56192
  157 53.3687 -1.83315 -1.54158
  158 69.0102 15.6220 0.986373
  159 54.3639 -0.0844621 -6.28679
  160 39.7915 -3.21470 -4.23494
  161 39.7864 -3.18580 4.19176
  162 54.5433 -1.21615 5.74012
  163 51.3329 3.72342 3.67579
  164 20.8639 3.49273 -11.4259
  165 23.2500 3.29882 12.0584
  166 67.7821 0.661173 1.45297
  167 54.8363 -2.07271 -4.11782
  168 73.0242 16.0795 -1.03749
  169 49.1802 -1.37235 0.199272
  170 49.1686 -1.36658 -0.194007
  171 55.8004 -0.602427 -0.697032
  172 56.0008 -0.532014 0.606900
  173 37.7569 -0.591201 -0.632707
  174 37.7591 -0.584586 0.628197
  175 60.4738 -1.75491 12.1577
  176 49.5642 2.02098 -3.95110
  177 32.1281 -2.44961 -6.96230
  178 32.2261 -2.43098 6.90962
  179 35.9445 -1.25185 -2.22259
  180 35.9449 -1.23647 2.20234
  181 55.1342 -1.41193 3.49662
  182 49.9287 -3.45157 0.288181
  183 49.7380 -3.42565 -0.198740
  184 57.2684 -5.50472 -0.310427
  185 57.5476 -5.24329 -0.414518
  186 79.4988 18.6585 -1.97284
  187 56.8375 9.20466 2.84887
  188 57.1700 3.52457 -6.49981
  189 60.3509 -0.716197 -14.2587
  190 57.0052 -3.18938 -4.79092
  191 57.4785 -2.26328 5.54145
  192 47.6984 -5.43215 4.48311
  193 47.7235 -5.39620 -4.46603
  194 50.5448 0.622412 4.77611
  195 22.5974 -0.508854 -8.47107
  196 22.6592 -0.562505 8.41269
  197 90.2938 13.6542 1.90038
  198 53.9054 -3.19144 2.75666
  199 56.0509 -0.980319 -2.32681
  200 43.6887 -1.09989 -0.412271
  201 43.6876 -1.09306 0.410186
  202 53.3730 -0.684620 -4.39911
  203 61.0073 9.00205 -5.32139
  204 50.3739 4.50450 -0.740075
  205 32.1764 -1.20890 3.18739
  206 32.1244 -1.21371 -3.21569
  207 57.0753 -0.571041 1.32544
  208 54.9935 1.03899 6.44876
  209 44.4455 -3.31156 -1.85774
  210 44.1099 -3.13725 1.92351
  211 65.3137 9.69337 5.10572
  212 77.8737 10.1305 0.575774
  213 4.79643 3.89767 -2.90246
  214 4.42237 3.60342 2.44784
  215 31.4318 8.86149 20.5470
  216 53.3474 -3.53311 -2.23040
  217 57.3182 -0.549359 -1.20001
  218 49.9109 0.413201 -4.39415
  219 34.2313 -0.382951 -0.977571
  220 34.2400 -0.378439 0.966931
  221 47.6948 -2.26441 -0.161929
  222 47.7160 -2.27640 0.133645
  223 53.9008 -0.714380 3.76598
  224 62.9576 -3.66432 0.642315
  225 61.6317 12.7612 -1.57515
  226 48.3451 -4.71390 -1.89932
  227 61.7456 -1.05587 4.55400
  228 52.3356 -0.822687 0.313260
  229 52.3381 -0.814730 -0.312711
  230 47.9577 -4.69048 1.99940
  231 55.2463 -3.47690 3.95827
  232 79.2155 9.54569 -3.76757
  233 16.7646 10.0122 -14.5677
  234 45.6614 1.55381 0.929637
  235 55.0660 4.87012 5.40958
  236 59.1981 -0.391716 -5.98119
  237 55.1166 -1.96103 -5.42953
  238 28.2898 -0.962883 -4.03245
  239 28.3962 -0.947498 4.01538
  240 55.2531 -0.636506 -2.96038
  241 52.7090 -1.28797 0.885480
  242 52.6843 -1.28483 -0.861708
  243 10.3472 1.04387 -5.25930
  244 10.5394 0.916438 5.24431
  245 59.2306 -5.15784 -3.91920
  246 58.7141 -0.142421 0.208018
  247 58.7904 -0.145799 -0.218369
  248 53.6743 4.44727 -4.92998
  249 46.6813 0.852494 2.84338
  250 102.160 16.3889 10.9041
  251 101.446 11.5597 -6.90651
  252 71.7797 15.7017 -0.298807
  253 44.7233 -2.11417 12.8809
  254 40.9190 -1.32550 -13.5031
  255 46.6422 -0.954602 -0.0942206
  256 46.6366 -0.947209 0.0929014
  257 38.1067 -1.08373 1.30630
  258 38.1099 -1.09968 -1.32085
  259 56.8920 -0.565758 1.88775
  260 55.0359 -3.89625 -3.35793
  261 34.3034 -0.0874250 -0.220139
  262 34.3080 -0.0860782 0.218291
  263 54.3349 -2.16185 -2.64094
  264 21.9986 -0.742026 -5.56541
  265 22.1063 -0.744694 5.51964
  266 54.9425 -2.35360 4.42936
  267 41.6326 -4.42104 7.69227
  268 41.7539 -4.50092 -7.66975
  269 46.4079 1.72734 -1.32320
  270 40.0298 -0.654091 -0.422844
  271 40.0311 -0.648995 0.420608
  272 50.9690 -0.140660 3.55174
  273 61.3911 11.3495 3.71430
  274 31.7440 -0.427818 1.69797
  275 31.7192 -0.431729 -1.71531
  276 56.6378 -4.69577 2.58358
  277 52.4315 -5.85207 -4.87642
  278 58.8764 -0.223159 0.635321
  279 39.7741 -2.44403 -2.85294
  280 39.6941 -2.41498 2.83913
  281 73.7574 6.77337 18.1110
  282 33.3170 -2.67221 9.26884
  283 54.1103 7.63375 -0.324071
  284 69.7470 7.54755 -3.79795
  285 52.0747 -4.03421 1.16037
  286 52.4483 -6.01616 4.34094
  287 33.4338 -2.62504 -9.38620
  288 5.97545 7.34356 6.47682
  289 54.3433 -2.17145 2.68678
  290 71.9451 9.22300 3.21393
  291 59.4085 -0.198103 -0.550602
  292 52.7630 1.83002 -5.67247
  293 52.4886 -2.95684 1.63959
  294 51.3492 -4.34945 -0.337829
  295 52.5336 2.40057 5.45238
  296 56.3487 -4.70141 -2.36261
  297 80.2958 15.8115 -1.15036
  298 52.4738 -2.83986 -1.57323
  299 44.0718 12.1463 -25.4410
  300 53.8027 -5.69019 -0.486396
  301 53.4050 -5.84355 1.11378
  302 38.5994 -3.54928 -6.06170
  303 34.0072 -0.155249 -0.486555
  304 34.0141 -0.152581 0.481557
  305 38.6096 -3.55055 6.02404
  306 56.7216 -0.0809252 -6.57550
  307 61.7272 -2.54264 -3.26717
  308 46.3139 -2.84183 -0.840644
  309 46.2757 -2.84788 0.859326
  310 56.3111 -4.84353 8.06671
  311 55.7422 -0.419791 2.24446
  312 68.6874 0.117103 2.17471
  313 45.2564 -1.63135 -0.430545
  314 45.2576 -1.62436 0.426562
  315 40.8707 -1.11555 -0.815774
  316 40.8683 -1.10401 0.813688
  317 46.1457 0.588477 -2.75283
  318 60.5961 4.44808 -6.41050
  319 95.3652 25.4884 -11.5989
  320 55.4763 -0.413309 -0.243899
  321 55.4382 -0.407050 0.248843
  322 29.0165 0.0277005 11.5654
  323 40.7279 -1.92110 -1.82544
  324 40.6398 -1.91246 1.82930
  325 29.0139 -0.0352982 -11.5218
  326 57.4574 6.81121 -5.33367
  327 65.0220 3.18420 5.13196
  328 56.3547 -4.02418 -9.02123
  329 51.2580 -1.95936 0.836185
  330 51.2018 -1.94278 -0.811540
  331 54.9790 -1.07957 -1.34629
  332 51.0137 -0.105859 -3.32493
  333 57.8439 0.275596 6.48655
  334 58.0909 -0.361935 -1.31541
  335 33.8366 -2.13082 4.64302
  336 33.8003 -2.14409 -4.68468
  337 53.4856 -0.124376 5.94755
  338 31.8603 -0.293469 -0.994745
  339 31.8803 -0.290594 0.983698
  340 55.3536 -1.22000 2.00205
  341 66.2397 13.6367 -2.95183
  342 54.9414 -1.08992 1.39168
  343 58.1381 7.34659 5.36917
  344 55.7554 -1.01665 6.26882
  345 43.6130 -0.836994 0.133809
  346 43.6150 -0.843127 -0.135321
  347 52.4589 -0.194609 -5.26849
  348 70.1980 14.8416 2.17631
  349 57.7792 10.6970 0.112664
  350 35.5134 4.17033 -17.3603
  351 3.20110 1.58523 -2.14351
  352 3.56179 1.71139 2.32932
  353 -0.297254 0.340164 1.17558
  354 -0.0577976 0.149917 -1.21713
  355 105.196 7.28988 2.56557
  356 47.9461 -3.94098 -0.970635
  357 55.4092 -1.17513 -1.95568
  358 49.6770 -0.840112 0.143084
  359 49.6712 -0.832134 -0.143218
  360 52.7784 5.83455 -2.66502
  361 45.1996 -4.66010 3.67463
  362 3.71526 5.45559 -3.86505
  363 45.2544 -4.66149 -3.75278
  364 53.5173 6.09591 2.83632
  365 55.1408 -1.43410 -3.34357
  366 58.6883 -3.24260 -4.22475
  367 62.0502 13.2738 1.09195
  368 58.8587 -3.63798 3.61141
  369 23.0948 -0.612097 3.73880
  370 22.9404 -0.600566 -3.76769
  371 12.7961 0.354398 -5.10008
  372 12.9554 0.297124 5.07532
  373 46.9543 0.116251 2.79339
  374 92.7039 26.5413 9.44280
  375 57.1991 -0.330412 -1.62999
  376 43.9219 -3.78589 -2.77865
  377 43.8759 -3.77314 2.77406
  378 54.7101 -1.23677 -4.15031
  379 62.9682 -3.03835 1.21126
  380 47.9437 -3.93605 1.01082
  381 69.6210 0.279418 -4.80397
  382 37.6818 -0.338576 -0.145404
  383 37.6849 -0.335380 0.143749
  384 53.6241 -0.301239 -2.60904
  385 27.7955 -0.435795 -2.44881
  386 27.8157 -0.448919 2.41559
  387 64.5696 8.23692 -5.60661
  388 34.5958 2.48030 16.0711
  389 50.2628 -2.64591 0.597799
  390 50.3140 -2.64007 -0.601137
  391 58.9402 10.0537 -3.43452
  392 56.0221 -1.63959 -5.98732
  393 56.5813 -5.75497 4.12728
  394 46.4712 -1.24375 -0.133753
  395 46.4640 -1.23625 0.130772
  396 54.1415 -4.16621 2.40785
  397 58.7176 -0.245246 0.987170
  398 35.3759 -1.36433 -2.81014
  399 35.3882 -1.36323 2.78186
  400 54.6551 1.83187 -6.34745
  401 51.8446 -1.08094 0.482050
  402 51.8435 -1.08282 -0.473848
  403 53.3741 -0.619140 4.88333
  404 49.2367 3.55384 1.26047
  405 55.6027 -2.32138 5.28708
  406 81.1165 17.1307 2.65650
  407 26.0450 -1.41329 -7.44753
  408 26.1223 -1.41439 7.38391
  409 11.4824 6.31004 -8.58353
  410 60.3718 -0.130491 0.296350
  411 28.9610 -0.277011 -1.54443
  412 29.0029 -0.271121 1.52892
  413 54.7683 -1.40374 4.08122
  414 49.6399 -5.41059 2.20527
  415 56.5032 -0.638396 0.959439
  416 57.0798 2.91463 6.67252
  417 12.0924 6.71854 8.99700
  418 49.7227 -5.38360 -1.99304
  419 51.4233 -4.79563 0.00167579
  420 15.7907 -0.319610 -4.65740
  421 15.9296 -0.333139 4.62151
  422 39.2835 -3.08916 -11.1867
  423 59.2325 -0.855802 5.85818
  424 39.1089 -3.14293 11.0795
  425 54.6045 -3.04443 -3.57035
  426 50.0066 3.33875 -2.78082
  427 54.6205 -2.32871 3.36487
  428 59.3445 -0.219145 -0.689315
  429 1.62970 1.62577 0.524232
  430 11.5439 12.9988 12.8335
  431 52.1049 -0.194933 2.49462
  432 42.8369 0.546274 1.19540
  433 43.6736 0.676332 -1.62832
  434 37.2730 -0.667572 -0.920207
  435 37.2741 -0.658506 0.912459
  436 53.8493 -4.16516 -2.24153
  437 54.1946 -1.04737 -5.49290
  438 43.1022 0.760043 -0.442684
  439 81.2015 19.2772 3.22972
  440 10.5427 3.66379 -6.40098
  441 11.6811 3.36545 6.87715
  442 50.2172 -1.77842 0.497119
  443 50.1963 -1.77236 -0.482138
  444 67.0743 15.0486 -0.252311
  445 42.9046 16.4468 25.9949
  446 65.2171 -0.973691 -1.72898
  447 36.3018 -1.96717 -3.81617
  448 36.3163 -1.95221 3.77854
  449 36.3430 -0.869712 1.46839
  450 36.3388 -0.876850 -1.48467
  451 49.7404 1.07065 -4.51172
  452 60.7283 -0.0474676 -0.202392
  453 48.1799 2.16689 2.51576
  454 61.9776 7.68102 5.91660
  455 51.4923 -3.83144 -0.935614
  456 56.4900 -0.602947 -0.929846
  457 59.6134 -0.194184 0.635669
  458 60.5641 -0.0483885 0.116265
  459 60.6251 -0.0595411 -0.0893206
  460 31.5111 -0.0710866 0.360708
  461 31.4971 -0.0720692 -0.365386
  462 56.5144 -3.56156 4.30574
  463 50.2450 1.95245 4.36626
  464 52.8293 0.207172 -5.78462
  465 55.6824 -1.12885 2.52812
  466 82.4266 12.6443 -14.7956
  467 55.7286 -3.06776 -4.71127
  468 0.271630 1.01245 0.262069
  469 0.278033 1.01838 0.0128145
  470 43.6060 -2.53442 1.48460
  471 43.4490 -2.50332 -1.47092
  472 70.4967 0.923262 7.67490
  473 19.3253 16.8609 -19.4000
  474 54.8357 -0.150720 1.97186
  475 63.0409 -3.70987 -4.11870
  476 32.3526 -1.92442 5.40083
  477 66.9549 11.8914 -4.22771
  478 54.9159 -2.94816 3.98962
  479 45.6669 -2.22651 -0.617717
  480 45.7077 -2.18770 0.614420
  481 46.9407 0.235204 -2.47054
  482 32.2474 -1.91822 -5.44060
  483 48.2691 0.00140414 2.49466
  484 46.9494 -5.35688 -6.77102
  485 46.8255 -5.36507 6.78760
  486 56.8205 -0.349085 1.79353
  487 50.8126 4.77409 0.521652
  488 52.8953 0.751962 17.5862
  489 77.3661 15.9661 -0.101405
  490 53.2122 -0.840776 0.500587
  491 53.2174 -0.837269 -0.512919
  492 40.0162 -0.752674 -0.552520
  493 40.0168 -0.745704 0.549553
  494 20.9273 1.05183 9.62803
  495 55.1340 -2.63140 -4.57901
  496 49.8454 -1.05703 0.177754
  497 49.8403 -1.05228 -0.176160
  498 43.2125 -4.61275 5.54717
  499 21.3532 1.37736 -9.88229
  500 55.3114 -4.48702 -2.54769
  501 0.844380 -0.0241764 0.627975
  502 47.3699 2.40065 0.179001
  503 53.4423 -0.554464 -0.170848
  504 53.4389 -0.563647 0.168234
  505 43.2501 -4.60686 -5.59413
  506 63.1224 -3.31950 5.48155
  507 62.0571 2.26321 6.10319
  508 57.5248 -0.325258 -0.479738
  509 55.1409 -4.55257 2.57379
  510 33.0871 -0.0469437 -0.0584901
  511 33.0912 -0.0465928 0.0577746
  512 54.9253 -2.08798 -4.82427
  513 52.7485 3.90012 4.80605
  514 61.2686 1.51934 -6.01815
  515 32.8917 -0.0674552 -0.201229
  516 32.8973 -0.0666032 0.199457
  517 109.702 15.8317 -14.2813
  518 54.9994 6.57950 4.25975
  519 57.5822 -0.291902 0.429837
  520 51.5446 -4.89941 0.120529
  521 42.7478 -1.46079 0.786895
  522 42.7499 -1.47321 -0.785384
  523 60.4207 -3.65101 2.32400
  524 57.7643 -1.12727 -6.10329
  525 64.4619 12.8195 3.42458
  526 53.3073 0.910578 5.98987
  527 54.2701 -0.986640 0.901389
  528 52.8200 -5.60147 -6.41737
  529 54.4276 -1.32615 4.70143
  530 108.694 4.95351 -2.01360
  531 60.0080 -4.50150 -0.779914
  532 57.1658 -0.309472 -0.127633
  533 57.1777 -0.334344 0.117247
  534 109.803 7.38165 7.10291
  535 51.8774 -0.0272647 5.09437
  536 74.0624 12.1932 -2.25247
  537 55.1810 -1.45739 -2.48710
  538 23.6005 -0.241798 -1.67878
  539 23.6842 -0.230348 1.65978
  540 36.7744 -3.46342 -7.75535
  541 36.7970 -3.40470 7.69261
  542 54.2423 -0.941738 -0.890695
  543 58.8771 2.17491 -6.60595
  544 51.6530 -3.51959 1.13082
  545 55.2601 6.35625 -4.43331
  546 56.1607 -0.614295 2.41609
  547 71.2076 3.33459 0.125175
  548 47.6521 -1.64257 -0.0345859
  549 47.6347 -1.63504 0.0318093
  550 52.0431 -2.44285 1.27642
  551 77.7442 15.0879 -0.102389
  552 54.5728 2.39070 6.22779
  553 23.0750 5.98187 14.3177
  554 53.4310 -3.21963 11.5631
  555 71.5561 2.96761 -12.6069
  556 55.8185 4.62433 -5.81965
  557 49.9649 -4.28348 -9.98886
  558 54.0480 -5.90344 -1.52136
  559 56.6160 -5.69889 -2.44888
  560 7.10625 8.94185 -8.49352
  561 56.8722 -0.663112 -1.55696
  562 86.1964 16.8538 -4.56286
  563 52.3383 -2.33592 -1.37909
  564 52.8205 -1.68365 1.13473
  565 52.7701 -1.64232 -1.09654
  566 35.2442 -0.235313 -0.435520
  567 35.2490 -0.232218 0.431702
  568 4.48972 0.550516 -2.73395
  569 4.79285 0.575318 2.80148
  570 26.1755 -1.25898 -5.69871
  571 26.3907 -1.26517 5.68482
  572 53.5308 -2.87875 -2.37528
  573 54.7143 -5.92666 1.68030
  574 56.2573 -5.31181 0.958336
  575 45.4986 -0.806616 -0.127968
  576 45.4947 -0.799794 0.127064
  577 43.4197 -4.53171 -8.56206
  578 48.9563 -3.98213 10.6010
  579 42.3108 -4.25665 8.61926
  580 54.9300 -1.20460 -5.91984
  581 33.3825 -0.605051 1.68737
  582 33.3671 -0.611751 -1.70425
  583 51.9803 2.85092 -4.81834
  584 52.1533 -0.0901495 -2.26498
  585 65.5752 14.4257 -1.58982
  586 42.2052 -0.665473 -0.142236
  587 42.2046 -0.660334 0.141321
  588 56.0544 -0.154542 -1.30629
  589 37.8331 -1.35050 -1.82262
  590 37.8304 -1.34471 1.80374
  591 31.2515 1.52822 13.7826
  592 54.5623 -2.48217 -3.40694
  593 29.8665 -1.53870 9.87188
  594 53.6132 -2.75637 2.41371
  595 56.6820 -0.746227 1.70856
  596 56.0611 -0.443053 -0.434152
  597 38.1847 -0.514084 -0.389794
  598 38.1871 -0.509455 0.386970
  599 62.8398 12.6806 -3.04620
  600 29.8480 -1.47377 -9.91512
  601 53.4417 -2.28357 -1.96720
  602 47.8908 -0.873952 -0.0393343
  603 47.8852 -0.866374 0.0390868
  604 92.0867 12.4891 -2.14688
  605 30.6643 -0.221225 0.941044
  606 30.6370 -0.223487 -0.951460
  607 49.0781 1.09350 4.10615
  608 72.1174 5.77212 -1.84292
  609 33.3750 0.315799 -13.6972
  610 16.4940 0.486809 -7.35347
  611 16.6444 0.383032 7.31341
  612 41.6588 -2.51025 2.20753
  613 42.1293 -2.58410 -2.13004
  614 72.4471 14.5517 2.11921
  615 55.8079 -0.461808 0.400265
  616 46.7153 1.26652 -2.46876
  617 59.0698 10.7188 2.71339
  618 58.8274 11.1278 -1.80360
  619 48.3683 -2.70869 -0.0922620
  620 48.7592 -2.64319 -0.0862786
  621 34.8810 7.50906 -19.8401
  622 41.0756 -1.46863 -1.19375
  623 41.0764 -1.45054 1.18791
  624 108.834 22.2243 16.6624
  625 54.9173 -1.77711 5.17194
  626 30.3728 -1.13765 -3.65189
  627 87.6558 18.9571 11.9237
  628 30.4473 -1.13040 3.63472
  629 53.0415 -2.05755 -13.6020
  630 35.9377 -0.209799 -0.161264
  631 35.9417 -0.207924 0.160181
  632 44.8451 0.374192 2.15019
  633 19.7302 -0.315184 -3.29037
  634 19.8567 -0.315879 3.26109
  635 47.7219 -3.42306 0.683253
  636 50.2028 -4.04836 0.131817
  637 59.9310 -0.103431 -0.568272
  638 32.0485 -0.0652935 0.259799
  639 32.0387 -0.0663749 -0.263274
  640 44.7657 -1.02608 -0.159520
  641 44.7624 -1.01920 0.157367
  642 52.1258 -5.75306 6.50455
  643 59.5995 6.68005 -5.97044
  644 38.9488 -1.89786 -2.35834
  645 38.9149 -1.86470 2.33843
  646 46.7888 -3.42393 -1.10824
  647 74.5632 16.3793 -0.00832575
  648 55.9060 -5.38401 -0.635546
  649 48.0895 -1.14027 0.0246767
  650 48.0812 -1.13331 -0.0242189
  651 66.9555 7.26741 4.93757
  652 55.9176 -0.765556 -2.62794
  653 48.5787 -0.0756011 -2.03578
  654 21.9795 -0.745337 -7.13600
  655 22.0555 -0.769057 7.07123
  656 46.6981 -4.08764 -1.95770
  657 70.5542 15.7935 0.0748516
  658 54.1421 7.36107 -1.91855
  659 35.0983 -0.359169 -0.819384
  660 35.1041 -0.353989 0.811154
  661 50.8842 -1.40965 -0.459138
  662 50.8944 -1.41257 0.471622
  663 97.0118 12.7379 5.56098
  664 61.1001 -0.131396 0.165665
  665 58.6021 -0.201263 0.956776
  666 58.3296 -0.210379 -1.10498
  667 55.1673 -5.11503 1.42967
  668 39.6203 -0.496225 -0.195122
  669 39.6220 -0.492202 0.193931
  670 58.5270 9.45994 4.15421
  671 75.9235 16.9851 -0.456046
  672 40.6960 -3.11274 -3.34647
  673 40.6778 -3.07982 3.32606
  674 51.6243 -5.33221 -0.609160
  675 54.1083 3.21393 -5.85063
  676 65.2567 0.136751 3.13572
  677 42.2409 -0.818550 -0.357834
  678 42.2403 -0.812385 0.355684
  679 36.5508 -3.24667 -7.00466
  680 54.6272 -5.26751 -0.905888
  681 45.0999 -5.01160 6.10462
  682 21.2458 6.80328 -13.7927
  683 41.8562 -3.93966 4.70110
  684 50.4101 0.0120060 1.89432
  685 36.5805 -3.20846 6.95202
  686 53.4081 -2.33095 1.99130
  687 41.8783 -3.92480 -4.75027
  688 42.0442 0.512594 0.448473
  689 32.4399 -0.934162 2.57486
  690 32.4102 -0.935973 -2.59653
  691 45.1381 -5.14247 -6.17646
  692 56.1184 -3.66979 -4.16973
  693 51.3530 -0.667790 -0.113461
  694 51.3607 -0.676067 0.113921
  695 57.4253 -3.62275 4.17665
  696 52.0481 -5.44433 0.805825
  697 63.4482 5.81958 5.97591
  698 57.0561 -1.04119 6.24062
  699 54.8973 -1.93714 3.88542
  700 51.8736 4.24972 -3.65404
  701 63.0613 10.6761 4.70242
  702 54.3124 -0.736153 -3.67184
  703 54.3513 -1.76023 2.12589
  704 55.6575 8.77473 1.03981
  705 55.2013 -0.907179 3.24476
  706 17.0381 11.5108 14.4048
  707 51.4591 -5.90719 -3.55394
  708 59.5990 1.10697 6.39231
  709 60.3427 -1.84584 -4.77016
  710 60.7177 -0.0477083 0.327771
  711 54.9125 -1.84736 -3.11410
  712 51.5207 -5.95483 3.18632
  713 102.240 9.04474 -1.52502
  714 29.3435 -0.143807 0.987155
  715 29.3060 -0.145486 -0.998133
  716 55.8761 -0.958087 -1.52021
  717 61.1145 -0.0335141 -0.315748
  718 46.6004 -4.15231 1.96931
  719 56.3332 -2.06746 5.70944
  720 87.3101 20.1308 -5.13627
  721 53.3907 -3.86213 2.12036
  722 59.5026 -3.88773 -2.76518
  723 54.3756 -1.71001 -2.09335
  724 61.1659 -0.0702514 -0.115838
  725 54.7701 0.00680845 6.37305
  726 2.39672 1.71007 2.79691
  727 62.8968 -2.53151 -8.50760
  728 68.1369 3.92802 3.44662
  729 56.5293 -5.74863 2.11321
  730 39.2272 -0.998632 0.985777
  731 39.2301 -1.01349 -0.992142
  732 54.2100 25.3507 -27.3057
  733 57.4601 -3.76900 -3.90393
  734 41.8641 0.177423 -0.856761
  735 49.6706 0.255240 4.02647
  736 55.2731 -2.73818 4.66155
  737 52.9841 -4.46469 1.30679
  738 55.4845 -5.02358 -6.98419
  739 52.6333 -4.16492 -1.38535
  740 62.7326 -3.00541 -1.42105
  741 57.7101 -0.411574 0.902699
  742 51.0274 -3.07297 0.856195
  743 94.5319 18.9375 -9.86166
  744 54.6592 -1.41206 1.71129
  745 53.6199 0.869856 -6.15851
  746 46.2639 -0.549210 15.3666
  747 57.6408 4.66549 6.35663
  748 49.5545 -3.93219 0.142458
  749 37.7503 -3.04781 -5.08556
  750 37.7486 -3.03774 5.03831
  751 52.2640 5.87633 -0.855778
  752 53.4971 -0.609793 5.54293
  753 54.1996 -1.27433 -4.78797
  754 51.0883 -3.13355 -0.876176
  755 49.3329 -4.45700 0.882951
  756 56.1080 9.33121 -1.18808
  757 52.9155 -4.57870 -1.09660
  758 53.0333 -3.34585 2.03977
  759 53.9076 -0.626164 0.346996
  760 53.9459 -0.606661 -0.345673
  761 72.5518 16.1177 0.745587
  762 59.5854 -5.04098 -1.13506
  763 55.0850 -1.64765 3.09124
  764 57.7536 -0.408155 -0.829518
  765 57.9079 0.403837 -6.54627
  766 66.4386 3.41387 -4.30643
  767 30.9264 -0.0431992 -0.452999
  768 30.9459 -0.0426829 0.447485
  769 0.403443 -1.15070 -0.831510
  770 56.1978 -0.0494908 1.21313
  771 50.9519 -0.103800 -4.47854
  772 52.8580 -0.492088 3.99602
  773 49.1863 5.71772 22.8122
  774 60.2369 12.5396 -0.145281
  775 42.5225 -3.12392 2.53667
  776 6.68014 0.181432 -2.74304
  777 6.91476 0.136244 2.77388
  778 52.3284 -0.375872 -4.48682
  779 42.6527 -3.15728 -2.53414
  780 57.4017 -0.451329 0.705170
  781 28.1293 -1.25115 4.86986
  782 27.8722 -1.24750 -4.87687
  783 54.6606 -1.36858 -1.66869
  784 33.7598 -0.915379 -2.23103
  785 33.7758 -0.908665 2.20767
  786 57.0263 -0.491414 -1.84188
  787 42.7175 -1.18466 -0.624787
  788 42.7167 -1.17582 0.624705
  789 62.3657 -0.396436 -4.82247
  790 55.6884 -0.569153 -6.43772
  791 27.0536 -0.191576 -1.27048
  792 27.1118 -0.189824 1.25381
  793 0.894274 0.702481 -1.58795
  794 1.16010 0.739484 1.67592
  795 44.0677 0.198183 -1.56477
  796 50.9679 -5.73060 -2.53788
  797 -0.610252 -0.430614 1.02999
  798 -0.526790 -0.492241 -1.01191
  799 53.1215 -1.01071 0.722595
  800 57.7552 -4.47499 -2.48964
  801 59.1905 8.82736 -4.86716
  802 57.6790 -0.401165 -0.667952
  803 127.398 25.1015 -23.9227
  804 53.1113 -1.00634 -0.713927
  805 80.5078 15.5420 1.05769
  806 56.6331 1.65928 -6.69191
  807 62.9089 4.73640 -6.08746
  808 9.52118 -0.114377 -2.56168
  809 9.73202 -0.130385 2.55615
  810 34.2580 -0.538993 1.30183
  811 34.2477 -0.543876 -1.31588
  812 32.3693 -0.0934256 0.239479
  813 32.3623 -0.0943540 -0.241908
  814 63.4025 10.7281 -4.68479
  815 36.3593 -0.260110 -0.343298
  816 36.3632 -0.256978 0.340744
  817 53.6700 -0.538327 -5.77814
  818 79.5198 7.43264 5.68257
  819 47.6967 1.02439 -3.44544
  820 15.6715 -0.149537 2.77570
  821 15.5156 -0.150826 -2.80029
  822 63.9165 1.40523 16.1540
  823 55.8064 -0.966543 1.56908
  824 48.9153 3.20972 -1.43748
  825 21.7111 -0.0454959 1.91077
  826 21.5835 -0.0348192 -1.92695
  827 33.2274 -0.197042 -0.630170
  828 33.2374 -0.194199 0.622960
  829 5.83273 5.25842 4.29084
  830 51.2813 1.20025 5.16243
  831 57.3554 8.48158 -4.13058
  832 62.1059 7.21957 -5.97586
  833 40.0142 -1.58234 -1.60957
  834 39.9863 -1.56876 1.60542
  835 64.1459 13.8229 2.17147
  836 55.8277 -0.390240 -0.0977765
  837 55.8283 -0.387073 0.107859
  838 54.8886 -1.61127 -3.89209
  839 45.5983 -3.09652 1.33162
  840 50.6322 -5.69625 2.56439
  841 60.0764 -4.92218 4.06933
  842 45.1035 -1.33409 -0.288694
  843 45.1012 -1.32775 0.285360
  844 51.5185 4.76158 2.33828
  845 48.1902 0.625898 -3.73076
  846 13.4188 14.8344 14.9820
  847 49.4973 -4.42221 -0.757455
  848 49.6302 -2.22166 0.400352
  849 49.6576 -2.22413 -0.402384
  850 54.6134 -0.790098 6.10591
  851 54.3644 -3.55252 -3.07767
  852 48.2785 -3.23546 -0.306631
  853 114.571 3.71839 -5.81634
  854 45.8222 -4.39286 2.83549
  855 45.7905 -4.45261 -2.88776
  856 54.6183 -0.635452 3.13156
  857 83.4156 21.3196 -3.89620
  858 42.8427 -3.96565 -3.67820
  859 47.6488 -5.39775 3.37347
  860 42.8238 -3.91550 3.64128
  861 46.5543 -1.90194 -0.294327
  862 46.5507 -1.89389 0.290559
  863 6.48226 2.90036 3.75350
  864 58.7547 4.40553 -6.48307
  865 44.5328 -1.78040 -0.626757
  866 44.5393 -1.76086 0.629547
  867 43.8943 -0.741728 -0.0727486
  868 43.8921 -0.735747 0.0720180
  869 48.6776 -0.943797 0.0877267
  870 48.6711 -0.936416 -0.0878259
  871 38.8622 -0.813445 -0.860470
  872 38.8628 -0.803639 0.855649
  873 44.7397 -2.41290 -1.00868
  874 44.7436 -2.39405 1.01275
  875 0.990357 -0.752164 -0.265776
  876 68.4085 12.8415 3.78074
  877 58.7983 -2.03231 -5.38256
  878 47.6187 -5.32092 -3.41629
  879 51.5608 -1.63228 0.746251
  880 51.5366 -1.61338 -0.729882
  881 56.1682 0.0884056 6.57075
  882 61.7643 -4.40876 -1.90849
  883 54.9102 3.58120 -19.6968
  884 23.9788 -0.330642 9.56725
  885 -1.23391 0.561027 -0.538898
  886 -1.10271 0.631217 0.612697
  887 6.42503 3.08564 -3.82634
  888 55.1076 -1.53775 2.47945
  889 58.3103 -0.329243 -1.05899
  890 52.2885 -4.99602 8.14761
  891 23.9192 -0.300428 -9.60980
  892 58.2843 -4.73181 1.93686
  893 65.5070 -2.08586 6.81868
  894 45.8464 0.175765 1.66266
  895 53.2412 5.06632 4.00495
  896 28.2778 -1.61880 7.09061
  897 28.1631 -1.63221 -7.14385
  898 33.9946 -1.69121 -3.95408
  899 36.3464 -1.71536 -12.2729
  900 58.1092 -1.32845 5.94102
  901 80.7122 18.6340 1.88351
  902 58.2124 2.26114 6.61102
  903 55.0439 -1.14290 -3.53210
  904 37.1455 -1.53743 12.5833
  905 70.6038 12.9474 -3.04744
  906 6.58377 5.70651 -5.33964
  907 50.2605 -0.111053 -1.80699
  908 34.0300 -1.67629 3.91372
  909 41.8893 -0.961274 0.560181
  910 41.8901 -0.968868 -0.562104
  911 54.4484 -3.53405 3.16542
  912 56.9282 -0.288577 0.286338
  913 41.5677 0.421762 -15.3364
  914 60.2018 -0.106945 0.504313
  915 59.6522 -0.0847380 -0.630342
  916 42.9599 0.351828 -1.43252
  917 57.3298 -0.222141 -1.08225
  918 42.1027 -2.03869 -1.43437
  919 42.1308 -2.00612 1.43787
  920 -1.50671 0.486576 -0.883430
  921 -2.02270 0.293016 0.912561
  922 56.9308 -0.263567 -0.286338
  923 17.8497 -0.387464 6.44059
  924 17.7281 -0.345114 -6.48146
  925 60.2347 8.84534 5.16692
  926 111.774 2.00644 1.82362
  927 56.5289 6.31845 5.31811
  928 65.0828 -2.36272 1.36867
  929 55.9852 -3.08779 4.73004
  930 69.8618 14.7128 -2.31045
  931 41.9301 0.148925 1.07780
  932 53.9363 -1.21231 -1.09551
  933 55.6828 2.99880 -6.42643
  934 68.3087 1.88109 -1.98620
  935 52.4302 -3.23100 -1.67472
  936 25.5023 -0.159294 -1.42909
  937 25.5343 -0.153749 1.40698
  938 55.4514 -1.25808 -2.83363
  939 1.65480 2.16636 0.225147
  940 53.2026 -5.51105 -0.0376399
  941 44.9790 1.27729 -0.148535
  942 69.2725 15.3822 -1.53903
  943 10.5069 7.85896 -9.11221
  944 52.8647 -0.391162 -3.58169
  945 35.8009 -0.649765 -1.20306
  946 35.8054 -0.641625 1.19064
  947 0.257468 -1.58275 1.22828
  948 35.4239 -2.70499 -5.68103
  949 54.1569 -3.10702 -2.97244
  950 32.1945 0.0682067 -0.0965852
  951 32.1989 0.0686349 0.0957161
  952 54.2059 6.59522 -3.22436
  953 59.3164 -0.115881 -0.102808
  954 59.3135 -0.118876 0.132059
  955 35.4357 -2.69611 5.63710
  956 54.6305 -0.0592930 -1.43149
  957 63.4377 0.454562 4.70006
  958 56.1976 -0.731371 1.23032
  959 8.34927 2.26169 -4.85016
  960 58.4487 -0.302977 0.965399
  961 52.1662 0.402923 5.55302
  962 55.0394 7.66364 2.86993
  963 55.3213 0.646316 -6.59391
  964 37.4609 -2.08838 -3.34693
  965 60.1779 -2.09722 4.62510
  966 37.4834 -2.07877 3.30813
  967 1.55551 1.76518 0.0702594
  968 5.97386 1.13293 3.54359
  969 30.0541 -0.574468 2.34260
  970 30.0149 -0.575671 -2.35874
  971 53.9727 -1.23873 1.14590
  972 57.5348 10.0951 1.60925
  973 29.1097 2.75202 -14.4403
  974 48.1762 -3.04181 0.236064
  975 45.1969 -4.76690 -4.42438
  976 66.3626 12.7925 3.77899
  977 50.9063 -0.857104 0.170585
  978 50.9051 -0.851407 -0.170674
  979 56.0495 -0.983939 -2.07407
  980 51.0023 4.38139 -2.15926
  981 121.566 35.0891 23.7059
  982 9.99004 0.627816 -4.77207
  983 10.1726 0.523531 4.78534
  984 0.741058 -1.34202 0.0628515
  985 51.2169 2.81209 4.43149
  986 45.1740 -4.79412 4.38740
  987 56.3620 -2.63598 -5.31484
  988 61.3797 5.03688 6.49233
  989 59.4614 -4.79740 -5.15786
  990 87.1741 18.4194 5.71304
  991 49.9016 -0.770064 0.00981341
  992 49.8950 -0.762479 -0.00964932
  993 58.7577 -2.36046 5.13257
  994 3.91279 5.70165 6.46394
  995 25.2101 -0.565662 3.37486
  996 25.1226 -0.558553 -3.41645
  997 30.5220 -1.56067 4.58706
  998 30.4108 -1.53840 -4.60835
  999 34.5336 -1.49386 3.25817
  1000 37.7388 -0.335452 -0.160391
  1001 37.7419 -0.332727 0.159559
  1002 99.8240 30.4604 -18.9535
  1003 88.8732 22.2227 8.56348
  1004 34.5062 -1.50265 -3.29028
  1005 60.5530 -0.252999 5.63685
  1006 53.5067 5.55795 -3.86684
  1007 37.7863 -3.21684 10.1538
  1008 48.9756 -5.77944 -5.23379
  1009 56.0559 -0.434195 -2.12920
  1010 24.7182 1.80082 11.6870
  1011 31.7649 -2.43931 8.11833
  1012 48.7328 2.45981 -2.76182
  1013 56.6026 -1.09804 -6.29635
  1014 75.2468 27.9264 31.4460
  1015 45.7587 1.35890 1.95353
  1016 63.4405 13.8547 -0.258728
  1017 47.0872 1.77471 -17.4738
  1018 47.3602 -5.02836 -2.87451
  1019 61.2074 -0.0304755 -0.260137
  1020 57.7627 5.32550 -6.19666
  1021 32.6656 -0.241270 0.821732
  1022 32.6517 -0.243789 -0.831121
  1023 1.14512 0.0644158 -1.44777
  1024 37.4462 -1.78692 -2.77835
  1025 31.7294 -2.47156 -8.18683
  1026 37.4113 -1.78159 2.74249
  1027 55.2689 -1.66013 5.82057
  1028 49.4795 -3.07925 0.238010
  1029 51.6706 0.932424 -5.36715
  1030 53.1312 6.65332 1.12684
  1031 73.9867 4.09143 1.66401
  1032 54.8986 -4.15072 3.07266
  1033 33.9561 -2.77472 -6.21900
  1034 51.1642 1.78520 -5.00524
  1035 38.1463 -3.17031 -10.2166
  1036 74.1659 16.3172 -0.130487
  1037 49.5469 3.22200 2.51195
  1038 63.9951 -0.401717 -3.78228
  1039 47.6593 -5.02759 2.60343
  1040 54.7847 -1.70848 4.54564
  1041 54.5080 -2.85279 3.41634
  1042 54.2114 -2.70039 2.99571
  1043 67.2867 8.48806 -5.04338
  1044 53.9223 -0.854158 4.53544
  1045 48.8791 -5.79588 5.14306
  1046 52.1892 -2.10855 1.15463
  1047 33.9754 -2.77874 6.17784
  1048 48.8254 -3.63739 -0.319089
  1049 27.8078 -1.33121 -8.68935
  1050 40.2389 -4.20760 6.82497
  1051 55.0389 -0.350555 -2.44875
  1052 53.4165 -0.595828 -5.11817
  1053 46.1753 -3.71160 -1.66475
  1054 27.8567 -1.37371 8.61317
  1055 49.3822 0.102355 -3.50147
  1056 36.5054 -2.50246 -4.36625
  1057 67.5142 14.5266 2.45139
  1058 14.4071 2.51984 -8.08915
  1059 119.701 8.48195 11.7579
  1060 26.5464 2.09387 -12.2675
  1061 54.2277 -4.47966 -2.07625
  1062 36.5117 -2.47934 4.32516
  1063 48.7914 0.485561 3.89683
  1064 26.6107 -0.575203 2.79036
  1065 26.5938 -0.589769 -2.82195
  1066 54.7296 -1.50493 -5.38414
  1067 58.9249 -0.236465 0.423720
  1068 57.3740 -0.107839 1.09860
  1069 56.4174 1.89088 6.66409
  1070 52.5510 -0.395485 4.78768
  1071 41.1426 4.31119 18.9334
  1072 61.6503 -0.0228527 0.133822
  1073 56.6061 7.71735 4.23686
  1074 47.3281 0.651943 3.34368
  1075 58.2299 -0.198517 1.06385
  1076 36.1175 -0.431957 -0.660567
  1077 36.1214 -0.426830 0.655050
  1078 22.6364 -0.671761 -4.64586
  1079 22.7368 -0.695742 4.60861
  1080 47.4758 2.32448 1.39819
  1081 74.3707 3.60464 -4.47116
  1082 68.2980 -0.344183 -9.51578
  1083 53.1353 -0.0397760 -1.47280
  1084 40.2630 -4.24023 -6.88086
  1085 46.2707 -3.52905 1.45448
  1086 53.4767 -0.116158 1.53879
  1087 56.4306 -4.06394 -3.57292
  1088 33.8130 -0.0998332 0.403413
  1089 33.8072 -0.101459 -0.406558
  1090 54.1214 -4.60822 2.07607
  1091 51.3471 -1.00628 0.295009
  1092 51.3389 -1.00682 -0.290897
  1093 49.9024 -5.05337 1.46006
  1094 65.1776 -2.14762 0.0789433
  1095 27.7724 -0.0565828 -0.788981
  1096 27.8221 -0.0546062 0.779269
  1097 43.8668 -2.71501 -11.7041
  1098 46.2812 -1.10905 0.119382
  1099 46.2871 -1.11652 -0.121568
  1100 28.2349 14.7677 20.7745
  1101 65.0716 5.29583 -5.55444
  1102 9.02955 4.55102 -5.94469
  1103 56.2431 -0.775249 -1.19113
  1104 14.3793 5.10220 -9.26104
  1105 30.2300 -1.95835 -5.92702
  1106 61.7243 -0.0350301 0.0754031
  1107 61.7569 -0.0308568 -0.0571132
  1108 55.0534 -3.11670 -4.08902
  1109 48.7787 -5.44544 -7.34456
  1110 14.4102 2.14468 7.70866
  1111 59.8075 5.94776 6.10057
  1112 54.5781 -0.476931 -0.117607
  1113 54.5822 -0.477763 0.123400
  1114 60.0801 -3.93499 8.85115
  1115 61.0707 12.3737 2.38290
  1116 35.3440 -0.912447 -1.74051
  1117 35.3506 -0.907442 1.72530
  1118 27.2283 3.20242 14.5597
  1119 51.5542 0.246575 -5.20513
  1120 15.7722 5.21949 9.99538
  1121 67.8129 -1.28605 -2.36574
  1122 65.5694 14.7202 0.763658
  1123 44.7616 -3.61134 2.11714
  1124 40.1942 0.183293 -0.209746
  1125 57.6808 -0.462730 1.39737
  1126 59.9458 -0.0488475 0.549567
  1127 11.8465 0.0306001 -2.32040
  1128 12.0412 0.0238349 2.30274
  1129 45.6896 0.719938 -2.46823
  1130 47.8696 -1.40902 0.0103206
  1131 47.8568 -1.40079 -0.0109856
  1132 4.88168 6.58296 -6.84733
  1133 7.91717 15.5197 -14.2695
  1134 48.5319 -1.90223 -0.116853
  1135 48.5538 -1.90388 0.114875
  1136 50.2789 -1.18304 0.333427
  1137 50.2716 -1.17946 -0.328231
  1138 12.7680 8.22456 9.98005
  1139 38.8101 -0.519184 -0.303588
  1140 38.8124 -0.514973 0.301589
  1141 49.2484 3.68876 -0.0613588
  1142 65.3530 7.39087 -21.9381
  1143 60.8620 10.5757 -4.07709
  1144 55.6679 -2.11366 -5.54822
  1145 54.8681 -2.70816 -4.11121
  1146 44.7997 -3.64708 -2.15631
  1147 44.2758 0.127075 1.52382
  1148 50.4918 3.11832 -3.69990
  1149 49.7215 2.64146 3.52412
  1150 52.1533 -2.04426 -1.13626
  1151 49.6137 -3.01482 -0.272544
  1152 44.8248 -2.96454 -1.54471
  1153 53.6412 -0.305374 2.87174
  1154 97.4486 9.89263 1.39257
  1155 54.0670 -1.13838 5.23611
  1156 54.0531 3.55280 5.61780
  1157 50.1444 -4.96417 -0.976414
  1158 5.61187 1.04521 -3.41051
  1159 51.0884 -2.35273 -0.907012
  1160 32.4417 -0.0680094 -0.0161388
  1161 32.4452 -0.0677672 0.0158388
  1162 62.8423 -1.65746 3.31858
  1163 59.9139 -5.02592 1.48824
  1164 86.4887 15.6501 3.59606
  1165 19.0692 -0.0521216 -1.95422
  1166 19.2033 -0.0477308 1.93728
  1167 45.1970 -0.924854 -0.127104
  1168 45.1934 -0.917990 0.125520
  1169 51.2761 -4.54153 0.315880
  1170 40.5894 0.161703 0.684341
  1171 52.5547 -3.73930 1.64375
  1172 2.72984 3.24991 -1.33361
  1173 8.95268 4.60591 5.82266
  1174 34.7705 -1.82758 11.3271
  1175 60.5523 11.6601 -2.90486
  1176 58.4658 -0.145848 -0.838214
  1177 62.0102 -0.0815982 0.0579976
  1178 62.0839 -0.118594 -0.0406380
  1179 33.9806 -0.106555 -0.0610907
  1180 33.9848 -0.105778 0.0604307
  1181 55.7814 3.58150 6.41746
  1182 83.8961 14.5505 -0.305792
  1183 57.3615 9.56511 -2.88974
  1184 43.0864 -3.11239 11.6266
  1185 34.5842 -1.74800 -11.3079
  1186 38.1645 -2.64176 -3.88470
  1187 53.9843 -1.45791 1.42891
  1188 75.8521 16.5887 -0.247414
  1189 38.1631 -2.62407 3.84898
  1190 55.2945 -0.899196 1.08392
  1191 48.2937 1.75312 3.35478
  1192 53.8030 1.66056 6.13410
  1193 77.7891 17.4591 1.21493
  1194 45.2961 -1.20151 0.246253
  1195 45.3001 -1.20864 -0.249186
  1196 55.9610 -0.993809 2.15000
  1197 31.7479 -0.376582 1.30013
  1198 31.7254 -0.380631 -1.31435
  1199 54.7962 -0.675093 -0.524913
  1200 22.2009 13.0845 -19.9697
  1201 47.4009 -2.64029 -12.4385
  1202 43.9605 -1.41877 -0.542708
  1203 43.9633 -1.41099 0.542663
  1204 59.2173 -0.220633 0.371733
  1205 55.6736 -0.657403 0.872014
  1206 2.81635 3.35527 2.35457
  1207 61.0795 -0.0465043 0.300548
  1208 6.85268 8.40136 8.33035
  1209 54.2758 -0.742282 -0.665601
  1210 -0.0985802 -1.37054 -1.19326
  1211 37.8136 -3.68294 -8.73811
  1212 37.6952 -3.59116 8.64406
  1213 61.0812 -0.0878025 -0.328177
  1214 51.4304 -2.70751 -1.04979
  1215 59.1585 -0.195114 -0.390392
  1216 46.3916 -1.51981 -0.169135
  1217 46.3847 -1.51258 0.164792
  1218 54.7578 -0.669028 0.497098
  1219 51.0500 -2.30799 0.897452
  1220 48.9821 -1.56672 -0.223368
  1221 49.0018 -1.57273 0.230426
  1222 59.1238 -0.201449 -0.321781
  1223 50.6152 -5.28989 -8.32200
  1224 57.7132 -0.282271 -0.338718
  1225 54.5255 -0.766029 0.704285
  1226 36.7504 -0.449337 -0.477013
  1227 36.7539 -0.444679 0.473202
  1228 41.5420 -0.641363 -0.216889
  1229 41.5421 -0.636195 0.215261
  1230 69.0292 10.7023 4.37661
  1231 57.8987 -4.40817 2.84849
  1232 39.4038 -0.137503 14.4397
  1233 30.1735 -0.0666586 0.497705
  1234 30.1477 -0.0673025 -0.503728
  1235 54.4868 -0.984803 3.97214
  1236 52.3111 -0.732117 0.186663
  1237 52.3152 -0.728970 -0.186536
  1238 59.5079 11.7200 1.34414
  1239 55.1724 -5.74977 6.41483
  1240 30.4330 -0.470551 1.84805
  1241 30.4010 -0.474527 -1.86437
  1242 52.1958 -1.22860 0.634221
  1243 52.1849 -1.23640 -0.620450
  1244 53.9578 -1.43725 -1.38332
  1245 48.6449 0.00346414 1.81647
  1246 86.7535 21.5230 -6.56145
  1247 54.8650 -1.97240 -3.62435
  1248 8.77378 2.22852 5.00247
  1249 56.7493 -2.99029 5.01618
  1250 44.3039 0.919294 -1.34741
  1251 3.09421 2.47061 1.63387
  1252 75.8971 8.03906 0.442212
  1253 55.3265 -2.49054 -4.99483
  1254 44.5383 0.592378 2.06058
  1255 30.4552 -1.96039 5.91029
  1256 56.3663 -4.33263 3.24946
  1257 83.2285 15.0558 3.60134
  1258 18.2462 2.81746 9.87611
  1259 56.7577 -0.617036 -1.84436
  1260 112.786 1.23228 -1.16845
  1261 116.854 1.78206 5.25689
  1262 125.256 4.39249 -12.3949
  1263 54.7173 -1.67778 -4.41683
  1264 54.7983 -2.46959 3.86180
  1265 55.7528 -3.93871 3.73542
  1266 -1.65643 0.161920 1.07268
  1267 -1.51641 0.120748 -1.15679
  1268 54.3897 -5.98070 -2.67750
  1269 55.8561 -5.61310 -4.27756
  1270 40.9240 0.238624 -0.847963
  1271 54.1951 -6.09667 4.30790
  1272 57.7755 -2.70878 -5.10983
  1273 0.894694 1.61356 -0.0303681
  1274 46.4209 -0.842385 0.126690
  1275 46.4253 -0.849528 -0.127030
  1276 57.6767 -0.404404 1.27879
  1277 55.2984 -0.881180 -1.02519
  1278 51.8571 -5.66735 -1.20135
  1279 46.9935 -2.58430 0.473928
  1280 46.7416 -2.55032 -0.553591
  1281 55.6523 -1.13178 2.87030
  1282 56.9950 -2.06488 -5.74661
  1283 3.21761 2.57682 -1.55068
</Section>

newXOutput 9

<Section columns = "stress_xx | stress_yy | stress_xy">
  1 71.2914 0.0135137 0.153898
  2 71.3006 0.0140500 -0.154543
  3 36.3683 -0.0229894 -0.0558723
  4 -0.472218 -0.470377 -0.678157
  5 133.645 49.2058 41.0616
  6 132.327 51.1678 -41.4663
  7 -0.547415 -0.450165 0.717288
  8 36.3647 -0.0231529 0.0556726
  9 71.8529 -0.106094 0.0515281
  10 71.6692 -0.173537 -0.0248488
  11 71.4492 -0.103445 0.188530
  12 71.2341 -0.153774 0.0722759
  13 70.7768 -0.125090 0.298056
  14 70.3684 -0.129254 0.229504
  15 69.4491 -0.115648 0.421836
  16 68.1843 -0.0632535 0.616470
  17 67.0461 -0.0769855 0.675944
  18 65.3988 -0.124852 0.805781
  19 63.1645 0.00534601 1.17594
  20 61.0985 -0.0924360 1.10504
  21 58.8088 -0.130367 1.54000
  22 55.4934 0.0942652 1.32696
  23 53.1404 0.129013 1.55790
  24 50.0756 0.225559 1.20907
  25 47.9765 0.217140 1.21423
  26 44.9304 0.322506 0.615823
  27 44.2992 0.510978 0.657123
  28 43.9235 0.408219 -0.192878
  29 44.4492 0.218102 -0.429551
  30 45.4110 0.225028 -0.524866
  31 47.6896 0.293987 -1.05247
  32 49.9016 0.231609 -1.34130
  33 53.1887 0.0371277 -1.59741
  34 55.8260 -0.0394504 -1.47020
  35 58.6715 -0.105327 -1.45851
  36 61.2655 -0.0712721 -1.03815
  37 63.5277 -0.0699336 -0.897862
  38 65.4179 -0.120468 -0.762980
  39 67.1326 -0.0801946 -0.544933
  40 68.2301 -0.0890876 -0.584185
  41 69.2890 -0.120128 -0.429897
  42 70.3140 -0.146446 -0.203251
  43 70.8470 -0.114418 -0.228854
  44 71.1528 -0.0595883 -0.149067
  45 70.9983 -0.0161048 -0.135210
  46 71.7577 -0.178458 0.0125901
  47 71.8833 -0.111952 -0.0532580
  48 69.2569 -0.00297663 -0.0946587
  49 67.5282 -0.220506 -0.161315
  50 65.4440 -0.340451 -0.118674
  51 62.9202 -0.539455 -0.159066
  52 60.5509 -0.602227 -0.203501
  53 58.0381 -0.790312 -0.190941
  54 55.8285 -0.900401 -0.115070
  55 53.8921 -1.03645 -0.0545434
  56 51.6640 -0.867632 -0.0558915
  57 49.0979 -0.825687 -0.0739933
  58 46.6202 -0.665283 -0.0344341
  59 44.2678 -0.437969 -0.0189161
  60 42.0250 -0.321899 -0.00652679
  61 40.0466 -0.177793 0.0126648
  62 38.0080 -0.0573758 -0.0652288
  63 36.4012 0.0489071 0.0671327
  64 35.6956 0.156244 0.0399405
  65 36.2244 -0.00413597 0.103729
  66 35.7252 -0.0285767 0.122606
  67 35.2839 -0.0391975 0.153795
  68 34.6724 -0.0113993 0.206060
  69 33.8985 -0.00692445 0.263570
  70 33.3628 -0.0585344 0.524906
  71 31.6838 0.0474517 0.576562
  72 30.5254 -0.00774649 0.669591
  73 28.7987 -0.0365590 0.757059
  74 26.7977 -0.0586603 0.924798
  75 24.3009 -0.0165179 1.12284
  76 21.2544 0.0118102 1.23134
  77 18.6787 -0.0355178 1.75600
  78 13.4899 0.170468 1.64231
  79 10.0207 0.147965 1.73800
  80 5.92342 -0.0200017 1.90731
  81 2.57953 0.340155 1.95495
  82 -1.19859 0.493473 1.11805
  83 -3.87264 0.497526 0.329802
  84 -3.59335 0.463771 -0.283312
  85 -3.25730 0.378194 -1.00955
  86 -1.89687 -0.146881 -0.932954
  87 -0.249791 -1.82141 -1.02238
  88 0.150577 -3.39431 -1.31022
  89 0.461620 -5.52404 -0.814923
  90 1.05046 -5.95354 -0.145960
  91 2.25793 -2.48469 2.71922
  92 6.93237 8.73858 9.97473
  93 43.1646 36.3579 36.3000
  94 160.885 23.6310 27.4072
  95 143.996 3.41963 9.08133
  96 132.967 1.38513 2.77933
  97 128.876 1.15849 0.227288
  98 130.976 1.56550 -2.38480
  99 143.534 3.14656 -7.17503
  100 171.769 11.4313 -23.9743
  101 25.3234 36.6335 -30.0675
  102 5.20692 5.16555 -8.10930
  103 2.45290 -2.23645 -2.76194
  104 0.975735 -6.03512 -0.292012
  105 0.243570 -4.26945 0.951271
  106 0.331871 -4.26270 1.14799
  107 0.00504494 -1.58789 1.13029
  108 -1.97659 -0.106580 0.891131
  109 -3.36287 0.283607 0.887569
  110 -3.77893 0.566100 0.305660
  111 -4.00440 0.492580 -0.295904
  112 -1.47044 0.505915 -1.04024
  113 2.33365 0.343373 -1.85975
  114 5.67132 0.0150144 -1.87562
  115 9.76278 0.160187 -1.74289
  116 13.2555 0.175329 -1.65662
  117 18.4967 -0.0362241 -1.77295
  118 21.0980 0.0135035 -1.24500
  119 24.1649 -0.0158135 -1.13863
  120 26.7270 -0.0643574 -0.933307
  121 28.7069 -0.0352106 -0.759958
  122 30.4569 -0.00550739 -0.677685
  123 31.6288 0.0467522 -0.584152
  124 33.3248 -0.0590449 -0.531370
  125 33.8694 -0.00726019 -0.267596
  126 34.6519 -0.0117094 -0.209397
  127 35.2699 -0.0397028 -0.156464
  128 35.7161 -0.0290081 -0.124487
  129 36.2179 -0.00452583 -0.104949
  130 35.6911 0.155964 -0.0405241
  131 36.3972 0.0487850 -0.0674873
  132 38.0035 -0.0578286 0.0649943
  133 40.0418 -0.178923 -0.0131322
  134 42.0208 -0.324444 0.00597042
  135 44.2649 -0.441526 0.0183702
  136 46.6193 -0.670401 0.0339077
  137 49.0993 -0.832091 0.0735873
  138 51.6679 -0.874973 0.0555305
  139 53.8977 -1.04451 0.0544184
  140 55.8352 -0.908376 0.115349
  141 58.0469 -0.797570 0.191724
  142 60.5571 -0.607342 0.206365
  143 62.9232 -0.544008 0.172555
  144 65.4534 -0.317476 0.121428
  145 67.5762 -0.212952 0.157887
  146 69.2636 -0.0135597 0.0933635
  147 61.1266 -5.73527 -1.03630
  148 61.0813 -5.65927 1.05877
  149 63.6111 9.19002 -3.45636
  150 68.3433 4.05545 7.48634
  151 51.6908 -4.92346 -10.9598
  152 52.0933 -4.92296 10.5854
  153 49.6187 -2.16870 1.12960
  154 49.6260 -2.20102 -1.13175
  155 72.8576 2.58709 -6.05299
  156 60.9609 -2.14951 1.77194
  157 60.9369 -2.09437 -1.74888
  158 78.7974 17.8306 1.11788
  159 62.0823 -0.0966383 -7.16085
  160 45.4542 -3.66978 -4.84270
  161 45.4485 -3.63684 4.79350
  162 62.2846 -1.38937 6.53630
  163 58.6332 4.25345 4.18897
  164 23.8411 3.98695 -13.0605
  165 26.5644 3.76588 13.7829
  166 77.3711 0.757607 1.63127
  167 62.6145 -2.36763 -4.68525
  168 83.3701 18.3560 -1.16211
  169 56.1623 -1.56773 0.221480
  170 56.1490 -1.56119 -0.215495
  171 63.7051 -0.689982 -0.790352
  172 63.9331 -0.609650 0.688040
  173 43.1439 -0.674158 -0.724838
  174 43.1465 -0.666627 0.719714
  175 69.0243 -1.99862 13.8974
  176 56.6170 2.30951 -4.50294
  177 36.7079 -2.79759 -7.95615
  178 36.8199 -2.77634 7.89617
  179 41.0731 -1.42838 -2.54158
  180 41.0737 -1.41085 2.51854
  181 62.9537 -1.61325 3.97849
  182 57.0153 -3.94081 0.316640
  183 56.7980 -3.91123 -0.214785
  184 65.3815 -6.28567 -0.374063
  185 65.7008 -5.98719 -0.453206
  186 90.7510 21.3004 -2.27579
  187 64.9114 10.5097 3.24483
  188 65.2838 4.02417 -7.40259
  189 68.8814 -0.811700 -16.2951
  190 65.0873 -3.64256 -5.44913
  191 65.6282 -2.58535 6.30551
  192 54.4679 -6.20259 5.13108
  193 54.4962 -6.16148 -5.11165
  194 57.7331 0.711484 5.44235
  195 25.8266 -0.582871 -9.68143
  196 25.8970 -0.644023 9.61489
  197 103.055 15.5798 2.17063
  198 61.5506 -3.64468 3.13125
  199 63.9959 -1.12074 -2.64604
  200 49.9039 -1.25555 -0.474803
  201 49.9027 -1.24778 0.472433
  202 60.9518 -0.782113 -5.00993
  203 69.6631 10.2776 -6.05718
  204 57.5412 5.14590 -0.843300
  205 36.7729 -1.37960 3.64286
  206 36.7135 -1.38506 -3.67506
  207 65.1597 -0.653790 1.50582
  208 62.8011 1.18621 7.34584
  209 50.7633 -3.78018 -2.13022
  210 50.3811 -3.58117 2.20490
  211 74.5719 11.0668 5.80535
  212 88.8797 11.5774 0.693004
  213 5.48842 4.45537 -3.32670
  214 5.06082 4.11902 2.80623
  215 35.8938 10.1231 23.4741
  216 60.9139 -4.03461 -2.53058
  217 65.4359 -0.628944 -1.36326
  218 57.0109 0.472681 -5.00721
  219 39.1244 -0.436472 -1.11817
  220 39.1345 -0.431335 1.10606
  221 54.4690 -2.58534 -0.193522
  222 54.4933 -2.59909 0.161258
  223 61.5526 -0.816152 4.28822
  224 71.8677 -4.18255 0.756419
  225 70.3814 14.5679 -1.79207
  226 55.2078 -5.38181 -2.18096
  227 70.4923 -1.20623 5.17507
  228 59.7575 -0.941121 0.353885
  229 59.7603 -0.932056 -0.353266
  230 54.7664 -5.35510 2.29495
  231 63.0807 -3.97083 4.50047
  232 90.4019 10.9131 -4.33703
  233 19.1560 11.4391 -16.6527
  234 52.1708 1.77670 1.05986
  235 62.8878 5.56125 6.16279
  236 67.5906 -0.448142 -6.80643
  237 62.9362 -2.23999 -6.18086
  238 32.3359 -1.09909 -4.60737
  239 32.4573 -1.08155 4.58800
  240 63.0908 -0.727685 -3.36948
  241 60.1839 -1.47207 1.00298
  242 60.1558 -1.46852 -0.975921
  243 11.8366 1.19131 -6.01499
  244 12.0556 1.04584 5.99778
  245 67.6153 -5.88875 -4.49378
  246 67.0217 -0.164624 0.235647
  247 67.1083 -0.168502 -0.247551
  248 61.3016 5.07913 -5.61704
  249 53.3327 0.975243 3.24102
  250 116.573 18.7000 12.4451
  251 115.754 13.1896 -7.87993
  252 81.9558 17.9208 -0.334650
  253 51.0658 -2.41520 14.7192
  254 46.7259 -1.51565 -15.4293
  255 53.2700 -1.09044 -0.110505
  256 53.2637 -1.08203 0.108997
  257 43.5406 -1.23645 1.49549
  258 43.5441 -1.25462 -1.51204
  259 64.9540 -0.647346 2.14686
  260 62.8401 -4.44947 -3.81520
  261 39.2102 -0.0992556 -0.252077
  262 39.2157 -0.0977233 0.249976
  263 62.0399 -2.46957 -3.00127
  264 25.1497 -0.847669 -6.35959
  265 25.2724 -0.850707 6.30746
  266 62.7358 -2.68832 5.03999
  267 47.5477 -5.04904 8.79315
  268 47.6857 -5.14026 -8.76738
  269 53.0213 1.97489 -1.50825
  270 45.7346 -0.746188 -0.484534
  271 45.7361 -0.740392 0.481993
  272 58.2159 -0.160274 4.04639
  273 70.1044 12.9569 4.22728
  274 36.2845 -0.487827 1.94077
  275 36.2562 -0.492277 -1.96050
  276 64.6655 -5.36240 2.92954
  277 59.8631 -6.68241 -5.58297
  278 67.2086 -0.256597 0.721247
  279 45.4374 -2.78952 -3.26372
  280 45.3464 -2.75641 3.24800
  281 84.1567 7.75660 20.6955
  282 38.0597 -3.05306 10.5925
  283 61.8018 8.71764 -0.369081
  284 79.6198 8.62029 -4.30605
  285 59.4621 -4.60634 1.30973
  286 59.8829 -6.86965 4.97169
  287 38.1926 -2.99927 -10.7263
  288 6.83279 8.39784 7.41292
  289 62.0496 -2.48047 3.05344
  290 82.1260 10.5332 3.63803
  291 67.8140 -0.227833 -0.625074
  292 60.2609 2.09043 -6.46305
  293 59.9343 -3.37666 1.85831
  294 58.6345 -4.96613 -0.371200
  295 59.9999 2.74195 6.21266
  296 64.3360 -5.36872 -2.67770
  297 91.6636 18.0437 -1.31999
  298 59.9174 -3.24314 -1.78297
  299 50.3027 13.8788 -29.0566
  300 61.4302 -6.49728 -0.572483
  301 60.9766 -6.67243 1.28836
  302 44.0915 -4.05264 -6.92880
  303 38.8711 -0.176708 -0.556889
  304 38.8791 -0.173671 0.551207
  305 44.1034 -4.05413 6.88590
  306 64.7689 -0.0930034 -7.48748
  307 70.4691 -2.90331 -3.70636
  308 52.8944 -3.24413 -0.969004
  309 52.8510 -3.25105 0.990410
  310 64.2833 -5.52937 9.22669
  311 63.6483 -0.480137 2.55453
  312 78.3995 0.139611 2.50958
  313 51.6902 -1.86235 -0.497637
  314 51.6916 -1.85442 0.493104
  315 46.6918 -1.27297 -0.935411
  316 46.6892 -1.25983 0.933050
  317 52.7225 0.673272 -3.13771
  318 69.1893 5.07832 -7.29698
  319 108.837 29.0957 -13.2574
  320 63.3347 -0.474216 -0.276288
  321 63.2915 -0.467062 0.281925
  322 33.1485 0.0291576 13.2170
  323 46.5265 -2.19249 -2.09031
  324 46.4263 -2.18268 2.09477
  325 33.1455 -0.0429433 -13.1671
  326 65.6150 7.77707 -6.07451
  327 74.2311 3.63586 5.83247
  328 64.3317 -4.59377 -10.3164
  329 58.5308 -2.23801 0.944904
  330 58.4667 -2.21914 -0.916830
  331 62.7712 -1.23445 -1.52817
  332 58.2666 -0.120638 -3.78789
  333 66.0481 0.313665 7.38491
  334 66.3180 -0.414574 -1.49555
  335 38.6625 -2.43246 5.30662
  336 38.6209 -2.44757 -5.35406
  337 61.0818 -0.142023 6.77506
  338 36.4198 -0.334467 -1.13740
  339 36.4428 -0.331195 1.12483
  340 63.1998 -1.39456 2.27508
  341 75.6342 15.5671 -3.35354
  342 62.7285 -1.24622 1.57983
  343 66.3912 8.38783 6.11451
  344 63.6665 -1.16164 7.13813
  345 49.8181 -0.955569 0.154789
  346 49.8203 -0.962542 -0.156509
  347 59.9120 -0.222095 -6.00176
  348 80.1477 16.9422 2.46503
  349 65.9868 12.2131 0.128304
  350 40.5547 4.76094 -19.8344
  351 3.66901 1.81083 -2.45592
  352 4.08076 1.95507 2.66808
  353 -0.335987 0.390485 1.33933
  354 -0.0631883 0.173558 -1.38695
  355 120.020 8.31721 2.92533
  356 54.7544 -4.49921 -1.11990
  357 63.2629 -1.34339 -2.22231
  358 56.7283 -0.960533 0.161025
  359 56.7216 -0.951452 -0.161183
  360 60.2820 6.66375 -3.03657
  361 51.6204 -5.32049 4.20628
  362 4.25043 6.24368 -4.42836
  363 51.6826 -5.32200 -4.29536
  364 61.1244 6.96196 3.23177
  365 62.9609 -1.63863 -3.80397
  366 67.0054 -3.70325 -4.80132
  367 70.8592 15.1527 1.24220
  368 67.1989 -4.15473 4.10106
  369 26.4057 -0.698751 4.27204
  370 26.2296 -0.685580 -4.30490
  371 14.6388 0.404087 -5.83009
  372 14.8203 0.338760 5.80185
  373 53.6439 0.133997 3.18368
  374 105.796 30.3056 10.8109
  375 65.3051 -0.378293 -1.85439
  376 50.1651 -4.32179 -3.18190
  377 50.1128 -4.30733 3.17667
  378 62.4724 -1.41306 -4.72426
  379 71.8813 -3.46880 1.35905
  380 54.7517 -4.49362 1.16581
  381 79.4598 0.325371 -5.51050
  382 43.0593 -0.385872 -0.167249
  383 43.0630 -0.382238 0.165370
  384 61.2383 -0.344357 -2.97103
  385 31.7763 -0.497166 -2.79783
  386 31.7993 -0.512162 2.75999
  387 73.7218 9.40432 -6.37667
  388 39.5093 2.83135 18.3631
  389 57.3964 -3.02128 0.671422
  390 57.4548 -3.01465 -0.675200
  391 67.3094 11.4785 -3.91026
  392 63.9695 -1.87296 -6.81624
  393 64.5952 -6.57092 4.72998
  394 53.0750 -1.42032 -0.157683
  395 53.0668 -1.41181 0.154282
  396 61.8194 -4.75742 2.73169
  397 67.0311 -0.281109 1.12208
  398 40.4234 -1.55679 -3.21251
  399 40.4375 -1.55556 3.18033
  400 62.4164 2.09192 -7.23083
  401 59.1984 -1.23576 0.544387
  402 59.1972 -1.23794 -0.535063
  403 60.9534 -0.707418 5.56172
  404 56.2451 4.06063 1.43676
  405 63.4897 -2.65157 6.01729
  406 92.5993 19.5507 3.04457
  407 29.7647 -1.61480 -8.51076
  408 29.8529 -1.61603 8.43828
  409 13.1271 7.20884 -9.81813
  410 68.9094 -0.150501 0.336196
  411 33.1093 -0.315712 -1.76473
  412 33.1571 -0.309000 1.74708
  413 62.5384 -1.60371 4.64516
  414 56.6838 -6.17766 2.53164
  415 64.5066 -0.730902 1.08887
  416 65.1807 3.32754 7.59955
  417 13.8227 7.67554 10.2896
  418 56.7780 -6.14675 -2.28932
  419 58.7185 -5.47552 -0.0131257
  420 18.0613 -0.365508 -5.32299
  421 18.2197 -0.380929 5.28209
  422 44.8632 -3.52956 -12.7839
  423 67.6291 -0.978222 6.66583
  424 44.6645 -3.59077 12.6617
  425 62.3488 -3.47695 -4.05918
  426 57.1221 3.81478 -3.16916
  427 62.3668 -2.65999 3.82623
  428 67.7423 -0.251677 -0.782868
  429 1.86558 1.86473 0.608025
  430 13.1931 14.8652 14.6753
  431 59.5095 -0.222523 2.84140
  432 48.9532 0.625517 1.36286
  433 49.9062 0.774089 -1.85623
  434 42.5915 -0.761277 -1.05354
  435 42.5930 -0.750954 1.04472
  436 61.4862 -4.75618 -2.54210
  437 61.8874 -1.19656 -6.25520
  438 49.2551 0.870015 -0.504633
  439 92.6926 22.0067 3.71121
  440 12.0559 4.18440 -7.32257
  441 13.3558 3.84357 7.86608
  442 57.3442 -2.03128 0.559105
  443 57.3205 -2.02441 -0.542046
  444 76.5904 17.1762 -0.286142
  445 48.9605 18.8060 29.6898
  446 74.4473 -1.10998 -1.94826
  447 41.4763 -2.24535 -4.36244
  448 41.4931 -2.22832 4.31959
  449 41.5298 -0.992072 1.67994
  450 41.5249 -1.00019 -1.69846
  451 56.8171 1.22395 -5.14158
  452 69.3149 -0.0555072 -0.229459
  453 55.0402 2.47671 2.86755
  454 70.7671 8.76906 6.73370
  455 58.7982 -4.37483 -1.05410
  456 64.4911 -0.690486 -1.05534
  457 68.0485 -0.223183 0.721920
  458 69.1271 -0.0567337 0.131799
  459 69.1963 -0.0694890 -0.101158
  460 36.0255 -0.0808104 0.412692
  461 36.0093 -0.0819294 -0.418013
  462 64.5267 -4.06754 4.89563
  463 57.3926 2.23103 4.97593
  464 60.3346 0.236736 -6.58996
  465 63.5762 -1.29035 2.87492
  466 94.0436 14.4637 -16.9221
  467 63.6317 -3.50370 -5.35953
  468 0.318353 1.15736 0.304468
  469 0.325319 1.16447 0.00942871
  470 49.8074 -2.89292 1.70296
  471 49.6284 -2.85733 -1.68711
  472 80.4553 1.06526 8.78726
  473 22.0679 19.2766 -22.1674
  474 62.6175 -0.172637 2.24493
  475 71.9586 -4.23362 -4.72424
  476 36.9681 -2.19708 6.17189
  477 76.4455 13.5762 -4.80346
  478 62.7041 -3.36712 4.53739
  479 52.1575 -2.54167 -0.712949
  480 52.2041 -2.49743 0.709213
  481 53.6284 0.269187 -2.81559
  482 36.8479 -2.18996 -6.21714
  483 55.1416 0.00224191 2.84274
  484 53.6111 -6.11732 -7.74335
  485 53.4698 -6.12668 7.76255
  486 64.8746 -0.399481 2.04062
  487 58.0414 5.45370 0.594599
  488 60.3786 0.863046 20.0914
  489 88.3253 18.2205 -0.115676
  490 60.7564 -0.961878 0.566504
  491 60.7623 -0.957883 -0.580574
  492 45.7187 -0.858660 -0.633653
  493 45.7194 -0.850728 0.630285
  494 23.9158 1.19927 11.0057
  495 62.9541 -3.00548 -5.20994
  496 56.9202 -1.20805 0.198673
  497 56.9144 -1.20266 -0.196869
  498 49.3525 -5.26698 6.34365
  499 24.4019 1.57079 -11.2960
  500 63.1534 -5.12391 -2.88983
  501 0.967464 -0.0205949 0.711033
  502 54.1177 2.74399 0.204169
  503 61.0180 -0.635226 -0.193204
  504 61.0142 -0.645690 0.190221
  505 49.3949 -5.26020 -6.39722
  506 72.0512 -3.78702 6.27943
  507 70.8513 2.58332 6.94362
  508 65.6683 -0.373470 -0.543992
  509 62.9587 -5.19869 2.91969
  510 37.8253 -0.0531776 -0.0671281
  511 37.8301 -0.0527780 0.0663156
  512 62.7170 -2.38494 -5.49072
  513 60.2461 4.45444 5.47627
  514 69.9520 1.73420 -6.84715
  515 37.6017 -0.0766268 -0.230287
  516 37.6083 -0.0756568 0.228272
  517 125.159 18.0627 -16.2905
  518 62.8134 7.51318 4.85299
  519 65.7336 -0.335479 0.487343
  520 58.8567 -5.59406 0.152733
  521 48.8309 -1.66728 0.903855
  522 48.8332 -1.68142 -0.902114
  523 68.9782 -4.16921 2.63060
  524 65.9553 -1.28816 -6.94678
  525 73.6068 14.6342 3.89429
  526 60.8799 1.04003 6.82407
  527 61.9625 -1.12839 1.02188
  528 60.3045 -6.39629 -7.34232
  529 62.1514 -1.51508 5.35245
  530 124.000 5.65193 -2.29638
  531 68.5061 -5.13985 -0.868766
  532 65.2585 -0.355587 -0.144374
  533 65.2722 -0.383961 0.132513
  534 125.266 8.42062 8.09918
  535 59.2502 -0.0308684 5.80383
  536 84.5422 13.9260 -2.53887
  537 63.0041 -1.66544 -2.82741
  538 26.9886 -0.275881 -1.91792
  539 27.0840 -0.262812 1.89627
  540 42.0067 -3.95557 -8.86338
  541 42.0328 -3.88853 8.79185
  542 61.9307 -1.07718 -1.00982
  543 67.2277 2.48268 -7.52091
  544 58.9815 -4.01884 1.27708
  545 63.1106 7.25844 -5.05032
  546 64.1230 -0.702641 2.74890
  547 81.2764 3.81291 0.113186
  548 54.4206 -1.87568 -0.0463206
  549 54.4009 -1.86713 0.0431422
  550 59.4261 -2.78988 1.44532
  551 88.7400 17.2314 -0.150647
  552 62.3231 2.72996 7.09495
  553 26.3607 6.83207 16.3638
  554 60.9960 -3.67512 13.2166
  555 81.6557 3.40162 -14.4145
  556 63.7450 5.28052 -6.62929
  557 57.0455 -4.89159 -11.4184
  558 61.7091 -6.74087 -1.75416
  559 64.6356 -6.50724 -2.81422
  560 8.12310 10.2298 -9.71658
  561 64.9290 -0.758904 -1.76934
  562 98.3876 19.2343 -5.21888
  563 59.7625 -2.66800 -1.56263
  564 60.3116 -1.92361 1.28579
  565 60.2540 -1.87649 -1.24232
  566 40.2813 -0.267956 -0.498697
  567 40.2869 -0.264434 0.494358
  568 5.14783 0.628315 -3.12757
  569 5.49350 0.656676 3.20469
  570 29.9181 -1.43772 -6.51179
  571 30.1636 -1.44480 6.49608
  572 61.1231 -3.28778 -2.69707
  573 62.4688 -6.76741 1.93594
  574 64.2299 -6.06555 1.07478
  575 51.9668 -0.921323 -0.147536
  576 51.9625 -0.913565 0.146504
  577 49.5840 -5.17573 -9.78709
  578 55.8955 -4.54759 12.1171
  579 48.3196 -4.86173 9.85218
  580 62.7254 -1.37613 -6.74093
  581 38.1537 -0.690027 1.92926
  582 38.1361 -0.697657 -1.94846
  583 59.3701 3.25677 -5.49052
  584 59.5644 -0.102995 -2.57981
  585 74.8794 16.4664 -1.80654
  586 48.2138 -0.759473 -0.163299
  587 48.2133 -0.753630 0.162258
  588 64.0046 -0.176834 -1.48690
  589 43.2273 -1.54090 -2.08542
  590 43.2242 -1.53432 2.06393
  591 35.6961 1.74294 15.7496
  592 62.3004 -2.83513 -3.87393
  593 34.1210 -1.75913 11.2818
  594 61.2169 -3.14803 2.74104
  595 64.7131 -0.853702 1.94191
  596 64.0012 -0.508125 -0.492062
  597 43.6319 -0.586198 -0.446876
  598 43.6349 -0.580932 0.443668
  599 71.7575 14.4757 -3.46505
  600 34.0998 -1.68512 -11.3310
  601 61.0209 -2.60843 -2.23298
  602 54.6929 -0.998698 -0.0463655
  603 54.6865 -0.990077 0.0460799
  604 105.096 14.2503 -2.45169
  605 35.0554 -0.252169 1.07562
  606 35.0243 -0.254745 -1.08747
  607 56.0629 1.25004 4.67971
  608 82.3163 6.59614 -2.07206
  609 38.1191 0.358074 -15.6516
  610 18.8571 0.554376 -8.40624
  611 19.0286 0.436033 8.36048
  612 47.5870 -2.86516 2.52755
  613 48.1232 -2.94945 -2.43932
  614 82.7077 16.6136 2.39323
  615 63.7130 -0.529536 0.453468
  616 53.3713 1.44838 -2.81396
  617 67.4580 12.2375 3.08937
  618 67.1822 12.7044 -2.05351
  619 55.2367 -3.09257 -0.115330
  620 55.6824 -3.01792 -0.0883741
  621 39.8285 8.57673 -22.6661
  622 46.9245 -1.67592 -1.36800
  623 46.9256 -1.65532 1.36136
  624 124.178 25.3591 19.0157
  625 62.7090 -2.03001 5.88745
  626 34.7139 -1.29838 -4.17298
  627 100.014 21.6727 13.6588
  628 34.7989 -1.29013 4.15346
  629 60.5501 -2.34791 -15.5438
  630 41.0724 -0.238802 -0.184634
  631 41.0771 -0.236670 0.183403
  632 51.2411 0.428410 2.45095
  633 22.5647 -0.359837 -3.75943
  634 22.7088 -0.360633 3.72609
  635 54.4992 -3.90792 0.791025
  636 57.3275 -4.62213 0.137172
  637 68.4114 -0.118929 -0.645739
  638 36.6393 -0.0742347 0.297463
  639 36.6280 -0.0754661 -0.301414
  640 51.1315 -1.17160 -0.185420
  641 51.1278 -1.16377 0.182967
  642 59.5137 -6.56936 7.44140
  643 68.0559 7.62681 -6.79776
  644 44.4977 -2.16588 -2.69807
  645 44.4593 -2.12808 2.67539
  646 53.4353 -3.90868 -1.27559
  647 85.1278 18.6951 0.00529715
  648 63.8295 -6.14790 -0.706702
  649 54.9192 -1.30269 0.0235885
  650 54.9098 -1.29478 -0.0230771
  651 76.4388 8.29812 5.60963
  652 63.8458 -0.875412 -2.98988
  653 55.4944 -0.0858695 -2.31971
  654 25.1242 -0.852157 -8.15500
  655 25.2108 -0.879187 8.08118
  656 53.3307 -4.66655 -2.24612
  657 80.5590 18.0251 0.0840584
  658 61.8376 8.40627 -2.18574
  659 40.1134 -0.409324 -0.937615
  660 40.1201 -0.403426 0.928254
  661 58.1043 -1.61067 -0.517158
  662 58.1158 -1.61396 0.531364
  663 110.706 14.5335 6.34678
  664 69.7375 -0.151066 0.187899
  665 66.9009 -0.230724 1.08780
  666 66.5912 -0.240984 -1.25678
  667 62.9878 -5.84081 1.61368
  668 45.2682 -0.565974 -0.223684
  669 45.2703 -0.561400 0.222330
  670 66.8370 10.8005 4.73049
  671 86.6776 19.3871 -0.537764
  672 46.4869 -3.55313 -3.82830
  673 46.4664 -3.51562 3.80507
  674 58.9471 -6.08821 -0.710841
  675 61.7946 3.67039 -6.66562
  676 74.4939 0.156819 3.55371
  677 48.2542 -0.934192 -0.411318
  678 48.2536 -0.927183 0.408874
  679 41.7536 -3.70759 -8.00541
  680 62.3717 -6.01480 -1.01624
  681 51.5034 -5.72284 6.98132
  682 24.2730 7.76959 -15.7645
  683 47.8073 -4.49800 5.37657
  684 57.5803 0.0137652 2.15809
  685 41.7876 -3.66400 7.94544
  686 60.9826 -2.66244 2.26034
  687 47.8323 -4.48099 -5.43260
  688 48.0497 0.586881 0.511291
  689 37.0756 -1.06581 2.94301
  690 37.0417 -1.06786 -2.96766
  691 51.5465 -5.87225 -7.06334
  692 64.0753 -4.19104 -4.74078
  693 58.6377 -0.764291 -0.127906
  694 58.6466 -0.773718 0.128425
  695 65.5653 -4.13746 4.74738
  696 59.4302 -6.21638 0.935727
  697 72.4406 6.64403 6.79800
  698 65.1486 -1.18989 7.10449
  699 62.6838 -2.21295 4.42062
  700 59.2496 4.85435 -4.16383
  701 72.0066 12.1880 5.35008
  702 62.0206 -0.841120 -4.18054
  703 62.0577 -2.01115 2.41492
  704 63.5663 10.0196 1.18456
  705 63.0314 -1.03678 3.69284
  706 19.4664 13.1533 16.4659
  707 58.7557 -6.74514 -4.07274
  708 68.0492 1.26294 7.27579
  709 68.8929 -2.10824 -5.42284
  710 69.3042 -0.0555167 0.372062
  711 62.6994 -2.11058 -3.54141
  712 58.8265 -6.79949 3.65299
  713 116.656 10.3202 -1.73977
  714 33.5477 -0.163863 1.12824
  715 33.5048 -0.165773 -1.14073
  716 63.7938 -1.09569 -1.72677
  717 69.7560 -0.0391504 -0.358516
  718 53.2196 -4.74043 2.25940
  719 64.3229 -2.36168 6.49848
  720 99.6372 22.9950 -5.90348
  721 60.9632 -4.41020 2.40460
  722 67.9320 -4.43954 -3.13482
  723 62.0853 -1.95387 -2.37792
  724 69.8121 -0.0813386 -0.131156
  725 62.5452 0.00728436 7.25883
  726 2.74103 1.97199 3.20585
  727 71.7900 -2.88611 -9.73353
  728 77.7806 4.48705 3.90612
  729 64.5375 -6.56386 2.43130
  730 44.8185 -1.13934 1.12938
  731 44.8217 -1.15626 -1.13662
  732 61.8411 28.9855 -31.1879
  733 65.6047 -4.30430 -4.43615
  734 47.8443 0.204077 -0.976778
  735 56.7373 0.292133 4.58818
  736 63.1126 -3.12746 5.30368
  737 60.4989 -5.09795 1.47574
  738 63.3414 -5.73604 -7.99031
  739 60.0992 -4.75571 -1.56603
  740 71.6133 -3.43101 -1.59870
  741 65.8815 -0.471773 1.02492
  742 58.2682 -3.50887 0.965039
  743 107.887 21.6114 -11.2621
  744 62.4078 -1.61385 1.94324
  745 61.2360 0.993533 -7.01596
  746 52.8199 -0.626151 17.5580
  747 65.8216 5.32666 7.23958
  748 56.5884 -4.48948 0.175493
  749 43.1251 -3.47957 -5.81328
  750 43.1234 -3.46813 5.75946
  751 59.6962 6.71185 -0.975032
  752 61.0939 -0.696736 6.31321
  753 61.8923 -1.45572 -5.45143
  754 58.3375 -3.57811 -0.987737
  755 56.3351 -5.08859 1.02117
  756 64.0801 10.6546 -1.35302
  757 60.4206 -5.22816 -1.23579
  758 60.5556 -3.82081 2.31376
  759 61.5483 -0.717069 0.392756
  760 61.5918 -0.694826 -0.391234
  761 82.8350 18.3959 0.838803
  762 68.0221 -5.75564 -1.31668
  763 62.8961 -1.88251 3.51568
  764 65.9304 -0.467937 -0.941614
  765 66.1213 0.460322 -7.45295
  766 75.8454 3.89933 -4.88903
  767 35.3573 -0.0489706 -0.518016
  768 35.3796 -0.0483826 0.511743
  769 0.462610 -1.30929 -0.945621
  770 64.1682 -0.0570145 1.38075
  771 58.1961 -0.117942 -5.10252
  772 60.3660 -0.562084 4.55126
  773 56.1427 6.53777 26.0567
  774 68.7908 14.3153 -0.165398
  775 48.5706 -3.56589 2.90444
  776 7.65402 0.206780 -3.13660
  777 7.92145 0.155197 3.17181
  778 59.7631 -0.429198 -5.11091
  779 48.7189 -3.60391 -2.90161
  780 65.5291 -0.517358 0.800116
  781 32.1503 -1.42851 5.56452
  782 31.8570 -1.42432 -5.57237
  783 62.4092 -1.56424 -1.89482
  784 38.5819 -1.04424 -2.55037
  785 38.6003 -1.03660 2.52378
  786 65.1071 -0.562510 -2.09479
  787 48.7968 -1.35204 -0.717814
  788 48.7960 -1.34198 0.717733
  789 71.1999 -0.452811 -5.48106
  790 63.5908 -0.650487 -7.33115
  791 30.9326 -0.218481 -1.45165
  792 30.9989 -0.216481 1.43267
  793 1.03666 0.802407 -1.81823
  794 1.33977 0.844728 1.91878
  795 50.3557 0.226864 -1.78356
  796 58.1969 -6.54326 -2.91236
  797 -0.696070 -0.490916 1.17552
  798 -0.601120 -0.561648 -1.15525
  799 60.6535 -1.15580 0.818406
  800 65.9396 -5.11019 -2.82159
  801 67.5924 10.0784 -5.54173
  802 65.8446 -0.460026 -0.757943
  803 145.298 28.6464 -27.2848
  804 60.6419 -1.15084 -0.808570
  805 91.9057 17.7359 1.21367
  806 64.6699 1.89422 -7.62131
  807 71.8250 5.40767 -6.92574
  808 10.9026 -0.130913 -2.92836
  809 11.1429 -0.149178 2.92206
  810 39.1535 -0.614678 1.48886
  811 39.1416 -0.620236 -1.50485
  812 37.0060 -0.106284 0.274032
  813 36.9979 -0.107341 -0.276793
  814 72.3954 12.2478 -5.32934
  815 41.5523 -0.296272 -0.393190
  816 41.5569 -0.292709 0.390287
  817 61.2911 -0.614902 -6.58133
  818 90.7440 8.50336 6.52163
  819 54.4892 1.17151 -3.92695
  820 17.9296 -0.170817 3.17205
  821 17.7520 -0.172292 -3.20006
  822 72.9445 1.61369 18.4586
  823 63.7146 -1.10533 1.78228
  824 55.8786 3.66768 -1.63831
  825 24.8301 -0.0517017 2.18304
  826 24.6846 -0.0395102 -2.20146
  827 37.9813 -0.224398 -0.720978
  828 37.9929 -0.221160 0.712777
  829 6.67104 6.01200 4.91376
  830 58.5724 1.37151 5.88259
  831 65.5007 9.68421 -4.70432
  832 70.9133 8.24277 -6.80100
  833 45.7139 -1.80567 -1.84290
  834 45.6822 -1.79023 1.83822
  835 73.2486 15.7789 2.46897
  836 63.7346 -0.447909 -0.110690
  837 63.7355 -0.444283 0.122179
  838 62.6744 -1.84091 -4.42899
  839 52.0783 -3.53487 1.52976
  840 57.8144 -6.50404 2.94227
  841 68.5797 -5.61897 4.66597
  842 51.5161 -1.52310 -0.334812
  843 51.5135 -1.51591 0.331016
  844 58.8458 5.43908 2.66477
  845 55.0512 0.715980 -4.25184
  846 15.3291 16.9786 17.1268
  847 56.5225 -5.04883 -0.877983
  848 56.6752 -2.53698 0.447461
  849 56.7065 -2.53987 -0.449801
  850 62.3655 -0.902782 6.95371
  851 62.0743 -4.05698 -3.49649
  852 55.1341 -3.69377 -0.361001
  853 130.691 4.24121 -6.62992
  854 52.3313 -5.01517 3.24815
  855 52.2949 -5.08330 -3.30779
  856 62.3692 -0.726165 3.56516
  857 95.2140 24.3418 -4.47725
  858 48.9335 -4.52724 -4.20871
  859 54.4127 -6.16298 3.86415
  860 48.9122 -4.47007 4.16661
  861 53.1693 -2.17143 -0.343198
  862 53.1652 -2.16229 0.338900
  863 7.41638 3.31353 4.29755
  864 67.0908 5.02984 -7.38207
  865 50.8651 -2.03237 -0.722068
  866 50.8727 -2.01011 0.725262
  867 50.1387 -0.846894 -0.0839457
  868 50.1362 -0.840093 0.0831138
  869 55.5894 -1.07868 0.0969347
  870 55.5821 -1.07028 -0.0970549
  871 44.4031 -0.927893 -0.985547
  872 44.4039 -0.916728 0.980070
  873 51.1003 -2.75422 -1.15944
  874 51.1048 -2.73277 1.16414
  875 1.13402 -0.847680 -0.311519
  876 78.1032 14.6607 4.29224
  877 67.1326 -2.32147 -6.12293
  878 54.3780 -6.07521 -3.91294
  879 58.8756 -1.86482 0.843338
  880 58.8480 -1.84328 -0.824712
  881 64.1385 0.100232 7.48287
  882 70.5057 -5.03277 -2.20101
  883 62.6739 4.09742 -22.5013
  884 27.4009 -0.379719 10.9347
  885 -1.39899 0.641016 -0.619597
  886 -1.24949 0.721280 0.703832
  887 7.35138 3.52517 -4.38113
  888 62.9204 -1.75722 2.81852
  889 66.5663 -0.377498 -1.20333
  890 59.6971 -5.70493 9.31701
  891 27.3328 -0.345348 -10.9832
  892 66.5418 -5.40349 2.19026
  893 74.7678 -2.37614 7.80661
  894 52.3826 0.201112 1.89501
  895 60.8087 5.78621 4.56344
  896 32.3143 -1.84913 8.10243
  897 32.1834 -1.86443 -8.16307
  898 38.8450 -1.93031 -4.51916
  899 41.5112 -1.96115 -14.0247
  900 66.3484 -1.51794 6.76141
  901 92.1274 21.2794 2.18414
  902 66.4705 2.58098 7.52777
  903 62.8519 -1.30600 -4.01989
  904 42.4229 -1.75771 14.3792
  905 80.6049 14.7831 -3.45233
  906 7.52970 6.52285 -6.11307
  907 57.4098 -0.126524 -2.05860
  908 38.8854 -1.91331 4.47321
  909 47.8532 -1.09707 0.643217
  910 47.8541 -1.10570 -0.645398
  911 62.1701 -4.03588 3.59656
  912 64.9885 -0.331810 0.324415
  913 47.4634 0.480308 -17.5227
  914 68.7197 -0.122890 0.572953
  915 68.0957 -0.0974904 -0.716546
  916 49.0933 0.402691 -1.63303
  917 65.4553 -0.253969 -1.23156
  918 48.0944 -2.32679 -1.64414
  919 48.1265 -2.28968 1.64818
  920 -1.71722 0.556688 -1.00638
  921 -2.30693 0.335251 1.04021
  922 64.9913 -0.303234 -0.324524
  923 20.4084 -0.443569 7.36165
  924 20.2698 -0.395281 -7.40823
  925 68.7825 10.0985 5.88219
  926 127.505 2.28919 2.07797
  927 64.5562 7.21451 6.05773
  928 74.2904 -2.69496 1.58680
  929 63.9245 -3.52663 5.38065
  930 79.7643 16.7955 -2.61765
  931 47.9202 0.171123 1.22872
  932 61.5827 -1.38597 -1.24225
  933 63.5885 3.42423 -7.32040
  934 77.9734 2.15124 -2.23923
  935 59.8678 -3.68959 -1.89773
  936 29.1607 -0.181624 -1.63264
  937 29.1972 -0.175299 1.60744
  938 63.3134 -1.43783 -3.22288
  939 1.89549 2.47912 0.265152
  940 60.7468 -6.29265 -0.0597310
  941 51.3934 1.46106 -0.169294
  942 79.0952 17.5580 -1.74353
  943 12.0110 8.98249 -10.4235
  944 60.3736 -0.446803 -4.07931
  945 40.9130 -0.740995 -1.37636
  946 40.9182 -0.731727 1.36223
  947 0.295915 -1.80514 1.40016
  948 40.4710 -3.08835 -6.49261
  949 61.8376 -3.54841 -3.37733
  950 36.8083 0.0780062 -0.110615
  951 36.8134 0.0784922 0.109628
  952 61.9094 7.53181 -3.67346
  953 67.7066 -0.134193 -0.116778
  954 67.7035 -0.137593 0.150082
  955 40.4846 -3.07826 6.44258
  956 62.3845 -0.0681960 -1.62985
  957 72.4225 0.518759 5.34047
  958 64.1593 -0.836930 1.39697
  959 9.55194 2.58273 -5.54941
  960 66.7236 -0.347475 1.09682
  961 59.5796 0.460654 6.32683
  962 62.8604 8.75122 3.26964
  963 63.1740 0.737755 -7.51052
  964 42.7992 -2.38359 -3.82684
  965 68.7046 -2.39564 5.25732
  966 42.8250 -2.37267 3.78265
  967 1.78253 2.02031 0.0726801
  968 6.83959 1.29352 4.05481
  969 34.3536 -0.655349 2.67701
  970 34.3088 -0.656701 -2.69536
  971 61.6242 -1.41607 1.29961
  972 65.7077 11.5262 1.83273
  973 33.2505 3.14074 -16.5015
  974 55.0175 -3.47279 0.280049
  975 51.6160 -5.44266 -5.06251
  976 75.7724 14.6037 4.29457
  977 58.1290 -0.980104 0.191544
  978 58.1276 -0.973623 -0.191653
  979 63.9931 -1.12502 -2.35777
  980 58.2573 5.00519 -2.46067
  981 138.653 40.0518 27.0590
  982 11.4313 0.716208 -5.45689
  983 11.6394 0.597185 5.47198
  984 0.848013 -1.52218 0.0782566
  985 58.5005 3.21270 5.05012
  986 51.5902 -5.47379 5.02033
  987 64.3551 -3.01072 -6.04791
  988 70.0826 5.75008 7.38955
  989 67.8772 -5.47660 -5.90823
  990 99.5028 21.0217 6.53328
  991 56.9841 -0.880625 0.0101061
  992 56.9766 -0.871991 -0.00992267
  993 67.0859 -2.69627 5.83772
  994 4.47231 6.54255 7.39797
  995 28.8222 -0.645620 3.85592
  996 28.7223 -0.637502 -3.90327
  997 34.8815 -1.78157 5.24179
  998 34.7547 -1.75610 -5.26599
  999 39.4613 -1.70493 3.72449
  1000 43.1244 -0.382272 -0.183521
  1001 43.1281 -0.379173 0.182575
  1002 113.880 34.7921 -21.6664
  1003 101.439 25.3659 9.79396
  1004 39.4299 -1.71493 -3.76105
  1005 69.1346 -0.289899 6.41206
  1006 61.1116 6.34755 -4.40573
  1007 43.1574 -3.67508 11.6039
  1008 55.9229 -6.59943 -5.98911
  1009 64.0049 -0.496564 -2.42321
  1010 28.2415 2.05423 13.3574
  1011 36.2911 -2.78649 9.27762
  1012 55.6702 2.81109 -3.14780
  1013 64.6317 -1.25466 -7.16838
  1014 85.8165 31.9373 35.9078
  1015 52.2817 1.55385 2.22696
  1016 72.4455 15.8153 -0.294245
  1017 53.7556 2.02823 -19.9633
  1018 54.0842 -5.74092 -3.29391
  1019 69.8607 -0.0359015 -0.295302
  1020 65.9611 6.08048 -7.05722
  1021 37.3398 -0.274869 0.939737
  1022 37.3238 -0.277737 -0.950419
  1023 1.31060 0.0920061 -1.66394
  1024 42.7838 -2.03933 -3.17716
  1025 36.2505 -2.82330 -9.35566
  1026 42.7442 -2.03329 3.13634
  1027 63.1108 -1.89645 6.62675
  1028 56.5034 -3.51577 0.260363
  1029 59.0156 1.06543 -6.11545
  1030 60.6849 7.59856 1.28395
  1031 84.4412 4.68111 1.93161
  1032 62.6831 -4.73994 3.48958
  1033 38.7951 -3.16833 -7.10730
  1034 58.4394 2.03973 -5.70367
  1035 43.5674 -3.62203 -11.6753
  1036 84.6769 18.6224 -0.154454
  1037 56.5981 3.68140 2.86304
  1038 73.0563 -0.458075 -4.29260
  1039 54.4256 -5.74013 2.98480
  1040 62.5571 -1.95175 5.17377
  1041 62.2385 -3.25816 3.88392
  1042 61.8997 -3.08418 3.40466
  1043 76.8182 9.69184 -5.73067
  1044 61.5769 -0.975901 5.16460
  1045 55.8132 -6.61819 5.88548
  1046 59.5923 -2.40846 1.30744
  1047 38.8173 -3.17296 7.06048
  1048 55.7572 -4.15262 -0.376166
  1049 31.7740 -1.52170 -9.92990
  1050 45.9599 -4.80488 7.80179
  1051 62.8480 -0.400989 -2.78763
  1052 61.0017 -0.680687 -5.82934
  1053 52.7352 -4.23714 -1.91100
  1054 31.8300 -1.57015 9.84311
  1055 56.4089 0.117446 -3.98988
  1056 41.7071 -2.85663 -4.99119
  1057 77.0891 16.5816 2.78391
  1058 16.4708 2.87652 -9.24933
  1059 136.534 9.67397 13.4040
  1060 30.3277 2.38851 -14.0198
  1061 61.9174 -5.11531 -2.35275
  1062 41.7145 -2.83029 4.94440
  1063 55.7360 0.555593 4.44100
  1064 30.4223 -0.656506 3.18824
  1065 30.4031 -0.673121 -3.22423
  1066 62.4959 -1.71909 -6.13017
  1067 67.2628 -0.271809 0.480541
  1068 65.5059 -0.123765 1.25002
  1069 64.4243 2.15848 7.59003
  1070 60.0166 -0.451701 5.45357
  1071 46.9750 4.92447 21.6298
  1072 70.3645 -0.0268426 0.151684
  1073 64.6460 8.81183 4.82600
  1074 54.0695 0.745815 3.81105
  1075 66.4787 -0.227350 1.21021
  1076 41.2756 -0.492317 -0.756160
  1077 41.2802 -0.486480 0.749887
  1078 25.8802 -0.767125 -5.30848
  1079 25.9947 -0.794515 5.26610
  1080 54.2382 2.65685 1.59380
  1081 84.8751 4.12531 -5.13369
  1082 77.9459 -0.384811 -10.8857
  1083 60.6829 -0.0456485 -1.67726
  1084 45.9871 -4.84210 -7.86554
  1085 52.8442 -4.02878 1.67093
  1086 61.0717 -0.132845 1.75236
  1087 64.4306 -4.64106 -4.05911
  1088 38.6510 -0.113439 0.461463
  1089 38.6443 -0.115289 -0.465039
  1090 61.7961 -5.26210 2.35251
  1091 58.6314 -1.15048 0.332229
  1092 58.6220 -1.15110 -0.327557
  1093 56.9837 -5.76964 1.68080
  1094 74.3990 -2.45041 0.0651127
  1095 31.7548 -0.0644773 -0.901574
  1096 31.8116 -0.0622252 0.890520
  1097 50.0900 -3.10195 -13.3752
  1098 52.8586 -1.26662 0.140319
  1099 52.8652 -1.27511 -0.142815
  1100 32.2408 16.8749 23.7343
  1101 74.2901 6.04696 -6.31526
  1102 10.3259 5.19950 -6.80284
  1103 64.2108 -0.887021 -1.35241
  1104 16.4366 5.82678 -10.5898
  1105 34.5449 -2.23618 -6.77291
  1106 70.4471 -0.0409907 0.0856756
  1107 70.4840 -0.0362274 -0.0648502
  1108 62.8613 -3.55956 -4.65030
  1109 55.6959 -6.21849 -8.39916
  1110 16.4745 2.44826 8.81425
  1111 68.2924 6.79043 6.94567
  1112 62.3116 -0.546853 -0.133203
  1113 62.3163 -0.547790 0.139797
  1114 68.5791 -4.48968 10.1238
  1115 69.7408 14.1257 2.71200
  1116 40.3901 -1.04089 -1.99057
  1117 40.3978 -1.03521 1.97327
  1118 31.1036 3.65541 16.6385
  1119 58.8823 0.282036 -5.93048
  1120 18.0265 5.96118 11.4283
  1121 77.4013 -1.46437 -2.72650
  1122 74.8738 16.8019 0.867919
  1123 51.1234 -4.12254 2.42683
  1124 45.9419 0.210417 -0.239129
  1125 65.8512 -0.529607 1.58857
  1126 68.4297 -0.0565743 0.624618
  1127 13.5615 0.0347163 -2.65191
  1128 13.7833 0.0270061 2.63178
  1129 52.2028 0.823855 -2.81349
  1130 54.6687 -1.60920 0.00586817
  1131 54.6541 -1.59984 -0.00663704
  1132 5.57995 7.55897 -7.83785
  1133 9.04491 17.7803 -16.3150
  1134 55.4235 -2.17222 -0.125424
  1135 55.4483 -2.17404 0.123144
  1136 57.4143 -1.35190 0.375137
  1137 57.4060 -1.34784 -0.369233
  1138 14.5931 9.39792 11.4133
  1139 44.3449 -0.592089 -0.348021
  1140 44.3477 -0.587300 0.345749
  1141 56.2584 4.21472 -0.0698376
  1142 74.5746 8.45895 -25.0603
  1143 69.5003 12.0740 -4.64031
  1144 63.5645 -2.41428 -6.31532
  1145 62.6502 -3.09315 -4.67658
  1146 51.1665 -4.16328 -2.47159
  1147 50.5933 0.145730 1.73697
  1148 57.6745 3.56268 -4.21652
  1149 56.7967 3.01820 4.01651
  1150 59.5513 -2.33512 -1.28657
  1151 56.6563 -3.44228 -0.299869
  1152 51.1964 -3.38397 -1.77235
  1153 61.2578 -0.349032 3.27018
  1154 111.202 11.2869 1.58853
  1155 61.7420 -1.30045 5.96253
  1156 61.7322 4.05725 6.40050
  1157 57.2598 -5.66772 -1.12888
  1158 6.42664 1.19325 -3.90276
  1159 58.3375 -2.68695 -1.02466
  1160 37.0905 -0.0772326 -0.0185907
  1161 37.0946 -0.0769564 0.0182502
  1162 71.7407 -1.89267 3.76413
  1163 68.3968 -5.73815 1.72014
  1164 98.7221 17.8586 4.11107
  1165 21.8134 -0.0592396 -2.23279
  1166 21.9661 -0.0542249 2.21351
  1167 51.6231 -1.05616 -0.147557
  1168 51.6190 -1.04835 0.145751
  1169 58.5511 -5.18537 0.346088
  1170 46.3925 0.185466 0.780283
  1171 60.0098 -4.26984 1.86144
  1172 3.12422 3.71925 -1.53410
  1173 10.2375 5.26246 6.66290
  1174 39.7150 -2.08929 12.9440
  1175 69.1489 13.3116 -3.30629
  1176 66.7474 -0.166989 -0.953584
  1177 70.7726 -0.0936754 0.0657032
  1178 70.8562 -0.135872 -0.0459458
  1179 38.8430 -0.121040 -0.0700534
  1180 38.8479 -0.120156 0.0693039
  1181 63.7014 4.08934 7.31035
  1182 95.7667 16.6025 -0.348995
  1183 65.5092 10.9212 -3.29095
  1184 49.2008 -3.55565 13.2868
  1185 39.5023 -1.99857 -12.9219
  1186 43.6000 -3.01549 -4.44170
  1187 61.6381 -1.66617 1.62142
  1188 86.5912 18.9404 -0.255047
  1189 43.5986 -2.99535 4.40103
  1190 63.1299 -1.02864 1.22986
  1191 55.1696 2.00386 3.82376
  1192 61.4455 1.89647 6.98847
  1193 88.8042 19.9284 1.40714
  1194 51.7359 -1.37187 0.285421
  1195 51.7404 -1.37997 -0.288763
  1196 63.8926 -1.13636 2.44420
  1197 36.2904 -0.429380 1.48641
  1198 36.2646 -0.433991 -1.50258
  1199 62.5608 -0.772917 -0.594573
  1200 25.3581 14.9491 -22.8184
  1201 54.1195 -3.01543 -14.2149
  1202 50.2133 -1.61947 -0.624946
  1203 50.2165 -1.61063 0.624905
  1204 67.5950 -0.253606 0.421854
  1205 63.5612 -0.752714 0.989282
  1206 3.22202 3.84421 2.70135
  1207 69.7173 -0.0537390 0.341251
  1208 7.83416 9.61287 9.53203
  1209 61.9684 -0.849588 -0.754149
  1210 -0.111677 -1.56366 -1.36161
  1211 43.1900 -4.20675 -9.98645
  1212 43.0552 -4.10198 9.87917
  1213 69.7191 -0.100812 -0.372727
  1214 58.7275 -3.09188 -1.18660
  1215 67.5284 -0.224499 -0.442797
  1216 52.9841 -1.73533 -0.199170
  1217 52.9762 -1.72713 0.194218
  1218 62.5172 -0.766016 0.562979
  1219 58.2937 -2.63581 1.01386
  1220 55.9365 -1.78952 -0.247966
  1221 55.9590 -1.79633 0.255994
  1222 67.4883 -0.231780 -0.364902
  1223 57.7889 -6.04069 -9.51565
  1224 65.8822 -0.324466 -0.383883
  1225 62.2530 -0.876667 0.798234
  1226 41.9974 -0.512156 -0.546456
  1227 42.0015 -0.506854 0.542126
  1228 47.4579 -0.731891 -0.249393
  1229 47.4582 -0.726016 0.247542
  1230 78.8070 12.2195 4.96921
  1231 66.1029 -5.03408 3.23114
  1232 44.9967 -0.158387 16.4993
  1233 34.4979 -0.0757480 0.569064
  1234 34.4683 -0.0764815 -0.575917
  1235 62.2188 -1.12519 4.52210
  1236 59.7294 -0.837810 0.210447
  1237 59.7340 -0.834231 -0.210304
  1238 67.9585 13.3802 1.53028
  1239 62.9869 -6.56492 7.34051
  1240 34.7880 -0.536714 2.11208
  1241 34.7515 -0.541237 -2.13064
  1242 59.5989 -1.40427 0.717167
  1243 59.5865 -1.41320 -0.701497
  1244 61.6077 -1.64263 -1.56953
  1245 55.5703 0.00414134 2.06974
  1246 99.0227 24.5675 -7.50818
  1247 62.6464 -2.25319 -4.12295
  1248 10.0365 2.54497 5.72321
  1249 64.7959 -3.41538 5.70637
  1250 50.6242 1.05185 -1.53598
  1251 3.54417 2.82362 1.87467
  1252 86.6248 9.18679 0.470523
  1253 63.1742 -2.84462 -5.68405
  1254 50.8914 0.678053 2.34905
  1255 34.8019 -2.23854 6.75398
  1256 64.3567 -4.94777 3.69004
  1257 94.9850 17.2064 4.15284
  1258 20.8531 3.21632 11.2906
  1259 64.8001 -0.706163 -2.09690
  1260 128.656 1.40645 -1.33183
  1261 133.287 2.03190 5.99075
  1262 142.857 5.00595 -14.1281
  1263 62.4801 -1.91672 -5.02708
  1264 62.5702 -2.82080 4.39255
  1265 63.6577 -4.49808 4.24526
  1266 -1.89083 0.185604 1.22388
  1267 -1.73076 0.138686 -1.32013
  1268 62.0977 -6.82913 -3.07408
  1269 63.7680 -6.40916 -4.90161
  1270 46.7737 0.273365 -0.966757
  1271 61.8747 -6.96130 4.93512
  1272 65.9661 -3.09384 -5.81241
  1273 1.02831 1.84538 -0.0283011
  1274 53.0179 -0.962387 0.145277
  1275 53.0229 -0.970512 -0.145667
  1276 65.8455 -0.463378 1.45325
  1277 63.1342 -1.00810 -1.16306
  1278 59.2119 -6.47096 -1.38724
  1279 53.6695 -2.95030 0.550150
  1280 53.3823 -2.91144 -0.640784
  1281 63.5433 -1.29357 3.26526
  1282 65.0775 -2.35867 -6.54021
  1283 3.68529 2.94496 -1.78029
</Section>

newXOutput 10

<Section columns = "stress_xx | stress_yy | stress_xy">
  1 80.0920 0.0143386 0.172442
  2 80.1021 0.0149593 -0.173159
  3 40.9334 -0.0255774 -0.0626035
  4 -0.531107 -0.528950 -0.762748
  5 149.985 55.3328 46.1307
  6 148.508 57.5340 -46.5719
  7 -0.615708 -0.506139 0.806870
  8 40.9292 -0.0257606 0.0623812
  9 80.7210 -0.119588 0.0576091
  10 80.5156 -0.195413 -0.0282506
  11 80.2702 -0.116878 0.210942
  12 80.0301 -0.173337 0.0803531
  13 79.5197 -0.141145 0.333458
  14 79.0635 -0.145743 0.256445
  15 78.0359 -0.130353 0.472106
  16 76.6206 -0.0718483 0.690079
  17 75.3471 -0.0870425 0.756940
  18 73.5031 -0.140545 0.902663
  19 71.0005 0.00556782 1.31777
  20 68.6864 -0.104052 1.23870
  21 66.1201 -0.146429 1.72677
  22 62.4043 0.105822 1.48829
  23 59.7657 0.145198 1.74763
  24 56.3287 0.253607 1.35662
  25 53.9741 0.244704 1.36255
  26 50.5573 0.362868 0.691153
  27 49.8490 0.574832 0.737583
  28 49.4273 0.459540 -0.216523
  29 50.0171 0.246070 -0.482068
  30 51.0962 0.253463 -0.589094
  31 53.6522 0.330831 -1.18111
  32 56.1334 0.260651 -1.50494
  33 59.8194 0.0422036 -1.79209
  34 62.7765 -0.0440920 -1.64891
  35 65.9660 -0.118254 -1.63537
  36 68.8731 -0.0802478 -1.16378
  37 71.4074 -0.0788877 -1.00621
  38 73.5242 -0.135663 -0.854772
  39 75.4437 -0.0904974 -0.610105
  40 76.6716 -0.100753 -0.653885
  41 77.8563 -0.135477 -0.481106
  42 79.0023 -0.165024 -0.227035
  43 79.5981 -0.129054 -0.255901
  44 79.9392 -0.0675831 -0.166512
  45 79.7651 -0.0189520 -0.151056
  46 80.6145 -0.200839 0.0144945
  47 80.7548 -0.126140 -0.0595402
  48 77.8130 -0.00491379 -0.106085
  49 75.8763 -0.249855 -0.181079
  50 73.5406 -0.385102 -0.132773
  51 70.7117 -0.608854 -0.178066
  52 68.0551 -0.679280 -0.227625
  53 65.2372 -0.890143 -0.213649
  54 62.7589 -1.01342 -0.128482
  55 60.5869 -1.16560 -0.0605772
  56 58.0876 -0.975517 -0.0620223
  57 55.2091 -0.927896 -0.0824718
  58 52.4298 -0.747231 -0.0380569
  59 49.7911 -0.491520 -0.0207836
  60 47.2757 -0.360979 -0.00696328
  61 45.0572 -0.199025 0.0144871
  62 42.7715 -0.0639834 -0.0730524
  63 40.9700 0.0551070 0.0756130
  64 40.1784 0.175424 0.0451683
  65 40.7702 -0.00448726 0.116944
  66 40.2092 -0.0318755 0.138310
  67 39.7124 -0.0437942 0.173462
  68 39.0245 -0.0125839 0.232212
  69 38.1541 -0.00764029 0.296883
  70 37.5504 -0.0654382 0.590675
  71 35.6632 0.0533744 0.648691
  72 34.3605 -0.00858131 0.753049
  73 32.4187 -0.0409240 0.851495
  74 30.1689 -0.0657392 1.04005
  75 27.3615 -0.0184348 1.26276
  76 23.9361 0.0133389 1.38498
  77 21.0385 -0.0397057 1.97518
  78 15.2041 0.191511 1.84772
  79 11.3014 0.166198 1.95541
  80 6.69041 -0.0228382 2.14646
  81 2.92555 0.382088 2.20087
  82 -1.32903 0.554732 1.26031
  83 -4.34246 0.559400 0.373803
  84 -4.03373 0.521900 -0.315610
  85 -3.66105 0.425808 -1.13387
  86 -2.13251 -0.164615 -1.04855
  87 -0.280331 -2.04767 -1.14925
  88 0.170090 -3.81487 -1.47193
  89 0.520003 -6.20383 -0.913027
  90 1.18256 -6.67753 -0.158175
  91 2.54092 -2.75817 3.06796
  92 7.79566 9.88370 11.2303
  93 48.4637 40.9371 40.7931
  94 180.581 26.5353 30.7495
  95 161.649 3.83881 10.1840
  96 149.295 1.55581 3.11677
  97 144.713 1.30174 0.254557
  98 147.067 1.75840 -2.67484
  99 161.134 3.53322 -8.04638
  100 192.758 12.8347 -26.8870
  101 28.4418 41.2641 -33.7980
  102 5.85480 5.87819 -9.13445
  103 2.76064 -2.47890 -3.11953
  104 1.09864 -6.76709 -0.335870
  105 0.275174 -4.79312 1.06543
  106 0.374123 -4.79127 1.28937
  107 0.00601499 -1.78476 1.27061
  108 -2.22224 -0.119172 1.00138
  109 -3.77964 0.319320 0.996689
  110 -4.24218 0.636988 0.340646
  111 -4.49004 0.553761 -0.335731
  112 -1.63403 0.568713 -1.17281
  113 2.64983 0.385696 -2.09381
  114 6.40773 0.0165253 -2.11080
  115 11.0122 0.179922 -1.96087
  116 14.9412 0.196963 -1.86377
  117 20.8343 -0.0405012 -1.99419
  118 23.7607 0.0152408 -1.40029
  119 27.2090 -0.0176492 -1.28047
  120 30.0896 -0.0721382 -1.04957
  121 32.3158 -0.0394037 -0.854730
  122 34.2836 -0.00606672 -0.762120
  123 35.6014 0.0525910 -0.657195
  124 37.5077 -0.0660104 -0.597916
  125 38.1213 -0.00801638 -0.301392
  126 39.0014 -0.0129316 -0.235948
  127 39.6966 -0.0443609 -0.176449
  128 40.1987 -0.0323592 -0.140415
  129 40.7628 -0.00492394 -0.118308
  130 40.1733 0.175112 -0.0458208
  131 40.9653 0.0549707 -0.0760097
  132 42.7662 -0.0644906 0.0727913
  133 45.0516 -0.200290 -0.0150092
  134 47.2708 -0.363828 0.00634212
  135 49.7878 -0.495502 0.0201744
  136 52.4286 -0.752959 0.0374693
  137 55.2105 -0.935065 0.0820187
  138 58.0919 -0.983736 0.0616182
  139 60.5932 -1.17462 0.0604367
  140 62.7664 -1.02235 0.128795
  141 65.2472 -0.898272 0.214527
  142 68.0622 -0.685008 0.230836
  143 70.7151 -0.613953 0.193191
  144 73.5513 -0.359278 0.135853
  145 75.9304 -0.241363 0.177228
  146 77.8207 -0.0168086 0.104630
  147 68.7044 -6.44649 -1.14560
  148 68.6534 -6.36104 1.17084
  149 71.5136 10.3300 -3.87559
  150 76.8165 4.55714 8.38954
  151 58.1018 -5.53553 -12.3316
  152 58.5547 -5.53481 11.9109
  153 55.7913 -2.43670 1.27694
  154 55.7994 -2.47295 -1.27932
  155 81.8785 2.90797 -6.77390
  156 68.5182 -2.41732 1.97875
  157 68.4912 -2.35541 -1.95302
  158 88.5670 20.0336 1.24707
  159 69.7887 -0.108835 -8.02900
  160 51.1114 -4.12382 -5.45111
  161 51.1053 -4.08688 5.39594
  162 70.0133 -1.56245 7.32662
  163 65.9254 4.78302 4.69921
  164 26.8174 4.48000 -14.6955
  165 29.8769 4.23190 15.5078
  166 86.9369 0.854548 1.80241
  167 70.3788 -2.66226 -5.24757
  168 93.6946 20.6273 -1.28096
  169 63.1335 -1.76295 0.242162
  170 63.1186 -1.75563 -0.235465
  171 71.5932 -0.777898 -0.882145
  172 71.8487 -0.687680 0.767825
  173 48.5290 -0.756742 -0.817391
  174 48.5320 -0.748304 0.811659
  175 77.5529 -2.24060 15.6378
  176 63.6628 2.59798 -5.05166
  177 41.2852 -3.14508 -8.94980
  178 41.4111 -3.12121 8.88257
  179 46.2000 -1.60433 -2.86091
  180 46.2009 -1.58467 2.83511
  181 70.7591 -1.81447 4.45604
  182 64.0904 -4.42911 0.341995
  183 63.8466 -4.39586 -0.227814
  184 73.4777 -7.06526 -0.442422
  185 73.8372 -6.72980 -0.486866
  186 101.977 23.9365 -2.58387
  187 72.9740 11.8124 3.63808
  188 73.3845 4.52281 -8.29902
  189 77.3894 -0.905513 -18.3314
  190 73.1540 -4.09514 -6.10090
  191 73.7625 -2.90709 7.06279
  192 61.2264 -6.97166 5.78088
  193 61.2578 -6.92537 -5.75910
  194 64.9132 0.800596 6.10463
  195 29.0560 -0.657212 -10.8918
  196 29.1350 -0.725825 10.8172
  197 115.783 17.4994 2.44056
  198 69.1819 -4.09726 3.50114
  199 71.9255 -1.26125 -2.96204
  200 56.1126 -1.41084 -0.538218
  201 56.1113 -1.40215 0.535567
  202 68.5193 -0.879527 -5.61641
  203 78.3042 11.5506 -6.78697
  204 64.7013 5.78679 -0.945909
  205 41.3691 -1.54980 4.09834
  206 41.3024 -1.55590 -4.13442
  207 73.2271 -0.736820 1.68402
  208 70.5967 1.33315 8.23697
  209 57.0733 -4.24770 -2.40443
  210 56.6448 -4.02402 2.48790
  211 83.8122 12.4374 6.49768
  212 99.8563 13.0241 0.818781
  213 6.18209 5.01330 -3.75331
  214 5.70092 4.63482 3.16677
  215 40.3487 11.3836 26.3990
  216 68.4669 -4.53531 -2.82624
  217 73.5362 -0.708795 -1.52450
  218 64.1033 0.532274 -5.61666
  219 44.0181 -0.489699 -1.25898
  220 44.0296 -0.483942 1.24543
  221 61.2335 -2.90563 -0.227178
  222 61.2608 -2.92115 0.190949
  223 69.1924 -0.917852 4.80659
  224 80.7571 -4.69948 0.875997
  225 79.1175 16.3705 -2.00699
  226 62.0597 -6.04836 -2.46511
  227 79.2207 -1.35646 5.78890
  228 67.1658 -1.05977 0.393503
  229 67.1689 -1.04960 -0.392816
  230 61.5646 -6.01836 2.59291
  231 70.9008 -4.46406 5.03696
  232 101.556 12.2814 -4.91410
  233 21.5465 12.8651 -18.7386
  234 58.6767 1.99982 1.18945
  235 70.6984 6.25124 6.91118
  236 75.9671 -0.504670 -7.62451
  237 70.7424 -2.51864 -6.92622
  238 36.3831 -1.23496 -5.18199
  239 36.5194 -1.21528 5.16034
  240 70.9146 -0.818923 -3.77520
  241 67.6453 -1.65619 1.11828
  242 67.6136 -1.65225 -1.08796
  243 13.3287 1.33834 -6.77175
  244 13.5744 1.17487 6.75228
  245 75.9810 -6.61819 -5.07195
  246 75.3094 -0.187278 0.262768
  247 75.4062 -0.191658 -0.276243
  248 68.9188 5.71013 -6.29986
  249 59.9796 1.09823 3.63654
  250 130.941 21.0037 13.9820
  251 130.017 14.8142 -8.85009
  252 92.1125 20.1339 -0.368820
  253 57.3968 -2.71598 16.5571
  254 52.5231 -1.70599 -17.3548
  255 59.8890 -1.22613 -0.127476
  256 59.8819 -1.21672 0.125780
  257 48.9718 -1.38865 1.68530
  258 48.9757 -1.40903 -1.70384
  259 72.9999 -0.729119 2.40338
  260 70.6299 -5.00183 -4.26698
  261 44.1184 -0.110923 -0.284132
  262 44.1247 -0.109207 0.281781
  263 69.7308 -2.77700 -3.35745
  264 28.3027 -0.953219 -7.15355
  265 28.4405 -0.956626 7.09510
  266 70.5153 -3.02266 5.64520
  267 53.4546 -5.67616 9.89449
  268 53.6092 -5.77868 -9.86547
  269 59.6306 2.22263 -1.69231
  270 51.4360 -0.837949 -0.546533
  271 51.4378 -0.831461 0.543690
  272 65.4540 -0.179768 4.53791
  273 78.8036 14.5607 4.73593
  274 40.8264 -0.547561 2.18362
  275 40.7944 -0.552547 -2.20572
  276 72.6775 -6.02798 3.26982
  277 67.2801 -7.51134 -6.29194
  278 75.5213 -0.290413 0.805994
  279 51.0959 -3.13410 -3.67526
  280 50.9940 -3.09695 3.65767
  281 94.5220 8.74368 23.2793
  282 42.7982 -3.43368 11.9161
  283 69.4835 9.79989 -0.413774
  284 89.4701 9.69170 -4.80571
  285 66.8365 -5.17745 1.45506
  286 67.3031 -7.72168 5.60502
  287 42.9471 -3.37331 -12.0661
  288 7.69102 9.45339 8.35167
  289 69.7417 -2.78920 3.41591
  290 92.2830 11.8417 4.05353
  291 76.1992 -0.257909 -0.698525
  292 67.7488 2.35059 -7.24876
  293 67.3668 -3.79583 2.07323
  294 65.9074 -5.58165 -0.400931
  295 67.4567 3.08293 6.96836
  296 72.3077 -6.03494 -2.98730
  297 103.006 20.2694 -1.49090
  298 67.3479 -3.64582 -1.98905
  299 56.5174 15.6106 -32.6675
  300 69.0432 -7.30292 -0.662633
  301 68.5340 -7.49984 1.46672
  302 49.5781 -4.55508 -7.79615
  303 43.7363 -0.197990 -0.627421
  304 43.7454 -0.194586 0.621061
  305 49.5917 -4.55680 7.74805
  306 72.8024 -0.105199 -8.39274
  307 79.1921 -3.26333 -4.13881
  308 59.4659 -3.64552 -1.09938
  309 59.4174 -3.65331 1.12352
  310 72.2376 -6.21371 10.3885
  311 71.5402 -0.540574 2.86200
  312 88.0866 0.163560 2.85037
  313 58.1161 -2.09284 -0.566089
  314 58.1178 -2.08398 0.561009
  315 52.5085 -1.42991 -1.05580
  316 52.5056 -1.41518 1.05317
  317 59.2953 0.758246 -3.52052
  318 77.7666 5.70728 -8.17627
  319 122.271 32.6945 -14.9163
  320 71.1767 -0.535573 -0.308080
  321 71.1283 -0.527522 0.314407
  322 37.2773 0.0299981 14.8684
  323 52.3203 -2.46313 -2.35618
  324 52.2079 -2.45217 2.36123
  325 37.2738 -0.0512303 -14.8123
  326 73.7599 8.74117 -6.81017
  327 83.4204 4.08674 6.52498
  328 72.2904 -5.16204 -11.6132
  329 65.7911 -2.51634 1.05100
  330 65.7192 -2.49520 -1.01952
  331 70.5479 -1.38950 -1.70751
  332 65.5108 -0.135333 -4.24790
  333 74.2377 0.351426 8.27632
  334 74.5273 -0.467440 -1.67378
  335 43.4864 -2.73342 5.97027
  336 43.4396 -2.75036 -6.02344
  337 68.6669 -0.159635 7.59713
  338 40.9813 -0.375237 -1.28018
  339 41.0072 -0.371569 1.26610
  340 71.0308 -1.56917 2.54493
  341 85.0118 17.4931 -3.75035
  342 70.5003 -1.40265 1.76537
  343 74.6313 9.42702 6.85452
  344 71.5642 -1.30656 8.00100
  345 56.0168 -1.07389 0.176221
  346 56.0192 -1.08170 -0.178148
  347 67.3549 -0.249499 -6.73027
  348 90.0779 19.0380 2.74832
  349 74.1827 13.7263 0.143830
  350 45.5880 5.35028 -22.3068
  351 4.13955 2.03622 -2.76987
  352 4.60223 2.19854 3.00832
  353 -0.373794 0.441234 1.50204
  354 -0.0678686 0.197750 -1.55576
  355 134.793 9.34107 3.28342
  356 61.5524 -5.05626 -1.27174
  357 71.1012 -1.51174 -2.48583
  358 63.7682 -1.08105 0.178357
  359 63.7607 -1.07087 -0.178540
  360 67.7765 7.49189 -3.40587
  361 58.0322 -5.97955 4.73955
  362 4.78668 7.03393 -4.99442
  363 58.1017 -5.98117 -4.83951
  364 68.7220 7.82683 3.62481
  365 70.7668 -1.84307 -4.26014
  366 75.3059 -4.16324 -5.37127
  367 79.6544 17.0274 1.39103
  368 75.5221 -4.67075 4.58426
  369 29.7193 -0.785208 4.80505
  370 29.5217 -0.770399 -4.84184
  371 16.4850 0.453547 -6.56044
  372 16.6886 0.380195 6.52873
  373 60.3288 0.152024 3.57179
  374 118.850 34.0630 12.1835
  375 73.3949 -0.426339 -2.07671
  376 56.4004 -4.85647 -3.58667
  377 56.3420 -4.84031 3.58081
  378 70.2215 -1.58924 -5.29357
  379 80.7741 -3.89833 1.50065
  380 61.5494 -5.05002 1.32338
  381 89.2720 0.372829 -6.22196
  382 48.4353 -0.432902 -0.189354
  383 48.4396 -0.428834 0.187255
  384 68.8410 -0.387495 -3.33039
  385 35.7593 -0.558318 -3.14664
  386 35.7852 -0.575184 3.10420
  387 82.8562 10.5695 -7.13915
  388 44.4157 3.18158 20.6540
  389 64.5183 -3.39599 0.742168
  390 64.5839 -3.38858 -0.746378
  391 75.6658 12.9005 -4.38234
  392 71.9030 -2.10610 -7.63866
  393 72.5919 -7.38533 5.33588
  394 59.6700 -1.59661 -0.182788
  395 59.6609 -1.58709 0.178968
  396 69.4832 -5.34765 3.05059
  397 75.3261 -0.317174 1.25550
  398 45.4692 -1.74864 -3.61510
  399 45.4852 -1.74730 3.57904
  400 70.1661 2.35157 -8.10845
  401 66.5392 -1.39068 0.605132
  402 66.5378 -1.39315 -0.594697
  403 68.5214 -0.795650 6.23540
  404 63.2470 4.56719 1.61212
  405 71.3627 -2.98140 6.74134
  406 104.056 21.9638 3.43470
  407 33.4840 -1.81620 -9.57379
  408 33.5832 -1.81756 9.49250
  409 14.7728 8.10699 -11.0548
  410 77.4256 -0.170843 0.375435
  411 37.2603 -0.354197 -1.98495
  412 37.3140 -0.346667 1.96517
  413 70.2951 -1.80354 5.20442
  414 63.7158 -6.94328 2.86078
  415 72.4930 -0.823723 1.21644
  416 73.2682 3.73961 8.52013
  417 15.5538 8.63184 11.5839
  418 63.8214 -6.90842 -2.58841
  419 66.0010 -6.15411 -0.0316052
  420 20.3356 -0.411461 -5.98862
  421 20.5132 -0.428765 5.94274
  422 50.4348 -3.96974 -14.3809
  423 76.0096 -1.10067 7.46631
  424 50.2124 -4.03833 14.2438
  425 70.0790 -3.90887 -4.54282
  426 64.2304 4.29057 -3.55529
  427 70.0991 -2.99093 4.28285
  428 76.1203 -0.284507 -0.875221
  429 2.10222 2.10536 0.694020
  430 14.8423 16.7338 16.5192
  431 66.9043 -0.250049 3.18582
  432 55.0684 0.705057 1.52951
  433 56.1370 0.872128 -2.08297
  434 47.9085 -0.854571 -1.18731
  435 47.9102 -0.842999 1.17745
  436 69.1091 -5.34619 -2.83786
  437 69.5678 -1.34564 -7.01200
  438 55.4067 0.980331 -0.566263
  439 104.157 24.7302 4.19757
  440 13.5709 4.70431 -8.24591
  441 15.0320 4.32104 8.85660
  442 64.4597 -2.28383 0.618886
  443 64.4331 -2.27617 -0.599764
  444 86.0900 19.2984 -0.319431
  445 54.9983 21.1676 33.3800
  446 83.6561 -1.24555 -2.16074
  447 46.6480 -2.52283 -4.90895
  448 46.6669 -2.50373 4.86092
  449 46.7152 -1.11397 1.89190
  450 46.7096 -1.12306 -1.91265
  451 63.8866 1.37734 -5.76783
  452 77.8794 -0.0638523 -0.256077
  453 61.8949 2.78660 3.21746
  454 79.5406 9.85481 7.54388
  455 66.0916 -4.91722 -1.16889
  456 72.4753 -0.778364 -1.17905
  457 76.4635 -0.252487 0.807058
  458 77.6681 -0.0654264 0.147071
  459 77.7454 -0.0797865 -0.112770
  460 40.5429 -0.0904277 0.464784
  461 40.5246 -0.0916820 -0.470741
  462 72.5240 -4.57282 5.47935
  463 64.5326 2.50953 5.58213
  464 67.8294 0.266298 -7.39013
  465 71.4550 -1.45190 3.21821
  466 105.622 16.2863 -19.0517
  467 71.5205 -3.93905 -6.00172
  468 0.367037 1.30233 0.348096
  469 0.374478 1.31071 0.00475111
  470 56.0018 -3.25053 1.92285
  471 55.8010 -3.21045 -1.90477
  472 90.3860 1.20977 9.90350
  473 24.8060 21.6939 -24.9338
  474 70.3865 -0.194650 2.51590
  475 80.8544 -4.75582 -5.33396
  476 41.5819 -2.46918 6.94281
  477 85.9176 15.2575 -5.37230
  478 70.4783 -3.78554 5.07972
  479 58.6398 -2.85611 -0.809880
  480 58.6922 -2.80646 0.805714
  481 60.3115 0.303266 -3.15870
  482 41.4468 -2.46113 -6.99348
  483 62.0083 0.00323680 3.18878
  484 60.2615 -6.87657 -8.71689
  485 60.1029 -6.88709 8.73878
  486 72.9131 -0.450004 2.28547
  487 65.2626 6.13271 0.667156
  488 67.8438 0.975040 22.5949
  489 99.2614 20.4684 -0.129895
  490 68.2864 -1.08322 0.631055
  491 68.2929 -1.07874 -0.646858
  492 51.4175 -0.964262 -0.715319
  493 51.4184 -0.955379 0.711555
  494 26.9041 1.34601 12.3839
  495 70.7602 -3.37911 -5.83519
  496 63.9836 -1.35906 0.218501
  497 63.9771 -1.35304 -0.216491
  498 55.4841 -5.92004 7.14110
  499 27.4501 1.76339 -12.7103
  500 70.9806 -5.75977 -3.22663
  501 1.09116 -0.0152705 0.792442
  502 60.8605 3.08742 0.229237
  503 68.5791 -0.716361 -0.215061
  504 68.5749 -0.728097 0.211710
  505 55.5314 -5.91235 -7.20125
  506 80.9579 -4.25288 7.08091
  507 79.6279 2.90266 7.77633
  508 73.7934 -0.422106 -0.607203
  509 70.7619 -5.84376 3.26025
  510 42.5661 -0.0592952 -0.0758344
  511 42.5717 -0.0588472 0.0749262
  512 70.4952 -2.68156 -6.15159
  513 67.7343 5.00806 6.14246
  514 78.6181 1.94853 -7.66859
  515 42.3142 -0.0856837 -0.259419
  516 42.3218 -0.0845967 0.257165
  517 140.563 20.2861 -18.2921
  518 70.6167 8.44532 5.44247
  519 73.8665 -0.379509 0.543898
  520 66.1562 -6.28740 0.188600
  521 54.9080 -1.87322 1.02192
  522 54.9105 -1.88906 -1.01994
  523 77.5173 -4.68655 2.93097
  524 74.1312 -1.44900 -7.78330
  525 82.7356 16.4447 4.35920
  526 68.4418 1.16934 7.65298
  527 69.6399 -1.27033 1.14036
  528 67.7737 -7.18977 -8.26924
  529 69.8625 -1.70387 5.99840
  530 139.251 6.34809 -2.57797
  531 76.9857 -5.77703 -0.952089
  532 73.3329 -0.402162 -0.160752
  533 73.3484 -0.434026 0.147419
  534 140.673 9.45575 9.09091
  535 66.6135 -0.0343973 6.50879
  536 94.9970 15.6566 -2.81659
  537 70.8124 -1.87346 -3.16406
  538 30.3806 -0.309849 -2.15688
  539 30.4877 -0.295166 2.13260
  540 47.2338 -4.44706 -9.97142
  541 47.2634 -4.37171 9.89114
  542 69.6041 -1.21284 -1.12696
  543 75.5634 2.78974 -8.42881
  544 66.2973 -4.51720 1.41959
  545 70.9502 8.15917 -5.66332
  546 72.0701 -0.791130 3.07869
  547 91.3196 4.29172 0.0938831
  548 61.1795 -2.10840 -0.0597113
  549 61.1574 -2.09886 0.0561295
  550 66.7962 -3.13643 1.61094
  551 99.7085 19.3720 -0.207123
  552 70.0621 3.06867 7.95657
  553 29.6438 7.68120 18.4101
  554 68.5442 -4.12949 14.8704
  555 91.7249 3.83813 -16.2236
  556 71.6597 5.93562 -7.43356
  557 64.1118 -5.49875 -12.8486
  558 69.3553 -7.57683 -1.99075
  559 72.6383 -7.31414 -3.18335
  560 9.14034 11.5204 -10.9420
  561 72.9691 -0.854952 -1.97925
  562 110.548 21.6081 -5.87589
  563 67.1737 -2.99967 -1.74288
  564 67.7891 -2.16343 1.43416
  565 67.7244 -2.11054 -1.38546
  566 45.3188 -0.300359 -0.562106
  567 45.3253 -0.296413 0.557251
  568 5.81006 0.705904 -3.52194
  569 6.19809 0.737829 3.60863
  570 33.6614 -1.61618 -7.32461
  571 33.9371 -1.62416 7.30711
  572 68.7017 -3.69626 -3.01457
  573 70.2079 -7.60670 2.19540
  574 72.1866 -6.81803 1.18622
  575 58.4272 -1.03590 -0.167417
  576 58.4224 -1.02721 0.166257
  577 55.7387 -5.81891 -11.0125
  578 62.8212 -5.11221 13.6336
  579 54.3194 -5.46606 11.0855
  580 70.5079 -1.54753 -7.55598
  581 42.9254 -0.774642 2.17133
  582 42.9055 -0.783196 -2.19284
  583 66.7508 3.66227 -6.15871
  584 66.9657 -0.115832 -2.89248
  585 84.1677 18.5021 -2.02071
  586 54.2173 -0.853206 -0.184544
  587 54.2167 -0.846667 0.183377
  588 71.9404 -0.199180 -1.66603
  589 48.6187 -1.73068 -2.34881
  590 48.6155 -1.72332 2.32472
  591 40.1357 1.95677 17.7162
  592 70.0246 -3.18767 -4.33609
  593 38.3725 -1.97971 12.6916
  594 68.8069 -3.53915 3.06409
  595 72.7278 -0.961386 2.17265
  596 71.9244 -0.573626 -0.548968
  597 49.0772 -0.657982 -0.504296
  598 49.0806 -0.652085 0.500708
  599 80.6605 16.2669 -3.87988
  600 38.3485 -1.89666 -12.7468
  601 68.5864 -2.93294 -2.49503
  602 61.4851 -1.12341 -0.0537403
  603 61.4780 -1.11375 0.0534160
  604 118.070 16.0059 -2.75603
  605 39.4490 -0.282950 1.21022
  606 39.4140 -0.285837 -1.22349
  607 63.0410 1.40666 5.25007
  608 92.4896 7.42004 -2.29283
  609 42.8574 0.399649 -17.6053
  610 21.2219 0.621455 -9.45955
  611 21.4144 0.488609 9.40810
  612 53.5094 -3.21914 2.84869
  613 54.1110 -3.31386 -2.74980
  614 92.9463 18.6713 2.66022
  615 71.6013 -0.597687 0.505701
  616 60.0228 1.63047 -3.15732
  617 75.8337 13.7532 3.46248
  618 75.5247 14.2778 -2.30152
  619 62.0948 -3.47569 -0.140811
  620 62.5950 -3.39194 -0.0879732
  621 44.7671 9.64314 -25.4901
  622 52.7686 -1.88259 -1.54313
  623 52.7699 -1.85949 1.53571
  624 139.471 28.4839 21.3622
  625 70.4875 -2.28266 6.59722
  626 39.0554 -1.45867 -4.69391
  627 112.333 24.3901 15.4014
  628 39.1510 -1.44943 4.67207
  629 68.0417 -2.63737 -17.4852
  630 46.2072 -0.267567 -0.208082
  631 46.2125 -0.265179 0.206705
  632 57.6345 0.482815 2.75013
  633 25.4030 -0.404396 -4.22824
  634 25.5646 -0.405292 4.19087
  635 61.2666 -4.39176 0.901276
  636 64.4404 -5.19477 0.139233
  637 76.8717 -0.134603 -0.722300
  638 41.2330 -0.0830805 0.335259
  639 41.2202 -0.0844608 -0.339682
  640 57.4899 -1.31686 -0.212076
  641 57.4858 -1.30809 0.209326
  642 66.8871 -7.38429 8.38011
  643 76.4981 8.57171 -7.61878
  644 50.0428 -2.43314 -3.03847
  645 49.9998 -2.39072 3.01304
  646 60.0724 -4.39234 -1.44513
  647 95.6708 21.0050 0.0225357
  648 71.7373 -6.91047 -0.773048
  649 61.7390 -1.46498 0.0213764
  650 61.7284 -1.45613 -0.0208142
  651 85.9019 9.32701 6.27351
  652 71.7590 -0.985386 -3.34853
  653 62.4039 -0.0960067 -2.60193
  654 28.2701 -0.959058 -9.17387
  655 28.3673 -0.989380 9.09105
  656 59.9537 -5.24422 -2.53668
  657 90.5453 20.2507 0.0929005
  658 69.5233 9.44988 -2.45123
  659 45.1286 -0.459193 -1.05613
  660 45.1363 -0.452583 1.04565
  661 65.3121 -1.81159 -0.573331
  662 65.3251 -1.81524 0.589243
  663 124.360 16.3233 7.13044
  664 78.3525 -0.170953 0.209784
  665 75.1816 -0.260357 1.21745
  666 74.8351 -0.271723 -1.40709
  667 70.7932 -6.56537 1.79274
  668 50.9131 -0.635438 -0.252412
  669 50.9155 -0.630319 0.250897
  670 75.1344 12.1384 5.30256
  671 97.4088 21.7830 -0.623524
  672 52.2722 -3.99245 -4.31103
  673 52.2493 -3.95038 4.28501
  674 66.2570 -6.84280 -0.816105
  675 69.4702 4.12619 -7.47547
  676 83.7099 0.177035 3.96434
  677 54.2622 -1.04951 -0.465376
  678 54.2616 -1.04167 0.462642
  679 46.9516 -4.16780 -9.00616
  680 70.1015 -6.76079 -1.12192
  681 57.8971 -6.43290 7.85913
  682 27.2982 8.73451 -17.7366
  683 53.7514 -5.05524 6.05297
  684 64.7427 0.0155351 2.42017
  685 46.9901 -4.11885 8.93889
  686 68.5433 -2.99356 2.52562
  687 53.7791 -5.03606 -6.11582
  688 54.0548 0.661431 0.573799
  689 41.7115 -1.19702 3.31122
  690 41.6733 -1.19929 -3.33882
  691 57.9451 -6.60082 -7.95131
  692 72.0173 -4.71154 -5.30579
  693 65.9097 -0.861055 -0.141919
  694 65.9197 -0.871623 0.142498
  695 73.6894 -4.65147 5.31174
  696 66.7990 -6.98700 1.06924
  697 81.4153 7.46679 7.61232
  698 73.2266 -1.33856 7.96157
  699 70.4563 -2.48854 4.95095
  700 66.6171 5.45836 -4.67061
  701 80.9361 13.6967 5.99181
  702 69.7162 -0.946036 -4.68535
  703 69.7497 -2.26193 2.70037
  704 71.4646 11.2623 1.32836
  705 70.8476 -1.16638 4.13713
  706 21.8932 14.7954 18.5279
  707 66.0387 -7.58160 -4.59424
  708 76.4835 1.41840 8.15196
  709 77.4256 -2.37030 -6.06845
  710 77.8692 -0.0635664 0.415737
  711 70.4718 -2.37363 -3.96441
  712 66.1187 -7.64266 4.12247
  713 131.026 11.5915 -1.95375
  714 37.7548 -0.183798 1.26934
  715 37.7066 -0.185938 -1.28333
  716 71.6954 -1.23346 -1.93074
  717 78.3755 -0.0449929 -0.400713
  718 59.8292 -5.32728 2.55162
  719 72.2982 -2.65562 7.28100
  720 111.928 25.8563 -6.67881
  721 68.5221 -4.95735 2.68427
  722 76.3439 -4.99046 -3.49823
  723 69.7806 -2.19762 -2.65895
  724 78.4356 -0.0926806 -0.146174
  725 70.3081 0.00764518 8.13855
  726 3.08581 2.23828 3.61710
  727 80.6604 -3.23895 -10.9620
  728 87.4019 5.04556 4.35757
  729 72.5289 -7.37761 2.75336
  730 50.4065 -1.27956 1.27366
  731 50.4100 -1.29853 -1.28175
  732 69.4444 32.6236 -35.0654
  733 73.7333 -4.83882 -4.96212
  734 53.8243 0.231054 -1.09621
  735 63.7968 0.329134 5.14656
  736 70.9382 -3.51625 5.93997
  737 68.0001 -5.73008 1.64033
  738 71.1811 -6.44721 -8.99846
  739 67.5518 -5.34545 -1.74250
  740 80.4738 -3.85567 -1.77013
  741 74.0348 -0.532312 1.14551
  742 65.4967 -3.94400 1.07059
  743 121.206 24.2775 -12.6604
  744 70.1415 -1.81564 2.17213
  745 68.8411 1.11707 -7.86791
  746 59.3626 -0.702713 19.7484
  747 73.9890 5.98652 8.11635
  748 63.6111 -5.04566 0.211625
  749 48.4954 -3.91043 -6.54127
  750 48.4936 -3.89763 6.48092
  751 67.1198 7.54639 -1.09355
  752 68.6793 -0.783633 7.07819
  753 69.5724 -1.63695 -6.10984
  754 65.5746 -4.02190 -1.09597
  755 63.3260 -5.71892 1.16234
  756 72.0414 11.9756 -1.51679
  757 67.9123 -5.87646 -1.37069
  758 68.0645 -4.29501 2.58349
  759 69.1741 -0.808323 0.437588
  760 69.2228 -0.783352 -0.435863
  761 93.0981 20.6682 0.928765
  762 76.4402 -6.46894 -1.50306
  763 70.6928 -2.11724 3.93593
  764 74.0890 -0.528075 -1.05215
  765 74.3199 0.516523 -8.35263
  766 85.2313 4.38425 -5.46363
  767 39.7913 -0.0546433 -0.583102
  768 39.8165 -0.0539842 0.576078
  769 0.522157 -1.46644 -1.05857
  770 72.1241 -0.0646495 1.54698
  771 65.4318 -0.131913 -5.72261
  772 67.8633 -0.632004 5.10266
  773 63.0815 7.35861 29.2977
  774 77.3318 16.0871 -0.185359
  775 54.6121 -4.00679 3.27350
  776 8.63275 0.231986 -3.53057
  777 8.93280 0.174026 3.57016
  778 67.1876 -0.482431 -5.73085
  779 54.7782 -4.04943 -3.27039
  780 73.6384 -0.583762 0.893650
  781 36.1719 -1.60553 6.25891
  782 35.8424 -1.60078 -6.26756
  783 70.1428 -1.75992 -2.11794
  784 43.4037 -1.17262 -2.86984
  785 43.4245 -1.16406 2.84007
  786 73.1715 -0.633823 -2.34521
  787 54.8702 -1.51895 -0.811756
  788 54.8694 -1.50769 0.811679
  789 80.0156 -0.509107 -6.13221
  790 71.4799 -0.731819 -8.21814
  791 34.8149 -0.245271 -1.63273
  792 34.8894 -0.243025 1.61145
  793 1.18268 0.902228 -2.04934
  794 1.52288 0.949873 2.16248
  795 56.6418 0.255637 -2.00118
  796 65.4130 -7.35444 -3.28976
  797 -0.781548 -0.550917 1.32066
  798 -0.675220 -0.630828 -1.29829
  799 68.1715 -1.30105 0.912407
  800 74.1074 -5.74438 -3.14772
  801 75.9810 11.3270 -6.21121
  802 73.9919 -0.519262 -0.846611
  803 163.124 32.1812 -30.6331
  804 68.1584 -1.29550 -0.901420
  805 103.278 19.9234 1.37083
  806 72.6933 2.12865 -8.54417
  807 80.7236 6.07763 -7.75631
  808 12.2894 -0.147495 -3.29521
  809 12.5589 -0.168010 3.28815
  810 44.0492 -0.690038 1.67613
  811 44.0357 -0.696264 -1.69404
  812 41.6457 -0.119022 0.308666
  813 41.6364 -0.120207 -0.311756
  814 81.3723 13.7643 -5.96780
  815 46.7448 -0.332188 -0.443285
  816 46.7501 -0.328197 0.440038
  817 68.9007 -0.691390 -7.37906
  818 101.935 9.57631 7.36731
  819 61.2763 1.31882 -4.40582
  820 20.1924 -0.192074 3.56834
  821 19.9932 -0.193737 -3.59976
  822 81.9471 1.82408 20.7622
  823 71.6069 -1.24429 1.99281
  824 62.8357 4.12549 -1.83802
  825 27.9532 -0.0578344 2.45513
  826 27.7901 -0.0441306 -2.47577
  827 42.7369 -0.251558 -0.811971
  828 42.7500 -0.247929 0.802790
  829 7.51058 6.76617 5.53911
  830 65.8549 1.54273 6.59848
  831 73.6340 10.8846 -5.27404
  832 79.7045 9.26396 -7.61913
  833 51.4094 -2.02833 -2.07705
  834 51.3739 -2.01104 2.07186
  835 82.3361 17.7302 2.76335
  836 71.6247 -0.506042 -0.123346
  837 71.6258 -0.501956 0.136233
  838 70.4464 -2.07041 -4.96120
  839 58.5498 -3.97222 1.72983
  840 64.9839 -7.31035 3.32297
  841 77.0635 -6.31417 5.26635
  842 57.9211 -1.71172 -0.382117
  843 57.9182 -1.70368 0.377862
  844 66.1649 6.11591 2.98941
  845 61.9064 0.806228 -4.76999
  846 17.2378 19.1288 19.2726
  847 63.5363 -5.67418 -1.00152
  848 63.7091 -2.85178 0.492109
  849 63.7442 -2.85510 -0.494761
  850 70.1052 -1.01541 7.79550
  851 69.7702 -4.56068 -3.91021
  852 61.9793 -4.15112 -0.417949
  853 146.751 4.76197 -7.43926
  854 58.8312 -5.63617 3.66265
  855 58.7901 -5.71264 -3.72965
  856 70.1072 -0.816860 3.99537
  857 106.983 27.3583 -5.06423
  858 55.0169 -5.08762 -4.74043
  859 61.1658 -6.92675 4.35694
  860 54.9932 -5.02345 4.69319
  861 59.7754 -2.44036 -0.393732
  862 59.7709 -2.43015 0.388905
  863 8.35250 3.72642 4.84352
  864 75.4125 5.65291 -8.27440
  865 57.1901 -2.28374 -0.818785
  866 57.1987 -2.25878 0.822384
  867 56.3765 -0.951860 -0.0953382
  868 56.3738 -0.944247 0.0944059
  869 62.4907 -1.21356 0.105332
  870 62.4825 -1.20416 -0.105475
  871 49.9411 -1.04190 -1.11114
  872 49.9421 -1.02939 1.10502
  873 57.4531 -3.09469 -1.31183
  874 57.4582 -3.07067 1.31716
  875 1.27821 -0.940239 -0.359186
  876 87.7786 16.4761 4.79672
  877 75.4506 -2.61033 -6.85629
  878 61.1265 -6.82805 -4.41168
  879 66.1777 -2.09718 0.938100
  880 66.1467 -2.07304 -0.917238
  881 72.0954 0.111870 8.38845
  882 79.2267 -5.65535 -2.49839
  883 70.4176 4.61479 -25.3034
  884 30.8221 -0.429249 12.3022
  885 -1.56130 0.720967 -0.701216
  886 -1.39362 0.811316 0.795860
  887 8.27982 3.96440 -4.93794
  888 70.7184 -1.97662 3.15389
  889 74.8039 -0.426048 -1.34598
  890 67.0905 -6.41265 10.4877
  891 30.7456 -0.390760 -12.3566
  892 74.7823 -6.07410 2.43796
  893 84.0047 -2.66452 8.79791
  894 58.9153 0.226516 2.12608
  895 68.3666 6.50516 5.11857
  896 36.3499 -2.07922 9.11396
  897 36.2028 -2.09641 -9.18194
  898 43.6937 -2.16880 -5.08428
  899 46.6692 -2.20712 -15.7761
  900 74.5722 -1.70733 7.57484
  901 103.514 23.9208 2.49246
  902 74.7142 2.90005 8.43771
  903 70.6461 -1.46906 -4.50356
  904 47.6930 -1.97815 16.1746
  905 90.5848 16.6153 -3.84975
  906 8.47695 7.33947 -6.88912
  907 64.5513 -0.141898 -2.30860
  908 43.7393 -2.14973 5.03277
  909 53.8120 -1.23248 0.726983
  910 53.8129 -1.24214 -0.729418
  911 69.8777 -4.53694 4.02254
  912 73.0309 -0.375528 0.361803
  913 53.3487 0.538435 -19.7078
  914 77.2171 -0.138997 0.640763
  915 76.5198 -0.110400 -0.801811
  916 55.2256 0.453702 -1.83251
  917 73.5649 -0.285820 -1.37958
  918 54.0804 -2.61411 -1.85507
  919 54.1165 -2.57249 1.85967
  920 -1.92655 0.626949 -1.12851
  921 -2.59000 0.377578 1.16718
  922 73.0339 -0.343389 -0.362048
  923 22.9692 -0.499858 8.28294
  924 22.8138 -0.445661 -8.33520
  925 77.3162 11.3490 6.59183
  926 143.176 2.57097 2.33079
  927 72.5716 8.10895 6.79239
  928 83.4756 -3.02589 1.81047
  929 71.8492 -3.96491 6.02511
  930 89.6474 18.8736 -2.91925
  931 53.9101 0.193549 1.37890
  932 69.2144 -1.55974 -1.38659
  933 71.4821 3.84893 -8.20844
  934 87.6148 2.42176 -2.48473
  935 67.2924 -4.14744 -2.11677
  936 32.8229 -0.203848 -1.83603
  937 32.8638 -0.196746 1.80777
  938 71.1607 -1.61758 -3.60831
  939 2.13725 2.79270 0.307097
  940 68.2769 -7.07283 -0.0859122
  941 57.8049 1.64514 -0.189939
  942 88.8996 19.7285 -1.94426
  943 13.5159 10.1062 -11.7370
  944 67.8717 -0.502384 -4.57348
  945 46.0244 -0.831830 -1.55000
  946 46.0304 -0.821443 1.53417
  947 0.334775 -2.02660 1.57114
  948 45.5146 -3.47094 -7.30416
  949 69.5043 -3.98919 -3.77738
  950 41.4255 0.0878195 -0.124702
  951 41.4315 0.0883627 0.123597
  952 69.6029 8.46701 -4.11973
  953 76.0762 -0.152932 -0.130573
  954 76.0729 -0.156731 0.167899
  955 45.5301 -3.45965 7.24808
  956 70.1260 -0.0772051 -1.82670
  957 81.3879 0.582791 5.97326
  958 72.1046 -0.942746 1.56140
  959 10.7570 2.90326 -6.25022
  960 74.9801 -0.392268 1.22666
  961 66.9833 0.518429 7.09583
  962 70.6709 9.83700 3.66681
  963 71.0143 0.828983 -8.42089
  964 48.1341 -2.67801 -4.30717
  965 77.2138 -2.69376 5.88253
  966 48.1632 -2.66580 4.25762
  967 2.01074 2.27618 0.0732155
  968 7.70836 1.45381 4.56726
  969 38.6546 -0.735936 3.01135
  970 38.6042 -0.737431 -3.03189
  971 69.2612 -1.59349 1.45087
  972 73.8690 12.9546 2.05464
  973 37.3869 3.52836 -18.5622
  974 61.8487 -3.90288 0.326537
  975 58.0257 -6.11713 -5.70210
  976 85.1648 16.4109 4.80418
  977 65.3393 -1.10323 0.211671
  978 65.3377 -1.09597 -0.211803
  979 71.9209 -1.26623 -2.63838
  980 65.5044 5.62847 -2.76035
  981 155.671 45.0021 30.4037
  982 12.8761 0.804279 -6.14247
  983 13.1095 0.670558 6.15937
  984 0.955237 -1.69948 0.0952524
  985 65.7757 3.61302 5.66519
  986 57.9970 -6.15217 5.65476
  987 72.3335 -3.38500 -6.77455
  988 78.7691 6.46172 8.27933
  989 76.2735 -6.15427 -6.66189
  990 111.800 23.6167 7.35447
  991 64.0551 -0.991313 0.0101288
  992 64.0467 -0.981639 -0.00992699
  993 75.3977 -3.03172 6.53596
  994 5.03193 7.38995 8.33458
  995 32.4369 -0.725365 4.33670
  996 32.3248 -0.716241 -4.38976
  997 39.2408 -2.00197 5.89636
  998 39.0983 -1.97329 -5.92343
  999 44.3874 -1.91543 4.19102
  1000 48.5086 -0.428819 -0.206702
  1001 48.5128 -0.425351 0.205643
  1002 127.885 39.1189 -24.3804
  1003 113.972 28.5012 11.0261
  1004 44.3521 -1.92663 -4.23198
  1005 77.6992 -0.326970 7.17987
  1006 68.7067 7.13607 -4.94129
  1007 48.5217 -4.13300 13.0538
  1008 62.8579 -7.41802 -6.74628
  1009 71.9392 -0.559014 -2.71474
  1010 31.7628 2.30669 15.0280
  1011 40.8144 -3.13334 10.4368
  1012 62.6015 3.16233 -3.53167
  1013 72.6466 -1.41120 -8.03368
  1014 96.3420 35.9533 40.3618
  1015 58.8011 1.74900 2.49900
  1016 81.4362 17.7712 -0.329407
  1017 60.4096 2.28176 -22.4511
  1018 60.7977 -6.45204 -3.71543
  1019 78.4915 -0.0415882 -0.329981
  1020 74.1462 6.83404 -7.91171
  1021 42.0158 -0.308252 1.05789
  1022 41.9977 -0.311467 -1.06985
  1023 1.47656 0.124150 -1.88241
  1024 48.1184 -2.29103 -3.57643
  1025 40.7685 -3.17471 -10.5243
  1026 48.0742 -2.28429 3.53067
  1027 70.9395 -2.13256 7.42671
  1028 63.5162 -3.95145 0.279872
  1029 66.3514 1.19840 -6.85920
  1030 68.2294 8.54250 1.44012
  1031 94.8673 5.27208 2.20652
  1032 70.4533 -5.32823 3.90110
  1033 43.6312 -3.56125 -7.99555
  1034 65.7061 2.29413 -6.39800
  1035 48.9815 -4.07346 -13.1338
  1036 95.1670 20.9212 -0.179721
  1037 63.6426 4.14058 3.21221
  1038 82.0976 -0.514161 -4.79557
  1039 61.1814 -6.45126 3.36848
  1040 70.3161 -2.19481 5.79667
  1041 69.9549 -3.66299 4.34648
  1042 69.5740 -3.46748 3.80895
  1043 86.3297 10.8935 -6.40982
  1044 69.2194 -1.09757 5.78916
  1045 62.7352 -7.43909 6.62977
  1046 66.9823 -2.70803 1.45729
  1047 43.6562 -3.56650 7.94311
  1048 62.6782 -4.66676 -0.436049
  1049 35.7387 -1.71227 -11.1702
  1050 51.6740 -5.40121 8.77902
  1051 70.6438 -0.451508 -3.12382
  1052 68.5755 -0.765478 -6.53560
  1053 59.2860 -4.76151 -2.15929
  1054 35.8017 -1.76664 11.0729
  1055 63.4285 0.132653 -4.47538
  1056 46.9054 -3.20997 -5.61640
  1057 86.6465 18.6317 3.11209
  1058 18.5358 3.23239 -10.4106
  1059 153.302 10.8612 15.0418
  1060 34.1062 2.68204 -15.7721
  1061 69.5930 -5.74988 -2.62431
  1062 46.9139 -3.18044 5.56395
  1063 62.6742 0.625790 4.98209
  1064 34.2364 -0.737593 3.58592
  1065 34.2149 -0.756248 -3.62628
  1066 70.2493 -1.93303 -6.87052
  1067 75.5810 -0.307532 0.536459
  1068 73.6217 -0.139817 1.40009
  1069 72.4181 2.42546 8.50955
  1070 67.4719 -0.507844 6.11503
  1071 52.7962 5.53711 24.3241
  1072 79.0557 -0.0310087 0.169242
  1073 72.6743 9.90433 5.41117
  1074 60.8058 0.839869 4.27587
  1075 74.7103 -0.256298 1.35520
  1076 46.4332 -0.552344 -0.852047
  1077 46.4385 -0.545802 0.845026
  1078 29.1265 -0.862337 -5.97082
  1079 29.2549 -0.893131 5.92335
  1080 60.9957 2.98929 1.78838
  1081 95.3498 4.64741 -5.80202
  1082 87.5668 -0.423318 -12.2583
  1083 68.2197 -0.0515679 -1.88026
  1084 51.7042 -5.44302 -8.85060
  1085 59.4087 -4.52741 1.88949
  1086 68.6556 -0.149556 1.96440
  1087 72.4153 -5.21732 -4.53935
  1088 43.4908 -0.126882 0.519612
  1089 43.4831 -0.128956 -0.523615
  1090 69.4567 -5.91487 2.62402
  1091 65.9029 -1.29477 0.368248
  1092 65.8923 -1.29549 -0.363025
  1093 64.0531 -6.48451 1.90451
  1094 83.5982 -2.75219 0.0451311
  1095 35.7408 -0.0723249 -1.01413
  1096 35.8046 -0.0697990 1.00175
  1097 56.3023 -3.48865 -15.0461
  1098 59.4274 -1.42397 0.162202
  1099 59.4348 -1.43347 -0.165006
  1100 36.2399 18.9815 26.6921
  1101 83.4896 6.79677 -7.06806
  1102 11.6239 5.84757 -7.66318
  1103 72.1619 -0.999038 -1.51151
  1104 18.4945 6.55029 -11.9200
  1105 38.8588 -2.51352 -7.61856
  1106 79.1464 -0.0471832 0.0958263
  1107 79.1875 -0.0418312 -0.0724845
  1108 70.6551 -4.00182 -5.20598
  1109 62.6004 -6.99034 -9.45506
  1110 18.5402 2.75116 9.92090
  1111 76.7627 7.63137 7.78428
  1112 70.0293 -0.617206 -0.148505
  1113 70.0347 -0.618244 0.155893
  1114 77.0572 -5.04252 11.3985
  1115 78.3973 15.8739 3.03831
  1116 45.4354 -1.16887 -2.24096
  1117 45.4441 -1.16251 2.22159
  1118 34.9753 4.10728 18.7170
  1119 66.2011 0.317559 -6.65134
  1120 20.2810 6.70188 12.8624
  1121 86.9652 -1.64133 -3.09282
  1122 84.1625 18.8783 0.970992
  1123 57.4769 -4.63257 2.73829
  1124 51.6908 0.237774 -0.268369
  1125 74.0044 -0.596670 1.77771
  1126 76.8940 -0.0644839 0.698825
  1127 15.2821 0.0387703 -2.98341
  1128 15.5308 0.0301204 2.96083
  1129 58.7124 0.928036 -3.15694
  1130 61.4579 -1.80909 -2.86306e-05
  1131 61.4416 -1.79863 -0.000846434
  1132 6.27841 8.54376 -8.83138
  1133 10.1718 20.0516 -18.3622
  1134 62.3046 -2.44176 -0.132014
  1135 62.3324 -2.44375 0.129427
  1136 64.5380 -1.52070 0.415403
  1137 64.5286 -1.51617 -0.408799
  1138 16.4186 10.5709 12.8485
  1139 49.8772 -0.664680 -0.392710
  1140 49.8804 -0.659319 0.390169
  1141 63.2619 4.74042 -0.0782463
  1142 83.7679 9.53006 -28.1794
  1143 78.1245 13.5692 -5.19879
  1144 71.4472 -2.71457 -7.07616
  1145 70.4184 -3.47766 -5.23658
  1146 57.5250 -4.67828 -2.78864
  1147 56.9087 0.164509 1.94901
  1148 64.8496 4.00676 -4.73021
  1149 63.8648 3.39479 4.50618
  1150 66.9363 -2.62568 -1.43395
  1151 63.6878 -3.86894 -0.324360
  1152 57.5600 -3.80238 -2.00168
  1153 68.8629 -0.392697 3.66573
  1154 124.914 12.6766 1.78375
  1155 69.4049 -1.46238 6.68364
  1156 69.4008 4.56093 7.17830
  1157 64.3632 -6.36987 -1.28451
  1158 7.24463 1.34098 -4.39624
  1159 65.5745 -3.02068 -1.13938
  1160 41.7426 -0.0863345 -0.0210782
  1161 41.7475 -0.0860244 0.0206977
  1162 80.6196 -2.12749 4.20268
  1163 76.8609 -6.44895 1.95675
  1164 110.925 20.0603 4.62635
  1165 24.5624 -0.0662757 -2.51120
  1166 24.7337 -0.0606381 2.48959
  1167 58.0415 -1.18726 -0.168569
  1168 58.0370 -1.17852 0.166542
  1169 65.8136 -5.82797 0.372649
  1170 52.1966 0.209393 0.875773
  1171 67.4517 -4.79948 2.07495
  1172 3.51969 4.18985 -1.73706
  1173 11.5238 5.91864 7.50520
  1174 44.6539 -2.35114 14.5605
  1175 77.7323 14.9596 -3.70440
  1176 75.0114 -0.188205 -1.06789
  1177 79.5113 -0.105854 0.0732679
  1178 79.6047 -0.153230 -0.0511329
  1179 43.7072 -0.135344 -0.0790731
  1180 43.7130 -0.134354 0.0782351
  1181 71.6092 4.59625 8.19737
  1182 107.609 18.6481 -0.392081
  1183 73.6452 12.2746 -3.68930
  1184 55.3050 -3.99856 14.9467
  1185 44.4147 -2.24935 -14.5356
  1186 49.0314 -3.38830 -4.99918
  1187 69.2775 -1.87440 1.81110
  1188 97.3062 21.2875 -0.255909
  1189 49.0299 -3.36573 4.95358
  1190 70.9496 -1.15833 1.37363
  1191 62.0397 2.25466 4.29020
  1192 69.0771 2.13206 7.83745
  1193 99.7952 22.3916 1.60389
  1194 58.1679 -1.54190 0.325559
  1195 58.1729 -1.55096 -0.329307
  1196 71.8085 -1.27904 2.73523
  1197 40.8345 -0.481931 1.67281
  1198 40.8055 -0.487099 -1.69092
  1199 70.3097 -0.871073 -0.662933
  1200 28.5117 16.8125 -25.6661
  1201 60.8250 -3.39005 -15.9912
  1202 56.4593 -1.81968 -0.708329
  1203 56.4629 -1.80978 0.708295
  1204 75.9526 -0.286930 0.471248
  1205 71.4325 -0.848361 1.10477
  1206 3.62851 4.33552 3.05070
  1207 78.3335 -0.0611175 0.381410
  1208 8.81622 10.8271 10.7366
  1209 69.6459 -0.957197 -0.841104
  1210 -0.124530 -1.75611 -1.52943
  1211 48.5601 -4.72998 -11.2348
  1212 48.4089 -4.61226 11.1143
  1213 78.3353 -0.113934 -0.416708
  1214 66.0122 -3.47565 -1.32020
  1215 75.8782 -0.254251 -0.494382
  1216 59.5679 -1.95046 -0.230634
  1217 59.5591 -1.94129 0.225076
  1218 70.2608 -0.863342 0.627609
  1219 65.5253 -2.96315 1.12738
  1220 62.8803 -2.01207 -0.270782
  1221 62.9055 -2.01967 0.279770
  1222 75.8326 -0.262488 -0.407329
  1223 64.9484 -6.79029 -10.7105
  1224 74.0326 -0.367113 -0.428262
  1225 69.9652 -0.987594 0.890557
  1226 47.2435 -0.574634 -0.616212
  1227 47.2482 -0.568694 0.611369
  1228 53.3692 -0.822146 -0.282265
  1229 53.3695 -0.815571 0.280194
  1230 88.5641 13.7339 5.55380
  1231 74.2905 -5.65903 3.60783
  1232 50.5806 -0.179575 18.5582
  1233 38.8255 -0.0847306 0.640483
  1234 38.7922 -0.0855530 -0.648158
  1235 69.9380 -1.26551 5.06778
  1236 67.1341 -0.943766 0.233529
  1237 67.1393 -0.939759 -0.233370
  1238 76.3966 15.0368 1.71497
  1239 70.7849 -7.37851 8.26843
  1240 39.1447 -0.602614 2.37610
  1241 39.1036 -0.607680 -2.39689
  1242 66.9887 -1.57996 0.798245
  1243 66.9747 -1.59004 -0.780693
  1244 69.2432 -1.84803 -1.75296
  1245 62.4897 0.00486351 2.32148
  1246 111.261 27.6046 -8.45713
  1247 70.4138 -2.53373 -4.61685
  1248 11.3015 2.86095 6.44545
  1249 72.8274 -3.83994 6.39008
  1250 56.9421 1.18471 -1.72357
  1251 3.99608 3.17663 2.11730
  1252 97.3241 10.3344 0.490305
  1253 71.0080 -3.19826 -6.36730
  1254 57.2420 0.763986 2.63605
  1255 39.1476 -2.51621 7.59750
  1256 72.3316 -5.56195 4.12484
  1257 106.709 19.3570 4.71335
  1258 23.4600 3.61429 12.7061
  1259 72.8262 -0.795526 -2.34678
  1260 144.466 1.58016 -1.49434
  1261 149.655 2.28057 6.72042
  1262 160.385 5.61596 -15.8521
  1263 70.2295 -2.15547 -5.63224
  1264 70.3281 -3.17160 4.91817
  1265 71.5478 -5.05662 4.74925
  1266 -2.12468 0.209425 1.37458
  1267 -1.94454 0.156795 -1.48300
  1268 69.7904 -7.67607 -3.47410
  1269 71.6631 -7.20378 -5.52884
  1270 52.6240 0.308266 -1.08497
  1271 69.5387 -7.82436 5.56522
  1272 74.1410 -3.47842 -6.50827
  1273 1.16336 2.07752 -0.0246485
  1274 59.6063 -1.08230 0.163982
  1275 59.6119 -1.09140 -0.164422
  1276 73.9968 -0.522642 1.62571
  1277 70.9541 -1.13527 -1.29884
  1278 66.5534 -7.27308 -1.57661
  1279 60.3362 -3.31551 0.628449
  1280 60.0138 -3.27177 -0.729952
  1281 71.4196 -1.45537 3.65653
  1282 73.1451 -2.65216 -7.32709
  1283 4.15496 3.31311 -2.01190
</Section>

newXOutput 11

<Section columns = "stress_xx | stress_yy | stress_xy">
  1 88.8683 0.0149775 0.190836
  2 88.8792 0.0156865 -0.191624
  3 45.5025 -0.0281028 -0.0692796
  4 -0.589966 -0.587474 -0.847300
  5 166.245 61.4545 51.1856
  6 164.610 63.8935 -51.6603
  7 -0.683970 -0.562048 0.896433
  8 45.4975 -0.0283056 0.0690352
  9 89.5642 -0.133130 0.0636125
  10 89.3374 -0.217328 -0.0317154
  11 89.0671 -0.130419 0.233103
  12 88.8025 -0.192972 0.0882243
  13 88.2397 -0.157290 0.368459
  14 87.7366 -0.162303 0.283010
  15 86.6019 -0.145112 0.521843
  16 85.0377 -0.0805920 0.762941
  17 83.6307 -0.0971935 0.837178
  18 81.5919 -0.156256 0.998713
  19 78.8233 0.00569216 1.45849
  20 76.2635 -0.115680 1.37138
  21 73.4224 -0.162440 1.91229
  22 69.3093 0.117329 1.64862
  23 66.3870 0.161397 1.93626
  24 62.5803 0.281623 1.50339
  25 59.9717 0.272360 1.51011
  26 56.1864 0.403242 0.766121
  27 55.4014 0.638683 0.817673
  28 54.9339 0.510927 -0.240066
  29 55.5873 0.274193 -0.534325
  30 56.7832 0.281966 -0.653017
  31 59.6148 0.367696 -1.30910
  32 62.3637 0.289714 -1.66771
  33 66.4460 0.0473747 -1.98567
  34 69.7208 -0.0486702 -1.82652
  35 73.2518 -0.131129 -1.81104
  36 76.4695 -0.0892380 -1.28851
  37 79.2736 -0.0878881 -1.11372
  38 81.6148 -0.150887 -0.945787
  39 83.7371 -0.100861 -0.674639
  40 85.0939 -0.112532 -0.722865
  41 86.4030 -0.150899 -0.531768
  42 87.6685 -0.183661 -0.250469
  43 88.3262 -0.143761 -0.282612
  44 88.7020 -0.0756952 -0.183702
  45 88.5083 -0.0219785 -0.166674
  46 89.4466 -0.223235 0.0164696
  47 89.6014 -0.140369 -0.0657413
  48 86.3470 -0.00718747 -0.117423
  49 84.2041 -0.279585 -0.200755
  50 81.6188 -0.430201 -0.146714
  51 78.4869 -0.678673 -0.196875
  52 75.5451 -0.756712 -0.251465
  53 72.4241 -0.990191 -0.236106
  54 69.6786 -1.12653 -0.141683
  55 67.2725 -1.29464 -0.0664416
  56 64.5036 -1.08327 -0.0679682
  57 61.3144 -1.02988 -0.0907836
  58 58.2353 -0.828910 -0.0415324
  59 55.3121 -0.544808 -0.0225439
  60 52.5258 -0.399805 -0.00731792
  61 50.0686 -0.220039 0.0163610
  62 47.5375 -0.0704676 -0.0808043
  63 45.5427 0.0613257 0.0841120
  64 44.6658 0.194527 0.0504467
  65 45.3198 -0.00480223 0.130211
  66 44.6970 -0.0351144 0.154095
  67 44.1448 -0.0483245 0.193223
  68 43.3805 -0.0137159 0.258448
  69 42.4136 -0.00832326 0.330274
  70 41.7416 -0.0722516 0.656475
  71 39.6467 0.0592953 0.720829
  72 38.1998 -0.00938669 0.836452
  73 36.0431 -0.0452438 0.945885
  74 33.5447 -0.0727620 1.15522
  75 30.4271 -0.0203187 1.40259
  76 26.6232 0.0148795 1.53855
  77 23.4036 -0.0438377 2.19428
  78 16.9244 0.212498 2.05315
  79 12.5883 0.184375 2.17285
  80 7.46321 -0.0257472 2.38575
  81 3.27675 0.423894 2.44712
  82 -1.45519 0.615897 1.40311
  83 -4.80914 0.621205 0.418416
  84 -4.47218 0.580065 -0.347222
  85 -4.06404 0.473497 -1.25777
  86 -2.36784 -0.182211 -1.16392
  87 -0.310722 -2.27362 -1.27592
  88 0.189755 -4.23460 -1.63318
  89 0.578534 -6.88126 -1.01030
  90 1.31484 -7.39706 -0.169064
  91 2.82407 -3.02351 3.41863
  92 8.65821 11.0403 12.4878
  93 53.7418 45.5235 45.2762
  94 200.186 29.4287 34.0737
  95 179.227 4.25620 11.2796
  96 165.558 1.72596 3.45205
  97 160.489 1.44465 0.281579
  98 163.095 1.95070 -2.96314
  99 178.661 3.91844 -8.91219
  100 213.643 14.2327 -29.7813
  101 31.5498 45.9057 -37.5223
  102 6.50201 6.60549 -10.1621
  103 3.06862 -2.71319 -3.47982
  104 1.22175 -7.49411 -0.381346
  105 0.307033 -5.31458 1.17854
  106 0.416544 -5.31890 1.43027
  107 0.00705974 -1.98129 1.41071
  108 -2.46756 -0.131604 1.11138
  109 -4.19562 0.355091 1.10541
  110 -4.70342 0.707904 0.374921
  111 -4.97238 0.614856 -0.376183
  112 -1.79316 0.631413 -1.30594
  113 2.97138 0.427888 -2.32821
  114 7.15017 0.0179573 -2.34613
  115 12.2679 0.199593 -2.17887
  116 16.6332 0.218536 -2.07093
  117 23.1775 -0.0447224 -2.21534
  118 26.4289 0.0169893 -1.55551
  119 30.2581 -0.0194533 -1.42221
  120 33.4569 -0.0798606 -1.16575
  121 35.9290 -0.0435510 -0.949449
  122 38.1145 -0.00659758 -0.846491
  123 39.5781 0.0584289 -0.730238
  124 41.6942 -0.0728850 -0.664486
  125 42.3771 -0.00873935 -0.335261
  126 43.3547 -0.0141009 -0.262579
  127 44.1270 -0.0489522 -0.196525
  128 44.6852 -0.0356502 -0.156422
  129 45.3113 -0.00528532 -0.131719
  130 44.6598 0.194185 -0.0511671
  131 45.5373 0.0611757 -0.0845504
  132 47.5314 -0.0710287 0.0805172
  133 50.0622 -0.221439 -0.0169369
  134 52.5202 -0.402955 0.00663299
  135 55.3083 -0.549209 0.0218724
  136 58.2339 -0.835241 0.0408846
  137 61.3159 -1.03781 0.0902840
  138 64.5083 -1.09236 0.0675215
  139 67.2795 -1.30462 0.0662855
  140 69.6870 -1.13642 0.142029
  141 72.4352 -0.999184 0.237079
  142 75.5531 -0.763045 0.255020
  143 78.4909 -0.684312 0.213626
  144 81.6307 -0.401533 0.150114
  145 84.2641 -0.270158 0.196482
  146 86.3557 -0.0203916 0.115809
  147 76.2684 -7.15646 -1.25051
  148 76.2115 -7.06156 1.27850
  149 79.4054 11.4681 -4.29201
  150 85.2743 5.05770 9.28564
  151 64.5017 -6.14685 -13.7036
  152 65.0050 -6.14587 13.2369
  153 61.9573 -2.70402 1.42561
  154 61.9662 -2.74418 -1.42821
  155 90.8803 3.22832 -7.48703
  156 76.0617 -2.68493 2.18238
  157 76.0316 -2.61627 -2.15403
  158 98.3188 22.2308 1.37398
  159 77.4832 -0.121049 -8.89127
  160 56.7632 -4.57683 -6.06016
  161 56.7566 -4.53591 5.99906
  162 77.7295 -1.73539 8.11111
  163 73.2093 5.31212 5.20652
  164 29.7928 4.97188 -16.3312
  165 33.1877 4.69689 17.2332
  166 96.4793 0.952001 1.96641
  167 78.1294 -2.95659 -5.80482
  168 103.998 22.8935 -1.39408
  169 70.0939 -1.95798 0.261330
  170 70.0774 -1.94992 -0.253929
  171 79.4648 -0.866168 -0.972426
  172 79.7475 -0.766098 0.846264
  173 53.9123 -0.838955 -0.910359
  174 53.9158 -0.829617 0.904027
  175 86.0596 -2.48086 17.3788
  176 70.7016 2.88641 -5.59729
  177 45.8599 -3.49207 -9.94322
  178 45.9998 -3.46560 9.86880
  179 51.3253 -1.77971 -3.18058
  180 51.3263 -1.75794 3.15204
  181 78.5504 -2.01558 4.92929
  182 71.1541 -4.91645 0.364268
  183 70.8840 -4.87956 -0.237850
  184 81.5571 -7.84349 -0.515473
  185 81.9568 -7.47114 -0.515531
  186 113.178 26.5668 -2.89705
  187 81.0252 13.1126 4.02863
  188 81.4719 5.02050 -9.18914
  189 85.8750 -0.997639 -20.3674
  190 81.2056 -4.54710 -6.74627
  191 81.8817 -3.22850 7.81334
  192 67.9738 -7.73934 6.43250
  193 68.0081 -7.68788 -6.40839
  194 72.0852 0.889749 6.76298
  195 32.2855 -0.731876 -12.1022
  196 32.3732 -0.807910 12.0195
  197 128.476 19.4128 2.71017
  198 76.7994 -4.54916 3.86635
  199 79.8397 -1.40184 -3.27485
  200 62.3146 -1.56576 -0.602508
  201 62.3133 -1.55616 0.599579
  202 76.0753 -0.976861 -6.21858
  203 86.9305 12.8210 -7.51078
  204 71.8542 6.42716 -1.04791
  205 45.9652 -1.71950 4.55383
  206 45.8912 -1.72624 -4.59374
  207 81.2774 -0.820130 1.86005
  208 78.3802 1.47979 9.12219
  209 63.3754 -4.71412 -2.68033
  210 62.9009 -4.46582 2.77248
  211 93.0346 13.8052 7.18275
  212 110.804 14.4708 0.953040
  213 6.87743 5.57144 -4.18228
  214 6.34265 5.15082 3.52944
  215 44.7966 12.6430 29.3219
  216 76.0063 -5.03520 -3.11741
  217 81.6191 -0.788908 -1.68376
  218 71.1882 0.591979 -6.22251
  219 48.9124 -0.542634 -1.40002
  220 48.9253 -0.536261 1.38503
  221 67.9883 -3.22529 -0.262880
  222 68.0186 -3.24258 0.222701
  223 76.8202 -1.01948 5.32112
  224 89.6257 -5.21510 1.00101
  225 87.8398 18.1690 -2.21994
  226 68.9007 -6.71354 -2.75176
  227 87.9307 -1.50654 6.39553
  228 74.5607 -1.17863 0.432123
  229 74.5640 -1.16737 -0.431370
  230 68.3523 -6.68028 2.89327
  231 78.7065 -4.95660 5.56778
  232 112.679 13.6507 -5.49872
  233 23.9360 14.2903 -20.8254
  234 65.1790 2.22315 1.31840
  235 78.4978 6.94010 7.65477
  236 84.3277 -0.561295 -8.43544
  237 78.5352 -2.79699 -7.66564
  238 40.4313 -1.37050 -5.75630
  239 40.5825 -1.34869 5.73242
  240 78.7247 -0.910219 -4.17756
  241 75.0930 -1.84032 1.23140
  242 75.0579 -1.83600 -1.19785
  243 14.8235 1.48496 -7.52956
  244 15.0958 1.30353 7.50783
  245 84.3277 -7.34617 -5.65369
  246 83.5774 -0.210377 0.289384
  247 83.6843 -0.215263 -0.304450
  248 76.5259 6.34027 -6.97846
  249 66.6221 1.22146 4.02995
  250 145.265 23.2999 15.5148
  251 144.234 16.4335 -9.81699
  252 102.250 22.3411 -0.401330
  253 63.7163 -3.01651 18.3945
  254 58.3108 -1.89652 -19.2796
  255 66.4991 -1.36169 -0.145129
  256 66.4914 -1.35129 0.143244
  257 54.4005 -1.54033 1.87572
  258 54.4046 -1.56290 -1.89623
  259 81.0295 -0.811074 2.65733
  260 78.4054 -5.55335 -4.71329
  261 49.0281 -0.122429 -0.316303
  262 49.0352 -0.120531 0.313706
  263 77.4076 -3.08414 -3.70951
  264 31.4578 -1.05868 -7.94726
  265 31.6104 -1.06245 7.88254
  266 78.2811 -3.35662 6.24501
  267 59.3534 -6.30240 10.9963
  268 59.5245 -6.41620 -10.9640
  269 66.2357 2.47056 -1.87539
  270 57.1338 -0.929376 -0.608840
  271 57.1359 -0.922203 0.605698
  272 72.6836 -0.199144 5.02631
  273 87.4886 16.1611 5.24026
  274 45.3695 -0.607021 2.42652
  275 45.3340 -0.612538 -2.45096
  276 80.6738 -6.69252 3.60447
  277 74.6826 -8.33886 -7.00330
  278 83.8147 -0.324604 0.889572
  279 56.7497 -3.47777 -4.08755
  280 56.6369 -3.43661 4.06811
  281 104.854 9.73460 25.8622
  282 47.5324 -3.81408 13.2395
  283 77.1557 10.8805 -0.458153
  284 99.2979 10.7618 -5.29697
  285 74.1981 -5.74751 1.59641
  286 74.7090 -8.57222 6.24091
  287 47.6972 -3.74714 -13.4057
  288 8.55014 10.5102 9.29307
  289 77.4197 -3.09762 3.77419
  290 102.416 13.1484 4.46051
  291 84.5644 -0.288328 -0.770965
  292 75.2268 2.61050 -8.02962
  293 74.7863 -4.21435 2.28438
  294 73.1678 -6.19601 -0.427048
  295 74.9038 3.42354 7.71948
  296 80.2640 -6.70008 -3.29144
  297 114.322 22.4886 -1.66308
  298 74.7653 -4.04789 -2.19148
  299 62.7160 17.3418 -36.2736
  300 76.6416 -8.10713 -0.756815
  301 76.0771 -8.32578 1.64883
  302 55.0591 -5.05660 -8.66375
  303 48.6028 -0.219094 -0.698148
  304 48.6130 -0.215326 0.691118
  305 55.0745 -5.05857 8.61047
  306 80.8220 -0.117508 -9.29130
  307 87.8962 -3.62271 -4.56453
  308 66.0284 -4.04599 -1.23175
  309 65.9749 -4.05466 1.25864
  310 80.1740 -6.89653 11.5521
  311 79.4179 -0.601102 3.16691
  312 97.7491 0.188951 3.19703
  313 64.5342 -2.32282 -0.635889
  314 64.5361 -2.31304 0.630266
  315 58.3208 -1.58636 -1.17693
  316 58.3177 -1.57006 1.17403
  317 65.8641 0.843398 -3.90127
  318 86.3283 6.33499 -9.04840
  319 135.667 36.2850 -16.5755
  320 79.0021 -0.597374 -0.339279
  321 78.9487 -0.588426 0.346292
  322 41.4027 0.0302250 16.5196
  323 58.1091 -2.73300 -2.62302
  324 57.9847 -2.72092 2.62867
  325 41.3987 -0.0601564 -16.4572
  326 81.8923 9.70350 -7.54066
  327 92.5899 4.53684 7.20952
  328 80.2310 -5.72901 -12.9114
  329 73.0391 -2.79436 1.15450
  330 72.9594 -2.77097 -1.11963
  331 78.3093 -1.54469 -1.88431
  332 72.7462 -0.149943 -4.70496
  333 82.4125 0.388882 9.16080
  334 82.7189 -0.520530 -1.85014
  335 48.3082 -3.03369 6.63397
  336 48.2561 -3.05244 -6.69282
  337 76.2408 -0.177211 8.41378
  338 45.5446 -0.415778 -1.42308
  339 45.5735 -0.411718 1.40752
  340 78.8466 -1.74385 2.81163
  341 94.3725 19.4148 -4.14229
  342 78.2569 -1.55923 1.94833
  343 82.8584 10.4642 7.58922
  344 79.4485 -1.45141 8.85744
  345 62.2092 -1.19196 0.198103
  346 62.2117 -1.20059 -0.200235
  347 74.7876 -0.276821 -7.45404
  348 99.9885 21.1290 3.02620
  349 82.3671 15.2365 0.159245
  350 50.6134 5.93835 -24.7778
  351 4.61271 2.26140 -3.08533
  352 5.12619 2.44182 3.35003
  353 -0.410679 0.492408 1.66371
  354 -0.0718406 0.222491 -1.72356
  355 149.516 10.3615 3.63986
  356 68.3402 -5.61212 -1.42615
  357 78.9243 -1.68018 -2.74626
  358 70.7968 -1.20165 0.195084
  359 70.7885 -1.19039 -0.195294
  360 75.2620 8.31897 -3.77291
  361 64.4349 -6.63729 5.27443
  362 5.32401 7.82631 -5.56322
  363 64.5116 -6.63900 -5.38521
  364 76.3100 8.69052 4.01546
  365 78.5586 -2.04742 -4.71212
  366 83.5898 -4.62258 -5.93463
  367 88.4358 18.8978 1.53846
  368 83.8284 -5.18602 5.06106
  369 33.0357 -0.871468 5.33782
  370 32.8167 -0.855023 -5.37851
  371 18.3348 0.502777 -7.29112
  372 18.5603 0.421433 7.25596
  373 67.0090 0.170330 3.95776
  374 131.867 37.8137 13.5607
  375 81.4686 -0.474549 -2.29699
  376 62.6279 -5.38992 -3.99295
  377 62.5634 -5.37210 3.98647
  378 77.9572 -1.76532 -5.85826
  379 89.6465 -4.32696 1.63610
  380 68.3369 -5.60525 1.48351
  381 99.0579 0.421792 -6.93832
  382 53.8098 -0.479667 -0.211718
  383 53.8147 -0.475169 0.209400
  384 76.4321 -0.430651 -3.68713
  385 39.7448 -0.619250 -3.49524
  386 39.7734 -0.637987 3.44822
  387 91.9727 11.7323 -7.89409
  388 49.3149 3.53101 22.9440
  389 71.6286 -3.77005 0.810060
  390 71.7014 -3.76187 -0.814693
  391 84.0097 14.3197 -4.85078
  392 79.8227 -2.33902 -8.45463
  393 80.5715 -8.19821 5.94496
  394 66.2563 -1.77263 -0.209057
  395 66.2463 -1.76211 0.204820
  396 77.1329 -5.93688 3.36459
  397 83.6028 -0.353438 1.38744
  398 50.5134 -1.93988 -4.01789
  399 50.5313 -1.93844 3.97799
  400 77.9042 2.61083 -8.98035
  401 73.8671 -1.54568 0.664298
  402 73.8654 -1.54846 -0.652764
  403 76.0781 -0.883835 6.90438
  404 70.2425 5.07352 1.78655
  405 79.2218 -3.31087 7.45927
  406 115.486 24.3703 3.82687
  407 37.2030 -2.01751 -10.6366
  408 37.3130 -2.01899 10.5466
  409 16.4196 9.00447 -12.2935
  410 85.9204 -0.191514 0.414074
  411 41.4138 -0.392467 -2.20507
  412 41.4734 -0.384125 2.18319
  413 78.0385 -2.00323 5.75903
  414 70.7360 -7.70744 3.19265
  415 80.4624 -0.916855 1.34216
  416 81.3424 4.15083 9.43431
  417 17.2855 9.58744 12.8800
  418 70.8529 -7.66862 -2.89031
  419 73.2709 -6.83141 -0.0537357
  420 22.6135 -0.457471 -6.65430
  421 22.8103 -0.476647 6.60346
  422 55.9983 -4.40969 -15.9777
  423 84.3739 -1.22314 8.25964
  424 55.7525 -4.48560 15.8257
  425 77.7953 -4.34019 -5.02128
  426 71.3316 4.76614 -3.93924
  427 77.8173 -3.32152 4.73477
  428 84.4786 -0.317632 -0.966385
  429 2.33961 2.34763 0.782210
  430 16.4914 18.6047 18.3651
  431 74.2894 -0.277512 3.52790
  432 61.1826 0.784893 1.69535
  433 62.3661 0.970446 -2.30855
  434 53.2237 -0.947454 -1.32154
  435 53.2258 -0.934643 1.31063
  436 76.7183 -5.93521 -3.12883
  437 77.2360 -1.49460 -7.76332
  438 61.5570 1.09099 -0.627575
  439 115.594 27.4477 4.68877
  440 15.0875 5.22354 -9.17099
  441 16.7097 4.79784 9.84869
  442 71.5635 -2.53608 0.676481
  443 71.5340 -2.52764 -0.655312
  444 95.5732 21.4151 -0.352182
  445 61.0180 23.5316 37.0656
  446 92.8435 -1.38041 -2.36648
  447 51.8167 -2.79960 -5.45571
  448 51.8379 -2.77846 5.40253
  449 51.8993 -1.23540 2.10429
  450 51.8929 -1.24546 -2.12724
  451 70.9487 1.53081 -6.39048
  452 86.4221 -0.0725000 -0.282250
  453 68.7438 3.09655 3.56550
  454 88.2982 10.9383 8.34719
  455 73.3725 -5.45863 -1.27998
  456 80.4424 -0.866575 -1.30099
  457 84.8586 -0.282094 0.891095
  458 86.1872 -0.0744630 0.162085
  459 86.2725 -0.0904301 -0.124160
  460 45.0632 -0.0999390 0.516981
  461 45.0428 -0.101328 -0.523569
  462 80.5061 -5.07739 6.05691
  463 71.6651 2.78794 6.18487
  464 75.3138 0.295858 -8.18515
  465 79.3187 -1.61351 3.55801
  466 117.161 18.1121 -21.1842
  467 79.3949 -4.37383 -6.63786
  468 0.417675 1.44737 0.392947
  469 0.425506 1.45710 -0.00121415
  470 62.1893 -3.60726 2.14424
  471 61.9666 -3.56268 -2.12390
  472 100.289 1.35678 11.0236
  473 27.5396 24.1129 -27.6990
  474 78.1426 -0.216756 2.78476
  475 89.7286 -5.27648 -5.94785
  476 46.1941 -2.74072 7.71357
  477 95.3713 16.9354 -5.93425
  478 78.2384 -4.20340 5.61664
  479 65.1138 -3.16983 -0.908498
  480 65.1719 -3.11480 0.903908
  481 66.9900 0.337439 -3.49987
  482 46.0441 -2.73174 -7.76962
  483 68.8691 0.00438807 3.53278
  484 66.9006 -7.63462 -9.69163
  485 66.7249 -7.64630 9.71627
  486 80.9360 -0.500653 2.52810
  487 72.4763 6.81112 0.739325
  488 75.2910 1.08794 25.0966
  489 110.174 22.7098 -0.144062
  490 75.8022 -1.20478 0.694253
  491 75.8092 -1.19982 -0.711783
  492 57.1128 -1.06948 -0.797513
  493 57.1139 -1.05966 0.793357
  494 29.8920 1.49206 13.7627
  495 78.5524 -3.75228 -6.45477
  496 71.0355 -1.51007 0.237247
  497 71.0283 -1.50341 -0.235035
  498 61.6074 -6.57193 7.93949
  499 30.4978 1.95516 -14.1250
  500 78.7931 -6.39461 -3.55811
  501 1.21546 -0.00820835 0.872208
  502 67.5984 3.43095 0.254205
  503 76.1256 -0.797864 -0.236421
  504 76.1210 -0.810864 0.232704
  505 61.6595 -6.56331 -8.00621
  506 89.8428 -4.71709 7.88598
  507 88.3869 3.22124 8.60136
  508 81.9002 -0.471159 -0.669380
  509 78.5503 -6.48776 3.59551
  510 47.3095 -0.0652970 -0.0846083
  511 47.3160 -0.0648010 0.0836056
  512 78.2598 -2.97785 -6.80691
  513 75.2129 5.56098 6.80464
  514 87.2671 2.16235 -8.48252
  515 47.0294 -0.0946264 -0.288624
  516 47.0380 -0.0934232 0.286133
  517 155.915 22.5019 -20.2861
  518 78.4092 9.37591 6.02819
  519 81.9811 -0.423988 0.599511
  520 73.4429 -6.97944 0.228104
  521 60.9792 -2.07861 1.14107
  522 60.9818 -2.09614 -1.13886
  523 86.0382 -5.20304 3.22515
  524 82.2919 -1.60979 -8.61287
  525 91.8486 18.2511 4.81934
  526 75.9931 1.29849 8.47663
  527 77.3024 -1.41246 1.25683
  528 75.2278 -7.98192 -9.19814
  529 77.5607 -1.89252 6.63932
  530 154.448 7.04198 -2.85836
  531 85.4469 -6.41302 -1.02992
  532 81.3892 -0.449192 -0.176771
  533 81.4065 -0.484533 0.161967
  534 156.026 10.4871 10.0781
  535 73.9672 -0.0378509 7.20927
  536 105.427 17.3849 -3.08571
  537 78.6058 -2.08143 -3.49707
  538 33.7767 -0.343702 -2.39566
  539 33.8953 -0.327409 2.36877
  540 52.4555 -4.93790 -11.0795
  541 52.4887 -4.85426 10.9905
  542 77.2625 -1.34871 -1.24214
  543 83.8841 3.09610 -9.32968
  544 73.6006 -5.01468 1.55840
  545 78.7789 9.05847 -6.27231
  546 80.0023 -0.879759 3.40548
  547 101.337 4.77104 0.0673179
  548 67.9286 -2.34074 -0.0747439
  549 67.9043 -2.33021 0.0707574
  550 74.1535 -3.48249 1.77330
  551 110.650 21.5096 -0.271754
  552 77.7897 3.40683 8.81267
  553 32.9241 8.52926 20.4564
  554 76.0757 -4.58276 16.5246
  555 101.764 4.27713 -18.0342
  556 79.5625 6.58964 -8.23252
  557 71.1639 -6.10497 -14.2793
  558 76.9867 -8.41133 -2.23108
  559 80.6240 -8.11962 -3.55624
  560 10.1580 12.8135 -12.1698
  561 80.9924 -0.951253 -2.18673
  562 122.679 23.9753 -6.53386
  563 74.5719 -3.33094 -1.91987
  564 75.2530 -2.40310 1.57985
  565 75.1812 -2.34447 -1.52596
  566 50.3567 -0.332522 -0.625742
  567 50.3641 -0.328156 0.620377
  568 6.47641 0.783285 -3.91705
  569 6.90660 0.818778 4.01331
  570 37.4054 -1.79436 -8.13714
  571 37.7112 -1.80325 8.11791
  572 76.2667 -4.10418 -3.32781
  573 77.9317 -8.44451 2.45865
  574 80.1275 -7.56924 1.29268
  575 64.8797 -1.15033 -0.187607
  576 64.8744 -1.14073 0.186320
  577 61.8839 -6.46125 -12.2384
  578 69.7334 -5.67597 15.1504
  579 60.3105 -6.06965 12.3191
  580 78.2776 -1.71877 -8.36501
  581 47.6975 -0.858897 2.41359
  582 47.6753 -0.868367 -2.43738
  583 74.1226 4.06743 -6.82294
  584 74.3571 -0.128661 -3.20301
  585 93.4401 20.5328 -2.23235
  586 60.2155 -0.946671 -0.205966
  587 60.2150 -0.939443 0.204676
  588 79.8620 -0.221577 -1.84371
  589 54.0074 -1.91983 -2.61278
  590 54.0039 -1.91171 2.58611
  591 44.5702 2.16971 19.6822
  592 77.7348 -3.53981 -4.79345
  593 42.6210 -2.20044 14.1013
  594 76.3833 -3.92975 3.38289
  595 80.7261 -1.06928 2.40078
  596 79.8305 -0.639550 -0.604881
  597 54.5204 -0.729439 -0.562050
  598 54.5242 -0.722916 0.558087
  599 89.5487 18.0540 -4.29073
  600 42.5942 -2.10840 -14.1624
  601 76.1381 -3.25710 -2.75337
  602 68.2676 -1.24809 -0.0614556
  603 68.2596 -1.23741 0.0610919
  604 131.007 17.7558 -3.05988
  605 43.8451 -0.313568 1.34484
  606 43.8061 -0.316764 -1.35953
  607 70.0125 1.56336 5.81722
  608 102.637 8.24382 -2.50530
  609 47.5896 0.440528 -19.5583
  610 23.5882 0.688049 -10.5134
  611 23.8018 0.540763 10.4563
  612 59.4259 -3.57222 3.17095
  613 60.0927 -3.67732 -3.06148
  614 103.163 20.7249 2.92022
  615 79.4729 -0.666257 0.556973
  616 66.6698 1.81279 -3.49883
  617 84.1968 15.2658 3.83273
  618 83.8550 15.8479 -2.54763
  619 68.9426 -3.85804 -0.168684
  620 69.4970 -3.76525 -0.0850960
  621 49.6968 10.7083 -28.3119
  622 58.6078 -2.08864 -1.71916
  623 58.6094 -2.06306 1.71097
  624 154.714 31.5988 23.7021
  625 78.2526 -2.53506 7.30130
  626 43.3974 -1.61851 -5.21466
  627 124.610 27.1092 17.1516
  628 43.5034 -1.60830 5.19053
  629 75.5162 -2.92594 -19.4263
  630 51.3420 -0.296092 -0.231610
  631 51.3480 -0.293453 0.230088
  632 64.0250 0.537407 3.04773
  633 28.2451 -0.448860 -4.69679
  634 28.4242 -0.449858 4.65541
  635 68.0240 -4.87457 1.01399
  636 71.5416 -5.76628 0.138026
  637 85.3121 -0.150450 -0.797962
  638 45.8296 -0.0918312 0.373185
  639 45.8152 -0.0933594 -0.378075
  640 63.8410 -1.46184 -0.239483
  641 63.8365 -1.45216 0.236438
  642 74.2459 -8.19784 9.32065
  643 84.9258 9.51478 -8.43353
  644 55.5841 -2.69964 -3.37953
  645 55.5366 -2.65261 3.35137
  646 66.7002 -4.87491 -1.61686
  647 106.192 23.3090 0.0433613
  648 79.6295 -7.67174 -0.834617
  649 68.5488 -1.62715 0.0180499
  650 68.5371 -1.61737 -0.0174398
  651 95.3448 10.3541 6.92927
  652 79.6574 -1.09547 -3.70390
  653 69.3073 -0.106013 -2.88247
  654 31.4171 -1.06604 -10.1926
  655 31.5248 -1.09963 10.1008
  656 66.5670 -5.82064 -2.82935
  657 100.513 22.4702 0.101380
  658 77.1992 10.4919 -2.71503
  659 50.1439 -0.508778 -1.17492
  660 50.1526 -0.501461 1.16333
  661 72.5078 -2.01241 -0.627671
  662 72.5222 -2.01641 0.645275
  663 137.974 18.1071 7.91195
  664 86.9451 -0.191055 0.231323
  665 83.4443 -0.290161 1.34572
  666 83.0614 -0.302594 -1.55593
  667 78.5837 -7.28869 1.96688
  668 56.5549 -0.704619 -0.281305
  669 56.5577 -0.698960 0.279631
  670 83.4191 13.4736 5.87041
  671 108.117 24.1729 -0.713295
  672 58.0517 -4.43072 -4.79465
  673 58.0266 -4.38411 4.76586
  674 73.5540 -7.59596 -0.924926
  675 77.1349 4.58133 -8.28023
  676 92.9049 0.197406 4.36766
  677 60.2648 -1.16450 -0.520002
  678 60.2643 -1.15584 0.516980
  679 52.1449 -4.62730 -10.0069
  680 77.8166 -7.50550 -1.22296
  681 64.2810 -7.14181 8.73803
  682 30.3213 9.69804 -19.7090
  683 59.6883 -5.61137 6.73029
  684 71.8972 0.0173157 2.68057
  685 52.1878 -4.57300 9.93237
  686 76.0905 -3.32430 2.78714
  687 59.7188 -5.59002 -6.79992
  688 60.0594 0.736240 0.636000
  689 46.3476 -1.32778 3.67948
  690 46.3052 -1.33027 -3.71002
  691 64.3337 -7.32819 -8.84036
  692 79.9444 -5.23129 -5.86480
  693 73.1690 -0.958076 -0.155507
  694 73.1801 -0.969777 0.156143
  695 81.7977 -5.16476 5.86978
  696 74.1546 -7.75621 1.20635
  697 90.3723 8.28787 8.41892
  698 81.2901 -1.48720 8.81189
  699 78.2149 -2.76389 5.47644
  700 73.9759 6.06176 -5.17439
  701 89.8498 15.2022 6.62764
  702 77.3993 -1.05090 -5.18630
  703 77.4273 -2.51257 2.98226
  704 79.3523 12.5029 1.47123
  705 78.6499 -1.29598 4.57765
  706 24.3185 16.4369 20.5907
  707 73.3081 -8.41660 -5.11843
  708 84.9021 1.57335 9.02087
  709 85.9410 -2.63202 -6.70704
  710 86.4127 -0.0718549 0.458799
  711 78.2300 -2.63649 -4.38315
  712 73.3974 -8.48433 4.59473
  713 145.348 12.8587 -2.16697
  714 41.9648 -0.203614 1.41044
  715 41.9113 -0.205980 -1.42592
  716 79.5810 -1.37140 -2.13213
  717 86.9731 -0.0510397 -0.442346
  718 66.4293 -5.91288 2.84596
  719 80.2593 -2.94926 8.05702
  720 124.184 28.7148 -7.46218
  721 76.0674 -5.50359 2.95940
  722 84.7382 -5.54047 -3.85546
  723 77.4614 -2.44125 -2.93646
  724 87.0366 -0.104275 -0.160897
  725 78.0587 0.00789384 9.01223
  726 3.43106 2.50890 4.03065
  727 89.5082 -3.59004 -12.1930
  728 97.0011 5.60359 4.80099
  729 80.5037 -8.18988 3.07934
  730 55.9913 -1.41930 1.41860
  731 55.9950 -1.44030 -1.42754
  732 77.0198 36.2648 -38.9381
  733 81.8461 -5.37255 -5.48188
  734 59.8040 0.258354 -1.21505
  735 70.8489 0.366242 5.70164
  736 78.7497 -3.90458 6.57045
  737 75.4879 -6.36107 1.80062
  738 79.0036 -7.15708 -10.0086
  739 74.9912 -5.93416 -1.91479
  740 89.3143 -4.27939 -1.93539
  741 82.1702 -0.593187 1.26446
  742 72.7132 -4.37835 1.17287
  743 134.487 26.9358 -14.0566
  744 77.8603 -2.01744 2.39799
  745 76.4353 1.24047 -8.71439
  746 65.8921 -0.778894 21.9378
  747 82.1431 6.64509 8.98696
  748 70.6225 -5.60074 0.250832
  749 53.8611 -4.34039 -7.26952
  750 53.8594 -4.32624 7.20270
  751 74.5348 8.37995 -1.21133
  752 76.2533 -0.870480 7.83790
  753 77.2401 -1.81800 -6.76324
  754 72.7995 -4.46492 -1.20091
  755 70.3056 -6.34798 1.30644
  756 79.9919 13.2943 -1.67938
  757 75.3906 -6.52361 -1.50135
  758 75.5600 -4.76846 2.84898
  759 76.7849 -0.899920 0.481499
  760 76.8387 -0.872233 -0.479569
  761 103.341 22.9345 1.01550
  762 84.8396 -7.18088 -1.69418
  763 78.4751 -2.35184 4.35200
  764 82.2294 -0.588566 -1.16113
  765 82.5038 0.572443 -9.24534
  766 94.5964 4.86865 -6.03028
  767 44.2283 -0.0602179 -0.648258
  768 44.2564 -0.0594881 0.640489
  769 0.582082 -1.62216 -1.17037
  770 80.0657 -0.0723952 1.71183
  771 72.6587 -0.145712 -6.33882
  772 75.3499 -0.701847 5.65024
  773 70.0030 8.18026 32.5350
  774 85.8600 17.8550 -0.205165
  775 60.6469 -4.44663 3.64386
  776 9.61628 0.257054 -3.92495
  777 9.94877 0.192729 3.96890
  778 74.6019 -0.535570 -6.34667
  779 60.8307 -4.49386 -3.64047
  780 81.7298 -0.650537 0.985784
  781 40.1940 -1.78220 6.95302
  782 39.8284 -1.77691 -6.96244
  783 77.8617 -1.95564 -2.33810
  784 48.2253 -1.30053 -3.18945
  785 48.2484 -1.29107 3.15650
  786 81.2197 -0.705349 -2.59314
  787 60.9377 -1.68541 -0.906604
  788 60.9369 -1.67295 0.906535
  789 88.8126 -0.565318 -6.77595
  790 79.3558 -0.813144 -9.09872
  791 38.7006 -0.271947 -1.81372
  792 38.7833 -0.269455 1.79016
  793 1.33230 1.00194 -2.28130
  794 1.70943 1.05492 2.40703
  795 62.9258 0.284501 -2.21763
  796 72.6162 -8.16413 -3.67004
  797 -0.866690 -0.610616 1.46540
  798 -0.749091 -0.699781 -1.44103
  799 75.6754 -1.44646 1.00461
  800 82.2588 -6.37754 -3.46808
  801 84.3562 12.5731 -6.87561
  802 82.1208 -0.578868 -0.933966
  803 180.877 35.7059 -33.9678
  804 75.6608 -1.44034 -0.992491
  805 114.625 22.1043 1.52915
  806 80.7035 2.36258 -9.46052
  807 89.6045 6.74630 -8.57922
  808 13.6813 -0.164123 -3.66222
  809 13.9799 -0.186881 3.65442
  810 48.9452 -0.765073 1.86365
  811 48.9300 -0.771962 -1.88346
  812 46.2883 -0.131639 0.343379
  813 46.2778 -0.132953 -0.346796
  814 90.3332 15.2776 -6.60023
  815 51.9369 -0.367857 -0.493583
  816 51.9429 -0.363444 0.489996
  817 76.4988 -0.767790 -8.17135
  818 113.092 10.6515 8.21957
  819 68.0580 1.46632 -4.88207
  820 22.4600 -0.213309 3.96458
  821 22.2393 -0.215160 -3.99938
  822 90.9244 2.03637 23.0651
  823 79.4834 -1.38341 2.20068
  824 69.7866 4.58315 -2.03662
  825 31.0805 -0.0638939 2.72704
  826 30.8998 -0.0486805 -2.74988
  827 47.4940 -0.278522 -0.903148
  828 47.5088 -0.274505 0.892995
  829 8.35135 7.52091 6.16690
  830 73.1286 1.71390 7.31012
  831 81.7552 12.0828 -5.83976
  832 88.4796 10.2832 -8.43027
  833 57.1007 -2.25032 -2.31201
  834 57.0615 -2.23120 2.30632
  835 91.4084 19.6770 3.05463
  836 79.4979 -0.564634 -0.135748
  837 79.4992 -0.560085 0.150024
  838 78.2046 -2.29977 -5.48876
  839 65.0128 -4.40859 1.93181
  840 72.1408 -8.11519 3.70645
  841 85.5277 -7.00779 5.87044
  842 64.3183 -1.89995 -0.430598
  843 64.3153 -1.89108 0.425888
  844 73.4758 6.79206 3.31219
  845 68.7557 0.896642 -5.28522
  846 19.1447 21.2851 21.4193
  847 70.5386 -6.29826 -1.12804
  848 70.7317 -3.16607 0.534314
  849 70.7708 -3.16984 -0.537283
  850 77.8325 -1.12799 8.63131
  851 77.4521 -5.06362 -4.31886
  852 68.8142 -4.60750 -0.477454
  853 162.750 5.28068 -8.24438
  854 65.3219 -6.25587 4.07899
  855 65.2761 -6.34065 -4.15331
  856 77.8323 -0.907537 4.42222
  857 118.723 30.3689 -5.65710
  858 61.0929 -5.64678 -5.27336
  859 67.9082 -7.68906 4.85185
  860 61.0669 -5.57565 5.22099
  861 66.3726 -2.70875 -0.445915
  862 66.3677 -2.69747 0.440560
  863 9.29059 4.13901 5.39142
  864 83.7200 6.27475 -9.16009
  865 63.5077 -2.53452 -0.916894
  866 63.5173 -2.50688 0.920898
  867 62.6077 -1.05662 -0.106924
  868 62.6048 -1.04821 0.105892
  869 69.3816 -1.34845 0.112927
  870 69.3725 -1.33805 -0.113094
  871 55.4763 -1.15548 -1.23725
  872 55.4776 -1.14163 1.23048
  873 63.7982 -3.43433 -1.46582
  874 63.8040 -3.40776 1.47179
  875 1.42295 -1.02985 -0.408772
  876 97.4346 18.2878 5.29422
  877 83.7524 -2.89887 -7.58268
  878 67.8642 -7.57945 -4.91249
  879 73.4672 -2.32938 1.03056
  880 73.4328 -2.30265 -1.00748
  881 80.0390 0.123323 9.28755
  882 87.9274 -6.27647 -2.80060
  883 78.1414 5.13330 -28.1032
  884 34.2424 -0.479230 13.6699
  885 -1.72084 0.800879 -0.783751
  886 -1.53509 0.901325 0.888777
  887 9.21034 4.40330 -5.49676
  888 78.5016 -2.19597 3.48558
  889 83.0233 -0.474892 -1.48696
  890 74.4688 -7.11917 11.6598
  891 34.1575 -0.436663 -13.7302
  892 83.0058 -6.74364 2.67998
  893 93.2175 -2.95099 9.79255
  894 65.4446 0.251979 2.35587
  895 75.9150 7.22315 5.67036
  896 40.3847 -2.30907 10.1252
  897 40.2214 -2.32815 -10.2004
  898 48.5409 -2.40667 -5.64941
  899 51.8204 -2.45327 -17.5270
  900 82.7806 -1.89664 8.38136
  901 114.872 26.5582 2.80840
  902 82.9436 3.21834 9.34089
  903 78.4266 -1.63207 -4.98314
  904 52.9558 -2.19874 17.9696
  905 100.544 18.4441 -4.23976
  906 9.42552 8.15636 -7.66776
  907 71.6851 -0.157176 -2.55699
  908 48.5915 -2.38555 5.59240
  909 59.7656 -1.36751 0.811472
  910 59.7665 -1.37819 -0.814157
  911 77.5713 -5.03725 4.44339
  912 81.0555 -0.419727 0.398508
  913 59.2234 0.596147 -21.8918
  914 85.6943 -0.155266 0.707750
  915 84.9245 -0.123467 -0.886145
  916 61.3568 0.504861 -2.03098
  917 81.6585 -0.317693 -1.52631
  918 60.0606 -2.90065 -2.06717
  919 60.1007 -2.85455 2.07234
  920 -2.13471 0.697357 -1.24984
  921 -2.87189 0.419998 1.29348
  922 81.0586 -0.384025 -0.398915
  923 25.5321 -0.556330 9.20444
  924 25.3599 -0.496250 -9.26235
  925 85.8356 12.5970 7.29588
  926 158.790 2.85180 2.58212
  927 80.5750 9.00177 7.52212
  928 92.6386 -3.35549 2.03964
  929 79.7594 -4.40261 6.66345
  930 99.5112 20.9470 -3.21528
  931 59.8998 0.216202 1.52832
  932 76.8316 -1.73362 -1.52857
  933 79.3634 4.27291 -9.09059
  934 97.2330 2.69265 -2.72276
  935 74.7040 -4.60454 -2.33186
  936 36.4887 -0.225966 -2.03927
  937 36.5340 -0.218090 2.00795
  938 78.9933 -1.79734 -3.98997
  939 2.38006 3.10709 0.350974
  940 75.7931 -7.85161 -0.116155
  941 64.2134 1.82955 -0.210471
  942 98.6858 21.8937 -2.14125
  943 15.0215 11.2301 -13.0529
  944 75.3590 -0.557905 -5.06423
  945 51.1350 -0.922272 -1.72398
  946 51.1418 -0.910773 1.70647
  947 0.374047 -2.24714 1.74124
  948 50.5548 -3.85277 -8.11568
  949 77.1572 -4.42934 -4.17263
  950 46.0462 0.0976467 -0.138843
  951 46.0531 0.0982462 0.137623
  952 77.2864 9.40083 -4.56318
  953 84.4253 -0.172093 -0.144194
  954 84.4218 -0.176284 0.185513
  955 50.5722 -3.84029 8.05359
  956 77.8549 -0.0863198 -2.02206
  957 90.3341 0.646664 6.59847
  958 80.0334 -1.04882 1.72362
  959 11.9646 3.22329 -6.95259
  960 83.2180 -0.437353 1.35492
  961 74.3774 0.576251 7.86007
  962 78.4710 10.9210 4.06146
  963 78.8420 0.920003 -9.32505
  964 53.4656 -2.97166 -4.78791
  965 85.7057 -2.99157 6.50079
  966 53.4981 -2.95816 4.73304
  967 2.24014 2.53277 0.0718720
  968 8.58015 1.61379 5.08093
  969 42.9569 -0.816230 3.34561
  970 42.9010 -0.817862 -3.36831
  971 76.8836 -1.77098 1.59972
  972 82.0187 14.3802 2.27497
  973 41.5189 3.91490 -20.6226
  974 68.6697 -4.33209 0.375509
  975 64.4260 -6.79031 -6.34314
  976 94.5396 18.2140 5.30786
  977 72.5373 -1.22649 0.230974
  978 72.5355 -1.21846 -0.231131
  979 79.8330 -1.40756 -2.91593
  980 72.7438 6.25122 -3.05831
  981 172.621 49.9401 33.7400
  982 14.3243 0.892033 -6.82880
  983 14.5830 0.743653 6.84748
  984 1.06273 -1.87392 0.113833
  985 73.0426 4.01307 6.27671
  986 64.3946 -6.82927 6.29067
  987 80.2975 -3.75882 -7.49480
  988 87.4394 7.17183 9.16171
  989 84.6504 -6.83041 -7.41883
  990 124.067 26.2046 8.17659
  991 71.1146 -1.10212 0.00988374
  992 71.1053 -1.09142 -0.00966465
  993 83.6932 -3.36682 7.22736
  994 5.59167 8.24383 9.27377
  995 36.0540 -0.804898 4.81721
  996 35.9297 -0.794769 -4.87593
  997 43.5997 -2.22185 6.55076
  998 43.4416 -2.18997 -6.58068
  999 49.3120 -2.12535 4.65772
  1000 53.8913 -0.475094 -0.229934
  1001 53.8961 -0.471259 0.228763
  1002 141.840 43.4407 -27.0954
  1003 126.473 31.6288 12.2599
  1004 49.2727 -2.13773 -4.70305
  1005 86.2467 -0.364207 7.94035
  1006 76.2921 7.92351 -5.47354
  1007 53.8793 -4.59058 14.5036
  1008 69.7807 -8.23520 -7.50529
  1009 79.8589 -0.621546 -3.00379
  1010 35.2821 2.55820 16.6988
  1011 45.3347 -3.47987 11.5958
  1012 69.5266 3.51354 -3.91343
  1013 80.6475 -1.56767 -8.89227
  1014 106.823 39.9744 44.8082
  1015 65.3169 1.94435 2.76965
  1016 90.4124 19.7225 -0.364218
  1017 67.0491 2.53530 -24.9372
  1018 67.5008 -7.16174 -4.13906
  1019 87.1001 -0.0475329 -0.364179
  1020 82.3180 7.58619 -8.76017
  1021 46.6935 -0.341422 1.17618
  1022 46.6733 -0.344980 -1.18941
  1023 1.64298 0.160834 -2.10318
  1024 53.4500 -2.54202 -3.97613
  1025 45.2836 -3.52578 -11.6927
  1026 53.4011 -2.53459 3.92547
  1027 78.7548 -2.36845 8.22048
  1028 70.5179 -4.38630 0.296559
  1029 73.6780 1.33132 -7.59843
  1030 75.7649 9.48514 1.59534
  1031 105.265 5.86435 2.48868
  1032 78.2091 -5.91558 4.30726
  1033 48.4642 -3.95348 -8.88373
  1034 72.9642 2.54842 -7.08827
  1035 54.3886 -4.52459 -14.5921
  1036 105.636 23.2137 -0.206278
  1037 70.6804 4.59954 3.55947
  1038 91.1189 -0.569970 -5.29122
  1039 67.9266 -7.16098 3.75444
  1040 78.0616 -2.43767 6.41440
  1041 77.6574 -4.06727 4.80405
  1042 77.2344 -3.85028 4.20861
  1043 95.8212 12.0929 -7.08087
  1044 76.8498 -1.21917 6.40913
  1045 69.6452 -8.25859 7.37591
  1046 74.3593 -3.00728 1.60419
  1047 48.4921 -3.95935 8.82573
  1048 69.5884 -5.17982 -0.498715
  1049 39.7018 -1.90291 -12.4103
  1050 57.3813 -5.99660 9.75666
  1051 78.4263 -0.502113 -3.45735
  1052 76.1378 -0.850201 -7.23697
  1053 65.8278 -5.28472 -2.40961
  1054 39.7717 -1.96317 12.3025
  1055 70.4410 0.147976 -4.95798
  1056 52.1004 -3.56249 -6.24186
  1057 96.1866 20.6768 3.43596
  1058 20.6022 3.58745 -11.5730
  1059 170.004 12.0435 16.6715
  1060 37.8819 2.97447 -17.5243
  1061 77.2544 -6.38339 -2.89098
  1062 52.1099 -3.52978 6.18379
  1063 69.6060 0.696152 5.52010
  1064 38.0528 -0.818463 3.98340
  1065 38.0290 -0.839150 -4.02811
  1066 77.9898 -2.14676 -7.60522
  1067 83.8795 -0.343629 0.591480
  1068 81.7215 -0.155996 1.54881
  1069 80.3987 2.69184 9.42268
  1070 74.9168 -0.563914 6.77208
  1071 58.6062 6.14911 27.0162
  1072 87.7241 -0.0353490 0.186497
  1073 80.6909 10.9949 5.99239
  1074 67.5371 0.934105 4.73816
  1075 82.9247 -0.285361 1.49882
  1076 51.5903 -0.612038 -0.948223
  1077 51.5963 -0.604796 0.940464
  1078 32.3752 -0.957398 -6.63288
  1079 32.5175 -0.991592 6.58036
  1080 67.7480 3.32179 1.98194
  1081 105.795 5.17094 -6.47611
  1082 97.1608 -0.459708 -13.6333
  1083 75.7457 -0.0575340 -2.08182
  1084 57.4144 -6.04297 -9.83604
  1085 65.9640 -5.02494 2.11014
  1086 76.2284 -0.166289 2.17490
  1087 80.3848 -5.79272 -5.01369
  1088 48.3323 -0.140165 0.577858
  1089 48.3236 -0.142459 -0.582283
  1090 77.1032 -6.56653 2.89064
  1091 73.1619 -1.43915 0.403076
  1092 73.1501 -1.43997 -0.397308
  1093 71.1108 -7.19798 2.13117
  1094 92.7753 -3.05296 0.0190397
  1095 39.7303 -0.0801260 -1.12666
  1096 39.8011 -0.0773279 1.11295
  1097 62.5038 -3.87512 -16.7167
  1098 65.9877 -1.58110 0.185022
  1099 65.9959 -1.59159 -0.188133
  1100 40.2321 21.0874 29.6478
  1101 92.6699 7.54526 -7.81289
  1102 12.9234 6.49521 -8.52569
  1103 80.0965 -1.11130 -1.66847
  1104 20.5531 7.27272 -13.2516
  1105 43.1717 -2.79037 -8.46397
  1106 87.8224 -0.0536051 0.105856
  1107 87.8676 -0.0476661 -0.0800167
  1108 78.4348 -4.44348 -5.75608
  1109 69.4922 -7.76097 -10.5122
  1110 20.6073 3.05336 11.0286
  1111 85.2184 8.47061 8.61642
  1112 77.7314 -0.687985 -0.163515
  1113 77.7375 -0.689121 0.171691
  1114 85.5146 -5.59351 12.6751
  1115 87.0403 17.6182 3.36185
  1116 50.4798 -1.29638 -2.49168
  1117 50.4896 -1.28935 2.47026
  1118 38.8434 4.55805 20.7951
  1119 73.5108 0.353143 -7.36774
  1120 22.5358 7.44160 14.2978
  1121 96.5046 -1.81695 -3.46469
  1122 93.4356 20.9494 1.07288
  1123 63.8223 -5.14144 3.05149
  1124 57.4409 0.265362 -0.297465
  1125 82.1403 -0.663917 1.96481
  1126 85.3386 -0.0725747 0.772195
  1127 17.0082 0.0427627 -3.31490
  1128 17.2837 0.0331784 3.28989
  1129 65.2184 1.03248 -3.49859
  1130 68.2373 -2.00869 -0.00735757
  1131 68.2193 -1.99714 0.00637401
  1132 6.97707 9.53729 -9.82789
  1133 11.2978 22.3335 -20.4109
  1134 69.1754 -2.71087 -0.136640
  1135 69.2062 -2.71301 0.133742
  1136 71.6499 -1.68946 0.454236
  1137 71.6395 -1.68447 -0.446941
  1138 18.2442 11.7435 14.2854
  1139 55.4071 -0.736957 -0.437653
  1140 55.4107 -0.731031 0.434846
  1141 70.2591 5.26588 -0.0865856
  1142 92.9331 10.6042 -31.2955
  1143 86.7348 15.0613 -5.75257
  1144 79.3161 -3.01451 -7.83077
  1145 78.1726 -3.86170 -5.79123
  1146 63.8752 -5.19209 -3.10742
  1147 63.2220 0.183412 2.15993
  1148 72.0169 4.45057 -5.24097
  1149 70.9259 3.77122 4.99314
  1150 74.3084 -2.91594 -1.57841
  1151 70.7082 -4.29480 -0.346038
  1152 63.9156 -4.21979 -2.23268
  1153 76.4563 -0.436370 4.05840
  1154 138.585 14.0616 1.97824
  1155 77.0556 -1.62417 7.39948
  1156 77.0586 5.06385 7.95124
  1157 71.4547 -7.07062 -1.44329
  1158 8.06583 1.48839 -4.89096
  1159 72.7992 -3.35395 -1.25122
  1160 46.3981 -0.0953157 -0.0236008
  1161 46.4037 -0.0949719 0.0231809
  1162 89.4789 -2.36190 4.63428
  1163 85.3061 -7.15832 2.19806
  1164 123.098 22.2553 5.14191
  1165 27.3163 -0.0732301 -2.78945
  1166 27.5061 -0.0669704 2.76553
  1167 64.4523 -1.31815 -0.190134
  1168 64.4473 -1.30849 0.187887
  1169 73.0636 -6.46935 0.395588
  1170 58.0016 0.233483 0.970814
  1171 74.8806 -5.32820 2.28429
  1172 3.91624 4.66169 -1.94247
  1173 12.8116 6.57445 8.34957
  1174 49.5871 -2.61314 16.1767
  1175 86.3022 16.6040 -4.09919
  1176 83.2580 -0.209494 -1.18112
  1177 88.2264 -0.118132 0.0806930
  1178 88.3295 -0.170669 -0.0562003
  1179 48.5733 -0.149467 -0.0881490
  1180 48.5798 -0.148372 0.0872238
  1181 79.5049 5.10223 9.07853
  1182 119.422 20.6871 -0.435051
  1183 81.7695 13.6256 -4.08480
  1184 61.3991 -4.44114 16.6064
  1185 49.3215 -2.50034 -16.1489
  1186 54.4585 -3.76020 -5.55712
  1187 76.9024 -2.08263 1.99797
  1188 107.997 23.6303 -0.250052
  1189 54.4571 -3.73523 5.50665
  1190 78.7535 -1.28824 1.51524
  1191 68.9039 2.50554 4.75412
  1192 76.6979 2.36734 8.68106
  1193 110.762 24.8486 1.80515
  1194 64.5921 -1.71161 0.366659
  1195 64.5977 -1.72162 -0.370812
  1196 79.7089 -1.42186 3.02312
  1197 45.3802 -0.534236 1.85933
  1198 45.3479 -0.539956 -1.87937
  1199 78.0429 -0.969556 -0.730006
  1200 31.6617 18.6747 -28.5127
  1201 67.5174 -3.76417 -17.7673
  1202 62.6984 -2.01939 -0.792845
  1203 62.7025 -2.00846 0.792820
  1204 84.2899 -0.320602 0.519922
  1205 79.2876 -0.944339 1.21849
  1206 4.03580 4.82919 3.40261
  1207 86.9280 -0.0686382 0.421030
  1208 9.79887 12.0442 11.9439
  1209 77.3083 -1.06510 -0.926477
  1210 -0.137138 -1.94790 -1.69673
  1211 53.9237 -5.25263 -12.4831
  1212 53.7565 -5.12199 12.3495
  1213 86.9298 -0.127167 -0.460126
  1214 73.2845 -3.85881 -1.45060
  1215 84.2080 -0.284364 -0.545155
  1216 66.1429 -2.16518 -0.263517
  1217 66.1333 -2.15506 0.257355
  1218 77.9888 -0.961002 0.690997
  1219 72.7446 -3.29002 1.23804
  1220 69.8133 -2.23436 -0.291829
  1221 69.8412 -2.24273 0.301768
  1222 84.1568 -0.293567 -0.449069
  1223 72.0938 -7.53866 -11.9064
  1224 82.1643 -0.410208 -0.471863
  1225 77.6620 -1.09880 0.981268
  1226 52.4886 -0.636775 -0.686278
  1227 52.4940 -0.630201 0.680927
  1228 59.2757 -0.912127 -0.315503
  1229 59.2762 -0.904859 0.313214
  1230 98.3006 15.2455 6.13044
  1231 82.4616 -6.28303 3.97861
  1232 56.1555 -0.201064 20.6162
  1233 43.1563 -0.0936067 0.711959
  1234 43.1193 -0.0945175 -0.720450
  1235 77.6444 -1.40574 5.60918
  1236 74.5253 -1.04998 0.255914
  1237 74.5309 -1.04555 -0.255740
  1238 84.8221 16.6900 1.89821
  1239 78.5662 -8.19056 9.19859
  1240 43.5031 -0.668252 2.64012
  1241 43.4575 -0.673856 -2.66310
  1242 74.3653 -1.75568 0.877470
  1243 74.3497 -1.76690 -0.858052
  1244 76.8643 -2.05343 -1.93362
  1245 69.4030 0.00563046 2.57169
  1246 123.469 30.6343 -9.40828
  1247 78.1672 -2.81402 -5.10609
  1248 12.5688 3.17646 7.16918
  1249 80.8439 -4.26396 7.06734
  1250 63.2577 1.31787 -1.91020
  1251 4.44994 3.52966 2.36175
  1252 107.995 11.4818 0.501620
  1253 78.8278 -3.55147 -7.04462
  1254 63.5900 0.850178 2.92160
  1255 43.4921 -2.79340 8.44082
  1256 80.2912 -6.17517 4.55388
  1257 118.399 21.5076 5.28280
  1258 26.0669 4.01135 14.1224
  1259 80.8359 -0.885122 -2.59400
  1260 160.216 1.75341 -1.65599
  1261 165.960 2.52809 7.44591
  1262 177.842 6.22256 -17.5669
  1263 77.9656 -2.39403 -6.23235
  1264 78.0720 -3.52199 5.43869
  1265 79.4232 -5.61434 5.24744
  1266 -2.35798 0.233384 1.52476
  1267 -2.15776 0.175074 -1.64540
  1268 77.4678 -8.52154 -3.87754
  1269 79.5415 -7.99696 -6.15921
  1270 58.4749 0.343328 -1.20261
  1271 77.1873 -8.68585 6.19817
  1272 82.3003 -3.86251 -7.19744
  1273 1.29984 2.30998 -0.0194152
  1274 66.1861 -1.20212 0.182804
  1275 66.1922 -1.21218 -0.183294
  1276 82.1306 -0.582195 1.79618
  1277 78.7582 -1.26268 -1.43254
  1278 73.8817 -8.07371 -1.76945
  1279 66.9937 -3.67993 0.708806
  1280 66.6362 -3.63131 -0.821078
  1281 79.2811 -1.61719 4.04413
  1282 81.1980 -2.94535 -8.10729
  1283 4.62660 3.68126 -2.24550
</Section>

newXOutput 12

<Section columns = "stress_xx | stress_yy | stress_xy">
  1 97.6205 0.0154323 0.209081
  2 97.6322 0.0162332 -0.209938
  3 50.0755 -0.0305661 -0.0759012
  4 -0.648794 -0.645948 -0.931811
  5 182.425 67.5707 56.2265
  6 180.634 70.2463 -56.7315
  7 -0.752202 -0.617891 0.985977
  8 50.0698 -0.0307883 0.0756352
  9 98.3827 -0.146721 0.0695389
  10 98.1348 -0.239280 -0.0352425
  11 97.8400 -0.144065 0.255018
  12 97.5512 -0.212678 0.0958917
  13 96.9370 -0.173523 0.403062
  14 96.3876 -0.178933 0.309202
  15 95.1473 -0.159924 0.571053
  16 93.4359 -0.0894836 0.835061
  17 91.8967 -0.107438 0.916664
  18 89.6651 -0.171986 1.09393
  19 86.6330 0.00571956 1.59809
  20 83.8296 -0.127321 1.50310
  21 80.7159 -0.178400 2.09657
  22 76.2084 0.128788 1.80797
  23 73.0042 0.177608 2.12380
  24 68.8302 0.309607 1.64937
  25 65.9691 0.300108 1.65692
  26 61.8176 0.443626 0.840727
  27 60.9562 0.702531 0.897396
  28 60.4431 0.562379 -0.263508
  29 61.1599 0.302470 -0.586325
  30 62.4718 0.310537 -0.716638
  31 65.5775 0.404582 -1.43646
  32 68.5925 0.318797 -1.82960
  33 73.0685 0.0526406 -2.17816
  34 76.6589 -0.0531854 -2.00302
  35 80.5288 -0.143953 -1.98553
  36 84.0548 -0.0982427 -1.41234
  37 87.1262 -0.0969344 -1.22039
  38 89.6898 -0.166141 -1.03603
  39 92.0129 -0.111284 -0.738541
  40 93.4970 -0.124426 -0.791132
  41 94.9291 -0.166391 -0.581888
  42 96.3127 -0.202355 -0.273557
  43 97.0315 -0.158539 -0.308989
  44 97.4414 -0.0839236 -0.200638
  45 97.2279 -0.0251827 -0.182067
  46 98.2541 -0.245645 0.0185145
  47 98.4231 -0.154638 -0.0718623
  48 94.8589 -0.00979435 -0.128674
  49 92.5117 -0.309694 -0.220344
  50 89.6786 -0.475742 -0.160496
  51 86.2460 -0.748906 -0.215494
  52 83.0209 -0.834515 -0.275022
  53 79.5987 -1.09045 -0.258313
  54 76.5877 -1.23973 -0.154675
  55 73.9489 -1.42359 -0.0721380
  56 70.9118 -1.19089 -0.0737305
  57 67.4138 -1.13164 -0.0989299
  58 64.0367 -0.910320 -0.0448618
  59 60.8308 -0.597832 -0.0241977
  60 57.7751 -0.438377 -0.00759145
  61 55.0808 -0.240837 0.0182858
  62 52.3060 -0.0768289 -0.0884850
  63 50.1193 0.0675634 0.0926295
  64 49.1574 0.213555 0.0557751
  65 49.8731 -0.00508102 0.143531
  66 49.1886 -0.0382938 0.169959
  67 48.5808 -0.0527889 0.213077
  68 47.7403 -0.0147956 0.284767
  69 46.6769 -0.00897349 0.363742
  70 45.9364 -0.0789750 0.722303
  71 43.6342 0.0652146 0.792975
  72 42.0431 -0.0101627 0.919797
  73 39.6718 -0.0495185 1.04023
  74 36.9251 -0.0797288 1.27031
  75 33.4975 -0.0221696 1.54232
  76 29.3156 0.0164323 1.69205
  77 25.7741 -0.0479135 2.41331
  78 18.6507 0.233427 2.25861
  79 13.8813 0.202495 2.39031
  80 8.24182 -0.0287280 2.62521
  81 3.63311 0.465572 2.69370
  82 -1.57710 0.676970 1.54646
  83 -5.27268 0.682939 0.463637
  84 -4.90869 0.638263 -0.378149
  85 -4.46628 0.521260 -1.38126
  86 -2.60284 -0.199669 -1.27907
  87 -0.340962 -2.49926 -1.40239
  88 0.209572 -4.65350 -1.79398
  89 0.637215 -7.55632 -1.10675
  90 1.44730 -8.11215 -0.178631
  91 3.10738 -3.28071 3.77121
  92 9.52000 12.2085 13.7471
  93 58.9989 50.1171 49.7493
  94 219.701 32.3112 37.3797
  95 196.730 4.67180 12.3681
  96 181.758 1.89558 3.78519
  97 176.206 1.58722 0.308355
  98 179.063 2.14239 -3.24970
  99 196.113 4.30223 -9.77251
  100 234.423 15.6252 -32.6575
  101 34.6474 50.5581 -41.2402
  102 7.14854 7.34737 -11.1921
  103 3.37684 -2.93935 -3.84280
  104 1.34506 -8.21621 -0.428435
  105 0.339146 -5.83384 1.29061
  106 0.459133 -5.84559 1.57071
  107 0.00817898 -2.17745 1.55060
  108 -2.71258 -0.143876 1.22112
  109 -4.61081 0.390919 1.21372
  110 -5.16265 0.778846 0.408489
  111 -5.45145 0.675865 -0.417259
  112 -1.94786 0.694017 -1.43962
  113 3.29829 0.469950 -2.56296
  114 7.89862 0.0193110 -2.58161
  115 13.5299 0.219203 -2.39690
  116 18.3314 0.240047 -2.27811
  117 25.5261 -0.0488877 -2.43640
  118 29.1026 0.0187494 -1.71064
  119 33.3123 -0.0212259 -1.56383
  120 36.8289 -0.0875248 -1.28183
  121 39.5465 -0.0476525 -1.04411
  122 41.9495 -0.00710003 -0.930798
  123 43.5589 0.0642658 -0.803282
  124 45.8843 -0.0796692 -0.731077
  125 46.6367 -0.00942923 -0.369202
  126 47.7118 -0.0152176 -0.289289
  127 48.5611 -0.0534772 -0.216691
  128 49.1754 -0.0388814 -0.172505
  129 49.8636 -0.00561011 -0.145179
  130 49.1506 0.213182 -0.0565626
  131 50.1131 0.0673997 -0.0931090
  132 52.2991 -0.0774435 0.0881725
  133 55.0736 -0.242370 -0.0189148
  134 57.7688 -0.441824 0.00684374
  135 60.8265 -0.602648 0.0234651
  136 64.0351 -0.917248 0.0441548
  137 67.4154 -1.14031 0.0983846
  138 70.9170 -1.20084 0.0732417
  139 73.9565 -1.43452 0.0719664
  140 76.5969 -1.25056 0.155055
  141 79.6109 -1.10030 0.259380
  142 83.0297 -0.841448 0.278919
  143 86.2505 -0.755080 0.233859
  144 89.6918 -0.444236 0.164214
  145 92.5776 -0.299332 0.215649
  146 94.8688 -0.0243054 0.126901
  147 83.8185 -7.86518 -1.35105
  148 83.7558 -7.76085 1.38180
  149 87.2863 12.6042 -4.70566
  150 93.7168 5.55712 10.1747
  151 70.8905 -6.75742 -15.0761
  152 71.4442 -6.75615 14.5634
  153 68.1167 -2.97066 1.57558
  154 68.1263 -3.01471 -1.57839
  155 99.8632 3.54814 -8.19243
  156 83.5914 -2.95233 2.38286
  157 83.5583 -2.87696 -2.35192
  158 108.053 24.4224 1.49861
  159 85.1658 -0.133279 -9.74768
  160 62.4094 -5.02882 -6.66985
  161 62.4024 -4.98393 6.60285
  162 85.4330 -1.90819 8.88982
  163 80.4849 5.84076 5.71091
  164 32.7673 5.46259 -17.9673
  165 36.4965 5.16084 18.9589
  166 105.999 1.04997 2.12334
  167 85.8662 -3.25062 -6.35703
  168 114.280 25.1547 -1.50152
  169 77.0434 -2.15284 0.278997
  170 77.0253 -2.14403 -0.270900
  171 87.3200 -0.954789 -1.06121
  172 87.6297 -0.844901 0.923371
  173 59.2937 -0.920798 -1.00374
  174 59.2976 -0.910568 0.996813
  175 94.5446 -2.71939 19.1205
  176 77.7334 3.17479 -6.13984
  177 50.4321 -3.83858 -10.9364
  178 50.5859 -3.80951 10.8549
  179 56.4488 -1.95453 -3.50058
  180 56.4501 -1.93066 3.46933
  181 86.3276 -2.21660 5.39828
  182 78.2063 -5.40283 0.383483
  183 77.9101 -5.36231 -0.244918
  184 89.6197 -8.62038 -0.593183
  185 90.0597 -8.21119 -0.539234
  186 124.352 29.1913 -3.21527
  187 89.0651 14.4104 4.41649
  188 89.5460 5.51725 -10.0730
  189 94.3381 -1.08808 -22.4033
  190 89.2419 -4.99845 -7.38529
  191 89.9856 -3.54959 8.55720
  192 74.7101 -8.50565 7.08590
  193 74.7473 -8.44900 -7.05948
  194 79.2490 0.978942 7.41741
  195 35.5152 -0.806861 -13.3126
  196 35.6114 -0.890275 13.2219
  197 141.135 21.3201 2.97946
  198 84.4032 -5.00040 4.22692
  199 87.7386 -1.54252 -3.58448
  200 68.5102 -1.72032 -0.667665
  201 68.5088 -1.70982 0.664461
  202 83.6200 -1.07411 -6.81648
  203 95.5421 14.0888 -8.22866
  204 78.9997 7.06700 -1.14929
  205 50.5611 -1.88871 5.00932
  206 50.4797 -1.89608 -5.05303
  207 89.3107 -0.903716 2.03392
  208 86.1516 1.62615 10.0015
  209 69.6696 -5.17944 -2.95793
  210 69.1495 -4.90657 3.05864
  211 102.239 15.1703 7.86059
  212 121.722 15.9174 1.09572
  213 7.57442 6.12979 -4.61359
  214 6.98602 5.66702 3.89424
  215 49.2375 13.9014 32.2427
  216 83.5323 -5.53428 -3.40413
  217 89.6846 -0.869282 -1.84106
  218 78.2654 0.651797 -6.82479
  219 53.8071 -0.595279 -1.54127
  220 53.8215 -0.588294 1.52486
  221 74.7332 -3.54431 -0.300611
  222 74.7666 -3.56339 0.256496
  223 84.4359 -1.12103 5.83182
  224 98.4737 -5.72941 1.13142
  225 96.5485 19.9636 -2.43092
  226 75.7309 -7.37736 -3.04087
  227 96.6225 -1.65649 6.99500
  228 81.9420 -1.29769 0.469754
  229 81.9456 -1.28535 -0.468936
  230 75.1294 -7.34085 3.19601
  231 86.4979 -5.44845 6.09297
  232 123.769 15.0209 -6.09083
  233 26.3246 15.7146 -22.9131
  234 71.6778 2.44671 1.44672
  235 86.2861 7.62784 8.39359
  236 92.6723 -0.618010 -9.23929
  237 86.3146 -3.07504 -8.39916
  238 44.4805 -1.50570 -6.33031
  239 44.6465 -1.48177 6.30422
  240 86.5210 -1.00157 -4.57658
  241 82.5272 -2.02447 1.34236
  242 82.4886 -2.01977 -1.30561
  243 16.3210 1.63116 -8.28843
  244 16.6197 1.43182 8.26440
  245 92.6555 -8.07267 -6.23896
  246 91.8257 -0.233916 0.315502
  247 91.9425 -0.239313 -0.332175
  248 84.1228 6.96957 -7.65286
  249 73.2601 1.34491 4.42127
  250 159.544 25.5889 17.0434
  251 158.406 18.0475 -10.7806
  252 112.368 24.5425 -0.432193
  253 70.0242 -3.31679 20.2315
  254 64.0888 -2.08724 -21.2036
  255 73.1005 -1.49710 -0.163457
  256 73.0920 -1.48571 0.161382
  257 59.8266 -1.69149 2.06674
  258 59.8309 -1.71625 -2.08921
  259 89.0431 -0.893210 2.90874
  260 86.1664 -6.10402 -5.15417
  261 53.9390 -0.133774 -0.348589
  262 53.9471 -0.131695 0.345748
  263 85.0703 -3.39100 -4.05748
  264 34.6148 -1.16404 -8.74073
  265 34.7823 -1.16818 8.66978
  266 86.0331 -3.69020 6.83945
  267 65.2442 -6.92774 12.0985
  268 65.4316 -7.05281 -12.0629
  269 72.8365 2.71868 -2.05750
  270 62.8280 -1.02047 -0.671449
  271 62.8305 -1.01262 0.668011
  272 79.9044 -0.218401 5.51161
  273 96.1596 17.7581 5.74030
  274 49.9138 -0.666209 2.66945
  275 49.8748 -0.672252 -2.69622
  276 88.6544 -7.35601 3.93353
  277 82.0706 -9.16498 -7.71703
  278 92.0888 -0.359165 0.971992
  279 62.3988 -3.82053 -4.50060
  280 62.2752 -3.77539 4.47932
  281 115.151 10.7293 28.4444
  282 52.2624 -4.19425 14.5628
  283 84.8182 11.9595 -0.502220
  284 109.103 11.8306 -5.77988
  285 81.5469 -6.31654 1.73380
  286 82.1005 -9.42130 6.87934
  287 52.4429 -4.12078 -14.7451
  288 9.41014 11.5683 10.2371
  289 85.0837 -3.40573 4.12834
  290 112.525 14.4533 4.85900
  291 92.9097 -0.319087 -0.842402
  292 82.6948 2.87016 -8.80567
  293 82.1927 -4.63223 2.49180
  294 80.4158 -6.80922 -0.449578
  295 82.3414 3.76377 8.46607
  296 88.2049 -7.36415 -3.59015
  297 125.614 24.7013 -1.83651
  298 82.1696 -4.44936 -2.39029
  299 68.8986 19.0723 -39.8751
  300 84.2256 -8.90990 -0.855002
  301 83.6060 -9.15027 1.83467
  302 60.5346 -5.55721 -9.53159
  303 53.4704 -0.240022 -0.769067
  304 53.4818 -0.235894 0.761373
  305 60.5519 -5.55943 9.47317
  306 88.8278 -0.129926 -10.1832
  307 96.5816 -3.98143 -4.98359
  308 72.5821 -4.44556 -1.36610
  309 72.5236 -4.45510 1.39576
  310 88.0927 -7.57785 12.7176
  311 87.2814 -0.661718 3.46926
  312 107.387 0.215783 3.54952
  313 70.9444 -2.55229 -0.707023
  314 70.9466 -2.54160 0.700862
  315 64.1285 -1.74233 -1.29879
  316 64.1253 -1.72448 1.29564
  317 72.4289 0.928729 -4.27997
  318 94.8743 6.96144 -9.91341
  319 149.026 39.8672 -18.2348
  320 86.8111 -0.659614 -0.369889
  321 86.7527 -0.649769 0.377587
  322 45.5248 0.0298409 18.1705
  323 63.8929 -3.00213 -2.89083
  324 63.7566 -2.98894 2.89710
  325 45.5202 -0.0697187 -18.1020
  326 90.0121 10.6641 -8.26601
  327 101.740 4.98619 7.88615
  328 88.1534 -6.29466 -14.2112
  329 80.2747 -3.07205 1.25541
  330 80.1873 -3.04643 -1.21719
  331 86.0554 -1.70003 -2.05860
  332 79.9729 -0.164468 -5.15910
  333 90.5727 0.426039 10.0384
  334 90.8929 -0.573842 -2.02462
  335 53.1279 -3.33328 7.29771
  336 53.0706 -3.35383 -7.36220
  337 83.8037 -0.194749 9.22505
  338 50.1097 -0.456092 -1.56611
  339 50.1415 -0.451643 1.54906
  340 86.6473 -1.91858 3.07520
  341 103.716 21.3322 -4.52938
  342 85.9983 -1.71594 2.12872
  343 91.0726 11.4993 8.31863
  344 87.3195 -1.59618 9.70752
  345 68.3951 -1.30979 0.220430
  346 68.3978 -1.31923 -0.222766
  347 82.2100 -0.304060 -8.17309
  348 109.880 23.2151 3.29873
  349 90.5399 16.7437 0.174546
  350 55.6308 6.52516 -27.2472
  351 5.08846 2.48637 -3.40232
  352 5.65264 2.68489 3.69320
  353 -0.446644 0.544008 1.82435
  354 -0.0751063 0.247780 -1.89037
  355 164.189 11.3785 3.99465
  356 75.1177 -6.16681 -1.58311
  357 86.7321 -1.84870 -3.00362
  358 77.8141 -1.32233 0.211212
  359 77.8050 -1.30999 -0.211449
  360 82.7384 9.14499 -4.13772
  361 70.8287 -7.29372 5.81090
  362 5.86241 8.62081 -6.13474
  363 70.9125 -7.29550 -5.93245
  364 83.8884 9.55303 4.40373
  365 86.3362 -2.25168 -5.15993
  366 91.8571 -5.08126 -6.49146
  367 97.2035 20.7639 1.68449
  368 92.1178 -5.70054 5.53149
  369 36.3548 -0.957531 5.87035
  370 36.1144 -0.939451 -5.91490
  371 20.1881 0.551778 -8.02214
  372 20.4354 0.462474 7.98353
  373 73.6846 0.188915 4.34158
  374 144.846 41.5577 14.9423
  375 89.5262 -0.522920 -2.51522
  376 68.8476 -5.92215 -4.40072
  377 68.7771 -5.90269 4.39362
  378 85.6798 -1.94129 -6.41836
  379 98.4987 -4.75467 1.76545
  380 75.1142 -6.15931 1.64618
  381 108.817 0.472258 -7.65954
  382 59.1828 -0.526167 -0.234337
  383 59.1883 -0.521244 0.231804
  384 84.0117 -0.473827 -4.04127
  385 43.7325 -0.679964 -3.84362
  386 43.7639 -0.700570 3.79206
  387 101.072 12.8929 -8.64153
  388 54.2069 3.87963 25.2329
  389 78.7273 -4.14346 0.875119
  390 78.8072 -4.13452 -0.880167
  391 92.3409 15.7361 -5.31559
  392 87.7285 -2.57171 -9.26419
  393 88.5340 -9.00955 6.55717
  394 72.8339 -1.94836 -0.236480
  395 72.8230 -1.93686 0.231827
  396 84.7687 -6.52513 3.67372
  397 91.8610 -0.389900 1.51792
  398 55.5558 -2.13052 -4.42088
  399 55.5756 -2.12898 4.37716
  400 85.6308 2.86969 -9.84654
  401 81.1819 -1.70077 0.721898
  402 81.1800 -1.70385 -0.709277
  403 83.6234 -0.971972 7.56868
  404 77.2316 5.57963 1.96005
  405 87.0670 -3.63997 8.17111
  406 126.891 26.7700 4.22105
  407 40.9217 -2.21871 -11.6992
  408 41.0425 -2.22031 11.6005
  409 18.0673 9.90130 -13.5342
  410 94.3939 -0.212509 0.452116
  411 45.5698 -0.430523 -2.42509
  412 45.6353 -0.421373 2.40112
  413 85.7685 -2.20277 6.30901
  414 77.7444 -8.47016 3.52724
  415 88.4150 -1.01029 1.46605
  416 89.4034 4.56122 10.3421
  417 19.0178 10.5423 14.1779
  418 77.8725 -8.42735 -3.19498
  419 80.5282 -7.50742 -0.0794903
  420 24.8950 -0.503535 -7.32001
  421 25.1108 -0.524574 7.26424
  422 61.5539 -4.84942 -17.5742
  423 92.7221 -1.34562 9.04587
  424 61.2847 -4.93258 17.4073
  425 85.4976 -4.77091 -5.49461
  426 78.4256 5.24147 -4.32101
  427 85.5215 -3.65176 5.18202
  428 92.8173 -0.351048 -1.05637
  429 2.57775 2.59156 0.872585
  430 18.1404 20.4778 20.2129
  431 81.6647 -0.304911 3.86764
  432 67.2957 0.865023 1.86037
  433 68.5933 1.06904 -2.53298
  434 58.5373 -1.03993 -1.45620
  435 58.5397 -1.02589 1.44426
  436 84.3136 -6.52323 -3.41506
  437 84.8920 -1.64345 -8.50921
  438 67.7059 1.20199 -0.688571
  439 127.004 30.1592 5.18475
  440 16.6058 5.74207 -10.0978
  441 18.3887 5.27399 10.8423
  442 78.6557 -2.78802 0.731907
  443 78.6234 -2.77882 -0.708706
  444 105.040 23.5263 -0.384398
  445 67.0196 25.8980 40.7464
  446 102.010 -1.51455 -2.56550
  447 56.9825 -3.07566 -6.00269
  448 57.0059 -3.05250 5.94442
  449 57.0819 -1.35636 2.31709
  450 57.0747 -1.36738 -2.34222
  451 78.0035 1.68437 -7.00955
  452 94.9430 -0.0814472 -0.307981
  453 75.5870 3.40656 3.91168
  454 97.0398 12.0195 9.14366
  455 80.6410 -5.99906 -1.38743
  456 88.3926 -0.955117 -1.42116
  457 93.2337 -0.312000 0.974038
  458 94.6846 -0.0838402 0.176841
  459 94.7776 -0.101416 -0.135329
  460 49.5865 -0.109345 0.569284
  461 49.5639 -0.110867 -0.576496
  462 88.4731 -5.58125 6.62837
  463 78.7899 3.06628 6.78417
  464 82.7878 0.325418 -8.97505
  465 87.1673 -1.77517 3.89434
  466 128.661 19.9411 -23.3197
  467 87.2549 -4.80802 -7.26800
  468 0.470262 1.59248 0.439019
  469 0.478396 1.60364 -0.00846301
  470 68.3697 -3.96311 2.36713
  471 68.1254 -3.91401 -2.34446
  472 110.165 1.50628 12.1475
  473 30.2687 26.5336 -30.4631
  474 85.8859 -0.238955 3.05154
  475 98.5810 -5.79558 -6.56587
  476 50.8045 -3.01170 8.48418
  477 104.807 18.6099 -6.48936
  478 85.9844 -4.62072 6.14820
  479 71.5795 -3.48282 -1.00879
  480 71.6434 -3.42244 1.00378
  481 73.6637 0.371706 -3.83911
  482 50.6398 -3.00178 -8.54555
  483 75.7241 0.00569502 3.87476
  484 73.5284 -8.39148 -10.6676
  485 73.3356 -8.40432 10.6950
  486 88.9432 -0.551428 2.76853
  487 79.6824 7.48893 0.811108
  488 82.7201 1.20176 27.5964
  489 121.064 24.9447 -0.158178
  490 83.3037 -1.32658 0.756109
  491 83.3114 -1.32114 -0.775360
  492 62.8044 -1.17432 -0.880229
  493 62.8057 -1.16356 0.875686
  494 32.8796 1.63741 15.1419
  495 86.3307 -4.12498 -7.06873
  496 78.0761 -1.66106 0.254921
  497 78.0682 -1.65379 -0.252512
  498 67.7224 -7.22265 8.73882
  499 33.5450 2.14612 -15.5401
  500 86.5908 -7.02843 -3.88432
  501 1.34036 0.000586360 0.950335
  502 74.3313 3.77456 0.279073
  503 83.6575 -0.879729 -0.257290
  504 83.6526 -0.893986 0.253208
  505 67.7791 -7.21309 -8.81209
  506 98.7059 -5.17963 8.69459
  507 97.1284 3.53905 9.41875
  508 89.9887 -0.520625 -0.730532
  509 86.3240 -7.13072 3.92549
  510 52.0556 -0.0711835 -0.0934491
  511 52.0628 -0.0706399 0.0923531
  512 86.0109 -3.27380 -7.45672
  513 82.6821 6.11321 7.46282
  514 95.8990 2.37565 -9.28900
  515 51.7471 -0.103455 -0.317902
  516 51.7567 -0.102137 0.315176
  517 171.214 24.7103 -22.2725
  518 86.1910 10.3050 6.61019
  519 90.0773 -0.468912 0.654190
  520 80.7169 -7.67018 0.271218
  521 67.0444 -2.28346 1.26131
  522 67.0471 -2.30267 -1.25886
  523 94.5408 -5.71868 3.51319
  524 90.4376 -1.77052 -9.43555
  525 100.946 20.0533 5.27474
  526 83.5337 1.42750 9.29504
  527 84.9499 -1.55477 1.37132
  528 82.6668 -8.77273 -10.1290
  529 85.2462 -2.08104 7.27524
  530 169.590 7.73364 -3.13758
  531 93.8898 -7.04784 -1.10229
  532 89.4273 -0.496671 -0.192432
  533 89.4464 -0.535478 0.176160
  534 171.324 11.5146 11.0608
  535 81.3114 -0.0412284 7.90530
  536 115.832 19.1110 -3.34629
  537 86.3845 -2.28935 -3.82647
  538 37.1766 -0.377442 -2.63425
  539 37.3068 -0.359542 2.60478
  540 57.6719 -5.42809 -12.1875
  541 57.7087 -5.33617 12.0898
  542 84.9060 -1.48479 -1.35537
  543 92.1898 3.40176 -10.2236
  544 80.8913 -5.51128 1.69352
  545 86.5966 9.95634 -6.87733
  546 87.9194 -0.968527 3.72929
  547 111.329 5.25086 0.0335405
  548 74.6681 -2.57268 -0.0914047
  549 74.6415 -2.56119 0.0870120
  550 81.4979 -3.82807 1.93242
  551 121.564 23.6444 -0.344478
  552 85.5059 3.74445 9.66329
  553 36.2017 9.37624 22.5029
  554 83.5904 -5.03493 18.1791
  555 111.773 4.71862 -19.8464
  556 87.4535 7.24259 -9.02617
  557 78.2018 -6.71024 -15.7106
  558 84.6032 -9.24436 -2.47515
  559 88.5930 -8.92366 -3.93287
  560 11.1759 14.1092 -13.3999
  561 88.9991 -1.04780 -2.39179
  562 134.779 26.3358 -7.19277
  563 81.9570 -3.66179 -2.09361
  564 82.7034 -2.64263 1.72288
  565 82.6246 -2.57828 -1.66385
  566 55.3949 -0.364447 -0.689604
  567 55.4032 -0.359663 0.683735
  568 7.14685 0.860459 -4.31291
  569 7.61902 0.899523 4.41872
  570 41.1501 -1.97226 -8.94939
  571 41.4859 -1.98206 8.92846
  572 83.8181 -4.51154 -3.63682
  573 85.6403 -9.28086 2.72566
  574 88.0525 -8.31920 1.39419
  575 71.3243 -1.26463 -0.208104
  576 71.3186 -1.25412 0.206691
  577 68.0195 -7.10275 -13.4647
  578 76.6321 -6.23890 16.6676
  579 66.2926 -6.67248 13.5531
  580 86.0345 -1.88987 -9.16807
  581 52.4700 -0.942793 2.65604
  582 52.4455 -0.953172 -2.68209
  583 81.4854 4.47223 -7.48323
  584 81.7386 -0.141481 -3.51142
  585 102.697 22.5586 -2.44147
  586 66.2085 -1.03987 -0.227566
  587 66.2080 -1.03196 0.226152
  588 87.7693 -0.244026 -2.01994
  589 59.3933 -2.10836 -2.87731
  590 59.3897 -2.09948 2.84808
  591 48.9998 2.38177 21.6477
  592 85.4310 -3.89154 -5.24604
  593 46.8664 -2.42132 15.5109
  594 83.9459 -4.31982 3.69747
  595 88.7080 -1.17737 2.62634
  596 87.7198 -0.705894 -0.659808
  597 59.9615 -0.800567 -0.620134
  598 59.9659 -0.793425 0.615801
  599 98.4222 19.8372 -4.69762
  600 46.8367 -2.32033 -15.5778
  601 83.6762 -3.58092 -3.00804
  602 75.0402 -1.37273 -0.0695084
  603 75.0315 -1.36103 0.0691046
  604 143.908 19.5002 -3.36326
  605 48.2436 -0.344025 1.47949
  606 48.2007 -0.347527 -1.49557
  607 76.9773 1.72014 6.38120
  608 112.760 9.06750 -2.70953
  609 52.3160 0.480714 -21.5108
  610 25.9562 0.754159 -11.5678
  611 26.1906 0.592497 11.5049
  612 65.3367 -3.92438 3.49431
  613 66.0682 -4.03985 -3.37434
  614 113.357 22.7743 3.17328
  615 87.3279 -0.735240 0.607292
  616 73.3122 1.99533 -3.83852
  617 92.5474 16.7754 4.20015
  618 92.1730 17.4149 -2.79185
  619 75.7801 -4.23963 -0.198931
  620 76.3886 -4.13785 -0.0797622
  621 54.6178 11.7722 -31.1316
  622 64.4423 -2.29406 -1.89606
  623 64.4441 -2.26602 1.88711
  624 169.907 34.7038 26.0352
  625 86.0045 -2.78722 7.99971
  626 47.7397 -1.77791 -5.73523
  627 136.848 29.8302 18.9093
  628 47.8562 -1.76673 5.70883
  629 82.9738 -3.21362 -21.3670
  630 56.4767 -0.324380 -0.255214
  631 56.4835 -0.321491 0.253550
  632 70.4128 0.592186 3.34377
  633 31.0910 -0.493230 -5.16508
  634 31.2875 -0.494330 5.11972
  635 74.7715 -5.35636 1.12913
  636 78.6311 -6.33666 0.133575
  637 93.7325 -0.166470 -0.872733
  638 50.4290 -0.100487 0.411240
  639 50.4130 -0.102162 -0.416592
  640 70.1848 -1.60655 -0.267634
  641 70.1799 -1.59596 0.264295
  642 81.5903 -9.01002 10.2630
  643 93.3393 10.4560 -9.24205
  644 61.1215 -2.96537 -3.72125
  645 61.0695 -2.91375 3.69037
  646 73.3185 -5.35640 -1.79074
  647 116.692 25.6072 0.0677454
  648 87.5061 -8.43171 -0.891441
  649 75.3486 -1.78918 0.0136185
  650 75.3358 -1.77849 -0.0129635
  651 104.767 11.3794 7.57695
  652 87.5410 -1.20568 -4.05602
  653 76.2046 -0.115890 -3.16133
  654 34.5652 -1.17310 -11.2112
  655 34.6834 -1.20995 11.1105
  656 73.1708 -6.39581 -3.12411
  657 110.462 24.6838 0.109500
  658 84.8653 11.5324 -2.97715
  659 55.1593 -0.558080 -1.29398
  660 55.1690 -0.550061 1.28129
  661 79.6912 -2.21313 -0.680195
  662 79.7071 -2.21747 0.699475
  663 151.547 19.8851 8.69131
  664 95.5154 -0.211370 0.252520
  665 91.6890 -0.320134 1.47264
  666 91.2702 -0.333596 -1.70331
  667 86.3593 -8.01079 2.13613
  668 62.1935 -0.773517 -0.310360
  669 62.1967 -0.767324 0.308529
  670 91.6911 14.8061 6.43409
  671 118.803 26.5569 -0.807044
  672 63.8254 -4.86792 -5.27915
  673 63.7981 -4.81681 5.24761
  674 80.8380 -8.34771 -1.03728
  675 84.7888 5.03583 -9.07991
  676 102.079 0.217937 4.76373
  677 66.2621 -1.27918 -0.575192
  678 66.2616 -1.26969 0.571885
  679 57.3334 -5.08608 -11.0076
  680 85.5170 -8.24891 -1.31939
  681 70.6551 -7.84954 9.61800
  682 33.3424 10.6602 -21.6816
  683 65.6182 -6.16640 7.40852
  684 79.0438 0.0191070 2.93931
  685 57.3808 -5.02645 10.9259
  686 83.6239 -3.65467 3.04495
  687 65.6513 -6.14287 -7.48488
  688 66.0636 0.811309 0.697893
  689 50.9839 -1.45810 4.04780
  690 50.9372 -1.46080 -4.08123
  691 70.7125 -8.05436 -9.73047
  692 87.8567 -5.75029 -6.41784
  693 80.4156 -1.05535 -0.168671
  694 80.4278 -1.06818 0.169363
  695 89.8903 -5.67734 6.42153
  696 81.4971 -8.52401 1.34701
  697 99.3116 9.10727 9.21784
  698 89.3391 -1.63581 9.65549
  699 85.9596 -3.03900 5.99713
  700 81.3261 6.66455 -5.67519
  701 98.7478 16.7044 7.25761
  702 85.0697 -1.15571 -5.68340
  703 85.0905 -2.76306 3.26061
  704 87.2294 13.7414 1.61318
  705 86.4385 -1.42557 5.01443
  706 26.7423 18.0780 22.6541
  707 80.5640 -9.25013 -5.64528
  708 93.3048 1.72779 9.88256
  709 94.4391 -2.89339 -7.33866
  710 94.9348 -0.0803801 0.501255
  711 85.9739 -2.89918 -4.79764
  712 80.6627 -9.32452 5.06975
  713 159.624 14.1218 -2.37943
  714 46.1777 -0.223309 1.55155
  715 46.1189 -0.225901 -1.56851
  716 87.4507 -1.50950 -2.33097
  717 95.5488 -0.0572891 -0.483419
  718 73.0200 -6.49723 3.14239
  719 88.2060 -3.24262 8.82659
  720 136.403 31.5704 -8.25353
  721 83.5992 -6.04892 3.23001
  722 93.1150 -6.08959 -4.20653
  723 85.1278 -2.68477 -3.21048
  724 95.6152 -0.116119 -0.175326
  725 85.7971 0.00803326 9.87992
  726 3.77677 2.78385 4.44649
  727 98.3333 -3.93939 -13.4266
  728 106.578 6.16112 5.23646
  729 88.4619 -9.00066 3.40924
  730 61.5728 -1.55855 1.56420
  731 61.5767 -1.58158 -1.57398
  732 84.5676 39.9090 -42.8061
  733 89.9431 -5.90550 -5.99546
  734 65.7834 0.285974 -1.33331
  735 77.8937 0.403457 6.25342
  736 86.5472 -4.29242 7.19517
  737 82.9622 -6.99094 1.95662
  738 86.8091 -7.86568 -11.0208
  739 82.4174 -6.52182 -2.08292
  740 98.1348 -4.70217 -2.09451
  741 90.2877 -0.654394 1.38179
  742 79.9175 -4.81194 1.27191
  743 147.732 29.5865 -15.4507
  744 85.5644 -2.21925 2.62083
  745 84.0186 1.36374 -9.55543
  746 72.4085 -0.854694 24.1262
  747 90.2840 7.30236 9.85145
  748 77.6226 -6.15473 0.293088
  749 59.2223 -4.76944 -7.99803
  750 59.2206 -4.75396 7.92477
  751 81.9412 9.21254 -1.32837
  752 83.8161 -0.957278 8.59236
  753 84.8953 -1.99888 -7.41166
  754 80.0123 -4.90717 -1.30256
  755 77.2740 -6.97578 1.45345
  756 87.9316 14.6105 -1.84082
  757 82.8554 -7.16961 -1.62778
  758 83.0421 -5.24115 3.11028
  759 84.3808 -0.991856 0.524497
  760 84.4397 -0.961464 -0.522359
  761 113.564 25.1948 1.09902
  762 93.2205 -7.89145 -1.89000
  763 86.2430 -2.58630 4.76393
  764 90.3517 -0.649406 -1.26858
  765 90.6731 0.628088 -10.1311
  766 103.941 5.35253 -6.58903
  767 48.6682 -0.0656948 -0.713481
  768 48.6992 -0.0648948 0.704974
  769 0.642384 -1.77644 -1.28101
  770 87.9929 -0.0802509 1.87530
  771 79.8770 -0.159341 -6.95119
  772 82.8257 -0.771612 6.19402
  773 76.9072 9.00270 35.7687
  774 94.3754 19.6191 -0.224817
  775 66.6750 -4.88541 4.01548
  776 10.6046 0.281983 -4.31974
  777 10.9694 0.211310 4.36805
  778 82.0060 -0.588614 -6.95838
  779 66.8765 -4.93721 -4.01184
  780 89.8033 -0.717679 1.07653
  781 44.2165 -1.95852 7.64684
  782 43.8151 -1.95268 -7.65699
  783 85.5657 -2.15137 -2.55530
  784 53.0464 -1.42797 -3.50918
  785 53.0719 -1.41761 3.47310
  786 89.2516 -0.777088 -2.83861
  787 66.9994 -1.85140 -1.00235
  788 66.9986 -1.83777 1.00229
  789 97.5912 -0.621438 -7.41233
  790 87.2186 -0.894462 -9.97291
  791 42.5897 -0.298507 -1.99462
  792 42.6804 -0.295771 1.96879
  793 1.48553 1.10155 -2.51410
  794 1.89940 1.15987 2.65242
  795 69.2078 0.313455 -2.43292
  796 79.8066 -8.97235 -4.05319
  797 -0.951495 -0.670016 1.60974
  798 -0.822732 -0.768509 -1.58346
  799 83.1653 -1.59202 1.09504
  800 90.3938 -7.00969 -3.78269
  801 92.7181 13.8168 -7.53497
  802 90.2315 -0.638840 -1.02002
  803 198.556 39.2205 -37.2888
  804 83.1492 -1.58534 -1.08180
  805 125.946 24.2789 1.68863
  806 88.7004 2.59601 -10.3704
  807 98.4680 7.41368 -9.39452
  808 15.0785 -0.180797 -4.02940
  809 15.4059 -0.205790 4.02086
  810 53.8413 -0.839785 2.05141
  811 53.8245 -0.847330 -2.07310
  812 50.9338 -0.144138 0.378172
  813 50.9221 -0.145578 -0.381911
  814 99.2781 16.7878 -7.22666
  815 57.1285 -0.403281 -0.544079
  816 57.1353 -0.398449 0.540156
  817 84.0855 -0.844100 -8.95822
  818 124.216 11.7288 9.07835
  819 74.8342 1.61401 -5.35570
  820 24.7321 -0.234522 4.36077
  821 24.4902 -0.236561 -4.39892
  822 99.8764 2.25057 25.3670
  823 87.3441 -1.52270 2.40592
  824 76.7312 5.04067 -2.23411
  825 34.2120 -0.0698804 2.99877
  826 34.0138 -0.0531599 -3.02379
  827 52.2527 -0.305293 -0.994504
  828 52.2691 -0.300890 0.983390
  829 9.19334 8.27622 6.79711
  830 80.3936 1.88502 8.01754
  831 89.8645 13.2788 -6.40149
  832 97.2387 11.3004 -9.23448
  833 62.7877 -2.47163 -2.54777
  834 62.7448 -2.45071 2.54159
  835 100.466 21.6191 3.34281
  836 87.3542 -0.623678 -0.147897
  837 87.3558 -0.618665 0.163555
  838 85.9492 -2.52899 -6.01170
  839 71.4673 -4.84396 2.13568
  840 79.2851 -8.91855 4.09270
  841 93.9725 -7.69983 6.47821
  842 70.7079 -2.08778 -0.480244
  843 70.7047 -2.07809 0.475083
  844 80.7785 7.46754 3.63313
  845 75.5991 0.987219 -5.79755
  846 21.0499 23.4475 23.5670
  847 77.5297 -6.92108 -1.25752
  848 77.7433 -3.47985 0.574097
  849 77.7861 -3.48407 -0.577387
  850 85.5474 -1.24050 9.46118
  851 85.1201 -5.56581 -4.72246
  852 75.6389 -5.06293 -0.539496
  853 178.688 5.79736 -9.04532
  854 71.8035 -6.87428 4.49713
  855 71.7529 -6.96732 -4.57875
  856 85.5445 -0.998194 4.84574
  857 130.434 33.3738 -6.25579
  858 67.1615 -6.20472 -5.80747
  859 74.6400 -8.44992 5.34884
  860 67.1333 -6.12666 5.75001
  861 72.9609 -2.97658 -0.499732
  862 72.9556 -2.96425 0.493850
  863 10.2306 4.55132 5.94122
  864 92.0133 6.89537 -10.0392
  865 69.8179 -2.78471 -1.01638
  866 69.8285 -2.75441 1.02079
  867 68.8323 -1.16118 -0.118702
  868 68.8292 -1.15197 0.117571
  869 76.2621 -1.48334 0.119725
  870 76.2521 -1.47195 -0.119919
  871 61.0087 -1.26862 -1.36387
  872 61.0102 -1.25344 1.35647
  873 70.1356 -3.77312 -1.62140
  874 70.1420 -3.74404 1.62803
  875 1.56822 -1.11652 -0.460270
  876 107.071 20.0957 5.78479
  877 92.0381 -3.18711 -8.30213
  878 74.5911 -8.32941 -5.41536
  879 80.7441 -2.56140 1.12072
  880 80.7064 -2.53210 -1.09545
  881 87.9693 0.134596 10.1802
  882 96.6080 -6.89616 -3.10760
  883 85.8453 5.65296 -30.9006
  884 37.6617 -0.529660 15.0377
  885 -1.87763 0.880752 -0.867199
  886 -1.67391 0.991306 0.982581
  887 10.1429 4.84189 -6.05756
  888 86.2701 -2.41525 3.81362
  889 91.2245 -0.524025 -1.62626
  890 81.8320 -7.82451 12.8331
  891 37.5684 -0.483055 -15.1038
  892 91.2122 -7.41210 2.91636
  893 102.407 -3.23555 10.7905
  894 71.9703 0.277499 2.58441
  895 83.4537 7.94019 6.21881
  896 44.4186 -2.53869 11.1361
  897 44.2392 -2.55965 -11.2186
  898 53.3864 -2.64392 -6.21457
  899 56.9646 -2.69959 -19.2776
  900 90.9737 -2.08585 9.18099
  901 126.202 29.1915 3.13190
  902 91.1587 3.53587 10.2373
  903 86.1934 -1.79503 -5.45866
  904 58.2113 -2.41948 19.7641
  905 110.482 20.2695 -4.62240
  906 10.3754 8.97352 -8.44899
  907 78.8110 -0.172359 -2.80380
  908 53.4421 -2.62076 6.15208
  909 65.7141 -1.50215 0.896677
  910 65.7150 -1.51385 -0.899608
  911 85.2509 -5.53680 4.85914
  912 89.0623 -0.464401 0.434535
  913 65.0875 0.653446 -24.0745
  914 94.1513 -0.171693 0.773920
  915 93.3100 -0.136688 -0.969556
  916 67.4869 0.556168 -2.22843
  917 89.7361 -0.349588 -1.67176
  918 66.0350 -3.18642 -2.28042
  919 66.0791 -3.13586 2.28616
  920 -2.34170 0.767914 -1.37037
  921 -3.15261 0.462510 1.41911
  922 89.0655 -0.425138 -0.435131
  923 28.0970 -0.612982 10.1262
  924 27.9081 -0.547048 -10.1897
  925 94.3408 13.8424 7.99437
  926 174.345 3.13169 2.83194
  927 88.5664 9.89299 8.24696
  928 101.779 -3.68378 2.27426
  929 87.6550 -4.83974 7.29569
  930 109.356 23.0157 -3.50578
  931 65.8892 0.239082 1.67700
  932 84.4342 -1.90760 -1.66821
  933 87.2325 4.69617 -9.96686
  934 106.828 2.96392 -2.95335
  935 82.1026 -5.06090 -2.54304
  936 40.1582 -0.247979 -2.24234
  937 40.2077 -0.239332 2.20799
  938 86.8111 -1.97709 -4.36787
  939 2.62392 3.42229 0.396778
  940 83.2953 -8.62898 -0.150429
  941 70.6189 2.01427 -0.230891
  942 108.454 24.0537 -2.33453
  943 16.5279 12.3542 -14.3711
  944 82.8356 -0.613365 -5.55156
  945 56.2449 -1.01232 -1.89829
  946 56.2525 -0.999720 1.87911
  947 0.413729 -2.46677 1.91045
  948 55.5916 -4.23385 -8.92715
  949 84.7961 -4.86888 -4.56311
  950 50.6702 0.107488 -0.153039
  951 50.6780 0.108143 0.151704
  952 84.9598 10.3333 -5.00382
  953 92.7538 -0.191670 -0.157643
  954 92.7503 -0.196249 0.202923
  955 55.6109 -4.22019 8.85910
  956 85.5714 -0.0955393 -2.21594
  957 99.2612 0.710385 7.21616
  958 87.9459 -1.15514 1.88364
  959 13.1745 3.54281 -7.65651
  960 91.4376 -0.482727 1.48162
  961 81.7617 0.634119 8.61955
  962 86.2607 12.0032 4.45361
  963 86.6573 1.01082 -10.2230
  964 58.7938 -3.26454 -5.26904
  965 94.1803 -3.28907 7.11213
  966 58.8296 -3.24978 5.20889
  967 2.47071 2.79009 0.0686557
  968 9.45495 1.77346 5.59582
  969 47.2605 -0.896232 3.67979
  970 47.1991 -0.897994 -3.70463
  971 84.4915 -1.94856 1.74616
  972 90.1569 15.8031 2.49374
  973 45.6464 4.30035 -22.6824
  974 75.4805 -4.76042 0.426943
  975 70.8170 -7.46219 -6.98562
  976 103.897 20.0132 5.80565
  977 79.7231 -1.34986 0.249460
  978 79.7210 -1.34107 -0.249643
  979 87.7294 -1.54901 -3.19045
  980 79.9753 6.87345 -3.35454
  981 189.502 54.8659 37.0680
  982 15.7760 0.979470 -7.51588
  983 16.0597 0.816470 7.53632
  984 1.17049 -2.04552 0.133995
  985 80.3011 4.41284 6.88471
  986 70.7830 -7.50508 6.92803
  987 88.2469 -4.13217 -8.20869
  988 96.0935 7.88040 10.0367
  989 93.0079 -7.50504 -8.17901
  990 136.303 28.7853 8.99960
  991 78.1627 -1.21306 0.00937341
  992 78.1525 -1.20133 -0.00913800
  993 91.9724 -3.70155 7.91194
  994 6.15150 9.10416 10.2155
  995 39.6737 -0.884220 5.29743
  996 39.5373 -0.873088 -5.36176
  997 47.9584 -2.44122 7.20499
  998 47.7847 -2.40613 -7.23772
  999 54.2351 -2.33470 5.12461
  1000 59.2724 -0.521097 -0.253215
  1001 59.2778 -0.516900 0.251935
  1002 155.745 47.7576 -29.8114
  1003 138.941 34.7487 13.4952
  1004 54.1918 -2.34825 -5.17428
  1005 94.7772 -0.401603 8.69352
  1006 83.8678 8.70987 -6.00250
  1007 59.2301 -5.04784 15.9532
  1008 76.6913 -9.05100 -8.26612
  1009 87.7640 -0.684157 -3.29039
  1010 38.7993 2.80877 18.3697
  1011 49.8521 -3.82607 12.7546
  1012 76.4454 3.86472 -4.29310
  1013 88.6342 -1.72406 -9.74419
  1014 117.261 44.0004 49.2467
  1015 71.8290 2.13990 3.03892
  1016 99.3743 21.6692 -0.398680
  1017 73.6742 2.78884 -27.4216
  1018 74.1936 -7.87001 -4.56478
  1019 95.6865 -0.0537332 -0.397898
  1020 90.4765 8.33692 -9.60261
  1021 51.3728 -0.374379 1.29461
  1022 51.3505 -0.378278 -1.30909
  1023 1.80987 0.202043 -2.32624
  1024 58.7785 -2.79231 -4.37626
  1025 49.7957 -3.87651 -12.8609
  1026 58.7250 -2.78420 4.32075
  1027 86.5568 -2.60412 9.00810
  1028 77.5085 -4.82030 0.310445
  1029 80.9955 1.46420 -8.33316
  1030 83.2912 10.4265 1.74961
  1031 115.635 6.45792 2.77803
  1032 85.9505 -6.50200 4.70808
  1033 53.2942 -4.34502 -9.77184
  1034 80.2139 2.80258 -7.77448
  1035 59.7885 -4.97543 -16.0502
  1036 116.085 25.4999 -0.234115
  1037 77.7113 5.05828 3.90483
  1038 100.120 -0.625500 -5.77960
  1039 74.6615 -7.86930 4.14265
  1040 85.7938 -2.68032 7.02697
  1041 85.3460 -4.47102 5.25668
  1042 84.8810 -4.23258 4.60369
  1043 105.293 13.2903 -7.74387
  1044 84.4682 -1.34069 7.02456
  1045 76.5431 -9.07669 8.12388
  1046 81.7234 -3.30618 1.74818
  1047 53.3250 -4.35152 9.70832
  1048 76.4880 -5.69179 -0.564142
  1049 43.6632 -2.09362 -13.6502
  1050 63.0817 -6.59105 10.7347
  1051 86.1956 -0.552802 -3.78823
  1052 83.6888 -0.934853 -7.93348
  1053 72.3604 -5.80677 -2.66195
  1054 43.7401 -2.15975 13.5320
  1055 77.4464 0.163415 -5.43771
  1056 57.2919 -3.91419 -6.86758
  1057 105.709 22.7169 3.75554
  1058 22.6699 3.94169 -12.7365
  1059 186.641 13.2211 18.2929
  1060 41.6549 3.26580 -19.2764
  1061 84.9016 -7.01583 -3.15278
  1062 57.3026 -3.87832 6.80393
  1063 76.5313 0.766678 6.05506
  1064 41.8716 -0.899118 4.38068
  1065 41.8455 -0.921829 -4.42970
  1066 85.7173 -2.36027 -8.33431
  1067 92.1584 -0.380097 0.645612
  1068 89.8055 -0.172301 1.69621
  1069 88.3663 2.95762 10.3295
  1070 82.3513 -0.619910 7.42473
  1071 64.4050 6.76047 29.7062
  1072 96.3698 -0.0398620 0.203452
  1073 88.6959 12.0834 6.56967
  1074 74.2634 1.02852 5.19793
  1075 91.1219 -0.314536 1.64109
  1076 56.7468 -0.671401 -1.04469
  1077 56.7535 -0.663465 1.03620
  1078 35.6262 -1.05231 -7.29464
  1079 35.7824 -1.08990 7.23712
  1080 74.4953 3.65437 2.17449
  1081 116.211 5.69590 -7.15591
  1082 106.728 -0.493986 -15.0108
  1083 83.2609 -0.0635466 -2.28194
  1084 63.1177 -6.64196 -10.8218
  1085 72.5102 -5.52138 2.33286
  1086 83.7900 -0.183044 2.38389
  1087 88.3392 -6.36726 -5.48216
  1088 53.1754 -0.153286 0.636200
  1089 53.1657 -0.155800 -0.641043
  1090 84.7357 -7.21710 3.15238
  1091 80.4082 -1.58363 0.436724
  1092 80.3952 -1.58455 -0.430418
  1093 78.1566 -7.91006 2.36075
  1094 101.930 -3.35273 -0.0131204
  1095 43.7233 -0.0878805 -1.23914
  1096 43.8010 -0.0848119 1.22413
  1097 68.6945 -4.26136 -18.3871
  1098 72.5394 -1.73800 0.208771
  1099 72.5484 -1.74948 -0.212189
  1100 44.2174 23.1928 32.6014
  1101 101.831 8.29246 -8.54979
  1102 14.2244 7.14244 -9.39037
  1103 88.0146 -1.22379 -1.82329
  1104 22.6124 7.99409 -14.5845
  1105 47.4836 -3.06675 -9.30915
  1106 96.4752 -0.0602542 0.115766
  1107 96.5245 -0.0537296 -0.0874479
  1108 86.2004 -4.88455 -6.30066
  1109 76.3714 -8.53040 -11.5707
  1110 22.6758 3.35487 12.1373
  1111 93.6594 9.30814 9.44214
  1112 85.4179 -0.759184 -0.178237
  1113 85.4247 -0.760414 0.187194
  1114 93.9513 -6.14267 13.9537
  1115 95.6697 19.3587 3.68263
  1116 55.5232 -1.42342 -2.74272
  1117 55.5341 -1.41572 2.71926
  1118 42.7078 5.00770 22.8729
  1119 80.8113 0.388790 -8.07969
  1120 24.7908 8.18034 15.7343
  1121 106.020 -1.99122 -3.84204
  1122 102.693 23.0154 1.17360
  1123 70.1596 -5.64915 3.36642
  1124 63.1921 0.293180 -0.326418
  1125 90.2591 -0.731346 2.14988
  1126 93.7636 -0.0808453 0.844735
  1127 18.7398 0.0466940 -3.64639
  1128 19.0420 0.0361805 3.61895
  1129 71.7207 1.13718 -3.83843
  1130 75.0069 -2.20801 -0.0161065
  1131 74.9872 -2.19539 0.0150121
  1132 7.67591 10.5395 -10.8274
  1133 12.4229 24.6260 -22.4613
  1134 76.0359 -2.97953 -0.139318
  1135 76.0696 -2.98181 0.136102
  1136 78.7501 -1.85816 0.491649
  1137 78.7386 -1.85273 -0.483670
  1138 20.0701 12.9156 15.7241
  1139 60.9344 -0.808921 -0.482848
  1140 60.9385 -0.802435 0.479778
  1141 77.2497 5.79108 -0.0948559
  1142 102.070 11.6814 -34.4086
  1143 95.3311 16.5504 -6.30167
  1144 87.1710 -3.31411 -8.57920
  1145 85.9129 -4.24527 -6.34057
  1146 70.2172 -5.70472 -3.42793
  1147 69.5331 0.202437 2.36974
  1148 79.1766 4.89410 -5.74881
  1149 77.9800 4.14750 5.47739
  1150 81.6674 -3.20590 -1.71998
  1151 77.7173 -4.71986 -0.364925
  1152 70.2633 -4.63619 -2.46534
  1153 84.0383 -0.480050 4.44820
  1154 152.215 15.4420 2.17199
  1155 84.6941 -1.78581 8.11008
  1156 84.7058 5.56602 8.71935
  1157 78.5342 -7.76999 -1.60519
  1158 8.89023 1.63549 -5.38690
  1159 80.0117 -3.68673 -1.36019
  1160 51.0568 -0.104177 -0.0261582
  1161 51.0632 -0.103799 0.0256995
  1162 98.3188 -2.59590 5.05896
  1163 93.7325 -7.86627 2.44402
  1164 135.241 24.4437 5.65771
  1165 30.0750 -0.0801029 -3.06754
  1166 30.2831 -0.0732219 3.04133
  1167 70.8554 -1.44883 -0.212248
  1168 70.8500 -1.43826 0.209782
  1169 80.3012 -7.10951 0.414933
  1170 63.8075 0.257736 1.06541
  1171 82.2964 -5.85602 2.48950
  1172 4.31387 5.13476 -2.15032
  1173 14.1007 7.22990 9.19597
  1174 54.5146 -2.87528 17.7925
  1175 94.8589 18.2449 -4.49069
  1176 91.4871 -0.230856 -1.29331
  1177 96.9180 -0.130510 0.0879798
  1178 97.0306 -0.188185 -0.0611492
  1179 53.4411 -0.163410 -0.0972805
  1180 53.4485 -0.162210 0.0962691
  1181 87.3884 5.60729 9.95388
  1182 131.208 22.7195 -0.477905
  1183 89.8822 14.9739 -4.47748
  1184 67.4830 -4.88337 18.2658
  1185 54.2226 -2.75154 -17.7619
  1186 59.8814 -4.13119 -6.11553
  1187 84.5130 -2.29083 2.18204
  1188 118.664 25.9686 -0.237528
  1189 59.8802 -4.10383 6.06020
  1190 86.5416 -1.41839 1.65472
  1191 75.7622 2.75649 5.21552
  1192 84.3078 2.60230 9.51932
  1193 121.705 27.2996 2.01087
  1194 71.0086 -1.88100 0.408712
  1195 71.0146 -1.89195 -0.413266
  1196 87.5938 -1.56481 3.30789
  1197 49.9274 -0.586295 2.04596
  1198 49.8919 -0.592564 -2.06791
  1199 85.7606 -1.06836 -0.795800
  1200 34.8081 20.5357 -31.3582
  1201 74.1967 -4.13778 -19.5431
  1202 68.9306 -2.21861 -0.878485
  1203 68.9352 -2.20665 0.878472
  1204 92.6072 -0.354617 0.567880
  1205 87.1265 -1.04064 1.33045
  1206 4.44391 5.32522 3.75706
  1207 95.5011 -0.0763000 0.460116
  1208 10.7821 13.2640 13.1541
  1209 84.9556 -1.17330 -1.01028
  1210 -0.149504 -2.13903 -1.86350
  1211 59.2810 -5.77471 -13.7313
  1212 59.0977 -5.63118 13.5846
  1213 95.5028 -0.140512 -0.502986
  1214 80.5445 -4.24136 -1.57784
  1215 92.5178 -0.314836 -0.595123
  1216 72.7093 -2.37951 -0.297806
  1217 72.6988 -2.36845 0.291042
  1218 85.7012 -1.05899 0.753155
  1219 79.9519 -3.61641 1.34587
  1220 76.7357 -2.45638 -0.311123
  1221 76.7663 -2.46552 0.322002
  1222 92.4609 -0.325015 -0.490127
  1223 79.2250 -8.28583 -13.1035
  1224 90.2774 -0.453746 -0.514692
  1225 85.3436 -1.21029 1.07038
  1226 57.7328 -0.698577 -0.756650
  1227 57.7389 -0.691376 0.750796
  1228 65.1775 -1.00183 -0.349102
  1229 65.1781 -0.993881 0.346597
  1230 108.016 16.7542 6.69917
  1231 90.6162 -6.90606 4.34351
  1232 61.7214 -0.222852 22.6733
  1233 47.4904 -0.102377 0.783492
  1234 47.4496 -0.103375 -0.792790
  1235 85.3379 -1.54590 6.14635
  1236 81.9029 -1.15645 0.277608
  1237 81.9091 -1.15160 -0.277419
  1238 93.2351 18.3396 2.08003
  1239 86.3309 -9.00107 10.1310
  1240 47.8632 -0.733629 2.90411
  1241 47.8130 -0.739766 -2.92928
  1242 81.7287 -1.93143 0.954856
  1243 81.7115 -1.94380 -0.933589
  1244 84.4709 -2.25884 -2.11154
  1245 76.3103 0.00644197 2.82038
  1246 135.646 33.6566 -10.3616
  1247 85.9066 -3.09407 -5.59070
  1248 13.8384 3.49150 7.89439
  1249 88.8455 -4.68746 7.73820
  1250 69.5708 1.45133 -2.09587
  1251 4.90574 3.88270 2.60801
  1252 118.638 12.6291 0.504528
  1253 86.6338 -3.90425 -7.71604
  1254 69.9354 0.936626 3.20570
  1255 47.8355 -3.07013 9.28396
  1256 88.2355 -6.78745 4.97719
  1257 130.057 23.6581 5.86111
  1258 28.6737 4.40753 15.5395
  1259 88.8295 -0.974949 -2.83858
  1260 175.908 1.92621 -1.81679
  1261 182.201 2.77445 8.16726
  1262 195.227 6.82575 -19.2726
  1263 85.6883 -2.63240 -6.82744
  1264 85.8020 -3.87199 5.95415
  1265 87.2837 -6.17123 5.73987
  1266 -2.59073 0.257478 1.67445
  1267 -2.37042 0.193523 -1.80732
  1268 85.1298 -9.36554 -4.28437
  1269 87.4033 -8.78870 -6.79270
  1270 64.3264 0.378550 -1.31967
  1271 84.8205 -9.54578 6.83396
  1272 90.4441 -4.24612 -7.87997
  1273 1.43775 2.54277 -0.0126065
  1274 72.7572 -1.32184 0.201741
  1275 72.7640 -1.33286 -0.202282
  1276 90.2470 -0.642034 1.96467
  1277 86.5465 -1.39033 -1.56417
  1278 81.1968 -8.87285 -1.96573
  1279 73.6418 -4.04356 0.791204
  1280 73.2495 -3.99005 -0.914146
  1281 87.1280 -1.77902 4.42808
  1282 89.2361 -3.23822 -8.88085
  1283 5.10020 4.04942 -2.48108
</Section>

newXOutput 13

<Section columns = "stress_xx | stress_yy | stress_xy">
  1 106.349 0.0157047 0.227178
  2 106.361 0.0166012 -0.228103
  3 54.6523 -0.0329675 -0.0824685
  4 -0.707591 -0.704373 -1.01628
  5 198.527 73.6815 61.2531
  6 196.581 76.5922 -61.7857
  7 -0.820404 -0.673668 1.07550
  8 54.6460 -0.0332089 0.0821813
  9 107.177 -0.160359 0.0753890
  10 106.908 -0.261268 -0.0388311
  11 106.589 -0.157817 0.276686
  12 106.277 -0.232455 0.103357
  13 105.612 -0.189843 0.437271
  14 105.017 -0.195632 0.335023
  15 103.672 -0.174788 0.619739
  16 101.815 -0.0985219 0.906447
  17 100.145 -0.117775 0.995404
  18 97.7229 -0.187735 1.18833
  19 94.4296 0.00565051 1.73659
  20 91.3847 -0.138974 1.63386
  21 88.0005 -0.194310 2.27961
  22 83.1016 0.140197 1.96633
  23 79.6174 0.193832 2.31026
  24 75.0785 0.337560 1.79457
  25 71.9663 0.327949 1.80297
  26 67.4509 0.484022 0.914973
  27 66.5135 0.766377 0.976751
  28 65.9550 0.613896 -0.286848
  29 66.7347 0.330902 -0.638068
  30 68.1620 0.339174 -0.779956
  31 71.5402 0.441489 -1.56317
  32 74.8198 0.347900 -1.99062
  33 79.6868 0.0580009 -2.36956
  34 83.5906 -0.0576377 -2.17843
  35 87.7970 -0.156725 -2.15885
  36 91.6288 -0.107262 -1.53528
  37 94.9653 -0.106026 -1.32623
  38 97.7492 -0.181424 -1.12551
  39 100.271 -0.121766 -0.801814
  40 101.881 -0.136431 -0.858690
  41 103.435 -0.181954 -0.631470
  42 104.935 -0.221106 -0.296301
  43 105.714 -0.173386 -0.335036
  44 106.157 -0.0922669 -0.217322
  45 105.924 -0.0285629 -0.197235
  46 107.037 -0.268069 0.0206284
  47 107.220 -0.168946 -0.0779038
  48 103.349 -0.0127312 -0.139837
  49 100.799 -0.340177 -0.239845
  50 97.7201 -0.521722 -0.174122
  51 93.9891 -0.819547 -0.233925
  52 90.4825 -0.912685 -0.298300
  53 86.7610 -1.19092 -0.280273
  54 83.4862 -1.35302 -0.167461
  55 80.6160 -1.55243 -0.0776679
  56 77.3125 -1.29838 -0.0793110
  57 73.5074 -1.23317 -0.106912
  58 69.8340 -0.991461 -0.0480464
  59 66.3470 -0.650594 -0.0257461
  60 63.0237 -0.476695 -0.00778459
  61 60.0938 -0.261419 0.0202611
  62 57.0770 -0.0830679 -0.0960948
  63 54.6996 0.0738198 0.101165
  64 53.6534 0.232506 0.0611529
  65 54.4300 -0.00532378 0.156901
  66 53.6839 -0.0414140 0.185903
  67 53.0206 -0.0571876 0.233023
  68 52.1038 -0.0158232 0.311167
  69 50.9439 -0.00959111 0.397284
  70 50.1348 -0.0856088 0.788159
  71 47.6256 0.0711322 0.865128
  72 45.8906 -0.0109094 1.00308
  73 43.3047 -0.0537482 1.13452
  74 40.3100 -0.0866397 1.38531
  75 36.5729 -0.0239875 1.68194
  76 32.0134 0.0179973 1.84548
  77 28.1500 -0.0519333 2.63226
  78 20.3831 0.254300 2.46408
  79 15.1804 0.220559 2.60780
  80 9.02621 -0.0317799 2.86481
  81 3.99462 0.507124 2.94062
  82 -1.69476 0.737950 1.69036
  83 -5.73309 0.744605 0.509465
  84 -5.34327 0.696496 -0.408394
  85 -4.86777 0.569097 -1.50434
  86 -2.83752 -0.216990 -1.39399
  87 -0.371052 -2.72458 -1.52866
  88 0.229540 -5.07159 -1.95432
  89 0.696045 -8.22903 -1.20237
  90 1.57992 -8.82280 -0.186879
  91 3.39084 -3.52980 4.12570
  92 10.3810 13.3880 15.0081
  93 64.2350 54.7177 54.2125
  94 239.126 35.1831 40.6676
  95 214.159 5.08563 13.4498
  96 197.894 2.06467 4.11619
  97 191.864 1.72946 0.334889
  98 194.969 2.33349 -3.53455
  99 213.491 4.68458 -10.6274
  100 255.100 17.0122 -35.5157
  101 37.7348 55.2212 -44.9518
  102 7.79439 8.10379 -12.2246
  103 3.68530 -3.15739 -4.20845
  104 1.46857 -8.93338 -0.477132
  105 0.371513 -6.35090 1.40164
  106 0.501890 -6.37134 1.71068
  107 0.00937250 -2.37327 1.69028
  108 -2.95727 -0.155988 1.33062
  109 -5.02522 0.426804 1.32164
  110 -5.61989 0.849816 0.441352
  111 -5.92724 0.736789 -0.458955
  112 -2.09813 0.756526 -1.57386
  113 3.63054 0.511882 -2.79804
  114 8.65305 0.0205870 -2.81725
  115 14.7983 0.238751 -2.61494
  116 20.0359 0.261498 -2.48528
  117 27.8803 -0.0529971 -2.65736
  118 31.7818 0.0205209 -1.86569
  119 36.3714 -0.0229670 -1.70535
  120 40.2054 -0.0951308 -1.39782
  121 43.1684 -0.0517083 -1.13872
  122 45.7887 -0.00757414 -1.01504
  123 47.5435 0.0701018 -0.876324
  124 50.0779 -0.0863633 -0.797690
  125 50.9000 -0.0100861 -0.403213
  126 52.0726 -0.0162820 -0.316076
  127 52.9990 -0.0579361 -0.236946
  128 53.6694 -0.0420530 -0.188666
  129 54.4194 -0.00589847 -0.158690
  130 53.6457 0.232105 -0.0620066
  131 54.6926 0.0736427 -0.101685
  132 57.0693 -0.0837354 0.0957575
  133 60.0858 -0.263084 -0.0209424
  134 63.0167 -0.480437 0.00697508
  135 66.3422 -0.655820 0.0249533
  136 69.8321 -0.998979 0.0472811
  137 73.5091 -1.24259 0.106322
  138 77.3180 -1.30918 0.0787804
  139 80.6243 -1.56430 0.0774807
  140 83.4962 -1.36478 0.167873
  141 86.7744 -1.20162 0.281434
  142 90.4922 -0.920213 0.302535
  143 93.9941 -0.826251 0.253893
  144 97.7347 -0.487382 0.178153
  145 100.871 -0.328882 0.234730
  146 103.360 -0.0285467 0.137906
  147 91.3548 -8.57265 -1.44726
  148 91.2862 -8.45889 1.48075
  149 95.1564 13.7385 -5.11653
  150 102.144 6.05543 11.0567
  151 77.2682 -7.36726 -16.4488
  152 77.8724 -7.36566 15.8904
  153 74.2694 -3.23662 1.72684
  154 74.2798 -3.28453 -1.72987
  155 108.827 3.86746 -8.89014
  156 91.1074 -3.21953 2.58020
  157 91.0711 -3.13748 -2.54673
  158 117.769 26.6084 1.62098
  159 92.8365 -0.145523 -10.5983
  160 68.0501 -5.47978 -7.28016
  161 68.0428 -5.43095 7.20730
  162 93.1241 -2.08085 9.66277
  163 87.7523 6.36893 6.21240
  164 35.7409 5.95214 -19.6039
  165 39.8036 5.62375 20.6851
  166 115.495 1.14846 2.27324
  167 93.5893 -3.54435 -6.90423
  168 124.540 27.4109 -1.60331
  169 83.9821 -2.34753 0.295175
  170 83.9624 -2.33799 -0.286390
  171 95.1588 -1.04376 -1.14850
  172 95.4953 -0.924084 0.999155
  173 64.6732 -1.00227 -1.09752
  174 64.6776 -0.991157 1.09001
  175 103.008 -2.95619 20.8628
  176 84.7582 3.46312 -6.67932
  177 55.0018 -4.18460 -11.9294
  178 55.1694 -4.15293 11.8407
  179 61.5706 -2.12877 -3.82091
  180 61.5722 -2.10282 3.78697
  181 94.0909 -2.41751 5.86303
  182 85.2472 -5.88827 0.399664
  183 84.9249 -5.84412 -0.249039
  184 97.6655 -9.39591 -0.675520
  185 98.1458 -8.94997 -0.558009
  186 135.501 31.8101 -3.53850
  187 97.0935 15.7058 4.80168
  188 97.6070 6.01307 -10.9506
  189 102.779 -1.17685 -24.4389
  190 97.2630 -5.44918 -8.01799
  191 98.0743 -3.87034 9.29440
  192 81.4355 -9.27058 7.74107
  193 81.4754 -9.20874 -7.71237
  194 86.4047 1.06818 8.06794
  195 38.7450 -0.882165 -14.5230
  196 38.8497 -0.972920 14.4244
  197 153.761 23.2213 3.24843
  198 91.9932 -5.45097 4.58288
  199 95.6222 -1.68328 -3.89095
  200 74.6991 -1.87450 -0.733681
  201 74.6977 -1.86311 0.730205
  202 91.1532 -1.17129 -7.41012
  203 104.139 15.3542 -8.94064
  204 86.1379 7.70633 -1.25007
  205 55.1567 -2.05743 5.46480
  206 55.0680 -2.06541 -5.51229
  207 97.3270 -0.987575 2.20565
  208 93.9110 1.77223 10.8750
  209 75.9559 -5.64366 -3.23719
  210 75.3904 -5.34627 3.34636
  211 111.426 16.5326 8.53125
  212 132.611 17.3639 1.24675
  213 8.27305 6.68836 -5.04724
  214 7.63100 6.18341 4.26116
  215 53.6713 15.1587 35.1614
  216 91.0447 -6.03257 -3.68642
  217 97.7328 -0.949912 -1.99640
  218 85.3351 0.711728 -7.42350
  219 58.7024 -0.647632 -1.68273
  220 58.7182 -0.640041 1.66491
  221 81.4684 -3.86270 -0.340353
  222 81.5048 -3.88357 0.292317
  223 92.0397 -1.22252 6.33873
  224 107.301 -6.24242 1.26719
  225 105.244 21.7541 -2.63995
  226 82.5503 -8.03983 -3.33244
  227 105.296 -1.80628 7.58736
  228 89.3099 -1.41696 0.506403
  229 89.3137 -1.40353 -0.505524
  230 81.8960 -8.00008 3.50110
  231 94.2750 -5.93960 6.61256
  232 134.827 16.3920 -6.69037
  233 28.7123 17.1380 -25.0017
  234 78.1729 2.67049 1.57440
  235 94.0633 8.31446 9.12766
  236 101.001 -0.674813 -10.0361
  237 94.0806 -3.35277 -9.12682
  238 48.5307 -1.64057 -6.90400
  239 48.7115 -1.61453 6.87573
  240 94.3035 -1.09298 -4.97229
  241 89.9478 -2.20863 1.45117
  242 89.9057 -2.20357 -1.41124
  243 17.8212 1.77696 -9.04835
  244 18.1462 1.55973 9.02200
  245 100.964 -8.79772 -6.82773
  246 100.054 -0.257892 0.341124
  247 100.181 -0.263803 -0.359422
  248 91.7097 7.59802 -8.32308
  249 79.8936 1.46861 4.81050
  250 173.779 27.8704 18.5679
  251 172.534 19.6563 -11.7410
  252 122.466 26.7379 -0.461421
  253 76.3206 -3.61682 22.0679
  254 69.8572 -2.27815 -23.1269
  255 79.6930 -1.63237 -0.182454
  256 79.6838 -1.62001 0.180190
  257 65.2500 -1.84214 2.25836
  258 65.2545 -1.86906 -2.28277
  259 97.0405 -0.975525 3.15762
  260 93.9132 -6.65384 -5.58966
  261 58.8513 -0.144957 -0.380987
  262 58.8602 -0.142700 0.377906
  263 92.7189 -3.69757 -4.40139
  264 37.7737 -1.26931 -9.53395
  265 37.9560 -1.27381 9.45681
  266 93.7713 -4.02339 7.42857
  267 71.1269 -7.55221 13.2012
  268 71.3305 -7.68852 -13.1623
  269 79.4331 2.96699 -2.23863
  270 68.5187 -1.11123 -0.734357
  271 68.5215 -1.10271 0.730627
  272 87.1166 -0.237539 5.99382
  273 104.816 19.3516 6.23608
  274 54.4594 -0.725125 2.91241
  275 54.4167 -0.731689 -2.94149
  276 96.6195 -8.01846 4.25701
  277 89.4441 -9.98970 -8.43312
  278 100.344 -0.394093 1.05326
  279 68.0430 -4.16240 -4.91438
  280 67.9088 -4.11328 4.89128
  281 125.416 11.7279 31.0257
  282 56.9881 -4.57420 15.8859
  283 92.4710 13.0368 -0.545976
  284 118.886 12.8981 -6.25451
  285 88.8828 -6.88454 1.86726
  286 89.4778 -10.2689 7.52029
  287 57.1842 -4.49422 -16.0842
  288 10.2710 12.6276 11.1837
  289 92.7335 -3.71355 4.47837
  290 122.611 15.7564 5.24908
  291 101.235 -0.350182 -0.912845
  292 90.1530 3.12959 -9.57692
  293 89.5861 -5.04946 2.69550
  294 87.6513 -7.42128 -0.468548
  295 89.7693 4.10362 9.20813
  296 96.1303 -8.02714 -3.88346
  297 136.879 26.9075 -2.01118
  298 89.5610 -4.85022 -2.58551
  299 75.0651 20.8021 -43.4718
  300 91.7952 -9.71124 -0.957165
  301 91.1207 -9.97329 2.02421
  302 66.0046 -6.05691 -10.3996
  303 58.3392 -0.260774 -0.840175
  304 58.3518 -0.256288 0.831825
  305 66.0237 -6.05940 10.3361
  306 96.8198 -0.142449 -11.0685
  307 105.248 -4.33950 -5.39601
  308 79.1268 -4.84422 -1.50241
  309 79.0634 -4.85464 1.53484
  310 95.9936 -8.25767 13.8848
  311 95.1308 -0.722422 3.76907
  312 117.000 0.244055 3.90781
  313 77.3468 -2.78125 -0.779481
  314 77.3492 -2.76967 0.772786
  315 69.9318 -1.89783 -1.42138
  316 69.9284 -1.87842 1.41798
  317 78.9896 1.01424 -4.65662
  318 103.405 7.58664 -10.7713
  319 162.348 43.4410 -19.8943
  320 94.6038 -0.722288 -0.399917
  321 94.5404 -0.711545 0.408295
  322 49.6436 0.0288487 19.8213
  323 69.6718 -3.27050 -3.15959
  324 69.5237 -3.25622 3.16648
  325 49.6384 -0.0799143 -19.7465
  326 98.1193 11.6229 -8.98624
  327 110.870 5.43478 8.55491
  328 96.0576 -6.85901 -15.5125
  329 87.4980 -3.34942 1.35376
  330 87.4029 -3.32159 -1.31220
  331 93.7862 -1.85552 -2.23040
  332 87.1909 -0.178909 -5.61032
  333 98.7183 0.462903 10.9092
  334 99.0494 -0.627373 -2.19724
  335 57.9456 -3.63219 7.96147
  336 57.8829 -3.65452 -8.03156
  337 91.3554 -0.212247 10.0310
  338 54.6766 -0.496180 -1.70925
  339 54.7113 -0.491344 1.69074
  340 94.4328 -2.09337 3.33567
  341 113.043 23.2452 -4.91166
  342 93.7245 -1.87277 2.30656
  343 99.2737 12.5325 9.04280
  344 95.1771 -1.74087 10.5512
  345 74.5747 -1.42735 0.243197
  346 74.5776 -1.43760 -0.245735
  347 89.6222 -0.331215 -8.88746
  348 119.752 25.2965 3.56592
  349 98.7010 18.2480 0.189736
  350 60.6402 7.11070 -29.7150
  351 5.56681 2.71112 -3.72082
  352 6.18156 2.92776 4.03784
  353 -0.481691 0.596031 1.98395
  354 -0.0776676 0.273615 -2.05618
  355 178.813 12.3920 4.34781
  356 81.8851 -6.72032 -1.74258
  357 94.5247 -2.01730 -3.25793
  358 84.8202 -1.44310 0.226746
  359 84.8103 -1.42969 -0.227011
  360 90.2057 9.96995 -4.50031
  361 77.2134 -7.94883 6.34894
  362 6.40188 9.41743 -6.70897
  363 77.3042 -7.95066 -6.48120
  364 91.4573 10.4144 4.78963
  365 94.0997 -2.45584 -5.60359
  366 100.108 -5.53928 -7.04180
  367 105.957 22.6258 1.82913
  368 100.391 -6.21431 5.99559
  369 39.6767 -1.04340 6.40264
  370 39.4150 -1.02368 -6.45102
  371 22.0449 0.600553 -8.75347
  372 22.3139 0.503319 8.71144
  373 80.3554 0.207777 4.72326
  374 157.789 45.2949 16.3283
  375 97.5677 -0.571453 -2.73143
  376 75.0594 -6.45317 -4.80997
  377 74.9830 -6.43209 4.80226
  378 93.3891 -2.11716 -6.97390
  379 107.331 -5.18148 1.88872
  380 81.8812 -6.71221 1.81137
  381 118.551 0.524227 -8.38559
  382 64.5541 -0.572403 -0.257209
  383 64.5602 -0.567060 0.254463
  384 91.5798 -0.517022 -4.39283
  385 47.7224 -0.740459 -4.19177
  386 47.7566 -0.762933 4.13570
  387 110.153 14.0513 -9.38151
  388 59.0918 4.22746 27.5208
  389 85.8144 -4.51621 0.937368
  390 85.9015 -4.50652 -0.942822
  391 100.659 17.1498 -5.77679
  392 95.6206 -2.80416 -10.0674
  393 96.4795 -9.81937 7.17251
  394 79.4028 -2.12381 -0.265047
  395 79.3910 -2.11134 0.259979
  396 92.3905 -7.11240 3.97802
  397 100.101 -0.426556 1.64693
  398 60.5966 -2.32056 -4.82406
  399 60.6183 -2.31893 4.77655
  400 93.3457 3.12817 -10.7071
  401 88.4837 -1.85594 0.777944
  402 88.4816 -1.85934 -0.764248
  403 91.1574 -1.06006 8.22835
  404 84.2142 6.08551 2.13264
  405 94.8983 -3.96870 8.87690
  406 138.269 29.1631 4.61723
  407 44.6399 -2.41980 -12.7616
  408 44.7716 -2.42152 12.6542
  409 19.7161 10.7975 -14.7769
  410 102.846 -0.233826 0.489568
  411 49.7284 -0.468366 -2.64502
  412 49.7997 -0.458412 2.61898
  413 93.4851 -2.40216 6.85441
  414 84.7411 -9.23143 3.86453
  415 96.3508 -1.10403 1.58813
  416 97.4512 4.97078 11.2436
  417 20.7508 11.4965 15.4775
  418 84.8803 -9.18462 -3.50240
  419 87.7729 -8.18215 -0.108843
  420 27.1801 -0.549653 -7.98575
  421 27.4147 -0.572545 7.92509
  422 67.1014 -5.28891 -19.1704
  423 101.054 -1.46812 9.82505
  424 66.8092 -5.37927 18.9888
  425 93.1861 -5.20104 -5.96285
  426 85.5124 5.71656 -4.70061
  427 93.2118 -3.98165 5.62463
  428 101.136 -0.384753 -1.14518
  429 2.81664 2.83713 0.965139
  430 19.7893 22.3532 22.0627
  431 89.0303 -0.332248 4.20507
  432 73.4077 0.945448 2.02459
  433 74.8186 1.16792 -2.75626
  434 63.8492 -1.13199 -1.59129
  435 63.8520 -1.11673 1.57834
  436 91.8952 -7.11026 -3.69658
  437 92.5357 -1.79218 -9.24968
  438 73.8534 1.31333 -0.749251
  439 138.387 32.8648 5.68546
  440 18.1259 6.25991 -11.0264
  441 20.0692 5.74948 11.8376
  442 85.7364 -3.03966 0.785181
  443 85.7012 -3.02971 -0.759963
  444 114.490 25.6322 -0.416084
  445 73.0033 28.2667 44.4226
  446 111.155 -1.64798 -2.75787
  447 62.1454 -3.35103 -6.54990
  448 62.1710 -3.32586 6.48656
  449 62.2631 -1.47686 2.53029
  450 62.2551 -1.48883 -2.55759
  451 85.0509 1.83802 -7.62506
  452 103.442 -0.0906911 -0.333276
  453 82.4244 3.71663 4.25601
  454 105.766 13.0986 9.93333
  455 87.8971 -6.53851 -1.49124
  456 96.3259 -1.04398 -1.53958
  457 101.589 -0.342203 1.05590
  458 103.160 -0.0935544 0.191343
  459 103.261 -0.112742 -0.146280
  460 54.1126 -0.118646 0.621689
  461 54.0878 -0.120300 -0.629519
  462 96.4250 -6.08440 7.19376
  463 85.9071 3.34452 7.38005
  464 90.2513 0.354979 -9.75986
  465 95.0010 -1.93687 4.22723
  466 140.123 21.7733 -25.4581
  467 95.1006 -5.24163 -7.89217
  468 0.524791 1.73765 0.486306
  469 0.533142 1.75032 -0.0169914
  470 74.5431 -4.31809 2.59150
  471 74.2772 -4.26446 -2.56645
  472 120.013 1.65827 13.2751
  473 32.9932 28.9559 -33.2260
  474 93.6163 -0.261247 3.31625
  475 107.412 -6.31315 -7.18798
  476 55.4133 -3.28212 9.25461
  477 114.224 20.2810 -7.03768
  478 93.7164 -5.03748 6.67442
  479 78.0369 -3.79510 -1.11073
  480 78.1066 -3.72939 1.10532
  481 80.3328 0.406067 -4.17644
  482 55.2337 -3.27125 -9.32126
  483 82.5731 0.00715691 4.21472
  484 80.1451 -9.14715 -11.6446
  485 79.9352 -9.16115 11.6750
  486 96.9350 -0.602327 3.00677
  487 86.8809 8.16615 0.882507
  488 90.1312 1.31648 30.0945
  489 131.931 27.1732 -0.172241
  490 90.7911 -1.44860 0.816632
  491 90.7994 -1.44268 -0.837600
  492 68.4923 -1.27878 -0.963460
  493 68.4938 -1.26709 0.958536
  494 35.8668 1.78208 16.5217
  495 94.0951 -4.49722 -7.67710
  496 85.1053 -1.81205 0.271532
  497 85.0966 -1.80416 -0.268929
  498 73.8291 -7.87221 9.53907
  499 36.5916 2.33626 -16.9557
  500 94.3738 -7.66122 -4.20528
  501 1.46587 0.0111084 1.02683
  502 81.0592 4.11827 0.303842
  503 91.1749 -0.961953 -0.277672
  504 91.1697 -0.977459 0.273226
  505 73.8904 -7.86169 -9.61886
  506 107.547 -5.64052 9.50672
  507 105.852 3.85612 10.2286
  508 98.0590 -0.570500 -0.790666
  509 94.0831 -7.77261 4.25024
  510 56.8041 -0.0769554 -0.102356
  511 56.8122 -0.0763645 0.101168
  512 93.7484 -3.56941 -8.10105
  513 90.1418 6.66474 8.11704
  514 104.514 2.58846 -10.0880
  515 56.4672 -0.112171 -0.347250
  516 56.4779 -0.110738 0.344292
  517 186.461 26.9112 -24.2513
  518 93.9621 11.2325 7.18847
  519 98.1552 -0.514275 0.707942
  520 87.9783 -8.35962 0.317916
  521 73.1036 -2.48777 1.38262
  522 73.1064 -2.50864 -1.37993
  523 103.025 -6.23347 3.79511
  524 98.5682 -1.93119 -10.2514
  525 110.027 21.8516 5.72543
  526 91.0637 1.55637 10.1082
  527 92.5826 -1.69726 1.48384
  528 90.0907 -9.56221 -11.0617
  529 92.9190 -2.26942 7.90618
  530 184.678 8.42305 -3.41561
  531 102.314 -7.68148 -1.16924
  532 97.4473 -0.544596 -0.207740
  533 97.4683 -0.586855 0.190002
  534 186.568 12.5384 12.0391
  535 88.6460 -0.0445295 8.59689
  536 126.213 20.8349 -3.59839
  537 94.1484 -2.49723 -4.15228
  538 40.5805 -0.411067 -2.87267
  539 40.7221 -0.391566 2.84061
  540 62.8831 -5.91762 -13.2955
  541 62.9235 -5.81745 13.1892
  542 92.5346 -1.62107 -1.46667
  543 100.481 3.70673 -11.1105
  544 88.1696 -6.00700 1.82498
  545 94.4034 10.8528 -7.47839
  546 95.8216 -1.05743 4.05014
  547 121.296 5.73120 -0.00739887
  548 81.3980 -2.80424 -0.109680
  549 81.3691 -2.79180 0.104880
  550 88.8296 -4.17316 2.08833
  551 132.451 25.7763 -0.425234
  552 93.2107 4.08152 10.5084
  553 39.4766 10.2221 24.5495
  554 91.0883 -5.48599 19.8340
  555 121.752 5.16258 -21.6600
  556 95.3327 7.89446 -9.81456
  557 85.2256 -7.31456 -17.1425
  558 92.2050 -10.0759 -2.72291
  559 96.5451 -9.72627 -4.31320
  560 12.1943 15.4074 -14.6323
  561 96.9891 -1.14460 -2.59445
  562 146.849 28.6897 -7.85261
  563 89.3292 -3.99223 -2.26413
  564 90.1404 -2.88200 1.86328
  565 90.0545 -2.81197 -1.79914
  566 60.4335 -0.396133 -0.753687
  567 60.4426 -0.390936 0.747320
  568 7.82138 0.937426 -4.70951
  569 8.33533 0.980066 4.82485
  570 44.8955 -2.14988 -9.76135
  571 45.2611 -2.16059 9.73875
  572 91.3559 -4.91835 -3.94163
  573 93.3336 -10.1158 2.99641
  574 95.9617 -9.06789 1.49079
  575 77.7610 -1.37878 -0.228906
  576 77.7548 -1.36738 0.227365
  577 74.1456 -7.74342 -14.6914
  578 83.5173 -6.80097 18.1851
  579 72.2659 -7.27457 14.7874
  580 93.7785 -2.06082 -9.96519
  581 57.2429 -1.02633 2.89865
  582 57.2160 -1.03761 -2.92695
  583 88.8391 4.87669 -8.13960
  584 89.1103 -0.154294 -3.81772
  585 111.937 24.5794 -2.64808
  586 72.1963 -1.13280 -0.249340
  587 72.1958 -1.12422 0.247804
  588 95.6624 -0.266526 -2.19472
  589 64.7764 -2.29626 -3.14240
  590 64.7727 -2.28665 3.11063
  591 53.4243 2.59295 23.6127
  592 93.1134 -4.24285 -5.69390
  593 51.1087 -2.64234 16.9204
  594 91.4949 -4.70936 4.00786
  595 96.6737 -1.28567 2.84933
  596 95.5923 -0.772651 -0.713758
  597 65.4005 -0.871370 -0.678545
  598 65.4054 -0.863613 0.673847
  599 107.281 21.6164 -5.10056
  600 51.0762 -2.53245 -16.9930
  601 91.2006 -3.90439 -3.25907
  602 81.8030 -1.49732 -0.0778957
  603 81.7935 -1.48462 0.0774510
  604 156.774 21.2390 -3.66616
  605 52.6444 -0.374319 1.61416
  606 52.5976 -0.378125 -1.63163
  607 83.9353 1.87700 6.94200
  608 122.857 9.89108 -2.90556
  609 57.0364 0.520210 -23.4625
  610 28.3257 0.819788 -12.6226
  611 28.5809 0.643813 12.5542
  612 71.2416 -4.27563 3.81876
  613 72.0375 -4.40144 -3.68836
  614 123.530 24.8196 3.41945
  615 95.1663 -0.804631 0.656666
  616 79.9501 2.17810 -4.17639
  617 100.886 18.2818 4.56474
  618 100.479 18.9786 -3.03420
  619 82.6073 -4.62045 -0.231532
  620 83.2695 -4.50974 -0.0719916
  621 59.5298 12.8349 -33.9492
  622 70.2719 -2.49887 -2.07383
  623 70.2740 -2.46838 2.06413
  624 185.050 37.7991 28.3615
  625 93.7431 -3.03912 8.69250
  626 52.0823 -1.93687 -6.25561
  627 149.046 32.5528 20.6742
  628 52.2093 -1.92473 6.22698
  629 90.4145 -3.50041 -23.3072
  630 61.6114 -0.352432 -0.278895
  631 61.6190 -0.349295 0.277091
  632 76.7977 0.647151 3.63824
  633 33.9407 -0.537504 -5.63311
  634 34.1544 -0.538708 5.58380
  635 81.5090 -5.83712 1.24670
  636 85.7090 -6.90592 0.125905
  637 102.133 -0.182661 -0.946619
  638 55.0311 -0.109049 0.449422
  639 55.0135 -0.110870 -0.455232
  640 76.5211 -1.75100 -0.296521
  641 76.5159 -1.73950 0.292891
  642 88.9202 -9.82082 11.2072
  643 101.738 11.3954 -10.0444
  644 66.6550 -3.23034 -4.06362
  645 66.5986 -3.17416 4.03004
  646 79.9276 -5.83681 -1.96677
  647 127.170 27.8994 0.0956598
  648 95.3671 -9.19037 -0.943552
  649 82.1384 -1.95109 0.00809167
  650 82.1245 -1.93949 -0.00739480
  651 114.170 12.4028 8.21660
  652 95.4097 -1.31599 -4.40491
  653 83.0957 -0.125637 -3.43851
  654 37.7143 -1.28024 -12.2296
  655 37.8429 -1.32032 12.1202
  656 79.7650 -6.96975 -3.42095
  657 120.393 26.8913 0.117262
  658 92.5216 12.5713 -3.23760
  659 60.1747 -0.607098 -1.41331
  660 60.1854 -0.598383 1.39954
  661 86.8626 -2.41374 -0.730916
  662 86.8799 -2.41842 0.751857
  663 165.079 21.6573 9.46854
  664 104.063 -0.231895 0.273377
  665 99.9158 -0.350275 1.59820
  666 99.4615 -0.364729 -1.84924
  667 94.1199 -8.73167 2.30052
  668 67.8289 -0.842132 -0.339576
  669 67.8325 -0.835411 0.337589
  670 99.9505 16.1360 6.99360
  671 129.466 28.9349 -0.904739
  672 69.5934 -5.30407 -5.76452
  673 69.5640 -5.24848 5.73025
  674 88.1092 -9.09804 -1.15313
  675 92.4319 5.48968 -9.87454
  676 111.232 0.238633 5.15258
  677 72.2541 -1.39353 -0.630938
  678 72.2536 -1.38323 0.627350
  679 62.5172 -5.54414 -12.0083
  680 93.2027 -8.99103 -1.41126
  681 77.0195 -8.55612 10.4990
  682 36.3615 11.6210 -23.6546
  683 71.5410 -6.72033 8.08763
  684 86.1825 0.0209088 3.19639
  685 62.5691 -5.47920 11.9194
  686 91.1438 -3.98465 3.29907
  687 71.5766 -6.69462 -8.17069
  688 72.0673 0.886637 0.759480
  689 55.6203 -1.58798 4.41616
  690 55.5694 -1.59088 -4.45246
  691 77.0813 -8.77932 -10.6216
  692 95.7542 -6.26854 -6.96495
  693 87.6495 -1.15288 -0.181416
  694 87.6629 -1.16682 0.182163
  695 97.9673 -6.18921 6.96703
  696 88.8263 -9.29039 1.49121
  697 108.233 9.92502 10.0091
  698 97.3737 -1.78439 10.4924
  699 93.6905 -3.31388 6.51305
  700 88.6677 7.26673 -6.17303
  701 107.630 18.2034 7.88175
  702 92.7276 -1.26047 -6.17669
  703 92.7395 -3.01341 3.53546
  704 95.0960 14.9777 1.75419
  705 94.2132 -1.55516 5.44750
  706 29.1645 19.7186 24.7184
  707 87.8064 -10.0822 -6.17476
  708 101.692 1.88173 10.7371
  709 102.920 -3.15443 -7.96333
  710 103.436 -0.0891397 0.543110
  711 93.7035 -3.16168 -5.20791
  712 87.9146 -10.1632 5.54750
  713 173.854 15.3809 -2.59112
  714 50.3933 -0.242885 1.69266
  715 50.3292 -0.245700 -1.71108
  716 95.3045 -1.64778 -2.52727
  717 104.103 -0.0637390 -0.523937
  718 79.6012 -7.08033 3.44090
  719 96.1384 -3.53567 9.58975
  720 148.587 34.4231 -9.05276
  721 91.1175 -6.59334 3.49615
  722 101.474 -6.63781 -4.55149
  723 92.7799 -2.92817 -3.48103
  724 104.171 -0.128209 -0.189464
  725 93.5233 0.00806630 10.7416
  726 4.12294 3.06311 4.86460
  727 107.136 -4.28700 -14.6626
  728 116.133 6.71817 5.66402
  729 96.4035 -9.80995 3.74301
  730 67.1509 -1.69733 1.71044
  731 67.1551 -1.72237 -1.72106
  732 92.0879 43.5563 -46.6691
  733 98.0243 -6.43767 -6.50291
  734 71.7623 0.313913 -1.45099
  735 84.9311 0.440779 6.80192
  736 94.3307 -4.67979 7.81415
  737 90.4231 -7.61968 2.10837
  738 94.5974 -8.57298 -12.0349
  739 89.8305 -7.10844 -2.24692
  740 106.935 -5.12401 -2.24753
  741 98.3873 -0.715929 1.49753
  742 87.1097 -5.24475 1.36774
  743 160.940 32.2294 -16.8426
  744 93.2538 -2.42106 2.84069
  745 91.5909 1.48687 -10.3911
  746 78.9117 -0.930114 26.3136
  747 98.4115 7.95835 10.7098
  748 84.6116 -6.70761 0.338372
  749 64.5789 -5.19760 -8.72678
  750 64.5773 -5.18081 8.64712
  751 89.3391 10.0441 -1.44469
  752 91.3674 -1.04402 9.34161
  753 92.5381 -2.17960 -8.05513
  754 87.2129 -5.34866 -1.40097
  755 84.2311 -7.60231 1.60333
  756 95.8604 15.9244 -2.00109
  757 90.3069 -7.81446 -1.75003
  758 90.5110 -5.71310 3.36740
  759 91.9619 -1.08413 0.566588
  760 92.0258 -1.05104 -0.564240
  761 123.766 27.4493 1.17936
  762 101.583 -8.60067 -2.09049
  763 93.9966 -2.82062 5.17174
  764 98.4559 -0.710591 -1.37450
  765 98.8278 0.683462 -11.0100
  766 113.264 5.83590 -7.13993
  767 53.1111 -0.0710745 -0.778769
  768 53.1449 -0.0702049 0.769531
  769 0.703063 -1.92930 -1.39050
  770 95.9058 -0.0882160 2.03742
  771 87.0866 -0.172800 -7.55972
  772 90.2907 -0.841301 6.73404
  773 83.7940 9.82594 38.9987
  774 102.878 21.3793 -0.244317
  775 72.6965 -5.32312 4.38837
  776 11.5977 0.306773 -4.71493
  777 11.9945 0.229767 4.76759
  778 89.4000 -0.641564 -7.56601
  779 72.9154 -5.37946 -4.38448
  780 97.8589 -0.785183 1.16590
  781 48.2396 -2.13451 8.34036
  782 47.8023 -2.12811 -8.35121
  783 93.2549 -2.34712 -2.76957
  784 57.8672 -1.55494 -3.82904
  785 57.8951 -1.54369 3.78984
  786 97.2673 -0.849037 -3.08165
  787 73.0552 -2.01693 -1.09898
  788 73.0545 -2.00213 1.09894
  789 106.351 -0.677463 -8.04140
  790 95.0682 -0.975767 -10.8408
  791 46.4820 -0.324954 -2.17543
  792 46.5808 -0.321974 2.14735
  793 1.64234 1.20106 -2.74774
  794 2.09278 1.26472 2.89865
  795 75.4877 0.342500 -2.64705
  796 86.9840 -9.77908 -4.43917
  797 -1.03596 -0.729116 1.75368
  798 -0.896146 -0.837011 -1.72559
  799 90.6412 -1.73774 1.18370
  800 98.5125 -7.64082 -4.09160
  801 101.067 15.0580 -8.18931
  802 98.3241 -0.699175 -1.10478
  803 216.163 42.7252 -40.5964
  804 90.6236 -1.73050 -1.16936
  805 137.242 26.4470 1.84924
  806 96.6839 2.82895 -11.2739
  807 107.314 8.07979 -10.2022
  808 16.4808 -0.197516 -4.39675
  809 16.8369 -0.224737 4.38747
  810 58.7375 -0.914174 2.23941
  811 58.7191 -0.922371 -2.26296
  812 55.5820 -0.156517 0.413042
  813 55.5691 -0.158083 -0.417100
  814 108.207 18.2949 -7.84712
  815 62.3196 -0.438460 -0.594773
  816 62.3271 -0.433213 0.590517
  817 91.6607 -0.920319 -9.73972
  818 135.307 12.8084 9.94358
  819 81.6050 1.76189 -5.82672
  820 27.0090 -0.255712 4.75688
  821 26.7458 -0.257940 -4.79837
  822 108.803 2.46667 27.6681
  823 95.1890 -1.66215 2.60854
  824 83.6696 5.49804 -2.43050
  825 37.3476 -0.0757939 3.27031
  826 37.1319 -0.0575689 -3.29750
  827 57.0129 -0.331869 -1.08604
  828 57.0309 -0.327084 1.07397
  829 10.0365 9.03210 7.42973
  830 87.6500 2.05610 8.72075
  831 97.9617 14.4726 -6.95927
  832 105.982 12.3156 -10.0318
  833 68.4705 -2.69228 -2.78431
  834 68.4239 -2.66957 2.77766
  835 109.508 23.5567 3.62793
  836 95.1938 -0.683169 -0.159796
  837 95.1957 -0.677692 0.176826
  838 93.6800 -2.75807 -6.53004
  839 77.9133 -5.27834 2.34142
  840 86.4168 -9.72045 4.48170
  841 102.398 -8.39029 7.08964
  842 77.0898 -2.27521 -0.531047
  843 77.0864 -2.26471 0.525437
  844 88.0730 8.14235 3.95223
  845 82.4366 1.07796 -6.30699
  846 22.9533 25.6158 25.7156
  847 84.5093 -7.54263 -1.38995
  848 84.7437 -3.79311 0.611476
  849 84.7903 -3.79781 -0.615092
  850 93.2500 -1.35296 10.2851
  851 92.7741 -6.06723 -5.12107
  852 82.4532 -5.51739 -0.604054
  853 194.567 6.31202 -9.84209
  854 78.2758 -7.49140 4.91706
  855 78.2204 -7.59267 -5.00597
  856 93.2440 -1.08883 5.26594
  857 142.116 36.3730 -6.86024
  858 73.2227 -6.76145 -6.34276
  859 81.3610 -9.20934 5.84790
  860 73.1923 -6.67649 6.28022
  861 79.5404 -3.24386 -0.555168
  862 79.5347 -3.23050 0.548762
  863 11.1727 4.96333 6.49293
  864 100.292 7.51478 -10.9117
  865 76.1208 -3.03431 -1.11724
  866 76.1324 -3.00137 1.12206
  867 75.0503 -1.26554 -0.130671
  868 75.0470 -1.25554 0.129441
  869 83.1321 -1.61822 0.125733
  870 83.1212 -1.60585 -0.125955
  871 66.5382 -1.38133 -1.49098
  872 66.5400 -1.36484 1.48296
  873 76.4653 -4.11109 -1.77857
  874 76.4724 -4.07951 1.78586
  875 1.71402 -1.20026 -0.513675
  876 116.689 21.9000 6.26847
  877 100.308 -3.47504 -9.01469
  878 81.3073 -9.07793 -5.92026
  879 88.0084 -2.79325 1.20862
  880 87.9673 -2.76140 -1.18117
  881 95.8863 0.145691 11.0664
  882 105.268 -7.51441 -3.41937
  883 93.5295 6.17376 -33.6956
  884 41.0801 -0.580537 16.4057
  885 -2.03166 0.960587 -0.951559
  886 -1.81009 1.08126 1.07727
  887 11.0775 5.28017 -6.62035
  888 94.0239 -2.63446 4.13803
  889 99.4075 -0.573446 -1.76391
  890 89.1802 -8.52867 14.0076
  891 40.9784 -0.529932 -16.4776
  892 99.4018 -8.07950 3.14714
  893 111.572 -3.51822 11.7917
  894 78.4924 0.303076 2.81168
  895 90.9829 8.65628 6.76395
  896 48.4515 -2.76807 12.1466
  897 48.2561 -2.79092 -12.2364
  898 58.2303 -2.88055 -6.77973
  899 62.1021 -2.94608 -21.0277
  900 99.1514 -2.27497 9.97378
  901 137.504 31.8208 3.46288
  902 99.3594 3.85265 11.1271
  903 93.9464 -1.95794 -5.93013
  904 63.4596 -2.64038 21.5581
  905 120.398 22.0916 -4.99772
  906 11.3265 9.79093 -9.23278
  907 85.9292 -0.187446 -3.04902
  908 58.2911 -2.85536 6.71182
  909 71.6575 -1.63642 0.982590
  910 71.6583 -1.64912 -0.985763
  911 92.9165 -6.03560 5.26984
  912 97.0514 -0.509544 0.469891
  913 70.9412 0.710334 -26.2561
  914 102.588 -0.188278 0.839280
  915 101.676 -0.150062 -1.05205
  916 73.6157 0.607622 -2.42487
  917 97.7979 -0.381505 -1.81595
  918 72.0035 -3.47141 -2.49481
  919 72.0517 -3.41642 2.50114
  920 -2.54753 0.838618 -1.49009
  921 -3.43217 0.505115 1.54407
  922 97.0547 -0.466723 -0.470701
  923 30.6640 -0.669814 11.0481
  924 30.4585 -0.598053 -11.1172
  925 102.832 15.0853 8.68732
  926 189.843 3.41063 3.08029
  927 96.5458 10.7826 8.96691
  928 110.898 -4.01075 2.51430
  929 95.5363 -5.27629 7.92189
  930 119.181 25.0797 -3.79079
  931 71.8784 0.262187 1.82494
  932 92.0224 -2.08168 -1.80551
  933 95.0895 5.11872 -10.8373
  934 116.400 3.23558 -3.17657
  935 89.4883 -5.51653 -2.75033
  936 43.8311 -0.269886 -2.44526
  937 43.8850 -0.260472 2.40789
  938 94.6143 -2.15684 -4.74204
  939 2.86883 3.73828 0.444502
  940 90.7838 -9.40494 -0.188708
  941 77.0215 2.19930 -0.251200
  942 118.204 26.2083 -2.52412
  943 18.0349 13.4784 -15.6915
  944 90.3014 -0.668764 -6.03550
  945 61.3540 -1.10198 -2.07292
  946 61.3624 -1.08828 2.05209
  947 0.453820 -2.68548 2.07877
  948 60.6249 -4.61416 -9.73858
  949 92.4213 -5.30780 -4.94884
  950 55.2975 0.117342 -0.167289
  951 55.3062 0.118052 0.165841
  952 92.6232 11.2644 -5.44167
  953 101.062 -0.211661 -0.170922
  954 101.058 -0.216622 0.220133
  955 60.6461 -4.59934 9.66460
  956 93.2754 -0.104863 -2.40833
  957 108.169 0.773959 7.82637
  958 95.8420 -1.26171 2.04150
  959 14.3868 3.86182 -8.36196
  960 99.6388 -0.528387 1.60678
  961 89.1363 0.692036 9.37431
  962 94.0399 13.0837 4.84325
  963 94.4601 1.10143 -11.1149
  964 64.1185 -3.55665 -5.75057
  965 102.638 -3.58625 7.71660
  966 64.1577 -3.54063 5.68516
  967 2.70246 3.04814 0.0635729
  968 10.3327 1.93283 6.11192
  969 51.5655 -0.975942 4.01388
  970 51.4985 -0.977829 -4.04084
  971 92.0849 -2.12621 1.89022
  972 98.2836 17.2233 2.71095
  973 49.7694 4.68472 -24.7418
  974 82.2812 -5.18786 0.480820
  975 77.1986 -8.13279 -7.62952
  976 113.237 21.8084 6.29758
  977 86.8965 -1.47335 0.267135
  978 86.8943 -1.46381 -0.267347
  979 95.6102 -1.69057 -3.46196
  980 87.1990 7.49516 -3.64905
  981 206.315 59.7794 40.3875
  982 17.2310 1.06659 -8.20368
  983 17.5396 0.889010 8.22588
  984 1.27851 -2.21428 0.155731
  985 87.5513 4.81234 7.48920
  986 77.1620 -8.17960 7.56684
  987 96.1818 -4.50506 -8.91627
  988 104.731 8.58744 10.9044
  989 101.346 -8.17814 -8.94242
  990 148.508 31.3590 9.82349
  991 85.1993 -1.32411 0.00860011
  992 85.1882 -1.31136 -0.00834937
  993 100.235 -4.03591 8.58974
  994 6.71144 9.97090 11.1597
  995 43.2958 -0.963330 5.77736
  996 43.1473 -0.951197 -5.84727
  997 52.3167 -2.66009 7.85904
  998 52.1274 -2.62179 -7.89455
  999 59.1566 -2.54347 5.59168
  1000 64.6519 -0.566828 -0.276546
  1001 64.6580 -0.562273 0.275156
  1002 169.600 52.0695 -32.5283
  1003 151.378 37.8608 14.7321
  1004 59.1093 -2.55818 -5.64564
  1005 103.291 -0.439155 9.43944
  1006 91.4337 9.49516 -6.52817
  1007 64.5742 -5.50476 17.4027
  1008 83.5897 -9.86540 -9.02874
  1009 95.6546 -0.746848 -3.57456
  1010 42.3145 3.05839 20.0407
  1011 54.3664 -4.17194 13.9132
  1012 83.3581 4.21587 -4.67068
  1013 96.6069 -1.88037 -10.5895
  1014 127.655 48.0312 53.6774
  1015 78.3374 2.33566 3.30681
  1016 108.322 23.6114 -0.432795
  1017 80.2849 3.04239 -29.9042
  1018 80.8760 -8.57685 -4.99258
  1019 104.251 -0.0601868 -0.431143
  1020 98.6219 9.08625 -10.4391
  1021 56.0538 -0.407124 1.41317
  1022 56.0294 -0.411360 -1.42890
  1023 1.97723 0.247763 -2.55158
  1024 64.1040 -3.04189 -4.77682
  1025 54.3048 -4.22691 -14.0289
  1026 64.0460 -3.03311 4.71648
  1027 94.3456 -2.83957 9.78961
  1028 84.4881 -5.25347 0.321553
  1029 88.3038 1.59704 -9.06342
  1030 90.8083 11.3666 1.90295
  1031 125.976 7.05280 3.07452
  1032 93.6775 -7.08749 5.10361
  1033 58.1211 -4.73588 -10.6599
  1034 87.4550 3.05663 -8.45665
  1035 65.1814 -5.42597 -17.5080
  1036 126.512 27.7798 -0.263221
  1037 84.7355 5.51679 4.24831
  1038 109.102 -0.680744 -6.26075
  1039 81.3858 -8.57621 4.53311
  1040 93.5126 -2.92276 7.63443
  1041 93.0206 -4.87421 5.70439
  1042 92.5137 -4.61438 4.99420
  1043 114.744 14.4855 -8.39887
  1044 92.0745 -1.46213 7.63546
  1045 83.4290 -9.89339 8.87366
  1046 89.0745 -3.60476 1.88926
  1047 58.1548 -4.74302 10.5909
  1048 83.3768 -6.20267 -0.632309
  1049 47.6230 -2.28441 -14.8899
  1050 68.7752 -7.18455 11.7131
  1051 93.9515 -0.603575 -4.11648
  1052 91.2285 -1.01943 -8.62517
  1053 78.8839 -6.32767 -2.91628
  1054 47.7068 -2.35637 14.7613
  1055 84.4448 0.178969 -5.91457
  1056 62.4800 -4.26507 -7.49354
  1057 115.215 24.7521 4.07086
  1058 24.7389 4.29512 -13.9011
  1059 203.213 14.3939 19.9063
  1060 45.4249 3.55603 -21.0285
  1061 92.5348 -7.64720 -3.40976
  1062 62.4918 -4.22606 7.42435
  1063 83.4501 0.837368 6.58697
  1064 45.6927 -0.979557 4.77775
  1065 45.6643 -1.00428 -4.83106
  1066 93.4320 -2.57356 -9.05782
  1067 100.418 -0.416933 0.698864
  1068 97.8735 -0.188730 1.84228
  1069 96.3209 3.22279 11.2299
  1070 89.7755 -0.675832 8.07302
  1071 70.1926 7.37120 32.3941
  1072 104.993 -0.0445459 0.220110
  1073 96.6894 13.1700 7.14305
  1074 80.9845 1.12312 5.65518
  1075 99.3020 -0.343823 1.78202
  1076 61.9027 -0.730434 -1.14143
  1077 61.9102 -0.721809 1.13222
  1078 38.8796 -1.14706 -7.95611
  1079 39.0496 -1.18804 7.89364
  1080 81.2375 3.98701 2.36603
  1081 126.597 6.22228 -7.84137
  1082 116.269 -0.526157 -16.3908
  1083 90.7654 -0.0696055 -2.48062
  1084 68.8140 -7.24000 -11.8080
  1085 79.0473 -6.01673 2.55763
  1086 91.3406 -0.199822 2.59138
  1087 96.2783 -6.94095 -5.94479
  1088 58.0202 -0.166247 0.694636
  1089 58.0094 -0.168979 -0.699892
  1090 92.3541 -7.86657 3.40929
  1091 87.6418 -1.72819 0.469200
  1092 87.6276 -1.72922 -0.462364
  1093 85.1907 -8.62074 2.59323
  1094 111.063 -3.65148 -0.0513083
  1095 47.7198 -0.0955886 -1.35159
  1096 47.8044 -0.0922512 1.33528
  1097 74.8745 -4.64736 -20.0572
  1098 79.0826 -1.89469 0.233440
  1099 79.0923 -1.90714 -0.237164
  1100 48.1959 25.2975 35.5529
  1101 110.973 9.03838 -9.27881
  1102 15.5270 7.78926 -10.2572
  1103 95.9162 -1.33652 -1.97599
  1104 24.6724 8.71440 -15.9189
  1105 51.7944 -3.34264 -10.1541
  1106 105.105 -0.0671281 0.125558
  1107 105.158 -0.0600194 -0.0947788
  1108 93.9520 -5.32501 -6.83973
  1109 83.2379 -9.29864 -12.6304
  1110 24.7456 3.65570 13.2471
  1111 102.086 10.1440 10.2615
  1112 93.0888 -0.830797 -0.192672
  1113 93.0963 -0.832119 0.202405
  1114 102.368 -6.68999 15.2342
  1115 104.286 21.0954 4.00068
  1116 60.5657 -1.54999 -2.99407
  1117 60.5777 -1.54164 2.96861
  1118 46.5686 5.45626 24.9503
  1119 88.1025 0.424499 -8.78722
  1120 27.0460 8.91811 17.1720
  1121 115.511 -2.16413 -4.22484
  1122 111.935 25.0762 1.27315
  1123 76.4886 -6.15570 3.68306
  1124 68.9443 0.321229 -0.355230
  1125 98.3608 -0.798956 2.33294
  1126 102.169 -0.0892943 0.916451
  1127 20.4769 0.0505648 -3.97787
  1128 20.8055 0.0391272 3.94802
  1129 78.2194 1.24215 -4.17649
  1130 81.7667 -2.40705 -0.0262635
  1131 81.7453 -2.39336 0.0250559
  1132 8.37492 11.5504 -11.8298
  1133 13.5472 26.9289 -24.5132
  1134 82.8860 -3.24775 -0.140063
  1135 82.9226 -3.25015 0.136526
  1136 85.8386 -2.02682 0.527653
  1137 85.8261 -2.02094 -0.518999
  1138 21.8962 14.0874 17.1647
  1139 66.4591 -0.880574 -0.528291
  1140 66.4637 -0.873532 0.524961
  1141 84.2339 6.31603 -0.103058
  1142 111.179 12.7615 -37.5187
  1143 103.914 18.0364 -6.84612
  1144 95.0122 -3.61336 -9.32147
  1145 93.6394 -4.62836 -6.88464
  1146 76.5509 -6.21616 -3.75015
  1147 75.8421 0.221584 2.57844
  1148 86.3287 5.33736 -6.25376
  1149 85.0271 4.52363 5.95895
  1150 89.0136 -3.49556 -1.85869
  1151 84.7154 -5.14412 -0.381043
  1152 76.6030 -5.05158 -2.69965
  1153 91.6087 -0.523735 4.83516
  1154 165.803 16.8178 2.36501
  1155 92.3206 -1.94731 8.81547
  1156 92.3424 6.06744 9.48263
  1157 85.6019 -8.46797 -1.77019
  1158 9.71781 1.78228 -5.88406
  1159 87.2121 -4.01904 -1.46631
  1160 55.7187 -0.112918 -0.0287501
  1161 55.7259 -0.112508 0.0282531
  1162 107.139 -2.82949 5.47677
  1163 102.140 -8.57278 2.69460
  1164 147.354 26.6254 6.17376
  1165 32.8384 -0.0868940 -3.34547
  1166 33.0647 -0.0793927 3.31698
  1167 77.2509 -1.57930 -0.234905
  1168 77.2450 -1.56782 0.232222
  1169 87.5264 -7.74844 0.430711
  1170 69.6142 0.282151 1.15955
  1171 89.6992 -6.38294 2.69061
  1172 4.71258 5.60908 -2.36061
  1173 15.3913 7.88499 10.0444
  1174 59.4364 -3.13758 19.4079
  1175 103.402 19.8824 -4.87891
  1176 99.6989 -0.252290 -1.40445
  1177 105.586 -0.142985 0.0951297
  1178 105.708 -0.205779 -0.0659807
  1179 58.3105 -0.177173 -0.106467
  1180 58.3188 -0.175870 0.105371
  1181 95.2599 6.11144 10.8234
  1182 142.965 24.7456 -0.520644
  1183 97.9832 16.3197 -4.86734
  1184 73.5569 -5.32526 19.9250
  1185 59.1180 -3.00294 -19.3744
  1186 65.3001 -4.50129 -6.67438
  1187 92.1092 -2.49902 2.36333
  1188 129.308 28.3025 -0.218388
  1189 65.2990 -4.47156 6.61424
  1190 94.3141 -1.54876 1.79207
  1191 82.6147 3.00751 5.67442
  1192 91.9069 2.83695 10.3523
  1193 132.623 29.7446 2.22101
  1194 77.4172 -2.05006 0.451710
  1195 77.4237 -2.06194 -0.456664
  1196 95.4633 -1.70789 3.58956
  1197 54.4762 -0.638108 2.23271
  1198 54.4374 -0.644922 -2.25655
  1199 93.4626 -1.16748 -0.860328
  1200 37.9508 22.3956 -34.2026
  1201 80.8629 -4.51087 -21.3188
  1202 75.1560 -2.41734 -0.965238
  1203 75.1611 -2.40437 0.965238
  1204 100.905 -0.388973 0.615130
  1205 94.9493 -1.13727 1.44068
  1206 4.85283 5.82359 4.11406
  1207 104.053 -0.0841014 0.498672
  1208 11.7659 14.4865 14.3670
  1209 92.5878 -1.28179 -1.09253
  1210 -0.161627 -2.32950 -2.02975
  1211 64.6319 -6.29621 -14.9795
  1212 64.4327 -6.13981 14.8198
  1213 104.054 -0.153966 -0.545292
  1214 87.7920 -4.62332 -1.70193
  1215 100.808 -0.345664 -0.644291
  1216 79.2669 -2.59344 -0.333488
  1217 79.2556 -2.58146 0.326125
  1218 93.3981 -1.15731 0.814092
  1219 87.1470 -3.94233 1.45087
  1220 83.6475 -2.67815 -0.328677
  1221 83.6807 -2.68804 0.340488
  1222 100.745 -0.356826 -0.530510
  1223 86.3423 -9.03180 -14.3017
  1224 98.3720 -0.497721 -0.556756
  1225 93.0100 -1.32206 1.15791
  1226 62.9760 -0.760043 -0.827323
  1227 62.9828 -0.752219 0.820974
  1228 71.0746 -1.09127 -0.383059
  1229 71.0753 -1.08264 0.380341
  1230 117.712 18.2601 7.26004
  1231 98.7542 -7.52814 4.70257
  1232 67.2783 -0.244935 24.7297
  1233 51.8275 -0.111042 0.855080
  1234 51.7830 -0.112127 -0.865178
  1235 93.0185 -1.68598 6.67931
  1236 89.2671 -1.26317 0.298618
  1237 89.2737 -1.25790 -0.298415
  1238 101.635 19.9859 2.26041
  1239 94.0791 -9.81003 11.0655
  1240 52.2248 -0.798747 3.16809
  1241 52.1702 -0.805410 -3.19543
  1242 89.0789 -2.10719 1.03042
  1243 89.0601 -2.12072 -1.00732
  1244 92.0632 -2.46424 -2.28674
  1245 83.2114 0.00729785 3.06755
  1246 147.792 36.6715 -11.3170
  1247 93.6321 -3.37386 -6.07070
  1248 15.1101 3.80606 8.62108
  1249 96.8322 -5.11042 8.40269
  1250 75.8815 1.58509 -2.28058
  1251 5.36348 4.23576 2.85607
  1252 129.253 13.7762 0.499091
  1253 94.4259 -4.25660 -8.38160
  1254 76.2782 1.02333 3.48835
  1255 52.1778 -3.34637 10.1269
  1256 96.1646 -7.39878 5.39483
  1257 141.683 25.8087 6.44820
  1258 31.2806 4.80280 16.9575
  1259 96.8069 -1.06500 -3.08056
  1260 191.540 2.09855 -1.97674
  1261 198.379 3.01967 8.88449
  1262 212.541 7.42557 -20.9693
  1263 93.3977 -2.87058 -7.41754
  1264 93.5180 -4.22158 6.46457
  1265 95.1295 -6.72729 6.22657
  1266 -2.82293 0.281708 1.82363
  1267 -2.58251 0.212141 -1.96877
  1268 92.7767 -10.2081 -4.69456
  1269 95.2484 -9.57901 -7.42928
  1270 70.1784 0.413932 -1.43615
  1271 92.4383 -10.4041 7.47256
  1272 98.5722 -4.62923 -8.55589
  1273 1.57707 2.77587 -0.00422744
  1274 79.3198 -1.44147 0.220793
  1275 79.3271 -1.45343 -0.221384
  1276 98.3461 -0.702154 2.13121
  1277 94.3191 -1.51821 -1.69376
  1278 88.4987 -9.67051 -2.16541
  1279 80.2807 -4.40641 0.875625
  1280 79.8536 -4.34799 -1.00914
  1281 94.9603 -1.94087 4.80842
  1282 97.2595 -3.53078 -9.64782
  1283 5.57576 4.41758 -2.71863
</Section>

newXOutput 14

<Section columns = "stress_xx | stress_yy | stress_xy">
  1 115.053 0.0157964 0.245128
  2 115.066 0.0167922 -0.246119
  3 59.2330 -0.0353072 -0.0889819
  4 -0.766357 -0.762749 -1.10071
  5 214.551 79.7867 66.2656
  6 212.450 82.9313 -66.8227
  7 -0.888577 -0.729381 1.16501
  8 59.2258 -0.0355677 0.0886741
  9 115.946 -0.174044 0.0811634
  10 115.657 -0.283293 -0.0424804
  11 115.314 -0.171672 0.298112
  12 114.978 -0.252301 0.110623
  13 114.264 -0.206250 0.471089
  14 113.624 -0.212401 0.360478
  15 112.176 -0.189703 0.667906
  16 110.175 -0.107706 0.977103
  17 108.377 -0.128204 1.07340
  18 105.765 -0.203502 1.28192
  19 102.213 0.00548555 1.87399
  20 98.9289 -0.150640 1.76366
  21 95.2761 -0.210169 2.46143
  22 89.9889 0.151558 2.12372
  23 86.2266 0.210068 2.49563
  24 81.3250 0.365481 1.93900
  25 77.9633 0.355881 1.94828
  26 73.0860 0.524429 0.988861
  27 72.0731 0.830219 1.05574
  28 71.4694 0.665478 -0.310088
  29 72.3116 0.359486 -0.689555
  30 73.8539 0.367879 -0.842974
  31 77.5029 0.478417 -1.68926
  32 81.0454 0.377023 -2.15077
  33 86.3009 0.0634552 -2.55989
  34 90.5160 -0.0620276 -2.35275
  35 95.0563 -0.169446 -2.33099
  36 99.1916 -0.116295 -1.65734
  37 102.791 -0.115164 -1.43124
  38 105.793 -0.196735 -1.21423
  39 108.512 -0.132308 -0.864465
  40 110.246 -0.148549 -0.925547
  41 111.920 -0.197586 -0.680518
  42 113.535 -0.239914 -0.318704
  43 114.374 -0.188302 -0.360754
  44 114.850 -0.100724 -0.233757
  45 114.597 -0.0321173 -0.212182
  46 115.796 -0.290506 0.0228105
  47 115.993 -0.183293 -0.0838665
  48 111.817 -0.0159947 -0.150914
  49 109.066 -0.371029 -0.259259
  50 105.743 -0.568135 -0.187593
  51 101.716 -0.890592 -0.252168
  52 97.9301 -0.991218 -0.321299
  53 93.9112 -1.29160 -0.301987
  54 90.3741 -1.46639 -0.180040
  55 87.2739 -1.68117 -0.0830326
  56 83.7054 -1.40573 -0.0847111
  57 79.5951 -1.33448 -0.114731
  58 75.6272 -1.07233 -0.0510873
  59 71.8608 -0.703093 -0.0271900
  60 68.2715 -0.514762 -0.00789804
  61 65.1075 -0.281787 0.0222864
  62 61.8503 -0.0891852 -0.103634
  63 59.2837 0.0800948 0.109718
  64 58.1536 0.251383 0.0665797
  65 58.9904 -0.00553068 0.170323
  66 58.1829 -0.0444752 0.201924
  67 57.4640 -0.0615210 0.253061
  68 56.4709 -0.0167990 0.337647
  69 55.2147 -0.0101762 0.430901
  70 54.3367 -0.0921534 0.854041
  71 51.6209 0.0770483 0.937286
  72 49.7420 -0.0116269 1.08631
  73 46.9418 -0.0579330 1.22876
  74 43.6995 -0.0934948 1.50023
  75 39.6531 -0.0257723 1.82147
  76 34.7164 0.0195746 1.99884
  77 30.5311 -0.0558970 2.85113
  78 22.1216 0.275115 2.66956
  79 16.4855 0.238567 2.82531
  80 9.81635 -0.0349025 3.10456
  81 4.36126 0.548550 3.18786
  82 -1.80819 0.798838 1.83479
  83 -6.19039 0.806201 0.555899
  84 -5.77593 0.754764 -0.437957
  85 -5.26851 0.617008 -1.62701
  86 -3.07188 -0.234175 -1.50869
  87 -0.400993 -2.94959 -1.65472
  88 0.249659 -5.48885 -2.11420
  89 0.755022 -8.89939 -1.29717
  90 1.71272 -9.52903 -0.193813
  91 3.67445 -3.77082 4.48209
  92 11.2413 14.5788 16.2710
  93 69.4504 59.3252 58.6657
  94 258.463 38.0442 43.9377
  95 231.513 5.49768 14.5245
  96 213.968 2.23323 4.44508
  97 207.463 1.87136 0.361181
  98 210.815 2.52399 -3.81771
  99 230.797 5.06552 -11.4769
  100 275.674 18.3939 -38.3559
  101 40.8118 59.8949 -48.6569
  102 8.43955 8.87467 -13.2594
  103 3.99400 -3.36735 -4.57677
  104 1.59229 -9.64564 -0.527431
  105 0.404132 -6.86577 1.51163
  106 0.544815 -6.89615 1.85018
  107 0.0106401 -2.56873 1.82974
  108 -3.20165 -0.167941 1.43986
  109 -5.43883 0.462746 1.42915
  110 -6.07512 0.920813 0.473510
  111 -6.39977 0.797627 -0.501271
  112 -2.24399 0.818938 -1.70865
  113 3.96812 0.553686 -3.03346
  114 9.41345 0.0217860 -3.05303
  115 16.0729 0.258238 -2.83300
  116 21.7466 0.282889 -2.69247
  117 30.2399 -0.0570505 -2.87823
  118 34.4663 0.0223041 -2.02066
  119 39.4355 -0.0246764 -1.84674
  120 43.5865 -0.102679 -1.51371
  121 46.7945 -0.0557185 -1.23328
  122 49.6318 -0.00801998 -1.09921
  123 51.5321 0.0759370 -0.949364
  124 54.2750 -0.0929678 -0.864322
  125 55.1671 -0.0107102 -0.437294
  126 56.4370 -0.0172943 -0.342939
  127 57.4404 -0.0623292 -0.257289
  128 58.1669 -0.0451653 -0.204902
  129 58.9787 -0.00615055 -0.172250
  130 58.1450 0.250953 -0.0674988
  131 59.2759 0.0799047 -0.110279
  132 61.8418 -0.0899052 0.103273
  133 65.0987 -0.283583 -0.0230192
  134 68.2638 -0.518795 0.00702771
  135 71.8555 -0.708726 0.0263380
  136 75.6250 -1.08044 0.0502646
  137 79.5968 -1.34463 0.114096
  138 83.7114 -1.41737 0.0841391
  139 87.2828 -1.69398 0.0828298
  140 90.3849 -1.47908 0.180485
  141 93.9257 -1.30314 0.303241
  142 97.9406 -0.999334 0.325871
  143 101.722 -0.897821 0.273730
  144 105.759 -0.530966 0.191932
  145 109.144 -0.358802 0.253725
  146 111.829 -0.0331123 0.148826
  147 98.8773 -9.27888 -1.53917
  148 98.8028 -9.15569 1.57538
  149 103.016 14.8708 -5.52464
  150 110.556 6.55263 11.9317
  151 83.6348 -7.97635 -17.8219
  152 84.2895 -7.97439 17.2178
  153 80.4155 -3.50191 1.87939
  154 80.4266 -3.55366 -1.88262
  155 117.772 4.18626 -9.58021
  156 98.6095 -3.48652 2.77444
  157 98.5702 -3.39781 -2.73847
  158 127.468 28.7887 1.74110
  159 100.495 -0.157778 -11.4431
  160 73.6853 -5.92972 -7.89108
  161 73.6778 -5.87697 7.81239
  162 100.803 -2.25337 10.4300
  163 95.0114 6.89665 6.71101
  164 38.7136 6.44052 -21.2410
  165 43.1087 6.08564 22.4116
  166 124.968 1.24747 2.41615
  167 101.299 -3.83778 -7.44646
  168 134.780 29.6621 -1.69950
  169 90.9100 -2.54203 0.309878
  170 90.8887 -2.53177 -0.300412
  171 102.981 -1.13306 -1.23431
  172 103.344 -1.00364 1.07363
  173 70.0507 -1.08338 -1.19171
  174 70.0557 -1.07139 1.18362
  175 111.449 -3.19129 22.6057
  176 91.7759 3.75141 -7.21575
  177 59.5688 -4.53013 -12.9221
  178 59.7503 -4.49588 12.8264
  179 66.6906 -2.30245 -4.14156
  180 66.6925 -2.27442 4.10495
  181 101.840 -2.61832 6.32357
  182 92.2767 -6.37277 0.412833
  183 91.9285 -6.32499 -0.250237
  184 105.695 -10.1701 -0.762453
  185 106.215 -9.68748 -0.571888
  186 146.624 34.4231 -3.86668
  187 105.111 16.9988 5.18421
  188 105.655 6.50795 -11.8220
  189 111.198 -1.26394 -26.4743
  190 105.269 -5.89929 -8.64441
  191 106.148 -4.19076 10.0250
  192 88.1498 -10.0341 8.39801
  193 88.1924 -9.96711 -8.36702
  194 93.5522 1.15745 8.71459
  195 41.9750 -0.957785 -15.7334
  196 42.0881 -1.05584 15.6269
  197 166.353 25.1165 3.51706
  198 99.5696 -5.90087 4.93426
  199 103.490 -1.82411 -4.19429
  200 80.8815 -2.02832 -0.800548
  201 80.8801 -2.01606 0.796803
  202 98.6751 -1.26838 -7.99953
  203 112.721 16.6170 -9.64675
  204 93.2689 8.34514 -1.35025
  205 59.7521 -2.22565 5.92027
  206 59.6561 -2.23425 -5.97150
  207 105.326 -1.07170 2.37527
  208 101.658 1.91804 11.7427
  209 82.2344 -6.10679 -3.51812
  210 81.6239 -5.78492 3.63561
  211 120.595 17.8922 9.19478
  212 143.471 18.8104 1.40607
  213 8.97333 7.24714 -5.48322
  214 8.27760 6.70000 4.63019
  215 58.0980 16.4149 38.0779
  216 98.5438 -6.53005 -3.96432
  217 105.764 -1.03080 -2.14980
  218 92.3971 0.771771 -8.01867
  219 63.5981 -0.699697 -1.82440
  220 63.6154 -0.691504 1.80518
  221 88.1939 -4.18045 -0.382090
  222 88.2334 -4.20313 0.330147
  223 99.6315 -1.32392 6.84186
  224 116.108 -6.75412 1.40829
  225 113.925 23.5407 -2.84702
  226 89.3589 -8.70094 -3.62644
  227 113.951 -1.95593 8.17265
  228 96.6644 -1.53642 0.542079
  229 96.6684 -1.52193 -0.541139
  230 88.6522 -8.65797 3.80853
  231 102.038 -6.43006 7.12659
  232 145.854 17.7641 -7.29727
  233 31.0989 18.5606 -27.0911
  234 84.6644 2.89449 1.70146
  235 101.829 8.99997 9.85699
  236 109.314 -0.731697 -10.8259
  237 101.833 -3.63020 -9.84865
  238 52.5819 -1.77511 -7.47737
  239 52.7774 -1.74697 7.44696
  240 102.072 -1.18444 -5.36469
  241 97.3550 -2.39279 1.55786
  242 97.3094 -2.38738 -1.51478
  243 19.3241 1.92234 -9.80930
  244 19.6752 1.68728 9.78061
  245 109.254 -9.52130 -7.41999
  246 108.264 -0.282300 0.366256
  247 108.400 -0.288729 -0.386196
  248 99.2864 8.22563 -8.98914
  249 86.5226 1.59254 5.19765
  250 187.970 30.1447 20.0882
  251 186.616 21.2599 -12.6982
  252 132.545 28.9276 -0.489027
  253 82.6056 -3.91659 23.9038
  254 75.6161 -2.46924 -25.0494
  255 86.2768 -1.76749 -0.202114
  256 86.2669 -1.75417 0.199662
  257 70.6707 -1.99228 2.45057
  258 70.6754 -2.02134 -2.47691
  259 105.022 -1.05802 3.40398
  260 101.646 -7.20282 -6.01979
  261 63.7647 -0.155981 -0.413497
  262 63.7747 -0.153547 0.410178
  263 100.353 -4.00385 -4.74127
  264 40.9346 -1.37449 -10.3269
  265 41.1315 -1.37934 10.2436
  266 101.496 -4.35620 8.01240
  267 77.0014 -8.17579 14.3042
  268 77.2211 -8.32333 -14.2621
  269 86.0255 3.21548 -2.41880
  270 74.2058 -1.20166 -0.797561
  271 74.2089 -1.19247 0.793542
  272 94.3202 -0.256560 6.47297
  273 113.459 20.9418 6.72761
  274 59.0060 -0.783770 3.15541
  275 58.9598 -0.790851 -3.18678
  276 104.569 -8.67987 4.57498
  277 96.8033 -10.8130 -9.15154
  278 108.579 -0.429383 1.13339
  279 73.6825 -4.50337 -5.32888
  280 73.5377 -4.45031 5.30399
  281 135.647 12.7302 33.6061
  282 61.7095 -4.95391 17.2088
  283 100.114 14.1125 -0.589422
  284 128.647 13.9643 -6.72090
  285 96.2060 -7.45150 1.99682
  286 96.8408 -11.1151 8.16374
  287 61.9210 -4.86746 -17.4230
  288 11.1327 13.6881 12.1329
  289 100.369 -4.02106 4.82432
  290 132.673 17.0578 5.63079
  291 109.540 -0.381609 -0.982301
  292 97.6012 3.38877 -10.3434
  293 96.9666 -5.46604 2.89552
  294 94.8745 -8.03218 -0.483983
  295 97.1877 4.44309 9.94570
  296 104.040 -8.68906 -4.17143
  297 148.120 29.1073 -2.18709
  298 96.9394 -5.25048 -2.77718
  299 81.2157 22.5313 -47.0637
  300 99.3504 -10.5112 -1.06328
  301 98.6212 -10.7949 2.21742
  302 71.4690 -6.55571 -11.2679
  303 63.2091 -0.281351 -0.911470
  304 63.2229 -0.276510 0.902470
  305 71.4900 -6.55847 11.1993
  306 104.798 -0.155075 -11.9472
  307 113.896 -4.69691 -5.80184
  308 85.6626 -5.24198 -1.64066
  309 85.5944 -5.25328 1.67589
  310 103.877 -8.93600 15.0538
  311 102.966 -0.783213 4.06637
  312 126.589 0.273766 4.27184
  313 83.7413 -3.00970 -0.853251
  314 83.7440 -2.99724 0.846025
  315 75.7306 -2.05284 -1.54469
  316 75.7270 -2.03190 1.54104
  317 85.5462 1.09992 -5.03125
  318 111.919 8.21062 -11.6222
  319 175.632 47.0065 -21.5540
  320 102.380 -0.785390 -0.429367
  321 102.312 -0.773749 0.438422
  322 53.7589 0.0272510 21.4719
  323 75.4456 -3.53812 -3.42929
  324 75.2859 -3.52277 3.43682
  325 53.7531 -0.0907406 -21.3908
  326 106.214 12.5800 -9.70139
  327 119.981 5.88263 9.21585
  328 103.944 -7.42205 -16.8153
  329 94.7090 -3.62648 1.44957
  330 94.6063 -3.59645 -1.40470
  331 101.502 -2.01115 -2.39973
  332 94.4002 -0.193266 -6.05865
  333 106.849 0.499478 11.7731
  334 107.188 -0.681121 -2.36803
  335 62.7611 -3.93041 8.62526
  336 62.6932 -3.95452 -8.70091
  337 98.8961 -0.229705 10.8315
  338 59.2452 -0.536042 -1.85251
  339 59.2829 -0.530823 1.83254
  340 102.203 -2.26821 3.59306
  341 122.353 25.1540 -5.28916
  342 101.436 -2.02974 2.48188
  343 107.462 13.5636 9.76173
  344 103.021 -1.88549 11.3887
  345 80.7479 -1.54467 0.266401
  346 80.7509 -1.55571 -0.269140
  347 97.0242 -0.358286 -9.59717
  348 129.604 27.3731 3.82782
  349 106.851 19.7494 0.204814
  350 65.6416 7.69500 -32.1813
  351 6.04774 2.93566 -4.04083
  352 6.71294 3.17044 4.38393
  353 -0.515823 0.648477 2.14252
  354 -0.0795267 0.299994 -2.22099
  355 193.387 13.4022 4.69933
  356 88.6422 -7.27266 -1.90456
  357 102.302 -2.18598 -3.50921
  358 91.8151 -1.56395 0.241690
  359 91.8043 -1.54948 -0.241984
  360 97.6640 10.7939 -4.86067
  361 83.5891 -8.60263 6.88853
  362 6.94240 10.2162 -7.28589
  363 83.6868 -8.60449 -7.03145
  364 99.0167 11.2745 5.17317
  365 101.849 -2.65991 -6.04314
  366 108.343 -5.99665 -7.58567
  367 114.698 24.4835 1.97239
  368 108.646 -6.72734 6.45341
  369 43.0012 -1.12907 6.93469
  370 42.7183 -1.10772 -6.98685
  371 23.9053 0.649102 -9.48512
  372 24.1958 0.543969 9.43967
  373 87.0215 0.226914 5.10282
  374 170.694 49.0255 17.7186
  375 105.593 -0.620144 -2.94563
  376 81.2634 -6.98297 -5.22069
  377 81.1812 -6.96030 5.21236
  378 101.085 -2.29293 -7.52492
  379 116.143 -5.60738 2.00596
  380 88.6381 -7.26394 1.97906
  381 128.258 0.577696 -9.11641
  382 69.9238 -0.618377 -0.280331
  383 69.9306 -0.612617 0.277376
  384 99.1364 -0.560236 -4.74181
  385 51.7146 -0.800737 -4.53971
  386 51.7516 -0.825078 4.47915
  387 119.216 15.2074 -10.1141
  388 63.9695 4.57448 29.8077
  389 92.8900 -4.88832 0.996827
  390 92.9841 -4.87788 -1.00268
  391 108.965 18.5606 -6.23440
  392 103.499 -3.03639 -10.8642
  393 104.408 -10.6277 7.79095
  394 85.9630 -2.29897 -0.294748
  395 85.9503 -2.28555 0.289266
  396 99.9983 -7.69869 4.27751
  397 108.323 -0.463406 1.77450
  398 65.6356 -2.51001 -5.22742
  399 65.6592 -2.50829 5.17616
  400 101.049 3.38626 -11.5619
  401 95.7727 -2.01118 0.832449
  402 95.7703 -2.01490 -0.817690
  403 98.6801 -1.14810 8.88340
  404 91.1903 6.59116 2.30430
  405 102.716 -4.29707 9.57668
  406 149.622 31.5495 5.01538
  407 48.3578 -2.62080 -13.8238
  408 48.5002 -2.62262 13.7078
  409 21.3658 11.6930 -16.0215
  410 111.277 -0.255461 0.526434
  411 53.8894 -0.505996 -2.86484
  412 53.9666 -0.495243 2.83675
  413 101.189 -2.60141 7.39523
  414 91.7260 -9.99126 4.20449
  415 104.270 -1.19807 1.70840
  416 105.486 5.37952 12.1387
  417 22.4844 12.4501 16.7788
  418 91.8763 -9.94044 -3.81256
  419 95.0050 -8.85560 -0.141766
  420 29.4687 -0.595824 -8.65152
  421 29.7221 -0.620558 8.58599
  422 72.6409 -5.72818 -20.7664
  423 109.370 -1.59062 10.5972
  424 72.3259 -5.82568 20.5701
  425 100.861 -5.63056 -6.42602
  426 92.5920 6.19143 -5.07804
  427 100.888 -4.31119 6.06262
  428 109.436 -0.418744 -1.23283
  429 3.05627 3.08433 1.05986
  430 21.4381 24.2307 23.9144
  431 96.3862 -0.359521 4.54020
  432 79.5185 1.02616 2.18800
  433 81.0420 1.26707 -2.97839
  434 69.1592 -1.22365 -1.72681
  435 69.1624 -1.20718 1.71285
  436 99.4630 -7.69630 -3.97341
  437 100.167 -1.94079 -9.98478
  438 79.9995 1.42500 -0.809617
  439 149.743 35.5644 6.19086
  440 19.6476 6.77706 -11.9566
  441 21.7511 6.22432 12.8343
  442 92.8055 -3.29099 0.836320
  443 92.7674 -3.28030 -0.809101
  444 123.924 27.7327 -0.447243
  445 78.9690 30.6377 48.0940
  446 120.278 -1.78068 -2.94361
  447 67.3052 -3.62570 -7.09732
  448 67.3332 -3.59853 7.02896
  449 67.4427 -1.59690 2.74388
  450 67.4339 -1.60981 -2.77333
  451 92.0910 1.99176 -8.23702
  452 111.920 -0.100229 -0.358137
  453 89.2561 4.02677 4.59850
  454 114.475 14.1753 10.7162
  455 95.1409 -7.07697 -1.59145
  456 104.242 -1.13317 -1.65627
  457 109.925 -0.372699 1.13668
  458 111.614 -0.103602 0.205592
  459 111.723 -0.124403 -0.157015
  460 58.6416 -0.127842 0.674194
  461 58.6146 -0.129628 -0.682637
  462 104.362 -6.58685 7.75311
  463 93.0167 3.62269 7.97252
  464 97.7045 0.384543 -10.5396
  465 102.820 -2.09862 4.55671
  466 151.546 23.6086 -27.5993
  467 102.932 -5.67465 -8.51041
  468 0.581256 1.88288 0.534806
  469 0.589739 1.89715 -0.0267953
  470 80.7094 -4.67218 2.81734
  471 80.4222 -4.61402 -2.78986
  472 129.833 1.81275 14.4065
  473 35.7132 31.3797 -35.9878
  474 101.334 -0.283631 3.57889
  475 116.221 -6.82917 -7.81415
  476 60.0203 -3.55198 10.0249
  477 123.622 21.9488 -7.57924
  478 101.434 -5.45369 7.19534
  479 84.4861 -4.10665 -1.21432
  480 84.5614 -4.03564 1.20850
  481 86.9971 0.440522 -4.51186
  482 59.8260 -3.54015 -10.0968
  483 89.4162 0.00877303 4.55268
  484 86.7505 -9.90164 -12.6229
  485 86.5237 -9.91678 12.6562
  486 104.911 -0.653348 3.24284
  487 94.0718 8.84277 0.953522
  488 97.5245 1.43211 32.5908
  489 142.775 29.3952 -0.186254
  490 98.2644 -1.57084 0.875836
  491 98.2732 -1.56444 -0.898513
  492 74.1765 -1.38286 -1.04720
  493 74.1783 -1.37026 1.04190
  494 38.8537 1.92605 17.9019
  495 101.846 -4.86900 -8.27992
  496 92.1231 -1.96302 0.287088
  497 92.1137 -1.95453 -0.284296
  498 79.9275 -8.52060 10.3402
  499 39.6377 2.52559 -18.3717
  500 102.142 -8.29300 -4.52104
  501 1.59198 0.0233526 1.10169
  502 87.7820 4.46206 0.328512
  503 98.6779 -1.04453 -0.297571
  504 98.6724 -1.06128 0.292761
  505 79.9933 -8.50912 -10.4265
  506 116.367 -6.09976 10.3223
  507 114.559 4.17245 11.0308
  508 106.111 -0.620779 -0.849793
  509 101.828 -8.41346 4.56978
  510 61.5551 -0.0826132 -0.111328
  511 61.5641 -0.0819754 0.110049
  512 101.472 -3.86469 -8.73994
  513 97.5920 7.21558 8.76730
  514 113.112 2.80077 -10.8797
  515 61.1897 -0.120774 -0.376668
  516 61.2015 -0.119228 0.373480
  517 201.656 29.1046 -26.2226
  518 101.723 12.1585 7.76306
  519 106.215 -0.560073 0.760776
  520 95.2269 -9.04777 0.368170
  521 79.1567 -2.69153 1.50500
  522 79.1597 -2.71405 -1.50205
  523 111.492 -6.74741 4.07096
  524 106.684 -2.09180 -11.0604
  525 119.092 23.6457 6.17142
  526 98.5830 1.68510 10.9163
  527 100.200 -1.83992 1.59439
  528 97.4995 -10.3504 -11.9964
  529 100.579 -2.45766 8.53219
  530 199.713 9.11025 -3.69247
  531 110.721 -8.31395 -1.23081
  532 105.449 -0.592960 -0.222698
  533 105.472 -0.638659 0.203495
  534 201.758 13.5584 13.0129
  535 95.9710 -0.0477534 9.28407
  536 136.569 22.5566 -3.84205
  537 101.898 -2.70506 -4.47453
  538 43.9882 -0.444579 -3.11090
  539 44.1412 -0.423479 3.07628
  540 68.0888 -6.40650 -14.4034
  541 68.1330 -6.29809 14.2885
  542 100.148 -1.75755 -1.57605
  543 108.757 4.01101 -11.9905
  544 95.4354 -6.50185 1.95281
  545 102.199 11.7478 -8.07550
  546 103.709 -1.14647 4.36805
  547 131.237 6.21205 -0.0554507
  548 88.1182 -3.03541 -0.129556
  549 88.0870 -3.02204 0.124346
  550 96.1485 -4.51776 2.24105
  551 143.310 27.9053 -0.513961
  552 100.904 4.41805 11.3482
  553 42.7487 11.0670 26.5962
  554 98.5697 -5.93595 21.4891
  555 131.701 5.60902 -23.4751
  556 103.200 8.54527 -10.5977
  557 92.2354 -7.91795 -18.5750
  558 99.7920 -10.9060 -2.97435
  559 104.480 -10.5275 -4.69721
  560 13.2130 16.7082 -15.8670
  561 104.963 -1.24164 -2.79473
  562 158.889 31.0370 -8.51334
  563 96.6883 -4.32226 -2.43145
  564 97.5638 -3.12121 2.00106
  565 97.4709 -3.04552 -1.93187
  566 65.4722 -0.427582 -0.817990
  567 65.4823 -0.421975 0.811129
  568 8.49997 1.01419 -5.10684
  569 9.05551 1.06041 5.23169
  570 48.6415 -2.32723 -10.5730
  571 49.0368 -2.33885 10.5488
  572 98.8803 -5.32460 -4.24226
  573 101.012 -10.9492 3.27085
  574 103.855 -9.81532 1.58251
  575 84.1899 -1.49280 -0.250008
  576 84.1832 -1.48050 0.248341
  577 80.2622 -8.38326 -15.9185
  578 90.3891 -7.36221 19.7030
  579 78.2304 -7.87592 16.0221
  580 101.510 -2.23161 -10.7564
  581 62.0160 -1.10951 3.14144
  582 61.9868 -1.12169 -3.17195
  583 96.1838 5.28081 -8.79206
  584 96.4722 -0.167098 -4.12192
  585 121.163 26.5954 -2.85221
  586 78.1788 -1.22546 -0.271288
  587 78.1784 -1.21621 0.269631
  588 103.541 -0.289077 -2.36808
  589 70.1567 -2.48355 -3.40804
  590 70.1529 -2.47320 3.37374
  591 57.8439 2.80325 25.5772
  592 100.782 -4.59375 -6.13706
  593 55.3479 -2.86350 18.3297
  594 99.0303 -5.09838 4.31408
  595 104.623 -1.39416 3.06978
  596 103.448 -0.839818 -0.766739
  597 70.8373 -0.941846 -0.737280
  598 70.8428 -0.933481 0.732219
  599 116.125 23.3916 -5.49959
  600 55.3125 -2.74476 -18.4081
  601 98.7114 -4.22751 -3.50647
  602 88.5560 -1.62188 -0.0866144
  603 88.5458 -1.60818 0.0861282
  604 169.604 22.9722 -3.96858
  605 57.0475 -0.404453 1.74884
  606 56.9968 -0.408561 -1.76769
  607 90.8867 2.03394 7.49965
  608 132.928 10.7146 -3.09345
  609 61.7509 0.559019 -25.4136
  610 30.6969 0.884937 -13.6780
  611 30.9728 0.694713 13.6039
  612 77.1406 -4.62597 4.14428
  613 78.0007 -4.76209 -4.00354
  614 133.681 26.8609 3.65878
  615 102.988 -0.874425 0.705103
  616 86.5834 2.36110 -4.51244
  617 109.211 19.7853 4.92652
  618 108.772 20.5392 -3.27469
  619 89.4243 -5.00051 -0.266469
  620 90.1400 -4.88091 -0.0618038
  621 64.4331 13.8964 -36.7647
  622 76.0966 -2.70306 -2.25246
  623 76.0991 -2.67014 2.24202
  624 200.144 40.8845 30.6812
  625 101.469 -3.29077 9.37969
  626 56.4253 -2.09539 -6.77581
  627 161.205 35.2773 22.4464
  628 56.5627 -2.08229 6.74497
  629 97.8383 -3.78632 -25.2471
  630 66.7459 -0.380247 -0.302652
  631 66.7543 -0.376865 0.300708
  632 83.1798 0.702301 3.93115
  633 36.7941 -0.581684 -6.10087
  634 37.0249 -0.582990 6.04763
  635 88.2366 -6.31686 1.36666
  636 92.7752 -7.47405 0.115040
  637 110.514 -0.199021 -1.01963
  638 59.6360 -0.117518 0.487729
  639 59.6168 -0.119483 -0.493991
  640 82.8502 -1.89517 -0.326139
  641 82.8446 -1.88278 0.322220
  642 96.2357 -10.6303 12.1531
  643 110.123 12.3330 -10.8405
  644 72.1845 -3.49455 -4.40662
  645 72.1238 -3.43383 4.37035
  646 86.5273 -6.31615 -2.14492
  647 137.627 30.1859 0.127076
  648 103.213 -9.94773 -0.990982
  649 88.9183 -2.11286 0.00147885
  650 88.9033 -2.10036 -0.000742992
  651 123.553 13.4245 8.84828
  652 103.264 -1.42642 -4.75059
  653 89.9806 -0.135256 -3.71402
  654 40.8645 -1.38746 -13.2479
  655 41.0035 -1.43076 13.1297
  656 86.3496 -7.54245 -3.71984
  657 130.306 29.0929 0.124668
  658 100.168 13.6086 -3.49639
  659 65.1901 -0.655835 -1.53290
  660 65.2018 -0.646429 1.51805
  661 94.0218 -2.61425 -0.779850
  662 94.0405 -2.61924 0.802437
  663 178.572 23.4236 10.2436
  664 112.589 -0.252628 0.293898
  665 108.125 -0.380583 1.72243
  666 107.635 -0.395989 -1.99374
  667 101.866 -9.45132 2.46009
  668 73.4612 -0.910464 -0.368951
  669 73.4652 -0.903221 0.366810
  670 108.197 17.4632 7.54897
  671 140.106 31.3069 -1.00635
  672 75.3557 -5.73917 -6.25074
  673 75.3242 -5.67913 6.21377
  674 95.3676 -9.84696 -1.27247
  675 100.064 5.94289 -10.6642
  676 120.364 0.259499 5.53425
  677 78.2406 -1.50755 -0.687236
  678 78.2403 -1.49646 0.683369
  679 67.6963 -6.00150 -13.0089
  680 100.874 -9.73187 -1.49858
  681 83.3741 -9.26154 11.3811
  682 39.3785 12.5803 -25.6278
  683 77.4567 -7.27316 8.76762
  684 93.3134 0.0227211 3.45182
  685 67.7527 -5.93127 12.9129
  686 98.6500 -4.31425 3.54952
  687 77.4948 -7.24525 -8.85733
  688 78.0704 0.962221 0.820763
  689 60.2568 -1.71741 4.78456
  690 60.2017 -1.72051 -4.82370
  691 83.4404 -9.50310 -11.5138
  692 103.637 -6.78603 -7.50617
  693 94.8707 -1.25064 -0.193745
  694 94.8853 -1.26570 0.194546
  695 106.029 -6.70037 7.50632
  696 96.1424 -10.0554 1.63891
  697 117.137 10.7411 10.7928
  698 105.394 -1.93293 11.3227
  699 101.408 -3.58853 7.02422
  700 96.0006 7.86831 -6.66791
  701 116.497 19.6992 8.50009
  702 100.373 -1.36518 -6.66619
  703 100.374 -3.26361 3.80682
  704 102.952 16.2119 1.89429
  705 101.974 -1.68474 5.87687
  706 31.5853 21.3587 26.7833
  707 95.0353 -10.9128 -6.70686
  708 110.063 2.03518 11.5844
  709 111.383 -3.41511 -8.58112
  710 111.915 -0.0981314 0.584369
  711 101.419 -3.42401 -5.61400
  712 95.1530 -11.0004 6.02796
  713 188.038 16.6360 -2.80207
  714 54.6116 -0.262342 1.83377
  715 54.5423 -0.265377 -1.85364
  716 103.143 -1.78621 -2.72106
  717 112.635 -0.0703877 -0.563904
  718 86.1729 -7.66219 3.74147
  719 104.057 -3.82843 10.3465
  720 160.735 37.2730 -9.85980
  721 98.6222 -7.13685 3.75784
  722 109.816 -7.18513 -4.89039
  723 100.418 -3.17145 -3.74814
  724 112.705 -0.140545 -0.203314
  725 101.237 0.00799578 11.5974
  726 4.46957 3.34666 5.28498
  727 115.916 -4.63287 -15.9010
  728 125.666 7.27476 6.08372
  729 104.329 -10.6178 4.08063
  730 72.7258 -1.83562 1.85733
  731 72.7301 -1.86265 -1.86877
  732 99.5807 47.2066 -50.5273
  733 106.090 -6.96904 -7.00426
  734 77.7408 0.342170 -1.56809
  735 91.9612 0.478206 7.34717
  736 102.100 -5.06667 8.42743
  737 97.8706 -8.24729 2.25590
  738 102.369 -9.27901 -13.0510
  739 97.2305 -7.69402 -2.40683
  740 115.716 -5.54491 -2.39450
  741 106.469 -0.777789 1.61167
  742 94.2899 -5.67680 1.46036
  743 174.112 34.8647 -18.2324
  744 100.928 -2.62286 3.05757
  745 99.1524 1.60987 -11.2213
  746 85.4019 -1.00515 28.5000
  747 106.526 8.61306 11.5622
  748 91.5893 -7.25940 0.386658
  749 69.9308 -5.62487 -9.45576
  750 69.9295 -5.60677 9.36976
  751 96.7284 10.8748 -1.56029
  752 98.9075 -1.13072 10.0857
  753 100.168 -2.36014 -8.69368
  754 94.4014 -5.78938 -1.49615
  755 91.1771 -8.22759 1.75607
  756 103.779 17.2360 -2.16021
  757 97.7450 -8.45817 -1.86813
  758 97.9666 -6.18429 3.62038
  759 99.5281 -1.17673 0.607781
  760 99.5970 -1.14096 -0.605220
  761 133.949 29.6978 1.25654
  762 109.927 -9.30852 -2.29561
  763 101.736 -3.05481 5.57547
  764 106.542 -0.772117 -1.47892
  765 106.968 0.738572 -11.8821
  766 122.567 6.31877 -7.68303
  767 57.5567 -0.0763573 -0.844121
  768 57.5935 -0.0754186 0.834159
  769 0.764115 -2.08074 -1.49884
  770 103.804 -0.0962898 2.19817
  771 94.2875 -0.186088 -8.16445
  772 97.7450 -0.910912 7.27029
  773 90.6636 10.6500 42.2252
  774 111.368 23.1358 -0.263665
  775 78.7113 -5.75978 4.76250
  776 12.5956 0.331427 -5.11053
  777 13.0243 0.248102 5.16752
  778 96.7838 -0.694420 -8.16958
  779 78.9476 -5.82064 -4.75839
  780 105.897 -0.853045 1.25390
  781 52.2630 -2.31015 9.03360
  782 51.7901 -2.30319 -9.04509
  783 100.929 -2.54290 -2.98094
  784 62.6876 -1.68145 -4.14901
  785 62.7179 -1.66931 4.10672
  786 105.267 -0.921193 -3.32225
  787 79.1052 -2.18201 -1.19650
  788 79.1045 -2.16604 1.19647
  789 115.093 -0.733388 -8.66320
  790 102.905 -1.05706 -11.7023
  791 50.3775 -0.351287 -2.35614
  792 50.4843 -0.348064 2.32583
  793 1.80273 1.30045 -2.98220
  794 2.28957 1.36947 3.14572
  795 81.7654 0.371636 -2.86003
  796 94.1486 -10.5843 -4.82798
  797 -1.12010 -0.787918 1.89723
  798 -0.969331 -0.905289 -1.86742
  799 98.1032 -1.88360 1.27060
  800 106.615 -8.27093 -4.39484
  801 109.402 16.2968 -8.83865
  802 106.398 -0.759868 -1.18826
  803 233.698 46.2198 -43.8904
  804 98.0841 -1.87582 -1.25518
  805 148.512 28.6087 2.01099
  806 104.654 3.06139 -12.1709
  807 116.143 8.74463 -11.0024
  808 17.8882 -0.214280 -4.76425
  809 18.2729 -0.243722 4.75425
  810 63.6338 -0.988242 2.42763
  811 63.6137 -0.997085 -2.45303
  812 60.2330 -0.168779 0.447988
  813 60.2188 -0.170469 -0.452361
  814 117.120 19.7988 -8.46164
  815 67.5101 -0.473396 -0.645661
  816 67.5183 -0.467738 0.641076
  817 99.2245 -0.996446 -10.5159
  818 146.365 13.8902 10.8152
  819 88.3703 1.90996 -6.29516
  820 29.2904 -0.276879 5.15293
  821 29.0062 -0.279297 -5.19774
  822 117.705 2.68466 29.9683
  823 103.018 -1.80175 2.80856
  824 90.6017 5.95526 -2.62580
  825 40.4872 -0.0816345 3.54166
  826 40.2543 -0.0619076 -3.57101
  827 61.7745 -0.358253 -1.17775
  828 61.7942 -0.353088 1.16474
  829 10.8809 9.78854 8.06474
  830 94.8975 2.22713 9.41977
  831 106.047 15.6642 -7.51310
  832 114.709 13.3289 -10.8222
  833 74.1490 -2.91226 -3.02164
  834 74.0989 -2.88778 3.01453
  835 118.534 25.4897 3.91000
  836 103.017 -0.743102 -0.171446
  837 103.019 -0.737158 0.189841
  838 101.397 -2.98701 -7.04382
  839 84.3509 -5.71173 2.54901
  840 93.5359 -10.5209 4.87342
  841 110.804 -9.07918 7.70469
  842 83.4640 -2.46226 -0.582994
  843 83.4604 -2.45096 0.576939
  844 95.3594 8.81648 4.26950
  845 89.2681 1.16887 -6.81355
  846 24.8549 27.7901 27.8651
  847 91.4777 -8.16293 -1.52528
  848 91.7330 -4.10585 0.646471
  849 91.7834 -4.11104 -0.650418
  850 100.940 -1.46535 11.1032
  851 100.414 -6.56790 -5.51469
  852 89.2574 -5.97089 -0.671108
  853 210.386 6.82467 -10.6347
  854 84.7390 -8.10723 5.33876
  855 84.6787 -8.21669 -5.43493
  856 100.931 -1.17945 5.68285
  857 153.769 39.3665 -7.47040
  858 79.2765 -7.31697 -6.87921
  859 88.0714 -9.96731 6.34901
  860 79.2441 -7.22515 6.81162
  861 86.1110 -3.51058 -0.612211
  862 86.1050 -3.49621 0.605281
  863 12.1166 5.37506 7.04652
  864 108.557 8.13298 -11.7777
  865 82.4163 -3.28332 -1.21945
  866 82.4290 -3.24775 1.22467
  867 81.2618 -1.36969 -0.142827
  868 81.2582 -1.35892 0.141500
  869 89.9916 -1.75309 0.130958
  870 89.9799 -1.73976 -0.131210
  871 72.0648 -1.49361 -1.61859
  872 72.0669 -1.47581 1.60995
  873 82.7872 -4.44822 -1.93729
  874 82.7950 -4.41417 1.94525
  875 1.86036 -1.28107 -0.568979
  876 126.287 23.7005 6.74531
  877 108.561 -3.76265 -9.72041
  878 88.0128 -9.82502 -6.42718
  879 95.2601 -3.02492 1.29427
  880 95.2157 -2.99054 -1.26466
  881 103.790 0.156613 11.9462
  882 113.909 -8.13121 -3.73587
  883 101.194 6.69570 -36.4882
  884 44.4975 -0.631858 17.7737
  885 -2.18296 1.04038 -1.03683
  886 -1.94364 1.17119 1.17284
  887 12.0142 5.71813 -7.18512
  888 101.763 -2.85361 4.45884
  889 107.572 -0.623151 -1.89992
  890 96.5133 -9.23164 15.1835
  891 44.3874 -0.577293 -17.8514
  892 107.575 -8.74582 3.37236
  893 120.713 -3.79900 12.7962
  894 85.0110 0.328711 3.03770
  895 98.5025 9.37144 7.30579
  896 52.4836 -2.99722 13.1569
  897 52.2721 -3.02194 -13.2538
  898 63.0724 -3.11658 -7.34490
  899 67.2326 -3.19274 -22.7774
  900 107.314 -2.46398 10.7598
  901 148.777 34.4460 3.80130
  902 107.546 4.16869 12.0101
  903 101.686 -2.12080 -6.39760
  904 68.7006 -2.86142 23.3516
  905 130.294 23.9103 -5.36577
  906 12.2790 10.6086 -10.0191
  907 93.0396 -0.202438 -3.29268
  908 63.1384 -3.08937 7.27160
  909 77.5957 -1.77031 1.06920
  910 77.5964 -1.78399 -1.07261
  911 100.568 -6.53363 5.67551
  912 105.023 -0.555153 0.504582
  913 76.7844 0.766815 -28.4365
  914 111.005 -0.205020 0.903837
  915 110.024 -0.163589 -1.13364
  916 79.7432 0.659222 -2.62031
  917 105.844 -0.413442 -1.95888
  918 77.9663 -3.75563 -2.71033
  919 78.0185 -3.69624 2.71726
  920 -2.75219 0.909468 -1.60901
  921 -3.71057 0.547811 1.66836
  922 105.026 -0.508775 -0.505631
  923 33.2331 -0.726824 11.9702
  924 33.0111 -0.649263 -12.0448
  925 111.309 16.3256 9.37476
  926 205.284 3.68863 3.32716
  927 104.513 11.6706 9.68201
  928 119.995 -4.33641 2.75972
  929 103.403 -5.71228 8.54208
  930 128.987 27.1392 -4.07034
  931 77.8672 0.285516 1.97213
  932 99.5961 -2.25585 -1.94050
  933 102.934 5.54057 -11.7019
  934 125.950 3.50762 -3.39245
  935 96.8611 -5.97141 -2.95376
  936 47.5077 -0.291689 -2.64801
  937 47.5658 -0.281510 2.60764
  938 102.403 -2.33658 -5.11251
  939 3.11479 4.05508 0.494139
  940 98.2583 -10.1795 -0.230961
  941 83.4209 2.38465 -0.271397
  942 127.935 28.3577 -2.71005
  943 19.5427 14.6029 -17.0142
  944 97.7564 -0.724103 -6.51606
  945 66.4622 -1.19125 -2.24787
  946 66.4716 -1.17647 2.22541
  947 0.494320 -2.90327 2.24621
  948 65.6547 -4.99371 -10.5499
  949 100.033 -5.74611 -5.32987
  950 59.9280 0.127211 -0.181591
  951 59.9376 0.127975 0.180032
  952 100.277 12.1941 -5.87673
  953 109.350 -0.232060 -0.184031
  954 109.346 -0.237397 0.237143
  955 65.6780 -4.97775 10.4701
  956 100.967 -0.114290 -2.59926
  957 117.058 0.837394 8.42914
  958 103.722 -1.36852 2.19720
  959 15.6015 4.18033 -9.06894
  960 107.822 -0.574330 1.73041
  961 96.5012 0.750000 10.1244
  962 101.809 14.1624 5.23041
  963 102.250 1.19184 -12.0006
  964 69.4397 -3.84798 -6.23247
  965 111.078 -3.88311 8.31423
  966 69.4823 -3.83073 6.16185
  967 2.93539 3.30690 0.0566296
  968 11.2135 2.09189 6.62922
  969 55.8717 -1.05536 4.34788
  970 55.7992 -1.05737 -4.37693
  971 99.6639 -2.30394 2.03191
  972 106.399 18.6408 2.92662
  973 53.8880 5.06801 -26.8006
  974 89.0717 -5.61443 0.537121
  975 83.5709 -8.80210 -8.27482
  976 122.560 23.5996 6.78370
  977 94.0578 -1.59696 0.284007
  978 94.0553 -1.58666 -0.284249
  979 103.475 -1.83224 -3.73047
  980 94.4148 8.11634 -3.94186
  981 223.061 64.6807 43.6987
  982 18.6895 1.15340 -8.89222
  983 19.0229 0.961276 8.91614
  984 1.38680 -2.38021 0.179036
  985 94.7932 5.21156 8.09020
  986 83.5319 -8.85286 8.20707
  987 104.102 -4.87748 -9.61757
  988 113.353 9.29298 11.7649
  989 109.665 -8.84974 -9.70902
  990 160.683 33.9256 10.6482
  991 92.2245 -1.43527 0.00756616
  992 92.2124 -1.42152 -0.00730109
  993 108.482 -4.36990 9.26081
  994 7.27146 10.8440 12.1065
  995 46.9203 -1.04223 6.25700
  996 46.7598 -1.02910 -6.33244
  997 56.6746 -2.87845 8.51291
  998 56.4699 -2.83693 -8.55116
  999 64.0764 -2.75167 6.05890
  1000 70.0298 -0.612290 -0.299925
  1001 70.0365 -0.607380 0.298427
  1002 183.406 56.3764 -35.2460
  1003 163.782 40.9653 15.9705
  1004 64.0251 -2.76753 -6.11713
  1005 111.787 -0.476855 10.1782
  1006 98.9899 10.2794 -7.05058
  1007 69.9115 -5.96136 18.8519
  1008 90.4760 -10.6784 -9.79315
  1009 103.531 -0.809617 -3.85630
  1010 45.8276 3.30707 21.7119
  1011 58.8778 -4.51749 15.0717
  1012 90.2645 4.56698 -5.04619
  1013 104.566 -2.03659 -11.4282
  1014 138.006 52.0669 58.1004
  1015 84.8421 2.53160 3.57333
  1016 117.255 25.5490 -0.466565
  1017 86.8813 3.29596 -32.3852
  1018 87.5481 -9.28228 -5.42242
  1019 112.793 -0.0668912 -0.463919
  1020 106.754 9.83419 -11.2696
  1021 60.7364 -0.439657 1.53187
  1022 60.7098 -0.444229 -1.54883
  1023 2.14504 0.297980 -2.77919
  1024 69.4263 -3.29076 -5.17779
  1025 58.8108 -4.57697 -15.1966
  1026 69.3638 -3.28134 5.11267
  1027 102.121 -3.07480 10.5650
  1028 91.4566 -5.68581 0.329903
  1029 95.6030 1.72984 -9.78923
  1030 98.3164 12.3053 2.05535
  1031 136.289 7.64897 3.37810
  1032 101.390 -7.67204 5.49388
  1033 62.9450 -5.12605 -11.5478
  1034 94.6875 3.31055 -9.13482
  1035 70.5673 -5.87622 -18.9656
  1036 136.919 30.0534 -0.293586
  1037 91.7528 5.97509 4.58990
  1038 118.063 -0.735699 -6.73473
  1039 88.0997 -9.28173 4.92580
  1040 101.218 -3.16500 8.23680
  1041 100.681 -5.27687 6.14721
  1042 100.133 -4.99569 5.38018
  1043 124.176 15.6787 -9.04593
  1044 99.6687 -1.58350 8.24186
  1045 90.3029 -10.7087 9.62523
  1046 96.4126 -3.90300 2.02748
  1047 62.9816 -5.13383 11.4734
  1048 90.2549 -6.71248 -0.703193
  1049 51.5811 -2.47526 -16.1292
  1050 74.4619 -7.77712 12.6919
  1051 101.694 -0.654430 -4.44211
  1052 98.7568 -1.10394 -9.31205
  1053 85.3984 -6.84741 -3.17259
  1054 51.6719 -2.55303 15.9903
  1055 91.4360 0.194638 -6.38859
  1056 67.6647 -4.61513 -8.11973
  1057 124.703 26.7825 4.38195
  1058 26.8091 4.64774 -15.0667
  1059 219.721 15.5619 21.5116
  1060 49.1922 3.84517 -22.7804
  1061 100.154 -8.27750 -3.66194
  1062 67.6777 -4.57300 8.04504
  1063 90.3624 0.908220 7.11585
  1064 49.5161 -1.05978 5.17461
  1065 49.4854 -1.08652 -5.23218
  1066 101.134 -2.78664 -9.77578
  1067 108.658 -0.454131 0.751243
  1068 105.926 -0.205282 1.98704
  1069 104.262 3.48737 12.1241
  1070 97.1893 -0.731680 8.71696
  1071 75.9691 7.98130 35.0799
  1072 113.593 -0.0493991 0.236474
  1073 104.671 14.2547 7.71253
  1074 87.7004 1.21789 6.10995
  1075 107.465 -0.373221 1.92161
  1076 67.0579 -0.789138 -1.23845
  1077 67.0662 -0.779830 1.22852
  1078 42.1354 -1.24166 -8.61728
  1079 42.3190 -1.28604 8.54990
  1080 87.9745 4.31972 2.55656
  1081 136.954 6.75009 -8.53245
  1082 125.783 -0.556225 -17.7733
  1083 98.2591 -0.0757105 -2.67788
  1084 74.5034 -7.83708 -12.7945
  1085 85.5754 -6.51099 2.78444
  1086 98.8800 -0.216622 2.79736
  1087 104.202 -7.51377 -6.40163
  1088 62.8664 -0.179049 0.753163
  1089 62.8546 -0.181997 -0.758829
  1090 99.9585 -8.51493 3.66140
  1091 94.8630 -1.87284 0.500515
  1092 94.8476 -1.87398 -0.493155
  1093 92.2130 -9.33004 2.82859
  1094 120.174 -3.94922 -0.0954836
  1095 51.7196 -0.103250 -1.46400
  1096 51.8112 -0.0996459 1.44640
  1097 81.0437 -5.03312 -21.7270
  1098 85.6173 -2.05114 0.259022
  1099 85.6277 -2.06456 -0.263051
  1100 52.1674 27.4015 38.5024
  1101 120.096 9.78301 -9.99999
  1102 16.8312 8.43565 -11.1262
  1103 103.801 -1.44948 -2.12659
  1104 26.7331 9.43364 -17.2545
  1105 56.1042 -3.61805 -10.9987
  1106 113.712 -0.0742246 0.135231
  1107 113.769 -0.0665331 -0.102010
  1108 101.690 -5.76488 -7.37333
  1109 90.0918 -10.0657 -13.6913
  1110 26.8167 3.95584 14.3579
  1111 110.498 10.9781 11.0744
  1112 100.744 -0.902821 -0.206823
  1113 100.752 -0.904231 0.217325
  1114 110.763 -7.23548 16.5166
  1115 112.888 22.8282 4.31600
  1116 65.6072 -1.67610 -3.24573
  1117 65.6204 -1.66710 3.21828
  1118 50.4257 5.90372 27.0273
  1119 95.3845 0.460272 -9.49036
  1120 29.3013 9.65489 18.6109
  1121 124.977 -2.33570 -4.61306
  1122 121.161 27.1318 1.37154
  1123 82.8095 -6.66109 4.00139
  1124 74.6976 0.349506 -0.383900
  1125 106.445 -0.866745 2.51401
  1126 110.555 -0.0979202 0.987350
  1127 22.2195 0.0543756 -4.30933
  1128 22.5744 0.0420191 4.27710
  1129 84.7143 1.34738 -4.51276
  1130 88.5167 -2.60579 -0.0378164
  1131 88.4936 -2.59106 0.0364933
  1132 9.07411 12.5699 -12.8351
  1133 14.6705 29.2423 -26.5666
  1134 89.7259 -3.51553 -0.138892
  1135 89.7653 -3.51804 0.135029
  1136 92.9154 -2.19541 0.562259
  1137 92.9019 -2.18910 -0.552938
  1138 23.7225 15.2587 18.6070
  1139 71.9813 -0.951915 -0.573979
  1140 71.9864 -0.944324 0.570393
  1141 91.2116 6.84073 -0.111192
  1142 120.260 13.8447 -40.6257
  1143 112.482 19.5194 -7.38595
  1144 102.840 -3.91228 -10.0576
  1145 101.352 -5.01097 -7.42346
  1146 82.8764 -6.72642 -4.07407
  1147 82.1489 0.240853 2.78605
  1148 93.4730 5.78034 -6.75582
  1149 92.0670 4.89961 6.43784
  1150 96.3468 -3.78492 -1.99455
  1151 91.7023 -5.56758 -0.394414
  1152 82.9347 -5.46598 -2.93558
  1153 99.1675 -0.567428 5.21929
  1154 179.351 18.1890 2.55730
  1155 99.9349 -2.10866 9.51567
  1156 99.9684 6.56812 10.2411
  1157 92.6577 -9.16457 -1.93826
  1158 10.5486 1.92876 -6.38244
  1159 94.4004 -4.35088 -1.56960
  1160 60.3838 -0.121541 -0.0313761
  1161 60.3918 -0.121097 0.0308415
  1162 115.940 -3.06266 5.88775
  1163 110.529 -9.27788 2.94977
  1164 159.436 28.8005 6.69003
  1165 35.6066 -0.0936036 -3.62323
  1166 35.8510 -0.0854829 3.59249
  1167 83.6386 -1.70955 -0.258100
  1168 83.6324 -1.69719 0.255200
  1169 94.7393 -8.38615 0.442946
  1170 75.4216 0.306727 1.25325
  1171 97.0890 -6.90896 2.88764
  1172 5.11234 6.08461 -2.57333
  1173 16.6832 8.53972 10.8949
  1174 64.3525 -3.40001 21.0229
  1175 111.932 21.5164 -5.26388
  1176 107.893 -0.273796 -1.51455
  1177 114.231 -0.155556 0.102144
  1178 114.362 -0.223449 -0.0706959
  1179 63.1817 -0.190758 -0.115708
  1180 63.1908 -0.189353 0.114527
  1181 103.119 6.61468 11.6872
  1182 154.694 26.7652 -0.563269
  1183 106.073 17.6630 -5.25441
  1184 79.6206 -5.76680 21.5840
  1185 64.0078 -3.25454 -20.9866
  1186 70.7146 -4.87048 -7.23367
  1187 99.6911 -2.70718 2.54188
  1188 139.927 30.6320 -0.192682
  1189 70.7136 -4.83840 7.16876
  1190 102.071 -1.67935 1.92732
  1191 89.4611 3.25860 6.13083
  1192 99.4951 3.07129 11.1799
  1193 143.518 32.1835 2.43553
  1194 83.8182 -2.21880 0.495644
  1195 83.8251 -2.23159 -0.500995
  1196 103.317 -1.85109 3.86816
  1197 59.0264 -0.689678 2.41957
  1198 58.9843 -0.697032 -2.44528
  1199 101.149 -1.26692 -0.923599
  1200 41.0898 24.2543 -37.0458
  1201 87.5161 -4.88346 -23.0943
  1202 81.3746 -2.61557 -1.05309
  1203 81.3802 -2.60160 1.05311
  1204 109.182 -0.423665 0.661677
  1205 102.756 -1.23422 1.54917
  1206 5.26254 6.32430 4.47357
  1207 112.583 -0.0920413 0.536704
  1208 12.7502 15.7117 15.5827
  1209 100.205 -1.39057 -1.17323
  1210 -0.173508 -2.51931 -2.19548
  1211 69.9764 -6.81713 -16.2277
  1212 69.7614 -6.64791 16.0550
  1213 112.585 -0.167528 -0.587050
  1214 95.0272 -5.00467 -1.82291
  1215 109.078 -0.376842 -0.692668
  1216 85.8159 -2.80696 -0.370553
  1217 85.8037 -2.79408 0.362593
  1218 101.080 -1.25594 0.873819
  1219 94.3299 -4.26777 1.55308
  1220 90.5486 -2.89965 -0.344507
  1221 90.5844 -2.91028 0.357240
  1222 109.009 -0.388998 -0.570223
  1223 93.4454 -9.77656 -15.5009
  1224 106.448 -0.542129 -0.598062
  1225 100.661 -1.43410 1.24386
  1226 68.2182 -0.821175 -0.898295
  1227 68.2257 -0.812732 0.891455
  1228 76.9669 -1.18043 -0.417371
  1229 76.9678 -1.17113 0.414442
  1230 127.386 19.7633 7.81310
  1231 106.876 -8.14927 5.05582
  1232 72.8263 -0.267313 26.7852
  1233 56.1678 -0.119602 0.926720
  1234 56.1195 -0.120774 -0.937611
  1235 100.686 -1.82597 7.20808
  1236 96.6179 -1.37013 0.318949
  1237 96.6249 -1.36445 -0.318731
  1238 110.023 21.6286 2.43938
  1239 101.811 -10.6175 12.0023
  1240 56.5881 -0.863604 3.43205
  1241 56.5289 -0.870790 -3.46153
  1242 96.4159 -2.28297 1.10417
  1243 96.3956 -2.29766 -1.07926
  1244 99.6412 -2.66965 -2.45924
  1245 90.1064 0.00819790 3.31323
  1246 159.909 39.6790 -12.2745
  1247 101.344 -3.65340 -6.54613
  1248 16.3842 4.12016 9.34923
  1249 104.804 -5.53285 9.06085
  1250 82.1897 1.71915 -2.46434
  1251 5.82313 4.58882 3.10593
  1252 139.840 14.9232 0.485369
  1253 102.204 -4.60850 -9.04134
  1254 82.6183 1.11029 3.76957
  1255 56.5189 -3.62215 10.9696
  1256 104.078 -8.00915 5.80682
  1257 153.276 27.9591 7.04400
  1258 33.8874 5.19719 18.3763
  1259 104.768 -1.15529 -3.31994
  1260 207.114 2.27044 -2.13585
  1261 214.494 3.26376 9.59764
  1262 229.785 8.02202 -22.6570
  1263 101.094 -3.10856 -8.00268
  1264 101.220 -4.57077 6.97000
  1265 102.961 -7.28253 6.70757
  1266 -3.05458 0.306073 1.97230
  1267 -2.79404 0.230927 -2.12975
  1268 100.408 -11.0491 -5.10809
  1269 103.077 -10.3679 -8.06892
  1270 76.0309 0.449471 -1.55207
  1271 100.041 -11.2610 8.11395
  1272 106.685 -5.01185 -9.22525
  1273 1.71782 3.00929 0.00571691
  1274 85.8738 -1.56099 0.239957
  1275 85.8816 -1.57390 -0.240600
  1276 106.428 -0.762555 2.29579
  1277 102.076 -1.64633 -1.82133
  1278 95.7874 -10.4667 -2.36848
  1279 86.9102 -4.76847 0.962052
  1280 86.4487 -4.70515 -1.10604
  1281 102.778 -2.10273 5.18516
  1282 105.268 -3.82303 -10.4082
  1283 6.05327 4.78574 -2.95816
</Section>

newXOutput 15

<Section columns = "stress_xx | stress_yy | stress_xy">
  1 123.734 0.0157093 0.262934
  2 123.747 0.0168079 -0.263988
  3 63.8175 -0.0375856 -0.0954417
  4 -0.825092 -0.821075 -1.18511
  5 230.496 85.8863 71.2640
  6 228.243 89.2635 -71.8427
  7 -0.956719 -0.785028 1.25450
  8 63.8094 -0.0378651 0.0951137
  9 124.691 -0.187775 0.0868628
  10 124.381 -0.305353 -0.0461896
  11 124.016 -0.185629 0.319295
  12 123.657 -0.272216 0.117691
  13 122.893 -0.222743 0.504520
  14 122.209 -0.229237 0.385570
  15 120.660 -0.204670 0.715558
  16 118.517 -0.117034 1.04703
  17 116.590 -0.138725 1.15067
  18 113.792 -0.219288 1.37469
  19 109.983 0.00522516 2.01029
  20 106.462 -0.162317 1.89251
  21 102.543 -0.225978 2.64202
  22 96.8703 0.162870 2.28013
  23 92.8316 0.226317 2.67993
  24 87.5698 0.393371 2.08266
  25 83.9600 0.383904 2.09284
  26 78.7231 0.564848 1.06239
  27 77.6349 0.894060 1.13437
  28 76.9862 0.717124 -0.333228
  29 77.8907 0.388224 -0.740786
  30 79.5472 0.396650 -0.905691
  31 83.4655 0.515367 -1.81471
  32 87.2693 0.406167 -2.31005
  33 92.9108 0.0690031 -2.74915
  34 97.4351 -0.0663552 -2.52599
  35 102.307 -0.182117 -2.50197
  36 106.743 -0.125343 -1.77852
  37 110.603 -0.124346 -1.53543
  38 113.821 -0.212075 -1.30219
  39 116.735 -0.142909 -0.926497
  40 118.593 -0.160777 -0.991706
  41 120.385 -0.213287 -0.729037
  42 122.114 -0.258777 -0.340769
  43 123.011 -0.203286 -0.386148
  44 123.520 -0.109294 -0.249945
  45 123.247 -0.0358442 -0.226909
  46 124.530 -0.312955 0.0250600
  47 124.741 -0.197679 -0.0897510
  48 120.264 -0.0195817 -0.161906
  49 117.313 -0.402247 -0.278586
  50 113.749 -0.614975 -0.200909
  51 109.427 -0.962036 -0.270226
  52 105.363 -1.07011 -0.344023
  53 101.049 -1.39248 -0.323457
  54 97.2513 -1.57985 -0.192416
  55 93.9226 -1.80981 -0.0882335
  56 90.0907 -1.51294 -0.0899322
  57 85.6769 -1.43556 -0.122389
  58 81.4162 -1.15294 -0.0539857
  59 77.3721 -0.755331 -0.0285303
  60 73.5185 -0.552577 -0.00793252
  61 70.1220 -0.301940 0.0243612
  62 66.6260 -0.0951814 -0.111104
  63 63.8714 0.0863885 0.118289
  64 62.6579 0.270186 0.0720550
  65 63.5543 -0.00570187 0.183794
  66 62.6855 -0.0474778 0.218023
  67 61.9110 -0.0657892 0.273188
  68 60.8416 -0.0177233 0.364206
  69 59.4891 -0.0107290 0.464590
  70 58.5420 -0.0986092 0.919949
  71 55.6200 0.0829628 1.00945
  72 53.5974 -0.0123152 1.16948
  73 50.5830 -0.0620731 1.32295
  74 47.0934 -0.100294 1.61507
  75 42.7381 -0.0275240 1.96089
  76 37.4247 0.0211643 2.15212
  77 32.9176 -0.0598045 3.06991
  78 23.8660 0.295875 2.87506
  79 17.7967 0.256521 3.04284
  80 10.6122 -0.0380949 3.34446
  81 4.73300 0.589850 3.43543
  82 -1.91740 0.859634 1.97977
  83 -6.64456 0.867729 0.602937
  84 -6.20667 0.813065 -0.466842
  85 -5.66851 0.664992 -1.74927
  86 -3.30591 -0.251222 -1.62317
  87 -0.430784 -3.17429 -1.78058
  88 0.269928 -5.90530 -2.27363
  89 0.814147 -9.56740 -1.39115
  90 1.84569 -10.2308 -0.199436
  91 3.95821 -4.00378 4.84037
  92 12.1008 15.7809 17.5356
  93 74.6451 63.9396 63.1089
  94 277.711 40.8947 47.1899
  95 248.794 5.90798 15.5924
  96 229.978 2.40127 4.77187
  97 223.004 2.01292 0.387235
  98 226.600 2.71389 -4.09917
  99 248.030 5.44506 -12.3210
  100 296.145 19.7701 -41.1785
  101 43.8786 64.5791 -52.3555
  102 9.08403 9.65994 -14.2966
  103 4.30293 -3.56924 -4.94773
  104 1.71621 -10.3530 -0.579329
  105 0.437004 -7.37844 1.62058
  106 0.587906 -7.42003 1.98921
  107 0.0119815 -2.76384 1.96899
  108 -3.44571 -0.179735 1.54885
  109 -5.85166 0.498745 1.53626
  110 -6.52837 0.991837 0.504967
  111 -6.86905 0.858381 -0.544204
  112 -2.38545 0.881256 -1.84398
  113 4.31100 0.595361 -3.26922
  114 10.1798 0.0229087 -3.28896
  115 17.3538 0.277664 -3.05107
  116 23.4634 0.304219 -2.89966
  117 32.6049 -0.0610479 -3.09900
  118 37.1562 0.0240991 -2.17555
  119 42.5045 -0.0263543 -1.98803
  120 46.9720 -0.110169 -1.62951
  121 50.4248 -0.0596832 -1.32778
  122 53.4790 -0.00843762 -1.18332
  123 55.5246 0.0817713 -1.02240
  124 58.4756 -0.0994830 -0.930972
  125 59.4377 -0.0113016 -0.471443
  126 60.8049 -0.0182547 -0.369879
  127 61.8853 -0.0666569 -0.277719
  128 62.6681 -0.0482186 -0.221212
  129 63.5415 -0.00636652 -0.185858
  130 62.6484 0.269728 -0.0730386
  131 63.8627 0.0861856 -0.118889
  132 66.6166 -0.0959534 0.110719
  133 70.1123 -0.303866 -0.0251448
  134 73.5100 -0.556899 0.00700232
  135 77.3662 -0.761365 0.0276201
  136 81.4138 -1.16162 0.0531065
  137 85.6787 -1.44644 0.121710
  138 90.0970 -1.52542 0.0893192
  139 93.9322 -1.82354 0.0880152
  140 97.2630 -1.59345 0.192893
  141 101.065 -1.40485 0.324804
  142 105.375 -1.07881 0.348928
  143 109.433 -0.969785 0.293370
  144 113.766 -0.574983 0.205553
  145 117.397 -0.389090 0.272634
  146 120.277 -0.0379990 0.159660
  147 106.386 -9.98385 -1.62681
  148 106.306 -9.85126 1.66574
  149 110.864 16.0012 -5.93000
  150 118.953 7.04873 12.7997
  151 89.9903 -8.58470 -19.1953
  152 90.6956 -8.58235 18.5457
  153 86.5549 -3.76651 2.03321
  154 86.5667 -3.82208 -2.03663
  155 126.699 4.50456 -10.2627
  156 106.098 -3.75331 2.96558
  157 106.056 -3.65796 -2.92716
  158 137.149 30.9635 1.85898
  159 108.142 -0.170042 -12.2821
  160 79.3150 -6.37863 -8.50259
  161 79.3072 -6.32199 8.41812
  162 108.469 -2.42575 11.1915
  163 102.262 7.42390 7.20674
  164 41.6853 6.92774 -22.8786
  165 46.4120 6.54651 24.1385
  166 134.419 1.34701 2.55213
  167 108.994 -4.13090 -7.98373
  168 144.998 31.9083 -1.79012
  169 97.8271 -2.73635 0.323116
  170 97.8043 -2.72539 -0.312977
  171 110.787 -1.22271 -1.31866
  172 111.177 -1.08357 1.14680
  173 75.4262 -1.16412 -1.28629
  174 75.4318 -1.15125 1.27763
  175 119.869 -3.42466 24.3492
  176 98.7866 4.03965 -7.74914
  177 64.1333 -4.87517 -13.9146
  178 64.3286 -4.83835 13.8119
  179 71.8087 -2.47557 -4.46251
  180 71.8110 -2.44548 4.42327
  181 109.575 -2.81902 6.77993
  182 99.2948 -6.85632 0.423015
  183 98.9209 -6.80493 -0.248534
  184 113.707 -10.9429 -0.853951
  185 114.268 -10.4237 -0.580905
  186 157.721 37.0304 -4.19979
  187 113.116 18.2893 5.56409
  188 113.690 7.00191 -12.6873
  189 119.594 -1.34935 -28.5094
  190 113.260 -6.34879 -9.26459
  191 114.206 -4.51084 10.7490
  192 94.8532 -10.7963 9.05668
  193 94.8983 -10.7241 -9.02344
  194 100.692 1.24677 9.35738
  195 45.2050 -1.03372 -16.9438
  196 45.3266 -1.13904 16.8294
  197 178.911 27.0057 3.78536
  198 107.132 -6.35010 5.28109
  199 111.343 -1.96503 -4.49453
  200 87.0574 -2.18177 -0.868257
  201 87.0559 -2.16864 0.864246
  202 106.186 -1.36539 -8.58473
  203 121.289 17.8772 -10.3470
  204 100.392 8.98343 -1.44982
  205 64.3472 -2.39339 6.37572
  206 64.2439 -2.40258 -6.43066
  207 113.309 -1.15610 2.54278
  208 109.394 2.06357 12.6045
  209 88.5050 -6.56883 -3.80068
  210 87.8498 -6.22252 3.92639
  211 129.746 19.2491 9.85120
  212 154.302 20.2568 1.57362
  213 9.67523 7.80612 -5.92152
  214 8.92580 7.21677 5.00132
  215 62.5177 17.6701 40.9923
  216 106.029 -7.02673 -4.23785
  217 113.778 -1.11193 -2.30129
  218 99.4515 0.831927 -8.61031
  219 68.4942 -0.751474 -1.96626
  220 68.5130 -0.742684 1.94566
  221 94.9096 -4.49757 -0.425806
  222 94.9522 -4.52206 0.369970
  223 107.211 -1.42526 7.34124
  224 124.895 -7.26452 1.55468
  225 122.593 25.3232 -3.05217
  226 96.1567 -9.36071 -3.92284
  227 122.589 -2.10541 8.75091
  228 104.005 -1.65608 0.576790
  229 104.010 -1.64052 -0.575792
  230 95.3979 -9.31452 4.11827
  231 109.787 -6.91983 7.63509
  232 156.850 19.1371 -7.91148
  233 33.4846 19.9823 -29.1813
  234 91.1523 3.11871 1.82789
  235 109.584 9.68437 10.5816
  236 117.611 -0.788659 -11.6087
  237 109.573 -3.90732 -10.5647
  238 56.6339 -1.90931 -8.05042
  239 56.8441 -1.87909 8.01789
  240 109.827 -1.27596 -5.75383
  241 104.749 -2.57695 1.66243
  242 104.700 -2.57120 -1.61623
  243 20.8297 2.06731 -10.5713
  244 21.2067 1.81446 10.5402
  245 117.526 -10.2434 -8.01569
  246 116.453 -0.307135 0.390902
  247 116.599 -0.314085 -0.412502
  248 106.853 8.85240 -9.65106
  249 93.1469 1.71670 5.58273
  250 202.117 32.4117 21.6044
  251 200.654 22.8584 -13.6522
  252 142.605 31.1114 -0.515022
  253 88.8791 -4.21611 25.7393
  254 81.3654 -2.66051 -26.9712
  255 92.8517 -1.90247 -0.222431
  256 92.8411 -1.88819 0.219790
  257 76.0887 -2.14190 2.64336
  258 76.0936 -2.17310 -2.67160
  259 112.987 -1.14068 3.64786
  260 109.364 -7.75095 -6.44459
  261 68.6794 -0.166845 -0.446117
  262 68.6903 -0.164236 0.442562
  263 107.974 -4.30984 -5.07714
  264 44.0973 -1.47957 -11.1196
  265 44.3089 -1.48478 11.0302
  266 109.207 -4.68863 8.59097
  267 82.8679 -8.79850 15.4077
  268 83.1035 -8.95723 -15.3623
  269 92.6135 3.46416 -2.59801
  270 79.8893 -1.29175 -0.861057
  271 79.8928 -1.28191 0.856752
  272 101.515 -0.275463 6.94906
  273 122.088 22.5285 7.21492
  274 63.5538 -0.842146 3.39844
  275 63.5040 -0.849739 -3.43207
  276 112.503 -9.34023 4.88745
  277 104.148 -11.6350 -9.87227
  278 116.796 -0.465033 1.21239
  279 79.3172 -4.84344 -5.74410
  280 79.1620 -4.78646 5.71743
  281 145.845 13.7363 36.1857
  282 66.4266 -5.33340 18.5315
  283 107.748 15.1866 -0.632562
  284 138.386 15.0292 -7.17911
  285 103.516 -8.01744 2.12250
  286 104.190 -11.9597 8.80967
  287 66.6535 -5.24050 -18.7616
  288 11.9953 14.7499 13.0847
  289 107.991 -4.32827 5.16620
  290 142.711 18.3575 6.00420
  291 117.826 -0.413366 -1.05078
  292 105.040 3.64772 -11.1051
  293 104.334 -5.88198 3.09187
  294 102.085 -8.64194 -0.495910
  295 104.596 4.78219 10.6788
  296 111.935 -9.34991 -4.45407
  297 159.335 31.3007 -2.36421
  298 104.305 -5.65014 -2.96530
  299 87.3503 24.2598 -50.6510
  300 106.891 -11.3096 -1.17331
  301 106.108 -11.6150 2.41427
  302 76.9278 -7.05359 -12.1364
  303 68.0801 -0.301753 -0.982949
  304 68.0951 -0.296560 0.973306
  305 76.9508 -7.05664 12.0628
  306 112.763 -0.167798 -12.8194
  307 122.525 -5.05366 -6.20113
  308 92.1895 -5.63883 -1.78085
  309 92.1166 -5.65101 1.81887
  310 111.742 -9.61283 16.2245
  311 110.787 -0.844091 4.36115
  312 136.153 0.304914 4.64157
  313 90.1279 -3.23765 -0.928320
  314 90.1310 -3.22431 0.920568
  315 81.5248 -2.20737 -1.66871
  316 81.5211 -2.18491 1.66482
  317 92.0987 1.18578 -5.40385
  318 120.418 8.83336 -12.4661
  319 188.879 50.5638 -23.2137
  320 110.140 -0.848915 -0.458244
  321 110.067 -0.836376 0.467973
  322 57.8710 0.0250506 23.1222
  323 81.2145 -3.80499 -3.69993
  324 81.0431 -3.78859 3.70810
  325 57.8645 -0.102195 -23.0349
  326 114.296 13.5354 -10.4115
  327 129.072 6.32975 9.86902
  328 111.812 -7.98379 -18.1195
  329 101.908 -3.90320 1.54286
  330 101.797 -3.87100 -1.49469
  331 109.202 -2.16692 -2.56660
  332 101.601 -0.207538 -6.50410
  333 114.966 0.535770 12.6304
  334 115.310 -0.735085 -2.53698
  335 67.5744 -4.22796 9.28906
  336 67.5012 -4.25383 -9.37022
  337 106.426 -0.247120 11.6268
  338 63.8154 -0.575679 -1.99588
  339 63.8561 -0.570080 1.97447
  340 109.959 -2.44309 3.84739
  341 131.646 27.0584 -5.66190
  342 109.132 -2.18683 2.65470
  343 115.637 14.5927 10.4755
  344 110.852 -2.03002 12.2198
  345 86.9146 -1.66173 0.290038
  346 86.9178 -1.67356 -0.292976
  347 104.416 -0.385272 -10.3022
  348 139.437 29.4450 4.08445
  349 114.989 21.2479 0.219780
  350 70.6351 8.27804 -34.6460
  351 6.53124 3.16000 -4.36233
  352 7.24677 3.41291 4.73148
  353 -0.549043 0.701344 2.30007
  354 -0.0806855 0.326917 -2.38480
  355 207.911 14.4090 5.04923
  356 95.3892 -7.82383 -2.06902
  357 110.064 -2.35474 -3.75750
  358 98.7987 -1.68487 0.256049
  359 98.7871 -1.66935 -0.256374
  360 105.113 11.6167 -5.21884
  361 89.9558 -9.25512 7.42967
  362 7.48398 11.0170 -7.86550
  363 90.0603 -9.25699 -7.58319
  364 106.566 12.1335 5.55437
  365 109.584 -2.86388 -6.47861
  366 116.561 -6.45336 -8.12312
  367 123.424 26.3369 2.11427
  368 116.886 -7.23962 6.90498
  369 46.3283 -1.21454 7.46648
  370 46.0244 -1.19156 -7.52239
  371 25.7691 0.697427 -10.2171
  372 26.0810 0.584426 10.1682
  373 93.6827 0.246326 5.48027
  374 183.563 52.7493 19.1131
  375 113.603 -0.668994 -3.15783
  376 87.4595 -7.51156 -5.63285
  377 87.3716 -7.48733 5.62392
  378 108.768 -2.46858 -8.07142
  379 124.934 -6.03237 2.11722
  380 95.3848 -7.81452 2.14922
  381 137.939 0.632666 -9.85197
  382 75.2919 -0.664087 -0.303701
  383 75.2993 -0.657916 0.300539
  384 106.681 -0.603467 -5.08824
  385 55.7089 -0.860797 -4.88741
  386 55.7487 -0.887005 4.82240
  387 128.262 16.3614 -10.8393
  388 68.8400 4.92072 32.0936
  389 99.9540 -5.25977 1.05352
  390 100.055 -5.24861 -1.05976
  391 117.259 19.9687 -6.68844
  392 111.364 -3.26838 -11.6547
  393 112.320 -11.4344 8.41246
  394 92.5145 -2.47385 -0.325573
  395 92.5009 -2.45949 0.319679
  396 107.592 -8.28400 4.57223
  397 116.526 -0.500448 1.90063
  398 70.6728 -2.69885 -5.63095
  399 70.6984 -2.69706 5.57597
  400 108.741 3.64396 -12.4112
  401 103.049 -2.16650 0.885426
  402 103.046 -2.17055 -0.869616
  403 106.192 -1.23609 9.53385
  404 98.1600 7.09659 2.47506
  405 110.519 -4.62507 10.2705
  406 160.949 33.9294 5.41547
  407 52.0753 -2.82168 -14.8858
  408 52.2284 -2.82361 14.7612
  409 23.0165 12.5878 -17.2682
  410 119.688 -0.277412 0.562719
  411 58.0528 -0.543414 -3.08456
  412 58.1358 -0.531867 3.05444
  413 108.879 -2.80051 7.93153
  414 98.6991 -10.7497 4.54711
  415 112.172 -1.29241 1.82688
  416 113.507 5.78745 13.0276
  417 24.2187 13.4029 18.0818
  418 98.8604 -10.6948 -4.12542
  419 102.225 -9.52777 -0.178234
  420 31.7608 -0.642047 -9.31732
  421 32.0329 -0.668615 9.24693
  422 78.1724 -6.16721 -22.3621
  423 117.671 -1.71313 11.3624
  424 77.8347 -6.27179 22.1512
  425 108.521 -6.05948 -6.88416
  426 99.6645 6.66606 -5.45333
  427 108.551 -4.64038 6.49603
  428 117.716 -0.453018 -1.31933
  429 3.29664 3.33316 1.15675
  430 23.0867 26.1105 25.7680
  431 103.732 -0.386732 4.87303
  432 85.6280 1.10717 2.35061
  433 87.2634 1.36649 -3.19939
  434 74.4676 -1.31491 -1.86275
  435 74.4712 -1.29723 1.84779
  436 107.017 -8.28135 -4.24559
  437 107.787 -2.08928 -10.7145
  438 86.1440 1.53702 -0.869670
  439 161.073 38.2582 6.70090
  440 21.1709 7.29353 -12.8886
  441 23.4343 6.69850 13.8326
  442 99.8630 -3.54200 0.885341
  443 99.8222 -3.53060 -0.856136
  444 133.342 29.8278 -0.477879
  445 84.9168 33.0110 51.7607
  446 129.381 -1.91266 -3.12278
  447 72.4621 -3.89967 -7.64494
  448 72.4923 -3.87052 7.57160
  449 72.6209 -1.71649 2.95787
  450 72.6112 -1.73032 -2.98944
  451 99.1237 2.14558 -8.84545
  452 120.376 -0.110057 -0.382568
  453 96.0820 4.33697 4.93914
  454 123.169 15.2499 11.4924
  455 102.372 -7.61446 -1.68809
  456 112.142 -1.22268 -1.77125
  457 118.240 -0.403486 1.21640
  458 120.047 -0.113981 0.219591
  459 120.163 -0.136396 -0.167535
  460 63.1733 -0.136934 0.726799
  461 63.1441 -0.138850 -0.735849
  462 112.284 -7.08859 8.30646
  463 100.119 3.90077 8.56160
  464 105.147 0.414111 -11.3143
  465 110.624 -2.26042 4.88280
  466 162.932 25.4472 -29.7432
  467 110.749 -6.10709 -9.12275
  468 0.639651 2.02818 0.584513
  469 0.648181 2.04413 -0.0378707
  470 86.8688 -5.02540 3.04463
  471 86.5602 -4.96270 -3.01466
  472 139.627 1.96970 15.5416
  473 38.4286 33.8052 -38.7485
  474 109.039 -0.306106 3.83949
  475 125.009 -7.34365 -8.44435
  476 64.6256 -3.82129 10.7950
  477 133.003 23.6132 -8.11409
  478 109.138 -5.86935 7.71100
  479 90.9269 -4.41749 -1.31953
  480 91.0080 -4.34121 1.31332
  481 93.6566 0.475070 -4.84539
  482 64.4166 -3.80849 -10.8720
  483 96.2534 0.0105427 4.88864
  484 93.3448 -10.6549 -13.6023
  485 93.1011 -10.6712 13.6385
  486 112.872 -0.704491 3.47675
  487 101.255 9.51879 1.02415
  488 104.900 1.54864 35.0853
  489 153.596 31.6109 -0.200216
  490 105.724 -1.69329 0.933729
  491 105.733 -1.68642 -0.958111
  492 79.8570 -1.48656 -1.13145
  493 79.8591 -1.47305 1.12578
  494 41.8402 2.06935 19.2827
  495 109.582 -5.24032 -8.87722
  496 99.1296 -2.11397 0.301598
  497 99.1195 -2.10488 -0.298621
  498 86.0177 -9.16783 11.1423
  499 42.6833 2.71411 -19.7881
  500 109.896 -8.92375 -4.83162
  501 1.71869 0.0373139 1.17493
  502 94.4998 4.80594 0.353083
  503 106.166 -1.12745 -0.316990
  504 106.161 -1.14544 0.311819
  505 86.0878 -9.15537 -11.2351
  506 125.165 -6.55736 11.1414
  507 123.248 4.48805 11.8255
  508 114.145 -0.671458 -0.907920
  509 109.558 -9.05325 4.88416
  510 66.3084 -0.0881575 -0.120365
  511 66.3184 -0.0874731 0.118997
  512 109.183 -4.15963 -9.37342
  513 105.033 7.76574 9.41362
  514 121.692 3.01258 -11.6641
  515 65.9145 -0.129265 -0.406154
  516 65.9275 -0.127606 0.402740
  517 216.798 31.2907 -28.1863
  518 109.472 13.0830 8.33398
  519 114.257 -0.606301 0.812699
  520 102.463 -9.73462 0.421955
  521 85.2039 -2.89476 1.62842
  522 85.2069 -2.91890 -1.62523
  523 119.940 -7.26049 4.34077
  524 114.784 -2.25233 -11.8626
  525 128.142 25.4358 6.61276
  526 106.092 1.81368 11.7191
  527 107.804 -1.98276 1.70301
  528 104.893 -11.1372 -12.9330
  529 108.226 -2.64575 9.15329
  530 214.694 9.79523 -3.96817
  531 119.109 -8.94524 -1.28703
  532 113.433 -0.641759 -0.237308
  533 113.458 -0.690886 0.216643
  534 216.894 14.5747 13.9823
  535 103.287 -0.0508997 9.96686
  536 146.901 24.2762 -4.07735
  537 109.632 -2.91284 -4.79324
  538 47.3997 -0.477977 -3.34895
  539 47.5640 -0.455284 3.31178
  540 73.2893 -6.89473 -15.5114
  541 73.3372 -6.77809 15.3879
  542 107.747 -1.89423 -1.68352
  543 117.018 4.31461 -12.8637
  544 102.689 -6.99581 2.07703
  545 109.984 12.6414 -8.66871
  546 111.581 -1.23565 4.68304
  547 141.154 6.69342 -0.110565
  548 94.8287 -3.26619 -0.151019
  549 94.7953 -3.25189 0.145399
  550 103.455 -4.86187 2.39060
  551 154.143 30.0315 -0.610598
  552 108.586 4.75405 12.1825
  553 46.0181 11.9108 28.6429
  554 106.034 -6.38482 23.1446
  555 141.620 6.05793 -25.2917
  556 111.056 9.19501 -11.3756
  557 99.2310 -8.52040 -20.0080
  558 107.364 -11.7347 -3.22943
  559 112.399 -11.3272 -5.08488
  560 14.2320 18.0115 -17.1040
  561 112.919 -1.33893 -2.99265
  562 170.899 33.3777 -9.17496
  563 104.035 -4.65189 -2.59561
  564 104.974 -3.36028 2.13625
  565 104.874 -3.27895 -2.06205
  566 70.5112 -0.458795 -0.882509
  567 70.5223 -0.452781 0.875160
  568 9.18260 1.09074 -5.50490
  569 9.77956 1.14055 5.63926
  570 52.3881 -2.50429 -11.3844
  571 52.8131 -2.51683 11.3586
  572 106.391 -5.73029 -4.53875
  573 108.675 -11.7812 3.54898
  574 111.733 -10.5615 1.66938
  575 90.6108 -1.60667 -0.271408
  576 90.6037 -1.59349 0.269616
  577 86.3692 -9.02227 -17.1459
  578 97.2475 -7.92260 21.2212
  579 84.1860 -8.47652 17.2570
  580 109.228 -2.40226 -11.5417
  581 66.7894 -1.19234 3.38440
  582 66.7579 -1.20541 -3.41711
  583 103.520 5.68459 -9.44063
  584 103.824 -0.179895 -4.42403
  585 130.372 28.6064 -3.05386
  586 84.1560 -1.31786 -0.293406
  587 84.1557 -1.30794 0.291629
  588 111.406 -0.311678 -2.54001
  589 75.5342 -2.67022 -3.67422
  590 75.5303 -2.65915 3.63742
  591 62.2584 3.01269 27.5411
  592 108.436 -4.94424 -6.57554
  593 59.5840 -3.08481 19.7388
  594 106.552 -5.48686 4.61618
  595 112.556 -1.50285 3.28770
  596 111.287 -0.907388 -0.818759
  597 76.2720 -1.01200 -0.796333
  598 76.2781 -1.00303 0.790916
  599 124.954 25.1628 -5.89472
  600 59.5457 -2.95725 -19.8229
  601 106.209 -4.55027 -3.75027
  602 95.2992 -1.74639 -0.0956615
  603 95.2883 -1.73170 0.0951332
  604 182.399 24.6999 -4.27052
  605 61.4528 -0.434427 1.88354
  606 61.3982 -0.438834 -1.90375
  607 97.8313 2.19096 8.05416
  608 142.975 11.5380 -3.27327
  609 66.4594 0.597144 -27.3640
  610 33.0695 0.949608 -14.7339
  611 33.3661 0.745198 14.6541
  612 83.0339 -4.97541 4.47086
  613 83.9577 -5.12182 -4.31986
  614 143.810 28.8980 3.89130
  615 110.794 -0.944618 0.752610
  616 93.2120 2.54432 -4.84668
  617 117.524 21.2857 5.28551
  618 117.054 22.0966 -3.51332
  619 96.2310 -5.37982 -0.303721
  620 97.0000 -5.25138 -0.0492182
  621 69.3276 14.9566 -39.5781
  622 81.9164 -2.90663 -2.43193
  623 81.9193 -2.87130 2.42077
  624 215.188 43.9603 32.9942
  625 109.181 -3.54217 10.0613
  626 60.7685 -2.25347 -7.29581
  627 173.323 38.0034 24.2257
  628 60.9164 -2.23943 7.26278
  629 105.245 -4.07135 -27.1866
  630 71.8803 -0.407828 -0.326483
  631 71.8896 -0.404203 0.324401
  632 89.5589 0.757635 4.22252
  633 39.6512 -0.625768 -6.56835
  634 39.8990 -0.627179 6.51122
  635 94.9543 -6.79559 1.48900
  636 99.8298 -8.04106 0.101004
  637 118.875 -0.215549 -1.09177
  638 64.2436 -0.125892 0.526160
  639 64.2226 -0.128001 -0.532870
  640 89.1719 -2.03907 -0.356481
  641 89.1660 -2.02580 0.352273
  642 103.537 -11.4383 13.1008
  643 118.494 13.2688 -11.6306
  644 77.7102 -3.75800 -4.75025
  645 77.6451 -3.69277 4.71132
  646 93.1176 -6.79440 -2.32518
  647 148.062 32.4665 0.161967
  648 111.043 -10.7038 -1.03376
  649 95.6883 -2.27449 -0.00621066
  650 95.6721 -2.26112 0.00698257
  651 132.915 14.4445 9.47202
  652 111.103 -1.53695 -5.09308
  653 96.8592 -0.144746 -3.98788
  654 44.0158 -1.49475 -14.2660
  655 44.1650 -1.54124 14.1390
  656 92.9247 -8.11391 -4.02077
  657 140.200 31.2885 0.131721
  658 107.805 14.6444 -3.75351
  659 70.2054 -0.704292 -1.65275
  660 70.2182 -0.694199 1.63684
  661 101.169 -2.81465 -0.827010
  662 101.189 -2.81995 0.851228
  663 192.025 25.1842 11.0166
  664 121.093 -0.273567 0.314085
  665 116.316 -0.411055 1.84533
  666 115.792 -0.427378 -2.13681
  667 109.597 -10.1698 2.61487
  668 79.0902 -0.978515 -0.398482
  669 79.0947 -0.970755 0.396189
  670 116.431 18.7878 8.10022
  671 150.723 33.6731 -1.11184
  672 81.1122 -6.17322 -6.73780
  673 81.0787 -6.10876 6.69815
  674 102.613 -10.5945 -1.39526
  675 107.686 6.39547 -11.4488
  676 129.476 0.280540 5.90881
  677 84.2218 -1.62125 -0.744080
  678 84.2216 -1.60937 0.739937
  679 72.8706 -6.45814 -14.0095
  680 108.531 -10.4714 -1.58139
  681 89.7190 -9.96580 12.2643
  682 42.3934 13.5384 -27.6012
  683 83.3653 -7.82489 9.44848
  684 100.436 0.0245438 3.70560
  685 72.9315 -6.38263 13.9064
  686 106.143 -4.64348 3.79633
  687 83.4059 -7.79479 -9.54480
  688 84.0728 1.03806 0.881742
  689 64.8934 -1.84640 5.15299
  690 64.8340 -1.84970 -5.19495
  691 89.7895 -10.2257 -12.4070
  692 111.505 -7.30277 -8.04153
  693 102.079 -1.34865 -0.205662
  694 102.095 -1.36481 0.206514
  695 114.074 -7.21082 8.03943
  696 103.445 -10.8189 1.79010
  697 126.024 11.5556 11.5690
  698 113.400 -2.08143 12.1464
  699 109.111 -3.86293 7.53068
  700 103.325 8.46928 -7.15985
  701 125.348 21.1919 9.11267
  702 108.006 -1.46983 -7.15192
  703 107.995 -3.51366 4.07472
  704 110.798 17.4440 2.03347
  705 109.721 -1.81431 6.30258
  706 34.0044 22.9983 28.8489
  707 102.251 -11.7419 -7.24156
  708 118.419 2.18814 12.4247
  709 119.830 -3.67544 -9.19204
  710 120.373 -0.107353 0.625037
  711 109.120 -3.68615 -6.01594
  712 102.378 -11.8362 6.51111
  713 202.176 17.8871 -3.01226
  714 58.8327 -0.281680 1.97488
  715 58.7580 -0.284934 -1.99619
  716 110.965 -1.92480 -2.91236
  717 121.146 -0.0772334 -0.603326
  718 92.7352 -8.24280 4.04407
  719 111.960 -4.12089 11.0970
  720 172.848 40.1201 -10.6746
  721 106.114 -7.67945 4.01512
  722 118.141 -7.73154 -5.22324
  723 108.041 -3.41461 -4.01184
  724 121.217 -0.153122 -0.216878
  725 108.939 0.00782451 12.4473
  726 4.81664 3.63449 5.70762
  727 124.674 -4.97700 -17.1419
  728 135.176 7.83088 6.49561
  729 112.237 -11.4241 4.42207
  730 78.2973 -1.97344 2.00485
  731 78.3018 -2.00245 -2.01710
  732 107.046 50.8598 -54.3806
  733 114.140 -7.49963 -7.49955
  734 83.7189 0.370744 -1.68461
  735 98.9839 0.515740 7.88916
  736 109.856 -5.45308 9.03504
  737 105.305 -8.87378 2.39923
  738 110.123 -9.98376 -14.0690
  739 104.617 -8.27857 -2.56267
  740 124.477 -5.96487 -2.53545
  741 114.533 -0.839971 1.72424
  742 101.458 -6.10808 1.54982
  743 187.247 37.4924 -19.6199
  744 108.588 -2.82466 3.27151
  745 106.703 1.73274 -12.0462
  746 91.8789 -1.07981 30.6853
  747 114.627 9.26650 12.4085
  748 98.5559 -7.81009 0.437925
  749 75.2782 -6.05124 -10.1850
  750 75.2771 -6.03186 10.0927
  751 104.109 11.7045 -1.67516
  752 106.436 -1.21736 10.8246
  753 107.786 -2.54051 -9.32733
  754 101.578 -6.22933 -1.58813
  755 98.1118 -8.85161 1.91165
  756 111.686 18.5452 -2.31819
  757 105.170 -9.10073 -1.98209
  758 105.409 -6.65474 3.86925
  759 107.080 -1.26965 0.648083
  760 107.153 -1.23121 -0.645307
  761 144.111 31.9405 1.33058
  762 118.252 -10.0150 -2.50534
  763 109.461 -3.28886 5.97513
  764 114.610 -0.833981 -1.58183
  765 115.093 0.793421 -12.7473
  766 131.849 6.80114 -8.21836
  767 62.0052 -0.0815439 -0.909535
  768 62.0449 -0.0805366 0.898855
  769 0.825542 -2.23076 -1.60605
  770 111.689 -0.104472 2.35759
  771 101.480 -0.199207 -8.76538
  772 105.189 -0.980446 7.80282
  773 97.5160 11.4748 45.4481
  774 119.845 24.8884 -0.282862
  775 84.7194 -6.19539 5.13786
  776 13.5982 0.355945 -5.50651
  777 14.0586 0.266317 5.56783
  778 104.157 -0.747180 -8.76911
  779 84.9729 -6.26073 -5.13354
  780 113.917 -0.921261 1.34054
  781 56.2869 -2.48545 9.72652
  782 55.7784 -2.47792 -9.73864
  783 108.589 -2.73868 -3.18942
  784 67.5076 -1.80748 -4.46909
  785 67.5403 -1.79448 4.42374
  786 113.250 -0.993554 -3.56045
  787 85.1492 -2.34662 -1.29488
  788 85.1486 -2.32951 1.29487
  789 123.816 -0.789208 -9.27778
  790 110.728 -1.13833 -12.5576
  791 54.2763 -0.377507 -2.53675
  792 54.3910 -0.374041 2.50422
  793 1.96669 1.39975 -3.21749
  794 2.48975 1.47413 3.39361
  795 88.0409 0.400861 -3.07186
  796 101.300 -11.3881 -5.21958
  797 -1.20390 -0.846422 2.04038
  798 -1.04229 -0.973342 -2.00896
  799 105.551 -2.02961 1.35577
  800 114.701 -8.90003 -4.69244
  801 117.724 17.5333 -9.48303
  802 114.455 -0.820916 -1.27047
  803 251.160 49.7045 -47.1710
  804 105.531 -2.02129 -1.33928
  805 159.757 30.7640 2.17385
  806 112.611 3.29336 -13.0616
  807 124.954 9.40821 -11.7951
  808 19.3008 -0.231087 -5.13191
  809 19.7139 -0.262743 5.12119
  810 68.5302 -1.06199 2.61608
  811 68.5084 -1.07147 -2.64331
  812 64.8867 -0.180922 0.483009
  813 64.8711 -0.182737 -0.487695
  814 126.017 21.2996 -9.07026
  815 72.6999 -0.508089 -0.696741
  816 72.7090 -0.502024 0.691832
  817 106.777 -1.07248 -11.2867
  818 157.390 14.9742 11.6932
  819 95.1300 2.05822 -6.76102
  820 31.5764 -0.298022 5.54892
  821 31.2713 -0.300630 -5.59702
  822 126.582 2.90455 32.2676
  823 110.832 -1.94151 3.00601
  824 97.5276 6.41234 -2.82000
  825 43.6309 -0.0874023 3.81282
  826 43.3807 -0.0661760 -3.84430
  827 66.5376 -0.384444 -1.26963
  828 66.5589 -0.378903 1.25568
  829 11.7265 10.5455 8.70213
  830 102.136 2.39812 10.1146
  831 114.120 16.8536 -8.06301
  832 123.420 14.3402 -11.6059
  833 79.8232 -3.13158 -3.25974
  834 79.7695 -3.10534 3.25218
  835 127.546 27.4182 4.18903
  836 110.823 -0.803472 -0.182851
  837 110.825 -0.797060 0.202602
  838 109.101 -3.21580 -7.55306
  839 90.7799 -6.14415 2.75845
  840 100.643 -11.3199 5.26785
  841 119.191 -9.76649 8.32333
  842 89.8306 -2.64891 -0.636076
  843 89.8268 -2.63682 0.629579
  844 102.638 9.48995 4.58496
  845 96.0936 1.25993 -7.31725
  846 26.7547 29.9702 30.0155
  847 98.4347 -8.78197 -1.66351
  848 98.7111 -4.41808 0.679100
  849 98.7654 -4.42377 -0.683382
  850 108.618 -1.57768 11.9154
  851 108.041 -7.06781 -5.90338
  852 96.0512 -6.42343 -0.740638
  853 226.145 7.33532 -11.4233
  854 91.1930 -8.72177 5.76222
  855 91.1279 -8.83939 -5.86563
  856 108.604 -1.27004 6.09649
  857 165.393 42.3542 -8.08622
  858 85.3230 -7.87129 -7.41680
  859 94.7712 -10.7238 6.85215
  860 85.2884 -7.77264 7.34419
  861 92.6727 -3.77676 -0.670846
  862 92.6664 -3.76139 0.663394
  863 13.0625 5.78650 7.60200
  864 116.808 8.74998 -12.6372
  865 88.7044 -3.53174 -1.32300
  866 88.7181 -3.49357 1.32863
  867 87.4666 -1.47364 -0.155170
  868 87.4629 -1.46209 0.153746
  869 96.8408 -1.88796 0.135406
  870 96.8281 -1.87367 -0.135690
  871 77.5884 -1.60546 -1.74669
  872 77.5908 -1.58636 1.73744
  873 89.1015 -4.78452 -2.09757
  874 89.1100 -4.74802 2.10621
  875 2.00722 -1.35898 -0.626178
  876 135.867 25.4974 7.21534
  877 116.798 -4.04994 -10.4193
  878 94.7076 -10.5707 -6.93609
  879 102.499 -3.25642 1.37768
  880 102.452 -3.21952 -1.34594
  881 111.681 0.167365 12.8197
  882 122.529 -8.74659 -4.05706
  883 108.839 7.21878 -39.2784
  884 47.9139 -0.683621 19.1419
  885 -2.33151 1.12014 -1.12300
  886 -2.07457 1.26109 1.26928
  887 12.9529 6.15577 -7.75185
  888 109.487 -3.07269 4.77609
  889 115.719 -0.673137 -2.03430
  890 103.831 -9.93343 16.3605
  891 47.7955 -0.625134 -19.2252
  892 115.730 -9.41108 3.59204
  893 129.831 -4.07788 13.8039
  894 91.5259 0.354403 3.26247
  895 106.013 10.0857 7.84434
  896 56.5146 -3.22612 14.1668
  897 56.2871 -3.25271 -14.2708
  898 67.9129 -3.35199 -7.91007
  899 72.3563 -3.43958 -24.5267
  900 115.461 -2.65289 11.5390
  901 160.023 37.0673 4.14708
  902 115.718 4.48398 12.8866
  903 109.412 -2.28361 -6.86108
  904 73.9344 -3.08262 25.1447
  905 140.169 25.7256 -5.72659
  906 13.2327 11.4265 -10.8080
  907 100.142 -0.217336 -3.53476
  908 67.9840 -3.32278 7.83141
  909 83.5287 -1.90381 1.15651
  910 83.5293 -1.91848 -1.16016
  911 108.206 -7.03091 6.07618
  912 112.977 -0.601221 0.538612
  913 82.6170 0.822890 -30.6157
  914 119.402 -0.221917 0.967598
  915 118.352 -0.177267 -1.21432
  916 85.8695 0.710967 -2.81474
  917 113.874 -0.445401 -2.10056
  918 83.9233 -4.03908 -2.92696
  919 83.9795 -3.97532 2.93450
  920 -2.95569 0.980465 -1.72714
  921 -3.98781 0.590599 1.79199
  922 112.980 -0.551288 -0.539927
  923 35.8041 -0.784010 12.8925
  924 35.5657 -0.700676 -12.9727
  925 119.772 17.5634 10.0567
  926 220.667 3.96570 3.57257
  927 112.469 12.5571 10.3923
  928 129.070 -4.66074 3.01049
  929 111.255 -6.14768 9.15629
  930 138.774 29.1940 -4.34448
  931 83.8555 0.309068 2.11858
  932 107.155 -2.43012 -2.07320
  933 110.767 5.96171 -12.5608
  934 135.476 3.78006 -3.60105
  935 104.221 -6.42555 -3.15335
  936 51.1877 -0.313387 -2.85060
  937 51.2500 -0.302446 2.80725
  938 110.177 -2.51632 -5.47930
  939 3.36178 4.37267 0.545682
  940 105.719 -10.9527 -0.277162
  941 89.8173 2.57031 -0.291485
  942 137.649 30.5019 -2.89233
  943 21.0511 15.7274 -18.3391
  944 105.201 -0.779381 -6.99328
  945 71.5696 -1.28013 -2.42314
  946 71.5798 -1.26427 2.39906
  947 0.535227 -3.12015 2.41278
  948 70.6810 -5.37252 -11.3612
  949 107.630 -6.18379 -5.70623
  950 64.5617 0.137093 -0.195946
  951 64.5723 0.137910 0.194277
  952 107.920 13.1224 -6.30903
  953 117.618 -0.252863 -0.196972
  954 117.614 -0.258571 0.253955
  955 70.7063 -5.35541 11.2755
  956 108.646 -0.123821 -2.78873
  957 125.928 0.900696 9.02452
  958 111.585 -1.47558 2.35076
  959 16.8186 4.49834 -9.77745
  960 115.986 -0.620553 1.85251
  961 103.856 0.808014 10.8698
  962 109.567 15.2393 5.61510
  963 110.028 1.28206 -12.8803
  964 74.7575 -4.13855 -6.71475
  965 119.501 -4.17964 8.90507
  966 74.8035 -4.12007 6.63895
  967 3.16948 3.56639 0.0478321
  968 12.0973 2.25064 7.14772
  969 60.1791 -1.13449 4.68178
  970 60.1012 -1.13661 -4.71291
  971 107.228 -2.48173 2.17126
  972 114.502 20.0556 3.14074
  973 58.0021 5.45023 -28.8590
  974 95.8521 -6.04012 0.595825
  975 89.9339 -9.47014 -8.92151
  976 131.865 25.3869 7.26402
  977 101.207 -1.72068 0.300081
  978 101.204 -1.70964 -0.300355
  979 111.325 -1.97403 -3.99602
  980 101.623 8.73701 -4.23298
  981 239.739 69.5698 47.0015
  982 20.1514 1.23989 -9.58148
  983 20.5094 1.03327 9.60712
  984 1.49536 -2.54332 0.203907
  985 102.027 5.61051 8.68772
  986 89.8925 -9.52483 8.84872
  987 112.008 -5.24943 -10.3126
  988 121.959 9.99701 12.6181
  989 117.965 -9.51982 -10.4788
  990 172.827 36.4851 11.4738
  991 99.2383 -1.54654 0.00627386
  992 99.2253 -1.53179 -0.00599544
  993 116.713 -4.70352 9.92519
  994 7.83157 11.7235 13.0558
  995 50.5472 -1.12092 6.73635
  996 50.3747 -1.10679 -6.81726
  997 61.0321 -3.09631 9.16658
  998 60.8119 -3.05156 -9.20755
  999 68.9946 -2.95930 6.52629
  1000 75.4060 -0.657482 -0.323351
  1001 75.4134 -0.652222 0.321747
  1002 197.162 60.6785 -37.9644
  1003 176.155 44.0621 17.2104
  1004 68.9393 -2.97629 -6.58874
  1005 120.267 -0.514698 10.9097
  1006 106.536 11.0625 -7.56974
  1007 75.2421 -6.41763 20.3010
  1008 97.3502 -11.4900 -10.5593
  1009 111.392 -0.872463 -4.13564
  1010 49.3387 3.55482 23.3833
  1011 63.3861 -4.86271 16.2300
  1012 97.1647 4.91806 -5.41963
  1013 112.510 -2.19273 -12.2603
  1014 148.314 56.1073 62.5154
  1015 91.3430 2.72775 3.83849
  1016 126.174 27.4820 -0.499992
  1017 93.4634 3.54953 -34.8644
  1018 94.2099 -9.98630 -5.85430
  1019 121.313 -0.0738440 -0.496228
  1020 114.873 10.5807 -12.0942
  1021 65.4205 -0.471980 1.65069
  1022 65.3917 -0.476885 -1.66888
  1023 2.31332 0.352679 -3.00907
  1024 74.7455 -3.53894 -5.57917
  1025 63.3139 -4.92670 -16.3641
  1026 74.6786 -3.52887 5.50929
  1027 109.884 -3.30980 11.3344
  1028 98.4142 -6.11732 0.335519
  1029 102.893 1.86260 -10.5106
  1030 105.815 13.2428 2.20682
  1031 146.575 8.24645 3.68872
  1032 109.089 -8.25567 5.87892
  1033 67.7658 -5.51553 -12.4357
  1034 101.912 3.56436 -9.80899
  1035 75.9461 -6.32616 -20.4229
  1036 147.305 32.3208 -0.325200
  1037 98.7632 6.43317 4.92961
  1038 127.005 -0.790361 -7.20156
  1039 94.8032 -9.98586 5.32068
  1040 108.910 -3.40703 8.83412
  1041 108.328 -5.67898 6.58518
  1042 107.738 -5.37650 5.76165
  1043 133.588 16.8697 -9.68508
  1044 107.251 -1.70480 8.84378
  1045 97.1649 -11.5226 10.3786
  1046 103.738 -4.20090 2.16283
  1047 67.8053 -5.52397 12.3559
  1048 97.1223 -7.22120 -0.776774
  1049 55.5375 -2.66618 -17.3684
  1050 80.1417 -8.36875 13.6711
  1051 109.424 -0.705368 -4.76515
  1052 106.274 -1.18838 -9.99415
  1053 91.9037 -7.36600 -3.43086
  1054 55.6352 -2.74973 17.2192
  1055 98.4202 0.210422 -6.85977
  1056 72.8459 -4.96437 -8.74614
  1057 134.174 28.8079 4.68883
  1058 28.8806 4.99956 -16.2334
  1059 236.165 16.7253 23.1088
  1060 52.9566 4.13321 -24.5322
  1061 107.759 -8.90674 -3.90936
  1062 72.8601 -4.91915 8.66599
  1063 97.2681 0.979235 7.64172
  1064 53.3417 -1.13979 5.57125
  1065 53.3088 -1.16853 -5.63306
  1066 108.823 -2.99949 -10.4882
  1067 116.878 -0.491689 0.802756
  1068 113.962 -0.221958 2.13049
  1069 112.191 3.75137 13.0121
  1070 104.593 -0.787452 9.35659
  1071 81.7344 8.59077 37.7635
  1072 122.171 -0.0544198 0.252547
  1073 112.641 15.3374 8.27814
  1074 94.4113 1.31285 6.56222
  1075 115.611 -0.402730 2.05988
  1076 72.2125 -0.847515 -1.33575
  1077 72.2216 -0.837529 1.32511
  1078 45.3934 -1.33612 -9.27815
  1079 45.5906 -1.38387 9.20590
  1080 94.7064 4.65250 2.74609
  1081 147.282 7.27933 -9.22910
  1082 135.270 -0.584195 -19.1582
  1083 105.742 -0.0818613 -2.87373
  1084 80.1858 -8.43321 -13.7813
  1085 92.0943 -7.00416 3.01327
  1086 106.408 -0.233444 3.00186
  1087 112.111 -8.08573 -6.85271
  1088 67.7142 -0.191693 0.811781
  1089 67.7012 -0.194854 -0.817851
  1090 107.549 -9.16221 3.90874
  1091 102.072 -2.01757 0.530679
  1092 102.055 -2.01883 -0.522802
  1093 99.2236 -10.0380 3.06679
  1094 129.264 -4.24595 -0.145606
  1095 55.7228 -0.110866 -1.57636
  1096 55.8213 -0.106996 1.55749
  1097 87.2022 -5.41866 -23.3965
  1098 92.1435 -2.20737 0.285508
  1099 92.1545 -2.22174 -0.289842
  1100 56.1320 29.5050 41.4497
  1101 129.201 10.5264 -10.7134
  1102 18.1368 9.08163 -11.9973
  1103 111.670 -1.56267 -2.27510
  1104 28.7943 10.1518 -18.5916
  1105 60.4129 -3.89297 -11.8431
  1106 122.295 -0.0815413 0.144788
  1107 122.356 -0.0732687 -0.109143
  1108 109.413 -6.20415 -7.90150
  1109 96.9331 -10.8315 -14.7534
  1110 28.8891 4.25530 15.4697
  1111 118.895 11.8106 11.8811
  1112 108.384 -0.975248 -0.220692
  1113 108.393 -0.976744 0.231956
  1114 119.138 -7.77915 17.8009
  1115 121.477 24.5573 4.62861
  1116 70.6477 -1.80174 -3.49769
  1117 70.6621 -1.79211 3.46827
  1118 54.2791 6.35008 29.1040
  1119 102.657 0.496110 -10.1891
  1120 31.5568 10.3907 20.0509
  1121 134.420 -2.50592 -5.00665
  1122 130.372 29.1822 1.46878
  1123 89.1222 -7.16533 4.32140
  1124 80.4518 0.378011 -0.412428
  1125 114.513 -0.934709 2.69309
  1126 118.922 -0.106722 1.05744
  1127 23.9674 0.0581269 -4.64078
  1128 24.3485 0.0448566 4.60617
  1129 91.2055 1.45286 -4.84725
  1130 95.2569 -2.80425 -0.0507535
  1131 95.2322 -2.78848 0.0493126
  1132 9.77345 13.5981 -13.8433
  1133 15.7929 31.5661 -28.6214
  1134 96.5554 -3.78286 -0.135821
  1135 96.5977 -3.78547 0.131626
  1136 99.9806 -2.36395 0.595479
  1137 99.9660 -2.35721 -0.585499
  1138 25.5490 16.4296 20.0510
  1139 77.5009 -1.02294 -0.619910
  1140 77.5065 -1.01481 0.616070
  1141 98.1827 7.36517 -0.119259
  1142 129.314 14.9308 -43.7296
  1143 121.036 20.9994 -7.92117
  1144 110.653 -4.21084 -10.7877
  1145 109.051 -5.39310 -7.95707
  1146 89.1936 -7.23550 -4.39965
  1147 88.4533 0.260243 2.99256
  1148 100.610 6.22305 -7.25501
  1149 99.0999 5.27543 6.91406
  1150 103.667 -4.07397 -2.12758
  1151 98.6781 -5.99025 -0.405059
  1152 89.2584 -5.87937 -3.17313
  1153 106.715 -0.611126 5.60061
  1154 192.858 19.5557 2.74887
  1155 107.537 -2.26987 10.2107
  1156 107.584 7.06805 10.9949
  1157 99.7016 -9.85979 -2.10938
  1158 11.3825 2.07493 -6.88202
  1159 101.577 -4.68224 -1.67009
  1160 65.0519 -0.130045 -0.0340360
  1161 65.0608 -0.129568 0.0334641
  1162 124.722 -3.29541 6.29194
  1163 118.900 -9.98155 3.20950
  1164 171.489 30.9690 7.20652
  1165 38.3794 -0.100232 -3.90082
  1166 38.6419 -0.0914925 3.86784
  1167 90.0187 -1.83960 -0.281830
  1168 90.0121 -1.82635 0.278714
  1169 101.940 -9.02265 0.451666
  1170 81.2297 0.331463 1.34651
  1171 104.466 -7.43407 3.08063
  1172 5.51318 6.56138 -2.78847
  1173 17.9765 9.19407 11.7473
  1174 69.2630 -3.66258 22.6376
  1175 120.449 23.1469 -5.64560
  1176 116.071 -0.295373 -1.62362
  1177 122.853 -0.168223 0.109024
  1178 122.993 -0.241194 -0.0752961
  1179 68.0544 -0.204166 -0.125002
  1180 68.0645 -0.202659 0.123739
  1181 110.966 7.11702 12.5453
  1182 166.395 28.7784 -0.605781
  1183 114.150 19.0038 -5.63869
  1184 85.6742 -6.20801 23.2426
  1185 68.8920 -3.50633 -22.5983
  1186 76.1248 -5.23877 -7.79338
  1187 107.259 -2.91532 2.71769
  1188 150.523 32.9571 -0.160461
  1189 76.1240 -5.20436 7.72373
  1190 109.812 -1.81015 2.06048
  1191 96.3017 3.50976 6.58475
  1192 107.072 3.30532 12.0023
  1193 154.388 34.6164 2.65441
  1194 90.2113 -2.38721 0.540505
  1195 90.2187 -2.40090 -0.546251
  1196 111.156 -1.99442 4.14370
  1197 63.5780 -0.741005 2.60653
  1198 63.5326 -0.748895 -2.63410
  1199 108.820 -1.36666 -0.985624
  1200 44.2252 26.1118 -39.8879
  1201 94.1562 -5.25554 -24.8696
  1202 87.5863 -2.81332 -1.14204
  1203 87.5924 -2.79836 1.14208
  1204 117.439 -0.458690 0.707527
  1205 110.547 -1.33148 1.65596
  1206 5.67305 6.82732 4.83561
  1207 121.092 -0.100118 0.574214
  1208 13.7351 16.9396 16.8011
  1209 107.808 -1.49963 -1.25241
  1210 -0.185147 -2.70847 -2.36068
  1211 75.3145 -7.33747 -17.4757
  1212 75.0839 -7.15545 17.2901
  1213 121.093 -0.181197 -0.628263
  1214 102.250 -5.38541 -1.94078
  1215 117.328 -0.408368 -0.740260
  1216 92.3562 -3.02009 -0.408987
  1217 92.3432 -3.00631 0.400433
  1218 108.745 -1.35489 0.932345
  1219 101.501 -4.59273 1.65251
  1220 97.4390 -3.12089 -0.358626
  1221 97.4775 -3.13224 0.372271
  1222 117.254 -0.421526 -0.609272
  1223 100.535 -10.5201 -16.7013
  1224 114.506 -0.586965 -0.638616
  1225 108.297 -1.54640 1.32825
  1226 73.4593 -0.881971 -0.969562
  1227 73.4676 -0.872917 0.962237
  1228 82.8543 -1.26931 -0.452034
  1229 82.8555 -1.25935 0.448896
  1230 137.041 21.2636 8.35840
  1231 114.981 -8.76944 5.40330
  1232 78.3652 -0.289982 28.8398
  1233 60.5111 -0.128057 0.998411
  1234 60.4590 -0.129315 -1.01009
  1235 108.342 -1.96589 7.73269
  1236 103.955 -1.47733 0.338606
  1237 103.963 -1.47125 -0.338375
  1238 118.399 23.2680 2.61693
  1239 109.526 -11.4234 12.9412
  1240 60.9528 -0.928203 3.69599
  1241 60.8891 -0.935907 -3.72758
  1242 103.740 -2.45877 1.17613
  1243 103.718 -2.47462 -1.14942
  1244 107.205 -2.87504 -2.62906
  1245 96.9952 0.00914191 3.55741
  1246 171.994 42.6793 -13.2341
  1247 109.042 -3.93269 -7.01702
  1248 17.6604 4.43379 10.0788
  1249 112.761 -5.95475 9.71273
  1250 88.4954 1.85351 -2.64715
  1251 6.28470 4.94189 3.35758
  1252 150.399 16.0701 0.463420
  1253 109.969 -4.95997 -9.69529
  1254 88.9557 1.19750 4.04936
  1255 60.8588 -3.89745 11.8121
  1256 111.977 -8.61857 6.21319
  1257 164.836 30.1096 7.64843
  1258 36.4941 5.59069 19.7960
  1259 112.713 -1.24579 -3.55674
  1260 222.629 2.44187 -2.29413
  1261 230.547 3.50671 10.3067
  1262 246.958 8.61515 -24.3358
  1263 108.777 -3.34634 -8.58290
  1264 108.908 -4.91955 7.47045
  1265 110.777 -7.83694 7.18292
  1266 -3.28568 0.330573 2.12048
  1267 -3.00501 0.249881 -2.29026
  1268 108.025 -11.8887 -5.52493
  1269 110.889 -11.1553 -8.71161
  1270 81.8837 0.485169 -1.66741
  1271 107.628 -12.1162 8.75810
  1272 114.782 -5.39398 -9.88808
  1273 1.85998 3.24303 0.0172215
  1274 92.4191 -1.68042 0.259233
  1275 92.4275 -1.69425 -0.259927
  1276 114.492 -0.823233 2.45845
  1277 109.817 -1.77468 -1.94688
  1278 103.063 -11.2614 -2.57490
  1279 93.5306 -5.12974 1.05047
  1280 93.0346 -5.06152 -1.20483
  1281 110.581 -2.26461 5.55834
  1282 113.262 -4.11496 -11.1621
  1283 6.53271 5.15391 -3.19964
</Section>

newXOutput 16

<Section columns = "stress_xx | stress_yy | stress_xy">
  1 132.390 0.0154451 0.280595
  2 132.405 0.0166501 -0.281711
  3 68.4056 -0.0398030 -0.101848
  4 -0.883796 -0.879351 -1.26946
  5 246.364 91.9803 76.2482
  6 243.960 95.5888 -76.8457
  7 -1.02483 -0.840610 1.34397
  8 68.3967 -0.0401013 0.101501
  9 133.412 -0.201551 0.0924879
  10 133.082 -0.327448 -0.0499580
  11 132.694 -0.199688 0.340240
  12 132.313 -0.292198 0.124562
  13 131.501 -0.239320 0.537566
  14 130.773 -0.246141 0.410301
  15 129.124 -0.219688 0.762699
  16 126.840 -0.126505 1.11625
  17 124.787 -0.149336 1.22720
  18 121.804 -0.235091 1.46666
  19 117.741 0.00486985 2.14552
  20 113.984 -0.174005 2.02041
  21 109.801 -0.241736 2.82140
  22 103.746 0.174135 2.43558
  23 99.4324 0.242579 2.86316
  24 93.8128 0.421229 2.22554
  25 89.9563 0.412018 2.23666
  26 84.3620 0.605278 1.13556
  27 83.1990 0.957898 1.21263
  28 82.5055 0.768836 -0.356268
  29 83.4719 0.417114 -0.791763
  30 85.2420 0.425488 -0.968109
  31 89.4278 0.552337 -1.93953
  32 93.4915 0.435331 -2.46847
  33 99.5164 0.0746440 -2.93733
  34 104.348 -0.0706210 -2.69815
  35 109.549 -0.194738 -2.67180
  36 114.284 -0.134404 -1.89883
  37 118.402 -0.133573 -1.63881
  38 121.834 -0.227443 -1.38940
  39 124.941 -0.153567 -0.987916
  40 126.920 -0.173116 -1.05717
  41 128.830 -0.229056 -0.777030
  42 130.671 -0.277695 -0.362501
  43 131.626 -0.218337 -0.411219
  44 132.166 -0.117975 -0.265889
  45 131.873 -0.0397420 -0.241418
  46 133.241 -0.335416 0.0273761
  47 133.465 -0.212101 -0.0955581
  48 128.688 -0.0234891 -0.172811
  49 125.540 -0.433826 -0.297827
  50 121.736 -0.662238 -0.214072
  51 117.122 -1.03387 -0.288100
  52 112.783 -1.14935 -0.366473
  53 108.175 -1.49355 -0.344686
  54 104.118 -1.69338 -0.204589
  55 100.562 -1.93834 -0.0932721
  56 96.4684 -1.62002 -0.0949758
  57 91.7529 -1.53641 -0.129886
  58 87.2011 -1.23327 -0.0567428
  59 82.8810 -0.807308 -0.0297678
  60 78.7646 -0.590142 -0.00788873
  61 75.1370 -0.321882 0.0264850
  62 71.4040 -0.101057 -0.118505
  63 68.4628 0.0927008 0.126877
  64 67.1664 0.288914 0.0775782
  65 68.1217 -0.00583749 0.197315
  66 67.1916 -0.0504219 0.234197
  67 66.3614 -0.0699928 0.293404
  68 65.2159 -0.0185961 0.390844
  69 63.7671 -0.0112495 0.498351
  70 62.7506 -0.104977 0.985880
  71 59.6229 0.0888757 1.08161
  72 57.4567 -0.0129745 1.25259
  73 54.2283 -0.0661684 1.41709
  74 50.4916 -0.107038 1.72982
  75 45.8278 -0.0292427 2.10020
  76 40.1382 0.0227665 2.30534
  77 35.3092 -0.0636559 3.28861
  78 25.6163 0.316579 3.08057
  79 19.1139 0.274420 3.26040
  80 11.4138 -0.0413567 3.58450
  81 5.10984 0.631025 3.68333
  82 -2.02240 0.920338 2.12528
  83 -7.09563 0.929187 0.650576
  84 -6.63549 0.871400 -0.495049
  85 -6.06775 0.713049 -1.87112
  86 -3.53963 -0.268134 -1.73742
  87 -0.460427 -3.39868 -1.90623
  88 0.290347 -6.32093 -2.43261
  89 0.873419 -10.2331 -1.48431
  90 1.97883 -10.9282 -0.203753
  91 4.24212 -4.22872 5.20052
  92 12.9594 16.9943 18.8018
  93 79.8191 68.5608 67.5421
  94 296.870 43.7346 50.4244
  95 266.001 6.31654 16.6535
  96 245.926 2.56878 5.09658
  97 238.486 2.15415 0.413051
  98 242.325 2.90320 -4.37896
  99 265.190 5.82319 -13.1598
  100 316.515 21.1410 -43.9833
  101 46.9352 69.2736 -56.0477
  102 9.72782 10.4596 -15.3362
  103 4.61210 -3.76310 -5.32133
  104 1.84033 -11.0555 -0.632819
  105 0.470128 -7.88893 1.72850
  106 0.631163 -7.94297 2.12778
  107 0.0133965 -2.95859 2.10803
  108 -3.68947 -0.191370 1.65760
  109 -6.26370 0.534800 1.64298
  110 -6.97962 1.06289 0.535723
  111 -7.33507 0.919050 -0.587753
  112 -2.52252 0.943478 -1.97986
  113 4.65917 0.636909 -3.50532
  114 10.9521 0.0239558 -3.52504
  115 18.6408 0.297029 -3.26916
  116 25.1864 0.325490 -3.10684
  117 34.9753 -0.0649893 -3.31967
  118 39.8515 0.0259060 -2.33035
  119 45.5783 -0.0280005 -2.12920
  120 50.3621 -0.117601 -1.74521
  121 54.0592 -0.0636026 -1.42222
  122 57.3301 -0.00882712 -1.26736
  123 59.5208 0.0876049 -1.09543
  124 62.6795 -0.105909 -0.997640
  125 63.7120 -0.0118604 -0.505659
  126 65.1764 -0.0191635 -0.396892
  127 66.3338 -0.0709194 -0.298234
  128 67.1727 -0.0512132 -0.237597
  129 68.1076 -0.00654652 -0.199514
  130 67.1559 0.288429 -0.0786254
  131 68.4532 0.0924851 -0.127516
  132 71.3937 -0.101881 0.118096
  133 75.1265 -0.323936 -0.0273186
  134 78.7553 -0.594749 0.00689961
  135 82.8745 -0.813740 0.0288004
  136 87.1984 -1.24252 0.0558081
  137 91.7546 -1.54801 0.129164
  138 96.4751 -1.63333 0.0943223
  139 100.572 -1.95298 0.0930381
  140 104.131 -1.70788 0.205098
  141 108.192 -1.50675 0.346124
  142 112.795 -1.15863 0.371710
  143 117.129 -1.04214 0.312815
  144 121.754 -0.619429 0.219017
  145 125.630 -0.419741 0.291458
  146 128.703 -0.0432037 0.170409
  147 113.881 -10.6876 -1.71020
  148 113.795 -10.5456 1.75184
  149 118.702 17.1298 -6.33264
  150 127.334 7.54374 13.6608
  151 96.3349 -9.19232 -20.5689
  152 97.0906 -9.18953 19.8739
  153 92.6877 -4.03045 2.18829
  154 92.7002 -4.08981 -2.19190
  155 135.606 4.82237 -10.9376
  156 113.573 -4.01989 3.15366
  157 113.527 -3.91793 -3.11284
  158 146.813 33.1327 1.97465
  159 115.778 -0.182312 -13.1155
  160 84.9392 -6.82653 -9.11470
  161 84.9312 -6.76602 9.02448
  162 116.122 -2.59798 11.9474
  163 109.505 7.95069 7.69961
  164 44.6560 7.41381 -24.5166
  165 49.7135 7.00635 25.8658
  166 143.846 1.44707 2.68121
  167 116.677 -4.42373 -8.51610
  168 155.195 34.1495 -1.87523
  169 104.733 -2.93049 0.334902
  170 104.709 -2.91883 -0.324099
  171 118.577 -1.31269 -1.40156
  172 118.993 -1.16386 1.21868
  173 80.7998 -1.24449 -1.38127
  174 80.8059 -1.23076 1.37204
  175 128.268 -3.65634 26.0933
  176 105.790 4.32785 -8.27951
  177 68.6951 -5.21972 -14.9068
  178 68.9042 -5.18034 14.7972
  179 76.9251 -2.64812 -4.78377
  180 76.9277 -2.61599 4.74191
  181 117.297 -3.01961 7.23213
  182 106.302 -7.33892 0.430232
  183 105.902 -7.28393 -0.243953
  184 121.703 -11.7144 -0.949982
  185 122.305 -11.1587 -0.585092
  186 168.793 39.6320 -4.53776
  187 121.111 19.5775 5.94133
  188 121.711 7.49495 -13.5464
  189 127.969 -1.43310 -30.5443
  190 121.236 -6.79766 -9.87856
  191 122.250 -4.83058 11.4665
  192 101.546 -11.5572 9.71707
  193 101.593 -11.4797 -9.68159
  194 107.823 1.33613 9.99633
  195 48.4351 -1.10997 -18.1542
  196 48.5651 -1.22251 18.0320
  197 191.436 28.8890 4.05333
  198 114.681 -6.79867 5.62341
  199 119.181 -2.10602 -4.79168
  200 93.2266 -2.33486 -0.936801
  201 93.2252 -2.32086 0.932526
  202 113.685 -1.46231 -9.16575
  203 129.841 19.1350 -11.0415
  204 107.509 9.62120 -1.54880
  205 68.9419 -2.56063 6.83116
  206 68.8314 -2.57042 -6.88977
  207 121.275 -1.24076 2.70820
  208 117.117 2.20883 13.4606
  209 94.7678 -7.02978 -4.08487
  210 94.0681 -6.65909 4.21868
  211 138.879 20.6032 10.5006
  212 165.105 21.7032 1.74933
  213 10.3788 8.36531 -6.36213
  214 9.57559 7.73373 5.37454
  215 66.9303 18.9242 43.9046
  216 113.502 -7.52261 -4.50705
  217 121.774 -1.19331 -2.45086
  218 106.498 0.892195 -9.19844
  219 73.3907 -0.802964 -2.10833
  220 73.4109 -0.793581 2.08636
  221 101.616 -4.81405 -0.471483
  222 101.661 -4.84037 0.411769
  223 114.779 -1.52652 7.83689
  224 133.661 -7.77362 1.70631
  225 131.247 27.1018 -3.25539
  226 102.944 -10.0191 -4.22163
  227 131.208 -2.25474 9.32219
  228 111.333 -1.77592 0.610543
  229 111.338 -1.75931 -0.609490
  230 102.133 -9.96974 4.43030
  231 117.521 -7.40890 8.13810
  232 167.814 20.5110 -8.53292
  233 35.8692 21.4031 -31.2723
  234 97.6364 3.34315 1.95370
  235 117.328 10.3677 11.3016
  236 125.893 -0.845693 -12.3845
  237 117.299 -4.18414 -11.2750
  238 60.6869 -2.04318 -8.62314
  239 60.9117 -2.01088 8.58853
  240 117.569 -1.36753 -6.13971
  241 112.129 -2.76112 1.76491
  242 112.076 -2.75503 -1.71561
  243 22.3379 2.21188 -11.3343
  244 22.7407 1.94127 11.3009
  245 125.779 -10.9641 -8.61483
  246 124.624 -0.332393 0.415065
  247 124.779 -0.339868 -0.438342
  248 114.410 9.47834 -10.3089
  249 99.7667 1.84109 5.96575
  250 216.220 34.6714 23.1165
  251 214.647 24.4516 -14.6030
  252 152.646 33.2894 -0.539418
  253 95.1411 -4.51538 27.5742
  254 87.1051 -2.85196 -28.8922
  255 99.4179 -2.03729 -0.243400
  256 99.4066 -2.02208 0.240569
  257 81.5040 -2.29101 2.83672
  258 81.5090 -2.32433 -2.86685
  259 120.937 -1.22352 3.88926
  260 117.068 -8.29824 -6.86411
  261 73.5952 -0.177551 -0.478846
  262 73.6071 -0.174768 0.475058
  263 115.581 -4.61554 -5.40904
  264 47.2619 -1.58455 -11.9121
  265 47.4880 -1.59011 11.8166
  266 116.904 -5.02068 9.16431
  267 88.7264 -9.42033 16.5116
  268 88.9777 -9.59024 -16.4628
  269 99.1971 3.71303 -2.77626
  270 85.5692 -1.38152 -0.924842
  271 85.5730 -1.37102 0.920254
  272 108.701 -0.294248 7.42212
  273 130.703 24.1119 7.69804
  274 68.1026 -0.900252 3.64148
  275 68.0492 -0.908353 -3.67736
  276 120.421 -9.99955 5.19446
  277 111.478 -12.4555 -10.5953
  278 124.993 -0.501038 1.29027
  279 84.9471 -5.18262 -6.16002
  280 84.7815 -5.12174 6.13159
  281 156.009 14.7462 38.7644
  282 71.1395 -5.71265 19.8541
  283 115.372 16.2590 -0.675396
  284 148.102 16.0928 -7.62919
  285 110.814 -8.58235 2.24433
  286 111.524 -12.8030 9.45805
  287 71.3816 -5.61334 -20.0998
  288 12.8587 15.8129 14.0391
  289 115.599 -4.63517 5.50406
  290 152.725 19.6555 6.36935
  291 126.092 -0.445448 -1.11829
  292 112.468 3.90642 -11.8621
  293 111.689 -6.29728 3.28459
  294 109.284 -9.25055 -0.504355
  295 111.996 5.12093 11.4074
  296 119.815 -10.0097 -4.73142
  297 170.525 33.4877 -2.54254
  298 111.657 -6.04920 -3.14991
  299 93.4691 25.9876 -54.2335
  300 114.418 -12.1067 -1.28723
  301 113.580 -12.4336 2.61475
  302 82.3811 -7.55057 -13.0051
  303 72.9520 -0.321982 -1.05461
  304 72.9684 -0.316439 1.04433
  305 82.4060 -7.55391 12.9264
  306 120.713 -0.180616 -13.6850
  307 131.136 -5.40975 -6.59390
  308 98.7075 -6.03479 -1.92294
  309 98.6299 -6.04785 1.96378
  310 119.590 -10.2882 17.3969
  311 118.595 -0.905053 4.65345
  312 145.693 0.337499 5.01697
  313 96.5067 -3.46508 -1.00468
  314 96.5101 -3.45089 0.996403
  315 87.3145 -2.36143 -1.79344
  316 87.3107 -2.33746 1.78930
  317 98.6470 1.27182 -5.77443
  318 128.902 9.45489 -13.3030
  319 202.090 54.1128 -24.8736
  320 117.884 -0.912859 -0.486553
  321 117.806 -0.899421 0.496953
  322 61.9796 0.0222502 24.7723
  323 86.9784 -4.07112 -3.97150
  324 86.7954 -4.05368 3.98031
  325 61.9726 -0.114274 -24.6787
  326 122.366 14.4891 -11.1165
  327 138.144 6.77614 10.5145
  328 119.662 -8.54424 -19.4252
  329 109.094 -4.17961 1.63365
  330 108.976 -4.14525 -1.58221
  331 116.888 -2.32283 -2.73105
  332 108.792 -0.221728 -6.94669
  333 123.068 0.571782 13.4808
  334 123.414 -0.789260 -2.70412
  335 72.3856 -4.52483 9.95287
  336 72.3072 -4.55244 -10.0395
  337 113.944 -0.264491 12.4168
  338 68.3872 -0.615092 -2.13935
  339 68.4309 -0.609116 2.11652
  340 117.699 -2.61802 4.09868
  341 140.923 28.9587 -6.02991
  342 116.813 -2.34404 2.82502
  343 123.800 15.6199 11.1840
  344 118.670 -2.17447 13.0448
  345 93.0750 -1.77854 0.314104
  346 93.0783 -1.79115 -0.317239
  347 111.798 -0.412172 -11.0027
  348 149.251 31.5122 4.33587
  349 123.115 22.7434 0.234636
  350 75.6206 8.85984 -37.1092
  351 7.01731 3.38412 -4.68533
  352 7.78304 3.65518 5.08046
  353 -0.581352 0.754631 2.45660
  354 -0.0811459 0.354381 -2.54763
  355 222.387 15.4124 5.39752
  356 102.126 -8.37384 -2.23594
  357 117.811 -2.52357 -4.00280
  358 105.771 -1.80586 0.269829
  359 105.759 -1.78930 -0.270186
  360 112.553 12.4385 -5.57481
  361 96.3135 -9.90631 7.97233
  362 8.02660 11.8199 -8.44777
  363 96.4247 -9.90817 -8.13640
  364 114.107 12.9913 5.93323
  365 117.306 -3.06776 -6.91001
  366 124.762 -6.90941 -8.65420
  367 132.137 28.1862 2.25479
  368 125.108 -7.75115 7.35033
  369 49.6580 -1.29981 7.99802
  370 49.3332 -1.27521 -8.05764
  371 27.6364 0.745528 -10.9494
  372 27.9695 0.624690 10.8971
  373 100.339 0.266012 5.85560
  374 196.394 56.4666 20.5118
  375 121.596 -0.717999 -3.36805
  376 93.6479 -8.03895 -6.04645
  377 93.5543 -8.01318 6.03691
  378 116.438 -2.64413 -8.61346
  379 133.706 -6.45644 2.22252
  380 102.121 -8.36394 2.32184
  381 147.595 0.689134 -10.5922
  382 80.6582 -0.709536 -0.327317
  383 80.6664 -0.702957 0.323951
  384 114.215 -0.646716 -5.43214
  385 59.7054 -0.920640 -5.23489
  386 59.7479 -0.948714 5.16545
  387 137.290 17.5131 -11.5572
  388 73.7034 5.26617 34.3784
  389 107.007 -5.63057 1.10746
  390 107.115 -5.61869 -1.11409
  391 125.539 21.3740 -7.13894
  392 119.214 -3.50014 -12.4390
  393 120.215 -12.2397 9.03701
  394 99.0573 -2.64845 -0.357513
  395 99.0428 -2.63315 0.351207
  396 115.172 -8.86833 4.86221
  397 124.712 -0.537679 2.02535
  398 75.7082 -2.88710 -6.03465
  399 75.7358 -2.88524 5.97598
  400 116.421 3.90129 -13.2549
  401 110.312 -2.32190 0.936887
  402 110.309 -2.32627 -0.920037
  403 113.692 -1.32402 10.1797
  404 105.123 7.60178 2.64490
  405 118.309 -4.95269 10.9583
  406 172.250 36.3027 5.81749
  407 55.7923 -3.02246 -15.9475
  408 55.9562 -3.02449 15.8144
  409 24.6682 13.4820 -18.5168
  410 128.077 -0.299675 0.598429
  411 62.2185 -0.580620 -3.30418
  412 62.3074 -0.568284 3.27204
  413 116.555 -2.99945 8.46331
  414 105.661 -11.5066 4.89235
  415 120.058 -1.38704 1.94359
  416 121.515 6.19457 13.9102
  417 25.9535 14.3550 19.3865
  418 105.833 -11.4477 -4.44096
  419 109.432 -10.1987 -0.218221
  420 34.0563 -0.688320 -9.98313
  421 34.3470 -0.716712 9.90792
  422 83.6958 -6.60602 -23.9575
  423 125.955 -1.83564 12.1206
  424 83.3359 -6.71761 23.7320
  425 116.168 -6.48780 -7.33730
  426 106.730 7.14046 -5.82648
  427 116.199 -4.96921 6.92489
  428 125.977 -0.487573 -1.40469
  429 3.53776 3.58362 1.25579
  430 24.7352 27.9924 27.6235
  431 111.069 -0.413881 5.20358
  432 91.7363 1.18847 2.51241
  433 93.4829 1.46619 -3.41924
  434 79.7740 -1.40576 -1.99911
  435 79.7781 -1.38689 1.98316
  436 114.557 -8.86540 -4.51315
  437 115.394 -2.23765 -11.4390
  438 92.2870 1.64936 -0.929412
  439 172.376 40.9460 7.21554
  440 22.6959 7.80930 -13.8222
  441 25.1190 7.17203 14.8324
  442 106.909 -3.79271 0.932262
  443 106.865 -3.78060 -0.901086
  444 142.744 31.9175 -0.507996
  445 90.8469 35.3866 55.4226
  446 138.463 -2.04392 -3.29541
  447 77.6159 -4.17294 -8.19276
  448 77.6485 -4.14183 8.11447
  449 77.7975 -1.83561 3.17224
  450 77.7870 -1.85037 -3.20592
  451 106.149 2.29949 -9.45037
  452 128.811 -0.120174 -0.406574
  453 102.902 4.64722 5.27796
  454 131.847 16.3223 12.2619
  455 109.591 -8.15098 -1.78117
  456 120.025 -1.31250 -1.88452
  457 126.537 -0.434561 1.29506
  458 128.458 -0.124686 0.233342
  459 128.581 -0.148718 -0.177842
  460 67.7077 -0.145923 0.779501
  461 67.6762 -0.147968 -0.789151
  462 120.191 -7.58962 8.85386
  463 107.213 4.17877 9.14730
  464 112.580 0.443685 -12.0840
  465 118.413 -2.42225 5.20551
  466 174.279 27.2888 -31.8899
  467 118.552 -6.53895 -9.72924
  468 0.699969 2.17355 0.635425
  469 0.708461 2.19126 -0.0502135
  470 93.0211 -5.37776 3.27335
  471 92.6913 -5.31050 -3.24086
  472 149.393 2.12912 16.6803
  473 41.1395 36.2322 -41.5079
  474 116.731 -0.328672 4.09806
  475 133.776 -7.85660 -9.07856
  476 69.2290 -4.09004 11.5649
  477 142.365 25.2742 -8.64227
  478 116.829 -6.28445 8.22142
  479 97.3595 -4.72761 -1.42635
  480 97.4463 -4.64608 1.41976
  481 100.311 0.509711 -5.17702
  482 69.0054 -4.07627 -11.6471
  483 103.085 0.0124651 5.22262
  484 99.9279 -11.4071 -14.5828
  485 99.6673 -11.4245 14.6221
  486 120.817 -0.755754 3.70852
  487 108.431 10.1942 1.09441
  488 112.257 1.66607 37.5779
  489 164.394 33.8202 -0.214127
  490 113.169 -1.81595 0.990323
  491 113.179 -1.80862 -1.01640
  492 85.5338 -1.58989 -1.21619
  493 85.5362 -1.57547 1.21016
  494 44.8262 2.21196 20.6639
  495 117.305 -5.61118 -9.46903
  496 106.125 -2.26490 0.315072
  497 106.114 -2.25522 -0.311914
  498 92.0996 -9.81390 11.9452
  499 45.7283 2.90181 -21.2049
  500 117.635 -9.55348 -5.13706
  501 1.84599 0.0529870 1.24655
  502 101.213 5.14991 0.377555
  503 113.641 -1.21072 -0.335935
  504 113.635 -1.22993 0.330402
  505 92.1740 -9.80045 -12.0444
  506 133.941 -7.01331 11.9640
  507 131.920 4.80292 12.6128
  508 122.161 -0.722532 -0.965056
  509 117.273 -9.69199 5.19341
  510 71.0642 -0.0935889 -0.129466
  511 71.0751 -0.0928582 0.128009
  512 116.880 -4.45422 -10.0015
  513 112.464 8.31521 10.0560
  514 130.256 3.22392 -12.4411
  515 70.6417 -0.137644 -0.435709
  516 70.6558 -0.135874 0.432070
  517 231.889 33.4693 -30.1427
  518 117.211 14.0060 8.90123
  519 122.280 -0.652955 0.863720
  520 109.686 -10.4202 0.479245
  521 91.2451 -3.09744 1.75288
  522 91.2482 -3.12320 -1.74944
  523 128.370 -7.77272 4.60459
  524 122.870 -2.41280 -12.6581
  525 137.176 27.2219 7.04946
  526 113.590 1.94213 12.5169
  527 115.392 -2.12576 1.80971
  528 112.272 -11.9227 -13.8714
  529 115.861 -2.83371 9.76950
  530 229.621 10.4780 -4.24272
  531 127.479 -9.57536 -1.33793
  532 121.400 -0.690988 -0.251574
  533 121.426 -0.743531 0.229450
  534 231.976 15.5872 14.9473
  535 110.592 -0.0539677 10.6453
  536 157.208 25.9936 -4.30434
  537 117.352 -3.12057 -5.10843
  538 50.8150 -0.511261 -3.58681
  539 50.9906 -0.486978 3.54711
  540 78.4844 -7.38232 -16.6192
  541 78.5361 -7.25746 16.4872
  542 115.332 -2.03110 -1.78911
  543 125.264 4.61755 -13.7300
  544 109.930 -7.48890 2.19767
  545 117.759 13.5336 -9.25801
  546 119.439 -1.32496 4.99513
  547 151.045 7.17531 -0.172694
  548 101.530 -3.49658 -0.174057
  549 101.494 -3.48138 0.168024
  550 110.748 -5.20549 2.53701
  551 164.950 32.1548 -0.715085
  552 116.257 5.08952 13.0114
  553 49.2847 12.7535 30.6898
  554 113.483 -6.83259 24.8004
  555 151.510 6.50929 -27.1096
  556 118.899 9.84370 -12.1484
  557 106.213 -9.12191 -21.4415
  558 114.922 -12.5619 -3.48813
  559 120.301 -12.1256 -5.47617
  560 15.2514 19.3172 -18.3432
  561 120.860 -1.43645 -3.18822
  562 182.879 35.7119 -9.83744
  563 111.368 -4.98109 -2.75661
  564 112.370 -3.59918 2.26886
  565 112.264 -3.51225 -2.18969
  566 75.5504 -0.489773 -0.947241
  567 75.5624 -0.483356 0.939410
  568 9.86927 1.16709 -5.90368
  569 10.5074 1.22049 6.04753
  570 56.1352 -2.68107 -12.1954
  571 56.5898 -2.69454 12.1681
  572 113.888 -6.13544 -4.83112
  573 116.323 -12.6117 3.83076
  574 119.595 -11.3064 1.75144
  575 97.0239 -1.72040 -0.293104
  576 97.0164 -1.70635 0.291185
  577 92.4667 -9.66044 -18.3737
  578 104.093 -8.48216 22.7397
  579 90.1328 -9.07638 18.4923
  580 116.934 -2.57275 -12.3212
  581 71.5630 -1.27481 3.62751
  582 71.5292 -1.28876 -3.66240
  583 110.846 6.08803 -10.0853
  584 111.166 -0.192684 -4.72407
  585 139.565 30.6127 -3.25306
  586 90.1279 -1.40998 -0.315695
  587 90.1277 -1.39942 0.313799
  588 119.257 -0.334329 -2.71053
  589 80.9088 -2.85628 -3.94093
  590 80.9049 -2.84449 3.90165
  591 66.6678 3.22125 29.5045
  592 116.077 -5.29431 -7.00939
  593 63.8170 -3.30625 21.1478
  594 114.060 -5.87481 4.91417
  595 120.473 -1.61173 3.50312
  596 119.109 -0.975358 -0.869826
  597 81.7045 -1.08182 -0.855702
  598 81.7112 -1.07226 0.849932
  599 133.769 26.9301 -6.28597
  600 63.7757 -3.16994 -21.2375
  601 113.692 -4.87269 -3.99050
  602 102.033 -1.87085 -0.105034
  603 102.021 -1.85518 0.104463
  604 195.158 26.4221 -4.57197
  605 65.8604 -0.464241 2.01825
  606 65.8018 -0.468945 -2.03981
  607 104.769 2.34806 8.60555
  608 152.996 12.3613 -3.44506
  609 71.1621 0.634589 -29.3138
  610 35.4437 1.01380 -15.7903
  611 35.7608 0.795270 15.7049
  612 88.9213 -5.32394 4.79849
  613 89.9084 -5.48061 -4.63730
  614 153.917 30.9311 4.11708
  615 118.583 -1.01520 0.799195
  616 99.8360 2.72776 -5.17913
  617 125.825 22.7831 5.64171
  618 125.323 23.6508 -3.75010
  619 103.028 -5.75836 -0.343271
  620 103.850 -5.62114 -0.0342541
  621 74.2132 16.0156 -42.3893
  622 87.7314 -3.10959 -2.61224
  623 87.7346 -3.07187 2.60037
  624 230.182 47.0263 35.3004
  625 116.880 -3.79331 10.7374
  626 65.1120 -2.41111 -7.81562
  627 185.403 40.7313 26.0121
  628 65.2703 -2.39613 7.78043
  629 112.636 -4.35549 -29.1256
  630 77.0145 -0.435174 -0.350387
  631 77.0246 -0.431310 0.348168
  632 95.9351 0.813152 4.51234
  633 42.5119 -0.669757 -7.03557
  634 42.7767 -0.671272 6.97457
  635 101.662 -7.27330 1.61370
  636 106.873 -8.60695 0.0838219
  637 127.217 -0.232243 -1.16305
  638 68.8537 -0.134174 0.564712
  639 68.8311 -0.136425 -0.571865
  640 95.4862 -2.18270 -0.387540
  641 95.4800 -2.16856 0.383046
  642 110.824 -12.2451 14.0502
  643 126.851 14.2028 -12.4145
  644 83.2319 -4.02070 -5.09449
  645 83.1626 -3.95097 5.05291
  646 99.6986 -7.27159 -2.50752
  647 158.476 34.7413 0.200305
  648 118.857 -11.4586 -1.07193
  649 102.448 -2.43599 -0.0149676
  650 102.431 -2.42174 0.0157726
  651 142.258 15.4627 10.0879
  652 118.928 -1.64759 -5.43241
  653 103.732 -0.154108 -4.26009
  654 47.1680 -1.60212 -15.2840
  655 47.3275 -1.65179 15.1483
  656 99.4902 -8.68415 -4.32372
  657 150.076 33.4782 0.138423
  658 115.432 15.6786 -4.00900
  659 75.2206 -0.752469 -1.77286
  660 75.2345 -0.741695 1.75590
  661 108.304 -3.01494 -0.872411
  662 108.326 -3.02054 0.898246
  663 205.438 26.9390 11.7874
  664 129.576 -0.294709 0.333942
  665 124.490 -0.441691 1.96690
  666 123.931 -0.458892 -2.27846
  667 117.313 -10.8870 2.76489
  668 84.7160 -1.04628 -0.428169
  669 84.7209 -1.03801 0.425725
  670 124.653 20.1098 8.64738
  671 161.318 36.0333 -1.22118
  672 86.8630 -6.60622 -7.22569
  673 86.8274 -6.53736 7.18339
  674 109.846 -11.3406 -1.52147
  675 115.297 6.84741 -12.2284
  676 138.567 0.301761 6.27628
  677 90.1976 -1.73463 -0.801465
  678 90.1974 -1.72197 0.797050
  679 78.0401 -6.91407 -15.0100
  680 116.173 -11.2097 -1.65971
  681 96.0542 -10.6689 13.1484
  682 45.4062 14.4950 -29.5749
  683 89.2668 -8.37554 10.1302
  684 107.551 0.0263769 3.95776
  685 78.1056 -6.83331 14.8999
  686 113.622 -4.97232 4.03952
  687 89.3098 -8.34322 -10.2331
  688 90.0746 1.11416 0.942418
  689 69.5301 -1.97496 5.52145
  690 69.4664 -1.97844 -5.56620
  691 96.1289 -10.9471 -13.3012
  692 119.358 -7.81875 -8.57107
  693 109.275 -1.44690 -0.217170
  694 109.292 -1.46415 0.218073
  695 122.104 -7.72055 8.56641
  696 110.735 -11.5811 1.94475
  697 134.893 12.3684 12.3376
  698 121.391 -2.22989 12.9635
  699 116.800 -4.13710 8.03246
  700 110.640 9.06965 -7.64886
  701 134.183 22.6813 9.71952
  702 115.626 -1.57442 -7.63390
  703 115.601 -3.76356 4.33919
  704 118.633 18.6740 2.17174
  705 117.455 -1.94387 6.72464
  706 36.4220 24.6374 30.9152
  707 109.453 -12.5696 -7.77883
  708 126.759 2.34063 13.2579
  709 128.259 -3.93542 -9.79615
  710 128.811 -0.116803 0.665119
  711 116.807 -3.94811 -6.41374
  712 109.590 -12.6705 6.99693
  713 216.268 19.1342 -3.22170
  714 63.0563 -0.300900 2.11599
  715 62.9765 -0.304371 -2.13872
  716 118.771 -2.06354 -3.10118
  717 129.635 -0.0842741 -0.642207
  718 99.2880 -8.82217 4.34869
  719 119.850 -4.41304 11.8411
  720 184.926 42.9644 -11.4970
  721 113.591 -8.22114 4.26800
  722 126.448 -8.27706 -5.55011
  723 115.650 -3.65765 -4.27215
  724 129.707 -0.165939 -0.230160
  725 116.629 0.00755524 13.2913
  726 5.16416 3.92658 6.13249
  727 133.409 -5.31941 -18.3852
  728 144.665 8.38654 6.89973
  729 120.129 -12.2290 4.76730
  730 83.8654 -2.11077 2.15299
  731 83.8701 -2.14176 -2.16605
  732 114.485 54.5158 -58.2289
  733 122.174 -8.02944 -7.98881
  734 89.6964 0.399634 -1.80056
  735 105.999 0.553381 8.42793
  736 117.598 -5.83900 9.63703
  737 112.726 -9.49915 2.53840
  738 117.861 -10.6872 -15.0889
  739 111.991 -8.86209 -2.71446
  740 133.218 -6.38388 -2.67042
  741 122.580 -0.902470 1.83524
  742 108.614 -6.53860 1.63613
  743 200.346 40.1126 -21.0053
  744 116.234 -3.02646 3.48252
  745 114.243 1.85549 -12.8657
  746 98.3430 -1.15409 32.8697
  747 122.715 9.91868 13.2488
  748 105.511 -8.35969 0.492148
  749 80.6210 -6.47672 -10.9144
  750 80.6201 -6.45607 10.8158
  751 111.481 12.5332 -1.78932
  752 113.954 -1.30394 11.5583
  753 115.392 -2.72071 -9.95612
  754 108.742 -6.66852 -1.67692
  755 105.035 -9.47438 2.07004
  756 119.582 19.8521 -2.47502
  757 112.581 -9.74215 -2.09195
  758 112.838 -7.12443 4.11403
  759 114.616 -1.36290 0.687501
  760 114.695 -1.32179 -0.684508
  761 154.254 34.1774 1.40150
  762 126.559 -10.7202 -2.71964
  763 117.172 -3.52276 6.37076
  764 122.661 -0.896178 -1.68325
  765 123.204 0.848014 -13.6058
  766 141.111 7.28303 -8.74599
  767 66.4564 -0.0866345 -0.975010
  768 66.4991 -0.0855591 0.963620
  769 0.887341 -2.37937 -1.71211
  770 119.559 -0.112761 2.51566
  771 108.663 -0.212156 -9.36255
  772 112.622 -1.04990 8.33164
  773 104.351 12.3004 48.6673
  774 128.309 26.6372 -0.301910
  775 90.7209 -6.62994 5.51444
  776 14.6054 0.380327 -5.90289
  777 15.0975 0.284410 5.96854
  778 111.521 -0.799845 -9.36464
  779 90.9914 -6.69974 -5.50992
  780 121.919 -0.989828 1.42584
  781 60.3112 -2.66040 10.4191
  782 59.7673 -2.65230 -10.4318
  783 116.234 -2.93449 -3.39504
  784 72.3270 -1.93306 -4.78927
  785 72.3622 -1.91918 4.74089
  786 121.218 -1.06612 -3.79626
  787 91.1873 -2.51077 -1.39413
  788 91.1868 -2.49253 1.39414
  789 132.521 -0.844918 -9.88517
  790 118.538 -1.21958 -13.4066
  791 58.1781 -0.403613 -2.71727
  792 58.3008 -0.399906 2.68254
  793 2.13419 1.49894 -3.45361
  794 2.69331 1.57869 3.64233
  795 94.3142 0.430175 -3.28254
  796 108.440 -12.1905 -5.61395
  797 -1.28737 -0.904630 2.18314
  798 -1.11502 -1.04117 -2.15019
  799 112.985 -2.17576 1.43921
  800 122.771 -9.52811 -4.98446
  801 126.032 18.7673 -10.1225
  802 122.493 -0.882313 -1.35142
  803 268.551 53.1793 -50.4383
  804 112.963 -2.16691 -1.42167
  805 170.976 32.9131 2.33781
  806 120.555 3.52484 -13.9459
  807 133.748 10.0705 -12.5804
  808 20.7185 -0.247937 -5.49972
  809 21.1597 -0.281800 5.48829
  810 73.4265 -1.13542 2.80474
  811 73.4031 -1.14554 -2.83378
  812 69.5430 -0.192949 0.518104
  813 69.5261 -0.194886 -0.523099
  814 134.898 22.7974 -9.67302
  815 77.8892 -0.542540 -0.748010
  816 77.8991 -0.536071 0.742780
  817 114.318 -1.14842 -12.0522
  818 168.382 16.0603 12.5775
  819 101.884 2.20666 -7.22431
  820 33.8669 -0.319142 5.94483
  821 33.5411 -0.321940 -5.99620
  822 135.434 3.12633 34.5660
  823 118.630 -2.08142 3.20091
  824 104.447 6.86927 -3.01312
  825 46.7785 -0.0930973 4.08379
  826 46.5113 -0.0703741 -4.11739
  827 71.3020 -0.410445 -1.36167
  828 71.3250 -0.404529 1.34680
  829 12.5733 11.3031 9.34190
  830 109.367 2.56907 10.8053
  831 122.182 18.0408 -8.60903
  832 132.115 15.3496 -12.3827
  833 85.4931 -3.35023 -3.49859
  834 85.4359 -3.32226 3.49061
  835 136.543 29.3422 4.46504
  836 118.612 -0.864274 -0.194011
  837 118.615 -0.857393 0.215111
  838 116.791 -3.44444 -8.05779
  839 97.2005 -6.57558 2.96971
  840 107.737 -12.1174 5.66495
  841 127.559 -10.4522 8.94555
  842 96.1894 -2.83516 -0.690283
  843 96.1854 -2.82230 0.683347
  844 109.907 10.1628 4.89860
  845 102.913 1.35116 -7.81810
  846 28.6527 32.1563 32.1667
  847 105.380 -9.39975 -1.80461
  848 105.678 -4.72980 0.709382
  849 105.736 -4.73601 -0.714004
  850 116.284 -1.68995 12.7218
  851 115.653 -7.56697 -6.28716
  852 102.835 -6.87502 -0.812623
  853 241.846 7.84398 -12.2077
  854 97.6379 -9.33503 6.18742
  855 97.5678 -9.46076 -6.29805
  856 116.266 -1.36062 6.50687
  857 176.988 45.3363 -8.70764
  858 91.3620 -8.42440 -7.95553
  859 101.460 -11.4789 7.35731
  860 91.3255 -8.31895 7.87792
  861 99.2256 -4.04239 -0.731059
  862 99.2190 -4.02602 0.723086
  863 14.0103 6.19765 8.15936
  864 125.044 9.36580 -13.4902
  865 94.9851 -3.77957 -1.42788
  866 94.9999 -3.73881 1.43392
  867 93.6648 -1.57738 -0.167697
  868 93.6609 -1.56507 0.166177
  869 103.680 -2.02282 0.139084
  870 103.666 -2.00758 -0.139401
  871 83.1091 -1.71687 -1.87527
  872 83.1119 -1.69649 1.86541
  873 95.4080 -5.11999 -2.25937
  874 95.4173 -5.08106 2.26871
  875 2.15462 -1.43397 -0.685264
  876 145.427 27.2906 7.67861
  877 125.020 -4.33690 -11.1115
  878 101.392 -11.3149 -7.44699
  879 109.726 -3.48774 1.45888
  880 109.675 -3.44834 -1.42502
  881 119.558 0.177952 13.6868
  882 131.129 -9.36052 -4.38291
  883 116.464 7.74299 -42.0662
  884 51.3293 -0.735823 20.5101
  885 -2.47734 1.19986 -1.21007
  886 -2.20288 1.35096 1.36661
  887 13.8937 6.59311 -8.32054
  888 117.197 -3.29170 5.08978
  889 123.848 -0.723402 -2.16707
  890 111.135 -10.6340 17.5388
  891 51.2026 -0.673455 -20.5992
  892 123.870 -10.0753 3.80624
  893 138.925 -4.35488 14.8148
  894 98.0371 0.380151 3.48599
  895 113.513 10.7989 8.37963
  896 60.5447 -3.45479 15.1764
  897 60.3013 -3.48325 -15.2874
  898 72.7517 -3.58679 -8.47522
  899 77.4732 -3.68658 -26.2754
  900 123.593 -2.84169 12.3115
  901 171.240 39.6846 4.50017
  902 123.876 4.79853 13.7565
  903 117.124 -2.44636 -7.32061
  904 79.1609 -3.30396 26.9372
  905 150.024 27.5376 -6.08024
  906 14.1876 12.2447 -11.5994
  907 107.237 -0.232140 -3.77529
  908 72.8278 -3.55558 8.39125
  909 89.4564 -2.03694 1.24451
  910 89.4570 -2.05258 -1.24838
  911 115.830 -7.52744 6.47189
  912 120.913 -0.647743 0.571988
  913 88.4393 0.878563 -32.7937
  914 127.778 -0.238967 1.03057
  915 126.661 -0.191095 -1.29411
  916 91.9943 0.762858 -3.00817
  917 121.889 -0.477379 -2.24099
  918 89.8745 -4.32177 -3.14469
  919 89.9346 -4.25365 3.15285
  920 -3.15803 1.05161 -1.84446
  921 -4.26389 0.633478 1.91495
  922 120.916 -0.594257 -0.573593
  923 38.3771 -0.841372 13.8150
  924 38.1224 -0.752293 -13.9006
  925 128.220 18.7987 10.7333
  926 235.994 4.24184 3.81652
  927 120.412 13.4419 11.0978
  928 138.123 -4.98377 3.26656
  929 119.093 -6.58252 9.76457
  930 148.542 31.2442 -4.61323
  931 89.8434 0.332844 2.26430
  932 114.700 -2.60448 -2.20363
  933 118.588 6.38215 -13.4139
  934 144.980 4.05289 -3.80242
  935 111.568 -6.87896 -3.34915
  936 54.8711 -0.334981 -3.05302
  937 54.9376 -0.323281 3.00671
  938 117.936 -2.69604 -5.84244
  939 3.60981 4.69105 0.599125
  940 113.166 -11.7244 -0.327282
  941 96.2105 2.75628 -0.311463
  942 147.344 32.6408 -3.07101
  943 22.5602 16.8522 -19.6662
  944 112.634 -0.834597 -7.46717
  945 76.6761 -1.36862 -2.59871
  946 76.6872 -1.35170 2.57303
  947 0.576540 -3.33612 2.57846
  948 75.7038 -5.75056 -12.1725
  949 115.214 -6.62086 -6.07793
  950 69.1985 0.146989 -0.210353
  951 69.2101 0.147859 0.208575
  952 115.553 14.0494 -6.73857
  953 125.865 -0.274066 -0.209746
  954 125.862 -0.280139 0.270572
  955 75.7312 -5.73234 12.0810
  956 116.313 -0.133453 -2.97676
  957 134.779 0.963869 9.61255
  958 119.433 -1.58287 2.50220
  959 18.0380 4.81584 -10.4875
  960 124.133 -0.667054 1.97310
  961 111.202 0.866078 11.6105
  962 117.315 16.3145 5.99732
  963 117.794 1.37209 -13.7539
  964 80.0719 -4.42836 -7.19739
  965 127.906 -4.47585 9.48916
  966 80.1212 -4.40866 7.11645
  967 3.40473 3.82659 0.0371864
  968 12.9839 2.40909 7.66741
  969 64.4877 -1.21333 5.01559
  970 64.4043 -1.21556 -5.04877
  971 114.779 -2.65959 2.30827
  972 122.594 21.4677 3.35333
  973 62.1117 5.83137 -30.9169
  974 102.622 -6.46493 0.656913
  975 96.2875 -10.1369 -9.56957
  976 141.153 27.1703 7.73859
  977 108.344 -1.84450 0.315365
  978 108.341 -1.83273 -0.315674
  979 119.159 -2.11592 -4.25861
  980 108.823 9.35715 -4.52241
  981 256.350 74.4469 50.2960
  982 21.6166 1.32607 -10.2715
  983 21.9990 1.10499 10.2988
  984 1.60418 -2.70361 0.230336
  985 109.252 6.00918 9.28178
  986 96.2438 -10.1955 9.49176
  987 119.900 -5.62091 -11.0015
  988 130.548 10.6996 13.4641
  989 126.246 -10.1884 -11.2517
  990 184.941 39.0376 12.3002
  991 106.241 -1.65792 0.00472549
  992 106.227 -1.64218 -0.00443470
  993 124.928 -5.03677 10.5829
  994 8.39176 12.6093 14.0075
  995 54.1764 -1.19939 7.21539
  996 53.9921 -1.18427 -7.30175
  997 65.3892 -3.31366 9.82005
  998 65.1536 -3.26569 -9.86371
  999 73.9111 -3.16635 6.99382
  1000 80.7806 -0.702406 -0.346825
  1001 80.7886 -0.696798 0.345114
  1002 210.869 64.9755 -40.6836
  1003 188.496 47.1512 18.4517
  1004 73.8519 -3.18447 -7.06047
  1005 128.730 -0.552680 11.6341
  1006 114.073 11.8446 -8.08567
  1007 80.5660 -6.87357 21.7499
  1008 104.212 -12.3003 -11.3272
  1009 119.239 -0.935385 -4.41259
  1010 52.8477 3.80164 25.0547
  1011 67.8915 -5.20760 17.3881
  1012 104.059 5.26910 -5.79101
  1013 120.441 -2.34877 -13.0860
  1014 158.579 60.1523 66.9226
  1015 97.8402 2.92409 4.10228
  1016 135.078 29.4105 -0.533079
  1017 100.031 3.80312 -37.3418
  1018 100.861 -10.6889 -6.28819
  1019 129.812 -0.0810429 -0.528076
  1020 122.979 11.3259 -12.9130
  1021 70.1061 -0.504093 1.76964
  1022 70.0752 -0.509328 -1.78904
  1023 2.48206 0.411848 -3.24120
  1024 80.0615 -3.78642 -5.98095
  1025 67.8139 -5.27608 -17.5314
  1026 79.9903 -3.77572 5.90635
  1027 117.633 -3.54457 12.0978
  1028 105.361 -6.54799 0.338420
  1029 110.174 1.99532 -11.2276
  1030 113.305 14.1791 2.35736
  1031 156.832 8.84523 4.00632
  1032 116.773 -8.83837 6.25877
  1033 72.5834 -5.90433 -13.3234
  1034 109.127 3.81806 -10.4792
  1035 81.3179 -6.77581 -21.8799
  1036 157.670 34.5820 -0.358054
  1037 105.767 6.89102 5.26746
  1038 135.928 -0.844726 -7.66131
  1039 101.496 -10.6886 5.71775
  1040 116.589 -3.64884 9.42641
  1041 115.961 -6.08055 7.01833
  1042 115.329 -5.75682 6.13866
  1043 142.980 18.0587 -10.3164
  1044 114.821 -1.82601 9.44127
  1045 104.015 -12.3351 11.1337
  1046 111.050 -4.49846 2.29536
  1047 72.6260 -5.91343 13.2383
  1048 103.979 -7.72885 -0.853030
  1049 59.4923 -2.85717 -18.6072
  1050 85.8146 -8.95944 14.6506
  1051 117.140 -0.756387 -5.08560
  1052 113.779 -1.27274 -10.6715
  1053 98.4001 -7.88345 -3.69107
  1054 59.5969 -2.94646 18.4480
  1055 105.397 0.226320 -7.32812
  1056 78.0236 -5.31281 -9.37277
  1057 143.627 30.8285 4.99154
  1058 30.9533 5.35057 -17.4012
  1059 252.545 17.8839 24.6981
  1060 56.7182 4.42018 -26.2838
  1061 115.350 -9.53492 -4.15204
  1062 78.0391 -5.26450 9.28720
  1063 104.167 1.05041 8.16458
  1064 57.1695 -1.21958 5.96767
  1065 57.1344 -1.25031 -6.03369
  1066 116.499 -3.21213 -11.1952
  1067 125.079 -0.529602 0.853411
  1068 121.983 -0.238755 2.27265
  1069 120.106 4.01478 13.8938
  1070 111.986 -0.843148 9.99192
  1071 87.4886 9.19961 40.4449
  1072 130.727 -0.0596066 0.268331
  1073 120.600 16.4183 8.83990
  1074 101.117 1.40798 7.01202
  1075 123.740 -0.432347 2.19683
  1076 77.3663 -0.905565 -1.43332
  1077 77.3762 -0.894906 1.42198
  1078 48.6536 -1.43041 -9.93871
  1079 48.8644 -1.48155 9.86164
  1080 101.433 4.98534 2.93462
  1081 157.581 7.80999 -9.93128
  1082 144.732 -0.610073 -20.5454
  1083 113.214 -0.0880578 -3.06818
  1084 85.8613 -9.02839 -14.7685
  1085 98.6042 -7.49626 3.24410
  1086 113.926 -0.250288 3.20487
  1087 120.005 -8.65683 -7.29807
  1088 72.5634 -0.204178 0.870487
  1089 72.5493 -0.207552 -0.876958
  1090 115.125 -9.80838 4.15134
  1091 109.268 -2.16238 0.559701
  1092 109.250 -2.16376 -0.551314
  1093 106.222 -10.7445 3.30783
  1094 138.331 -4.54166 -0.201636
  1095 59.7293 -0.118436 -1.68868
  1096 59.8346 -0.114302 1.66855
  1097 93.3499 -5.80395 -25.0658
  1098 98.6611 -2.36337 0.312890
  1099 98.6729 -2.37868 -0.317529
  1100 60.0897 31.6078 44.3949
  1101 138.286 11.2685 -11.4190
  1102 19.4439 9.72719 -12.8705
  1103 119.523 -1.67608 -2.42155
  1104 30.8562 10.8689 -19.9299
  1105 64.7205 -4.16742 -12.6873
  1106 130.856 -0.0890760 0.154229
  1107 130.921 -0.0802237 -0.116178
  1108 117.123 -6.64282 -8.42428
  1109 103.762 -11.5962 -15.8168
  1110 30.9628 4.55408 16.5825
  1111 127.278 12.6414 12.6814
  1112 116.009 -1.04808 -0.234282
  1113 116.018 -1.04965 0.246303
  1114 127.493 -8.32100 19.0870
  1115 130.053 26.2826 4.93852
  1116 75.6872 -1.92692 -3.74995
  1117 75.7027 -1.91665 3.71858
  1118 58.1288 6.79535 31.1802
  1119 109.921 0.532011 -10.8835
  1120 33.8125 11.1255 21.4920
  1121 143.838 -2.67479 -5.40558
  1122 139.568 31.2276 1.56487
  1123 95.4268 -7.66842 4.64308
  1124 86.2069 0.406743 -0.440816
  1125 122.564 -1.00285 2.87021
  1126 127.269 -0.115697 1.12672
  1127 25.7208 0.0618192 -4.97220
  1128 26.1278 0.0476402 4.93523
  1129 97.6929 1.55860 -5.17998
  1130 101.987 -3.00243 -0.0650630
  1131 101.961 -2.98563 0.0635018
  1132 10.4729 14.6347 -14.8544
  1133 16.9143 33.9001 -30.6777
  1134 103.375 -4.04975 -0.130865
  1135 103.420 -4.05244 0.126333
  1136 107.034 -2.53242 0.627325
  1137 107.019 -2.52527 -0.616694
  1138 27.3756 17.6001 21.4968
  1139 83.0178 -1.09367 -0.666082
  1140 83.0240 -1.08499 0.661990
  1141 105.147 7.88936 -0.127259
  1142 138.339 16.0199 -46.8305
  1143 129.577 22.4764 -8.45182
  1144 118.453 -4.50906 -11.5117
  1145 116.736 -5.77476 -8.48550
  1146 95.5025 -7.74340 -4.72690
  1147 94.7555 0.279754 3.19797
  1148 107.739 6.66548 -7.75133
  1149 106.126 5.65111 7.38763
  1150 110.975 -4.36271 -2.25781
  1151 105.643 -6.41212 -0.413000
  1152 95.5742 -6.29177 -3.41228
  1153 114.251 -0.654830 5.97914
  1154 206.324 20.9179 2.93971
  1155 115.127 -2.43092 10.9006
  1156 115.188 7.56724 11.7438
  1157 106.734 -10.5536 -2.28352
  1158 12.2195 2.22080 -7.38280
  1159 108.741 -5.01312 -1.76780
  1160 69.7230 -0.138432 -0.0367293
  1161 69.7328 -0.137922 0.0361207
  1162 133.485 -3.52773 6.68939
  1163 127.252 -10.6838 3.47376
  1164 183.512 33.1310 7.72321
  1165 41.1570 -0.106779 -4.17825
  1166 41.4373 -0.0974217 4.14305
  1167 96.3912 -1.96943 -0.306088
  1168 96.3841 -1.95530 0.302757
  1169 109.128 -9.65793 0.456895
  1170 87.0384 0.356360 1.43933
  1171 111.830 -7.95829 3.26960
  1172 5.91507 7.03935 -3.00601
  1173 19.2712 9.84807 12.6018
  1174 74.1677 -3.92530 24.2518
  1175 128.952 24.7740 -6.02410
  1176 124.231 -0.317020 -1.73167
  1177 131.451 -0.180984 0.115770
  1178 131.601 -0.259013 -0.0797822
  1179 72.9286 -0.217396 -0.134350
  1180 72.9397 -0.215789 0.133005
  1181 118.802 7.61846 13.3977
  1182 178.068 30.7852 -0.648181
  1183 122.216 20.3420 -6.02020
  1184 91.7178 -6.64887 24.9010
  1185 73.7705 -3.75833 -24.2097
  1186 81.5308 -5.60616 -8.35352
  1187 114.812 -3.12342 2.89080
  1188 161.095 35.2778 -0.121775
  1189 81.5302 -5.56944 8.27916
  1190 117.538 -1.94118 2.19157
  1191 103.136 3.76098 7.03621
  1192 114.639 3.53906 12.8195
  1193 165.235 37.0433 2.87759
  1194 96.5966 -2.55530 0.586285
  1195 96.6044 -2.56988 -0.592424
  1196 118.979 -2.13788 4.41621
  1197 68.1310 -0.792089 2.79359
  1198 68.0823 -0.800511 -2.82300
  1199 116.476 -1.46671 -1.04641
  1200 47.3569 27.9681 -42.7288
  1201 100.783 -5.62711 -26.6447
  1202 93.7911 -3.01057 -1.23207
  1203 93.7978 -2.99464 1.23213
  1204 125.677 -0.494044 0.752686
  1205 118.321 -1.42905 1.76105
  1206 6.08436 7.33266 5.20014
  1207 129.580 -0.108331 0.611209
  1208 14.7205 18.1701 18.0222
  1209 115.395 -1.60896 -1.33007
  1210 -0.196546 -2.89697 -2.52537
  1211 80.6463 -7.85724 -18.7237
  1212 80.4001 -7.66245 18.5252
  1213 129.581 -0.194973 -0.668936
  1214 109.461 -5.76555 -2.05558
  1215 125.559 -0.440238 -0.787073
  1216 98.8878 -3.23282 -0.448778
  1217 98.8740 -3.21815 0.439633
  1218 116.396 -1.45415 0.989681
  1219 108.660 -4.91722 1.74920
  1220 104.319 -3.34186 -0.371048
  1221 104.360 -3.35392 0.385596
  1222 125.479 -0.454406 -0.647663
  1223 107.610 -11.2625 -17.9027
  1224 122.545 -0.632225 -0.678424
  1225 115.918 -1.65896 1.41109
  1226 78.6993 -0.942435 -1.04112
  1227 78.7084 -0.932773 1.03332
  1228 88.7370 -1.35792 -0.487044
  1229 88.7384 -1.34730 0.483699
  1230 146.675 22.7612 8.89598
  1231 123.070 -9.38865 5.74505
  1232 83.8952 -0.312941 30.8936
  1233 64.8573 -0.136408 1.07015
  1234 64.8015 -0.137752 -1.08261
  1235 115.984 -2.10573 8.25317
  1236 111.279 -1.58478 0.357596
  1237 111.287 -1.57829 -0.357352
  1238 126.761 24.9039 2.79308
  1239 117.225 -12.2277 13.8822
  1240 65.3190 -0.992545 3.95989
  1241 65.2509 -1.00076 -3.99359
  1242 111.051 -2.63458 1.24631
  1243 111.027 -2.65160 -1.21781
  1244 114.754 -3.08044 -2.79621
  1245 103.878 0.0101297 3.80010
  1246 184.050 45.6722 -14.1957
  1247 116.725 -4.21173 -7.48339
  1248 18.9388 4.74696 10.8099
  1249 120.703 -6.37610 10.3583
  1250 94.7984 1.98816 -2.82901
  1251 6.74818 5.29497 3.61102
  1252 160.930 17.2169 0.433305
  1253 117.719 -5.31101 -10.3435
  1254 95.2904 1.28497 4.32773
  1255 65.1975 -4.17228 12.6544
  1256 119.860 -9.22705 6.61399
  1257 176.365 32.2601 8.26142
  1258 39.1008 5.98331 21.2165
  1259 120.642 -1.33651 -3.79099
  1260 238.086 2.61286 -2.45157
  1261 246.537 3.74854 11.0118
  1262 264.062 9.20495 -26.0057
  1263 116.446 -3.58393 -9.15822
  1264 116.583 -5.26793 7.96598
  1265 118.579 -8.39053 7.65265
  1266 -3.51624 0.355208 2.26815
  1267 -3.21542 0.269003 -2.45030
  1268 115.626 -12.7269 -5.94506
  1269 118.685 -11.9414 -9.35732
  1270 87.7369 0.521024 -1.78219
  1271 115.200 -12.9700 9.40500
  1272 122.864 -5.77561 -10.5444
  1273 2.00354 3.47708 0.0302813
  1274 98.9559 -1.79975 0.278620
  1275 98.9647 -1.81450 -0.279366
  1276 122.540 -0.884184 2.61919
  1277 117.543 -1.90325 -2.07043
  1278 110.326 -12.0546 -2.78466
  1279 100.142 -5.49023 1.14086
  1280 99.6114 -5.41709 -1.30550
  1281 118.370 -2.42649 5.92797
  1282 121.242 -4.40658 -11.9095
  1283 7.01410 5.52207 -3.44308
</Section>

newXOutput 17

<Section columns = "stress_xx | stress_yy | stress_xy">
  1 141.024 0.0150054 0.298112
  2 141.038 0.0163203 -0.299290
  3 72.9973 -0.0419597 -0.108202
  4 -0.942469 -0.937578 -1.35377
  5 262.155 98.0687 81.2183
  6 259.601 101.907 -81.8317
  7 -1.09291 -0.896127 1.43342
  8 72.9875 -0.0422766 0.107835
  9 142.108 -0.215372 0.0980393
  10 141.759 -0.349577 -0.0537849
  11 141.348 -0.213848 0.360946
  12 140.945 -0.312248 0.131240
  13 140.086 -0.255980 0.570231
  14 139.316 -0.263111 0.434676
  15 137.567 -0.234756 0.809333
  16 135.144 -0.136119 1.18475
  17 132.966 -0.160037 1.30301
  18 129.800 -0.250913 1.55783
  19 125.485 0.00442013 2.27966
  20 121.496 -0.185706 2.14738
  21 117.050 -0.257445 2.99958
  22 110.615 0.185351 2.59006
  23 106.029 0.258852 3.04533
  24 100.054 0.449057 2.36766
  25 95.9523 0.440223 2.37973
  26 90.0026 0.645719 1.20838
  27 88.7652 1.02173 1.29053
  28 88.0272 0.820612 -0.379208
  29 89.0551 0.446156 -0.842487
  30 90.9381 0.454392 -1.03023
  31 95.3900 0.589329 -2.06372
  32 99.7120 0.464515 -2.62604
  33 106.118 0.0803777 -3.12445
  34 111.254 -0.0748251 -2.86923
  35 116.781 -0.207308 -2.84048
  36 121.813 -0.143480 -2.01827
  37 126.187 -0.142845 -1.74137
  38 129.832 -0.242839 -1.47587
  39 133.129 -0.164284 -1.04873
  40 135.229 -0.185563 -1.12196
  41 137.255 -0.244893 -0.824503
  42 139.207 -0.296668 -0.383900
  43 140.219 -0.233455 -0.435971
  44 140.790 -0.126767 -0.281590
  45 140.477 -0.0438090 -0.255712
  46 141.927 -0.357888 0.0297580
  47 142.164 -0.226561 -0.101288
  48 137.092 -0.0277136 -0.183633
  49 133.748 -0.465762 -0.316982
  50 129.705 -0.709920 -0.227083
  51 124.801 -1.10610 -0.305791
  52 120.188 -1.22894 -0.388651
  53 115.289 -1.59482 -0.365674
  54 110.974 -1.80698 -0.216562
  55 107.192 -2.06675 -0.0981497
  56 102.838 -1.72696 -0.0998435
  57 97.8229 -1.63704 -0.137224
  58 92.9818 -1.31334 -0.0593599
  59 88.3873 -0.859025 -0.0309035
  60 84.0099 -0.627456 -0.00776737
  61 80.1527 -0.341611 0.0286574
  62 76.1842 -0.106813 -0.125836
  63 73.0577 0.0990314 0.135482
  64 71.6788 0.307568 0.0831489
  65 72.6924 -0.00593771 0.210884
  66 71.7013 -0.0533080 0.250447
  67 70.8153 -0.0741318 0.313708
  68 69.5936 -0.0194179 0.417558
  69 68.0486 -0.0117379 0.532182
  70 66.9626 -0.111256 1.05183
  71 63.6296 0.0947873 1.15378
  72 61.3198 -0.0136047 1.33564
  73 57.8777 -0.0702192 1.51118
  74 53.8943 -0.113726 1.84448
  75 48.9223 -0.0309282 2.23942
  76 42.8569 0.0243813 2.45848
  77 37.7061 -0.0674511 3.50723
  78 27.3726 0.337228 3.28609
  79 20.4371 0.292265 3.47797
  80 12.2211 -0.0446870 3.82469
  81 5.49176 0.672076 3.93155
  82 -2.12321 0.980952 2.27133
  83 -7.54361 0.990578 0.698816
  84 -7.06240 0.929769 -0.522581
  85 -6.46624 0.761179 -1.99256
  86 -3.77302 -0.284910 -1.85144
  87 -0.489922 -3.62276 -2.03169
  88 0.310915 -6.73574 -2.59114
  89 0.932837 -10.8964 -1.57665
  90 2.11214 -11.6213 -0.206767
  91 4.52618 -4.44566 5.56254
  92 13.8173 18.2188 20.0698
  93 84.9727 73.1885 71.9652
  94 315.943 46.5640 53.6412
  95 283.135 6.72335 17.7078
  96 261.812 2.73578 5.41922
  97 253.910 2.29505 0.438631
  98 257.991 3.09193 -4.65709
  99 282.279 6.19994 -13.9933
  100 336.784 22.5066 -46.7707
  101 49.9815 73.9783 -59.7333
  102 10.3709 11.2734 -16.3780
  103 4.92149 -3.94895 -5.69756
  104 1.96465 -11.7531 -0.687898
  105 0.503502 -8.39725 1.83538
  106 0.674586 -8.46498 2.26589
  107 0.0148850 -3.15300 2.24686
  108 -3.93290 -0.202847 1.76609
  109 -6.67496 0.570912 1.74930
  110 -7.42890 1.13396 0.565781
  111 -7.79785 0.979634 -0.631917
  112 -2.65521 1.00561 -2.11629
  113 5.01261 0.678330 -3.74174
  114 11.7302 0.0249279 -3.76126
  115 19.9341 0.316335 -3.48726
  116 26.9155 0.346702 -3.31403
  117 37.3511 -0.0688746 -3.54025
  118 42.5520 0.0277248 -2.48507
  119 48.6569 -0.0296150 -2.27025
  120 53.7565 -0.124975 -1.86082
  121 57.6978 -0.0674767 -1.51660
  122 61.1850 -0.00918855 -1.35133
  123 63.5208 0.0934378 -1.16846
  124 66.8868 -0.112247 -1.06432
  125 67.9898 -0.0123867 -0.539941
  126 69.5514 -0.0200210 -0.423979
  127 70.7856 -0.0751171 -0.318834
  128 71.6808 -0.0541494 -0.254054
  129 72.6772 -0.00669072 -0.213217
  130 71.6673 0.307057 -0.0842589
  131 73.0471 0.0988034 -0.136160
  132 76.1729 -0.107687 0.125405
  133 80.1412 -0.343793 -0.0295402
  134 83.9998 -0.632345 0.00672025
  135 88.3802 -0.865849 0.0298799
  136 92.9787 -1.32315 0.0583704
  137 97.8247 -1.64934 0.136460
  138 102.845 -1.74108 0.0991497
  139 107.203 -2.08230 0.0979001
  140 110.987 -1.82239 0.217102
  141 115.307 -1.60884 0.367204
  142 120.201 -1.23879 0.394217
  143 124.809 -1.11487 0.332067
  144 129.725 -0.664298 0.232325
  145 133.843 -0.450751 0.310197
  146 137.107 -0.0487231 0.181073
  147 121.362 -11.3901 -1.78937
  148 121.270 -11.2387 1.83372
  149 126.529 18.2564 -6.73256
  150 135.700 8.03766 14.5151
  151 102.668 -9.79919 -21.9429
  152 103.475 -9.79594 21.2026
  153 98.8139 -4.29371 2.34462
  154 98.8269 -4.35685 -2.34841
  155 144.495 5.13970 -11.6050
  156 121.034 -4.28626 3.33870
  157 120.985 -4.17772 -3.29552
  158 156.459 35.2964 2.08812
  159 123.401 -0.194588 -13.9431
  160 90.5579 -7.27341 -9.72738
  161 90.5497 -7.20906 9.63145
  162 123.763 -2.77006 12.6976
  163 116.739 8.47703 8.18963
  164 47.6258 7.89873 -26.1551
  165 53.0130 7.46517 27.5934
  166 153.251 1.54768 2.80344
  167 124.345 -4.71625 -9.04358
  168 165.371 36.3858 -1.95485
  169 111.629 -3.12445 0.345249
  170 111.603 -3.11210 -0.333789
  171 126.351 -1.40300 -1.48302
  172 126.792 -1.24452 1.28929
  173 86.1713 -1.32450 -1.47663
  174 86.1780 -1.30992 1.46684
  175 136.645 -3.88631 27.8380
  176 112.787 4.61600 -8.80687
  177 73.2543 -5.56378 -15.8987
  178 73.4772 -5.52185 15.7823
  179 82.0396 -2.82011 -5.10532
  180 82.0426 -2.78595 5.06088
  181 125.004 -3.22010 7.68021
  182 113.297 -7.82059 0.434506
  183 112.872 -7.76200 -0.236516
  184 129.682 -12.4846 -1.05051
  185 130.325 -11.8924 -0.584482
  186 179.839 42.2280 -4.88056
  187 129.094 20.8634 6.31596
  188 129.720 7.98708 -14.3993
  189 136.321 -1.51519 -32.5789
  190 129.197 -7.24592 -10.4864
  191 130.278 -5.14998 12.1774
  192 108.227 -12.3167 10.3792
  193 108.277 -12.2340 -10.3415
  194 114.946 1.42554 10.6315
  195 51.6653 -1.18653 -19.3646
  196 51.8036 -1.30625 19.2345
  197 203.927 30.7663 4.32096
  198 122.217 -7.24657 5.96123
  199 127.004 -2.24708 -5.08576
  200 99.3893 -2.48758 -1.00617
  201 99.3879 -2.47273 1.00164
  202 121.173 -1.55915 -9.74261
  203 138.380 20.3903 -11.7302
  204 114.618 10.2585 -1.64718
  205 73.5363 -2.72739 7.28656
  206 73.4185 -2.73776 -7.34882
  207 129.224 -1.32567 2.87155
  208 124.829 2.35382 14.3110
  209 101.023 -7.48964 -4.37067
  210 100.279 -7.09461 4.51247
  211 147.995 21.9547 11.1429
  212 175.879 23.1495 1.93315
  213 11.0839 8.92471 -6.80503
  214 10.2270 8.25088 5.74984
  215 71.3358 20.1773 46.8148
  216 120.961 -8.01769 -4.77195
  217 129.754 -1.27494 -2.59855
  218 113.537 0.952575 -9.78309
  219 78.2875 -0.854168 -2.25059
  220 78.3092 -0.844197 2.22727
  221 108.312 -5.12991 -0.519106
  222 108.361 -5.15806 0.455528
  223 122.335 -1.62770 8.32883
  224 142.407 -8.28142 1.86317
  225 139.888 28.8765 -3.45669
  226 109.720 -10.6762 -4.52279
  227 139.809 -2.40389 9.88652
  228 118.648 -1.89596 0.643348
  229 118.652 -1.87829 -0.642240
  230 108.858 -10.6236 4.74461
  231 125.241 -7.89728 8.63565
  232 178.746 21.8859 -9.16155
  233 38.2528 22.8230 -33.3642
  234 104.117 3.56780 2.07889
  235 125.061 11.0499 12.0169
  236 134.158 -0.902795 -13.1535
  237 125.011 -4.46064 -11.9795
  238 64.7407 -2.17672 -9.19553
  239 64.9800 -2.14235 9.15887
  240 125.297 -1.45915 -6.52236
  241 119.496 -2.94529 1.86531
  242 119.440 -2.93887 -1.81294
  243 23.8487 2.35604 -12.0983
  244 24.2772 2.06772 12.0625
  245 134.013 -11.6833 -9.21736
  246 132.775 -0.358070 0.438751
  247 132.940 -0.366072 -0.463722
  248 121.956 10.1034 -10.9626
  249 106.382 1.96571 6.34671
  250 230.279 36.9240 24.6244
  251 228.596 26.0398 -15.5506
  252 162.668 35.4617 -0.562229
  253 101.392 -4.81439 29.4086
  254 92.8353 -3.04359 -30.8124
  255 105.975 -2.17197 -0.265014
  256 105.963 -2.15582 0.261994
  257 86.9165 -2.43961 3.03064
  258 86.9217 -2.47503 -3.06266
  259 128.870 -1.30653 4.12820
  260 124.758 -8.84468 -7.27837
  261 78.5121 -0.188099 -0.511681
  262 78.5250 -0.185143 0.507664
  263 123.173 -4.92095 -5.73698
  264 50.4284 -1.68944 -12.7042
  265 50.6689 -1.69535 12.6028
  266 124.588 -5.35234 9.73245
  267 94.5768 -10.0413 17.6158
  268 94.8438 -10.2224 -17.5637
  269 105.776 3.96208 -2.95356
  270 91.2453 -1.47095 -0.988913
  271 91.2496 -1.45981 0.984045
  272 115.879 -0.312917 7.89216
  273 139.303 25.6919 8.17698
  274 72.6524 -0.958090 3.88455
  275 72.5955 -0.966694 -3.92265
  276 128.324 -10.6578 5.49605
  277 118.795 -13.2747 -11.3206
  278 133.172 -0.537396 1.36704
  279 90.5722 -5.52091 -6.57663
  280 90.3962 -5.45614 6.54646
  281 166.141 15.7598 41.3422
  282 75.8480 -6.09168 21.1765
  283 122.986 17.3299 -0.717926
  284 157.796 17.1552 -8.07119
  285 118.099 -9.14624 2.36235
  286 118.845 -13.6448 10.1089
  287 76.1053 -5.98598 -21.4378
  288 13.7230 16.8771 14.9960
  289 123.193 -4.94176 5.83792
  290 162.716 20.9518 6.72630
  291 134.339 -0.477853 -1.18483
  292 119.887 4.16489 -12.6144
  293 119.030 -6.71193 3.47371
  294 116.470 -9.85802 -0.509343
  295 119.385 5.45929 12.1316
  296 127.679 -10.6684 -5.00352
  297 181.689 35.6683 -2.72205
  298 118.997 -6.44766 -3.33104
  299 99.5720 27.7148 -57.8112
  300 121.930 -12.9024 -1.40501
  301 121.038 -13.2509 2.81881
  302 87.8288 -8.04665 -13.8739
  303 77.8250 -0.342037 -1.12645
  304 77.8426 -0.336148 1.11554
  305 87.8558 -8.05030 13.7903
  306 128.650 -0.193525 -14.5442
  307 139.728 -5.76518 -6.98021
  308 105.217 -6.42984 -2.06693
  309 105.134 -6.44378 2.11059
  310 127.421 -10.9620 18.5711
  311 126.388 -0.966100 4.94328
  312 155.208 0.371520 5.39799
  313 102.878 -3.69201 -1.08231
  314 102.881 -3.67697 1.07352
  315 93.0997 -2.51501 -1.91885
  316 93.0958 -2.48954 1.91449
  317 105.191 1.35803 -6.14301
  318 137.370 10.0752 -14.1330
  319 215.263 57.6536 -26.5335
  320 125.612 -0.977215 -0.514299
  321 125.529 -0.962879 0.525366
  322 66.0849 0.0188524 26.4222
  323 92.7372 -4.33651 -4.24397
  324 92.5428 -4.31804 4.25344
  325 66.0772 -0.126975 -26.3223
  326 130.423 15.4410 -11.8166
  327 147.196 7.22181 11.1522
  328 127.495 -9.10339 -20.7323
  329 116.269 -4.45568 1.72195
  330 116.143 -4.41919 -1.66726
  331 124.558 -2.47887 -2.89307
  332 115.975 -0.235833 -7.38643
  333 131.155 0.607521 14.3246
  334 131.500 -0.843647 -2.86946
  335 77.1947 -4.82103 10.6167
  336 77.1109 -4.85037 -10.7087
  337 121.452 -0.281817 13.2016
  338 72.9607 -0.654282 -2.28293
  339 73.0073 -0.647932 2.25868
  340 125.425 -2.79300 4.34696
  341 150.182 30.8547 -6.39323
  342 124.478 -2.50137 2.99288
  343 131.949 16.6451 11.8875
  344 126.475 -2.31882 13.8635
  345 99.2289 -1.89509 0.338594
  346 99.2323 -1.90847 -0.341925
  347 119.169 -0.438986 -11.6986
  348 159.046 33.5747 4.58209
  349 131.230 24.2361 0.249380
  350 80.5982 9.44040 -39.5707
  351 7.50592 3.60804 -5.00982
  352 8.32174 3.89726 5.43088
  353 -0.612754 0.808336 2.61210
  354 -0.0809099 0.382385 -2.70947
  355 236.813 16.4125 5.74420
  356 108.853 -8.92268 -2.40529
  357 125.544 -2.69247 -4.24514
  358 112.732 -1.92692 0.283033
  359 112.719 -1.90933 -0.283423
  360 119.984 13.2593 -5.92860
  361 102.662 -10.5562 8.51650
  362 8.57026 12.6248 -9.03270
  363 102.780 -10.5580 -8.69106
  364 121.637 13.8480 6.30976
  365 125.013 -3.27154 -7.33739
  366 132.948 -7.36479 -9.17893
  367 140.836 30.0313 2.39394
  368 133.314 -8.26193 7.78952
  369 52.9903 -1.38489 8.52930
  370 52.6447 -1.35866 -8.59260
  371 29.5071 0.793408 -11.6819
  372 29.8613 0.664763 11.6263
  373 106.991 0.285969 6.22884
  374 209.189 60.1772 21.9146
  375 129.574 -0.767159 -3.57630
  376 99.8284 -8.56513 -6.46146
  377 99.7292 -8.53785 6.45132
  378 124.095 -2.81957 -9.15105
  379 142.458 -6.87960 2.32191
  380 108.848 -8.91221 2.49689
  381 157.224 0.747099 -11.3372
  382 86.0229 -0.754724 -0.351175
  383 86.0317 -0.747741 0.347608
  384 121.737 -0.689983 -5.77351
  385 63.7039 -0.980267 -5.58213
  386 63.7492 -1.01021 5.50829
  387 146.300 18.6626 -12.2678
  388 78.5596 5.61083 36.6621
  389 114.048 -6.00073 1.15869
  390 114.163 -5.98813 -1.16569
  391 133.807 22.7766 -7.58590
  392 127.052 -3.73166 -13.2170
  393 128.093 -13.0435 9.66459
  394 105.591 -2.82276 -0.390557
  395 105.576 -2.80654 0.383841
  396 122.738 -9.45168 5.14748
  397 132.879 -0.575098 2.14864
  398 80.7418 -3.07475 -6.43852
  399 80.7713 -3.07284 6.37618
  400 124.090 4.15825 -14.0931
  401 117.562 -2.47736 0.986844
  402 117.559 -2.48206 -0.968967
  403 121.181 -1.41191 10.8211
  404 112.080 8.10675 2.81384
  405 126.085 -5.27995 11.6403
  406 183.525 38.6694 6.22140
  407 59.5089 -3.22314 -17.0089
  408 59.6834 -3.22526 16.8674
  409 26.3208 14.3755 -19.7674
  410 136.445 -0.322246 0.633568
  411 66.3866 -0.617617 -3.52369
  412 66.4813 -0.604495 3.48955
  413 124.219 -3.19825 8.99062
  414 112.610 -12.2621 5.24021
  415 127.927 -1.48195 2.05854
  416 129.510 6.60088 14.7867
  417 27.6889 15.3064 20.6929
  418 112.793 -12.1992 -4.75917
  419 116.626 -10.8683 -0.261701
  420 36.3554 -0.734643 -10.6489
  421 36.6644 -0.764850 10.5690
  422 89.2113 -7.04459 -25.5525
  423 134.223 -1.95814 12.8720
  424 88.8292 -7.16315 25.3126
  425 123.801 -6.91552 -7.78547
  426 113.788 7.61463 -6.19749
  427 123.834 -5.29770 7.34924
  428 134.219 -0.522404 -1.48892
  429 3.77961 3.83569 1.35698
  430 26.3835 29.8765 29.4808
  431 118.395 -0.440967 5.53187
  432 97.8433 1.27006 2.67343
  433 99.7002 1.56617 -3.63797
  434 85.0787 -1.49620 -2.13587
  435 85.0832 -1.47615 2.11895
  436 122.084 -9.44847 -4.77612
  437 122.989 -2.38590 -12.1581
  438 98.4284 1.76205 -0.988843
  439 183.653 43.6280 7.73473
  440 24.2226 8.32440 -14.7575
  441 26.8050 7.64491 15.8337
  442 113.944 -4.04310 0.977099
  443 113.897 -4.03030 -0.943967
  444 152.129 34.0020 -0.537596
  445 96.7592 37.7645 59.0799
  446 147.523 -2.17444 -3.46155
  447 82.7667 -4.44552 -8.74077
  448 82.8016 -4.41247 8.65757
  449 82.9725 -1.95428 3.38699
  450 82.9611 -1.96995 -3.42276
  451 113.167 2.45348 -10.0518
  452 137.224 -0.130576 -0.430158
  453 109.716 4.95753 5.61495
  454 140.510 17.3925 13.0247
  455 116.798 -8.68652 -1.87073
  456 127.891 -1.40263 -1.99609
  457 134.813 -0.465921 1.37267
  458 136.848 -0.135715 0.246847
  459 136.978 -0.161366 -0.187939
  460 72.2447 -0.154808 0.832299
  461 72.2110 -0.156982 -0.842544
  462 128.083 -8.08994 9.39532
  463 114.299 4.45669 9.72964
  464 120.002 0.473266 -12.8487
  465 126.187 -2.58413 5.52489
  466 185.588 29.1336 -34.0393
  467 126.341 -6.97021 -10.3299
  468 0.762206 2.31897 0.687538
  469 0.770574 2.33853 -0.0638198
  470 99.1664 -5.72924 3.50350
  471 98.8155 -5.65742 -3.46842
  472 159.132 2.29101 17.8227
  473 43.8459 38.6608 -44.2661
  474 124.410 -0.351328 4.35461
  475 142.521 -8.36802 -9.71673
  476 73.8307 -4.35824 12.3346
  477 151.709 26.9319 -9.16382
  478 124.505 -6.69900 8.72664
  479 103.784 -5.03702 -1.53478
  480 103.876 -4.95027 1.52780
  481 106.961 0.544445 -5.50677
  482 73.5924 -4.34349 -12.4218
  483 109.910 0.0145396 5.55462
  484 106.500 -12.1580 -15.5644
  485 106.223 -12.1766 15.6068
  486 128.747 -0.807137 3.93816
  487 115.599 10.8691 1.16428
  488 119.597 1.78441 40.0688
  489 175.170 36.0231 -0.227989
  490 120.600 -1.93882 1.04563
  491 120.610 -1.93102 -1.07340
  492 91.2068 -1.69283 -1.30143
  493 91.2095 -1.67752 1.29504
  494 47.8119 2.35389 22.0455
  495 125.015 -5.98157 -10.0554
  496 113.109 -2.41580 0.327517
  497 113.097 -2.40555 -0.324183
  498 98.1731 -10.4588 12.7490
  499 48.7726 3.08871 -22.6222
  500 125.360 -10.1822 -5.43740
  501 1.97389 0.0703669 1.31655
  502 107.920 5.49396 0.401929
  503 121.101 -1.29433 -0.354408
  504 121.094 -1.31476 0.348515
  505 98.2518 -10.4444 -12.8547
  506 142.696 -7.46763 12.7899
  507 140.574 5.11707 13.3927
  508 130.160 -0.773997 -1.02121
  509 124.974 -10.3297 5.49755
  510 75.8222 -0.0989078 -0.138631
  511 75.8341 -0.0981313 0.137086
  512 124.564 -4.74848 -10.6243
  513 119.886 8.86401 10.6945
  514 138.803 3.43478 -13.2109
  515 75.3711 -0.145912 -0.465330
  516 75.3863 -0.144031 0.461469
  517 246.929 35.6407 -32.0915
  518 124.939 14.9275 9.46484
  519 130.286 -0.700029 0.913845
  520 116.897 -11.1045 0.540014
  521 97.2802 -3.29958 1.87837
  522 97.2833 -3.32695 -1.87467
  523 136.782 -8.28409 4.86245
  524 130.941 -2.57319 -13.4468
  525 146.194 29.0040 7.48156
  526 121.077 2.07044 13.3095
  527 122.965 -2.26892 1.91449
  528 119.636 -12.7069 -14.8117
  529 123.483 -3.02153 10.3809
  530 244.496 11.1586 -4.51611
  531 135.831 -10.2043 -1.38355
  532 129.348 -0.740641 -0.265499
  533 129.376 -0.796588 0.241917
  534 247.005 16.5961 15.9079
  535 117.889 -0.0569570 11.3194
  536 167.490 27.7089 -4.52308
  537 125.058 -3.32824 -5.42014
  538 54.2340 -0.544432 -3.82447
  539 54.4208 -0.518564 3.78226
  540 83.6742 -7.86925 -17.7270
  541 83.7298 -7.73620 17.5866
  542 122.901 -2.16816 -1.89282
  543 133.496 4.91982 -14.5895
  544 117.158 -7.98112 2.31476
  545 125.522 14.4243 -9.84343
  546 127.281 -1.41440 5.30434
  547 160.911 7.65773 -0.241788
  548 108.221 -3.72659 -0.198654
  549 108.183 -3.71048 0.192208
  550 118.029 -5.54863 2.68031
  551 175.729 34.2753 -0.827361
  552 123.917 5.42447 13.8350
  553 52.5485 13.5951 32.7366
  554 120.914 -7.27927 26.4564
  555 161.370 6.96311 -28.9289
  556 126.732 10.4913 -12.9159
  557 113.180 -9.72248 -22.8755
  558 122.465 -13.3877 -3.75042
  559 128.186 -12.9225 -5.87105
  560 16.2711 20.6255 -19.5846
  561 128.784 -1.53420 -3.38146
  562 194.829 38.0396 -10.5008
  563 118.688 -5.30989 -2.91449
  564 119.754 -3.83793 2.39892
  565 119.640 -3.74542 -2.31482
  566 80.5897 -0.520516 -1.01218
  567 80.6027 -0.513700 1.00388
  568 10.5600 1.24324 -6.30318
  569 11.2392 1.30023 6.45650
  570 59.8830 -2.85758 -13.0062
  571 60.3669 -2.87197 12.9773
  572 121.372 -6.54002 -5.11941
  573 123.955 -13.4408 4.11616
  574 127.442 -12.0501 1.82871
  575 103.429 -1.83399 -0.315093
  576 103.421 -1.81907 0.313048
  577 98.5548 -10.2978 -19.6019
  578 110.924 -9.04088 24.2584
  579 96.0708 -9.67550 19.7278
  580 124.627 -2.74308 -13.0949
  581 76.3368 -1.35693 3.87078
  582 76.3006 -1.37176 -3.90783
  583 118.164 6.49112 -10.7262
  584 118.499 -0.205464 -5.02204
  585 148.743 32.6140 -3.44981
  586 96.0945 -1.50184 -0.338151
  587 96.0944 -1.49063 0.336136
  588 127.093 -0.357030 -2.87965
  589 86.2805 -3.04172 -4.20817
  590 86.2766 -3.02923 4.16642
  591 71.0723 3.42895 31.4673
  592 123.704 -5.64397 -7.43862
  593 68.0468 -3.52783 22.5566
  594 121.555 -6.26223 5.20808
  595 128.374 -1.72080 3.71606
  596 126.915 -1.04372 -0.919947
  597 87.1348 -1.15133 -0.915384
  598 87.1420 -1.14117 0.909265
  599 142.569 28.6935 -6.67338
  600 68.0027 -3.38280 -22.6519
  601 121.162 -5.19476 -4.22719
  602 108.756 -1.99527 -0.114729
  603 108.744 -1.97862 0.114115
  604 207.882 28.1389 -4.87294
  605 70.2701 -0.493895 2.15298
  606 70.2076 -0.498894 -2.17588
  607 111.700 2.50524 9.15383
  608 162.993 13.1845 -3.60888
  609 75.8587 0.671356 -31.2629
  610 37.8195 1.07753 -16.8472
  611 38.1570 0.844931 16.7561
  612 94.8028 -5.67158 5.12716
  613 95.8530 -5.83848 -4.95587
  614 164.003 32.9602 4.33614
  615 126.355 -1.08618 0.844866
  616 106.455 2.91142 -5.50978
  617 134.113 24.2775 5.99515
  618 133.580 25.2018 -3.98505
  619 109.814 -6.13615 -0.385100
  620 110.689 -5.99020 -0.0169308
  621 79.0901 17.0733 -45.1983
  622 93.5414 -3.31194 -2.79339
  623 93.5450 -3.27183 2.78080
  624 245.128 50.0827 37.6000
  625 124.566 -4.04420 11.4080
  626 69.4557 -2.56831 -8.33522
  627 197.443 43.4609 27.8055
  628 69.6243 -2.55241 8.29789
  629 120.009 -4.63875 -31.0642
  630 82.1485 -0.462287 -0.374363
  631 82.1595 -0.458185 0.372010
  632 102.308 0.868852 4.80063
  633 45.3763 -0.713651 -7.50251
  634 45.6580 -0.715269 7.43768
  635 108.360 -7.75000 1.74074
  636 113.904 -9.17173 0.0635168
  637 135.539 -0.249101 -1.23347
  638 73.4664 -0.142363 0.603385
  639 73.4421 -0.144756 -0.610976
  640 101.793 -2.32606 -0.419309
  641 101.787 -2.31106 0.414532
  642 118.096 -13.0504 15.0014
  643 135.193 15.1350 -13.1924
  644 88.7496 -4.28264 -5.43934
  645 88.6761 -4.20843 5.39513
  646 106.270 -7.74770 -2.69194
  647 168.868 37.0104 0.242062
  648 126.657 -12.2120 -1.10550
  649 109.198 -2.59735 -0.0247829
  650 109.180 -2.58224 0.0256180
  651 151.581 16.4791 10.6959
  652 126.737 -1.75834 -5.76860
  653 110.598 -0.163344 -4.53066
  654 50.3213 -1.70956 -16.3018
  655 50.4909 -1.76239 16.1575
  656 106.046 -9.25316 -4.62867
  657 159.933 35.6620 0.144776
  658 123.049 16.7113 -4.26284
  659 80.2356 -0.800367 -1.89322
  660 80.2507 -0.788918 1.87521
  661 115.427 -3.21511 -0.916068
  662 115.450 -3.22100 0.943504
  663 218.811 28.6881 12.5561
  664 138.036 -0.316052 0.353470
  665 132.645 -0.472489 2.08717
  666 132.053 -0.490531 -2.41871
  667 125.014 -11.6030 2.91018
  668 90.3385 -1.11377 -0.458010
  669 90.3439 -1.10500 0.455417
  670 132.862 21.4292 9.19046
  671 171.891 38.3877 -1.33435
  672 92.6080 -7.03817 -7.71439
  673 92.5705 -6.96495 7.66946
  674 117.066 -12.0853 -1.65109
  675 122.897 7.29871 -13.0031
  676 147.637 0.323167 6.63671
  677 96.1680 -1.84769 -0.859386
  678 96.1679 -1.83425 0.854700
  679 83.2048 -7.36929 -16.0104
  680 123.800 -11.9467 -1.73359
  681 102.380 -11.3709 14.0336
  682 48.4170 15.4503 -31.5488
  683 95.1612 -8.92509 10.8127
  684 114.658 0.0282202 4.20830
  685 83.2750 -7.28330 15.8933
  686 121.088 -5.30078 4.27913
  687 95.2065 -8.89056 -10.9222
  688 96.0757 1.19051 1.00279
  689 74.1667 -2.10308 5.88993
  690 74.0989 -2.10674 -5.93745
  691 102.458 -11.6673 -14.1964
  692 127.197 -8.33399 -9.09483
  693 116.459 -1.54538 -0.228272
  694 116.477 -1.56372 0.229224
  695 130.119 -8.22956 9.08730
  696 118.012 -12.3419 2.10282
  697 143.745 13.1797 13.0988
  698 129.369 -2.37830 13.7741
  699 124.476 -4.41103 8.52959
  700 117.947 9.66942 -8.13497
  701 143.003 24.1677 10.3207
  702 123.234 -1.67896 -8.11216
  703 123.193 -4.01331 4.60025
  704 126.457 19.9019 2.30911
  705 125.175 -2.07343 7.14309
  706 38.8381 26.2760 32.9821
  707 116.641 -13.3959 -8.31864
  708 135.083 2.49264 14.0841
  709 136.671 -4.19504 -10.3935
  710 137.227 -0.126478 0.704621
  711 124.480 -4.20988 -6.80745
  712 116.788 -13.5033 7.48539
  713 230.315 20.3773 -3.43040
  714 67.2826 -0.320002 2.25709
  715 67.1975 -0.323688 -2.28123
  716 126.562 -2.20243 -3.28754
  717 138.103 -0.0915081 -0.680551
  718 105.831 -9.40030 4.65532
  719 127.726 -4.70490 12.5789
  720 196.969 45.8058 -12.3270
  721 121.056 -8.76194 4.51653
  722 134.739 -8.82168 -5.87102
  723 123.245 -3.90056 -4.52910
  724 138.175 -0.178993 -0.243162
  725 124.306 0.00719070 14.1295
  726 5.51213 4.22291 6.55959
  727 142.122 -5.66009 -19.6309
  728 154.132 8.94176 7.29615
  729 128.005 -13.0324 5.11630
  730 89.4302 -2.24764 2.30176
  731 89.4349 -2.28057 -2.31561
  732 121.896 58.1748 -62.0723
  733 130.192 -8.55845 -8.47209
  734 95.6732 0.428837 -1.91594
  735 113.007 0.591127 8.96349
  736 125.326 -6.22445 10.2334
  737 120.133 -10.1234 2.67343
  738 125.581 -11.3894 -16.1108
  739 119.352 -9.44458 -2.86225
  740 141.940 -6.80194 -2.79945
  741 130.608 -0.965284 1.94469
  742 115.758 -6.96835 1.71931
  743 213.409 42.7251 -22.3885
  744 123.864 -3.22824 3.69064
  745 121.771 1.97811 -13.6800
  746 104.794 -1.22798 35.0530
  747 130.789 10.5696 14.0832
  748 112.456 -8.90821 0.549305
  749 85.9591 -6.90131 -11.6440
  750 85.9586 -6.87940 11.5392
  751 118.845 13.3609 -1.90276
  752 121.460 -1.39046 12.2870
  753 122.985 -2.90073 -10.5801
  754 115.895 -7.10695 -1.76256
  755 111.948 -10.0959 2.23121
  756 127.468 21.1566 -2.63073
  757 119.980 -10.3824 -2.19774
  758 120.254 -7.59338 4.35476
  759 122.138 -1.45646 0.726043
  760 122.222 -1.41271 -0.722831
  761 164.376 36.4084 1.46933
  762 134.848 -11.4240 -2.93848
  763 124.868 -3.75653 6.76239
  764 130.694 -0.958706 -1.78320
  765 131.301 0.902356 -14.4575
  766 150.352 7.76445 -9.26597
  767 70.9103 -0.0916297 -1.04054
  768 70.9559 -0.0904868 1.02845
  769 0.949510 -2.52657 -1.81703
  770 127.415 -0.121157 2.67242
  771 115.838 -0.224935 -9.95596
  772 120.044 -1.11928 8.85677
  773 111.169 13.1268 51.8829
  774 136.761 28.3822 -0.320809
  775 96.7157 -7.06345 5.89223
  776 15.6174 0.404574 -6.29966
  777 16.1408 0.302384 6.36962
  778 118.874 -0.852414 -9.95616
  779 97.0031 -7.13768 -5.88752
  780 129.904 -1.05874 1.50981
  781 64.3358 -2.83502 11.1114
  782 63.7566 -2.82634 -11.1247
  783 123.865 -3.13030 -3.59781
  784 77.1460 -2.05817 -5.10956
  785 77.1835 -2.04344 5.05816
  786 129.169 -1.13889 -4.02969
  787 97.2195 -2.67447 -1.49424
  788 97.2191 -2.65510 1.49427
  789 141.208 -0.900515 -10.4854
  790 126.336 -1.30081 -14.2495
  791 62.0831 -0.429607 -2.89768
  792 62.2137 -0.425659 2.86076
  793 2.30524 1.59803 -3.69055
  794 2.90024 1.68315 3.89188
  795 100.585 0.459579 -3.49209
  796 115.566 -12.9913 -6.01108
  797 -1.37050 -0.962540 2.32550
  798 -1.18752 -1.10878 -2.29112
  799 120.406 -2.32206 1.52094
  800 130.825 -10.1552 -5.27091
  801 134.328 19.9989 -10.7570
  802 130.514 -0.944056 -1.43112
  803 285.870 56.6442 -53.6922
  804 120.382 -2.31268 -1.50237
  805 182.171 35.0558 2.50286
  806 128.486 3.75586 -14.8240
  807 142.525 10.7316 -13.3583
  808 22.1413 -0.264830 -5.86768
  809 22.6105 -0.300892 5.85554
  810 78.3229 -1.20853 2.99362
  811 78.2977 -1.21928 -3.02446
  812 74.2018 -0.204858 0.553271
  813 74.1836 -0.206918 -0.558572
  814 143.764 24.2920 -10.2699
  815 83.0777 -0.576749 -0.799466
  816 83.0884 -0.569881 0.793919
  817 121.848 -1.22426 -12.8125
  818 179.342 17.1487 13.4680
  819 108.633 2.35530 -7.68504
  820 36.1620 -0.340237 6.34067
  821 35.8155 -0.343226 -6.39529
  822 144.261 3.34998 36.8635
  823 126.412 -2.22147 3.39326
  824 111.360 7.32605 -3.20515
  825 49.9301 -0.0987197 4.35457
  826 49.6459 -0.0745022 -4.39027
  827 76.0677 -0.436254 -1.45389
  828 76.0924 -0.429967 1.43810
  829 13.4213 12.0612 9.98402
  830 116.588 2.73998 11.4919
  831 130.231 19.2259 -9.15116
  832 140.794 16.3571 -13.1528
  833 91.1587 -3.56822 -3.73820
  834 91.0980 -3.53854 3.72980
  835 145.524 31.2617 4.73806
  836 126.386 -0.925502 -0.204929
  837 126.389 -0.918150 0.227369
  838 124.467 -3.67294 -8.55805
  839 103.613 -7.00603 3.18277
  840 114.818 -12.9134 6.06471
  841 135.907 -11.1364 9.57131
  842 102.541 -3.02102 -0.745604
  843 102.536 -3.00739 0.738233
  844 117.169 10.8349 5.21044
  845 109.727 1.44255 -8.31612
  846 30.5488 34.3481 34.3187
  847 112.315 -10.0163 -1.94855
  848 112.634 -5.04099 0.737336
  849 112.696 -5.04774 -0.742303
  850 123.937 -1.80214 13.5224
  851 123.252 -8.06537 -6.66607
  852 109.608 -7.32566 -0.887045
  853 257.487 8.35067 -12.9881
  854 104.074 -9.94701 6.61434
  855 103.999 -10.0808 -6.73217
  856 123.914 -1.45117 6.91402
  857 188.555 48.3128 -9.33460
  858 97.3937 -8.97631 -8.49537
  859 108.139 -12.2326 7.86446
  860 97.3552 -8.86410 8.41279
  861 105.770 -4.30746 -0.792837
  862 105.763 -4.29013 0.784345
  863 14.9600 6.60851 8.71857
  864 133.267 9.98043 -14.3368
  865 101.258 -4.02682 -1.53408
  866 101.274 -3.98349 1.54053
  867 99.8563 -1.68092 -0.180407
  868 99.8523 -1.66785 0.178792
  869 110.508 -2.15766 0.142000
  870 110.494 -2.14148 -0.142352
  871 88.6269 -1.82786 -2.00433
  872 88.6300 -1.80620 1.99387
  873 101.707 -5.45463 -2.42270
  874 101.717 -5.41330 2.43273
  875 2.30254 -1.50607 -0.746231
  876 154.968 29.0801 8.13516
  877 133.225 -4.62354 -11.7969
  878 108.065 -12.0577 -7.95984
  879 116.940 -3.71888 1.53788
  880 116.886 -3.67700 -1.50192
  881 127.422 0.188376 14.5477
  882 139.710 -9.97303 -4.71339
  883 124.069 8.26834 -44.8516
  884 54.7437 -0.788464 21.8784
  885 -2.62046 1.27954 -1.29804
  886 -2.32857 1.44080 1.46480
  887 14.8364 7.03012 -8.89118
  888 124.893 -3.51064 5.39995
  889 131.959 -0.773942 -2.29824
  890 118.423 -11.3335 18.7183
  891 54.6087 -0.722252 -21.9731
  892 131.992 -10.7384 4.01497
  893 147.996 -4.63000 15.8289
  894 104.545 0.405955 3.70828
  895 121.004 11.5113 8.91166
  896 64.5738 -3.68323 16.1856
  897 64.3145 -3.71355 -16.3036
  898 77.5887 -3.82098 -9.04035
  899 82.5832 -3.93375 -28.0238
  900 131.710 -3.03038 13.0773
  901 182.430 42.2979 4.86049
  902 132.020 5.11236 14.6198
  903 124.822 -2.60906 -7.77620
  904 84.3801 -3.52544 28.7293
  905 159.857 29.3463 -6.42676
  906 15.1439 13.0631 -12.3934
  907 114.324 -0.246850 -4.01427
  908 77.6699 -3.78780 8.95112
  909 95.3790 -2.16969 1.33318
  910 95.3795 -2.18628 -1.33728
  911 123.440 -8.02321 6.86267
  912 128.832 -0.694716 0.604715
  913 94.2510 0.933835 -34.9705
  914 136.135 -0.256169 1.09276
  915 134.952 -0.205071 -1.37301
  916 98.1178 0.814893 -3.20061
  917 129.887 -0.509378 -2.38019
  918 95.8198 -4.60369 -3.36352
  919 95.8839 -4.53125 3.37231
  920 -3.35922 1.12290 -1.96100
  921 -4.53882 0.676448 2.03724
  922 128.835 -0.637677 -0.606636
  923 40.9521 -0.898907 14.7376
  924 40.6812 -0.804110 -14.8288
  925 136.655 20.0315 11.4044
  926 251.264 4.51706 4.05903
  927 128.344 14.3252 11.7984
  928 147.154 -5.30547 3.52790
  929 126.917 -7.01677 10.3669
  930 158.291 33.2899 -4.87664
  931 95.8308 0.356841 2.40928
  932 122.231 -2.77892 -2.33180
  933 126.396 6.80190 -14.2613
  934 154.461 4.32612 -3.99659
  935 118.902 -7.33163 -3.54116
  936 58.5579 -0.356470 -3.25528
  937 58.6286 -0.344015 3.20601
  938 125.681 -2.87576 -6.20195
  939 3.85888 5.01022 0.654462
  940 120.599 -12.4948 -0.381293
  941 102.601 2.94255 -0.331331
  942 157.022 34.7746 -3.24609
  943 24.0699 17.9770 -20.9955
  944 120.057 -0.889753 -7.93774
  945 81.7816 -1.45673 -2.77459
  946 81.7937 -1.43874 2.74732
  947 0.618257 -3.55118 2.74327
  948 80.7231 -6.12785 -12.9836
  949 122.784 -7.05732 -6.44503
  950 73.8383 0.156899 -0.224811
  951 73.8510 0.157820 0.222925
  952 123.176 14.9751 -7.16537
  953 134.092 -0.295664 -0.222355
  954 134.089 -0.302098 0.286993
  955 80.7526 -6.10852 12.8864
  956 123.967 -0.143188 -3.16334
  957 143.611 1.02692 10.1933
  958 127.264 -1.69040 2.65154
  959 19.2597 5.13285 -11.1990
  960 132.261 -0.713830 2.09219
  961 118.538 0.924193 12.3466
  962 125.053 17.3879 6.37709
  963 125.547 1.46193 -14.6215
  964 85.3827 -4.71740 -7.68038
  965 136.295 -4.77173 10.0665
  966 85.4355 -4.69651 7.59433
  967 3.64114 4.08750 0.0246987
  968 13.8736 2.56725 8.18828
  969 68.7975 -1.29188 5.34930
  970 68.7086 -1.29421 -5.38451
  971 122.315 -2.83751 2.44298
  972 130.675 22.8771 3.56440
  973 66.2169 6.21145 -32.9743
  974 109.383 -6.88886 0.720365
  975 102.632 -10.8024 -10.2190
  976 150.423 28.9498 8.20745
  977 115.468 -1.96843 0.329866
  978 115.465 -1.95593 -0.330211
  979 126.978 -2.25792 -4.51828
  980 116.015 9.97678 -4.81015
  981 272.895 79.3120 53.5820
  982 23.0852 1.41195 -10.9621
  983 23.4919 1.17644 10.9912
  984 1.71326 -2.86110 0.258320
  985 116.469 6.40759 9.87239
  986 102.586 -10.8650 10.1362
  987 127.778 -5.99191 -11.6842
  988 139.121 11.4006 14.3029
  989 134.507 -10.8555 -12.0277
  990 197.024 41.5832 13.1273
  991 113.232 -1.76940 0.00292333
  992 113.217 -1.75268 -0.00262113
  993 133.126 -5.36963 11.2340
  994 8.95201 13.5014 14.9616
  995 57.8079 -1.27766 7.69414
  996 57.6118 -1.26154 -7.78589
  997 69.7458 -3.53051 10.4733
  998 69.4949 -3.47930 -10.5196
  999 78.8260 -3.37284 7.46150
  1000 86.1534 -0.747061 -0.370344
  1001 86.1621 -0.741111 0.368528
  1002 224.527 69.2677 -43.4033
  1003 200.804 50.2328 19.6944
  1004 78.7627 -3.39208 -7.53231
  1005 137.176 -0.590794 12.3514
  1006 121.600 12.6256 -8.59838
  1007 85.8831 -7.32918 23.1986
  1008 111.062 -13.1092 -12.0969
  1009 127.072 -0.998382 -4.68716
  1010 56.3546 4.04753 26.7262
  1011 72.3938 -5.55217 18.5460
  1012 110.946 5.62011 -6.16035
  1013 128.357 -2.50472 -13.9051
  1014 168.802 64.2019 71.3218
  1015 104.333 3.12063 4.36472
  1016 143.968 31.3346 -0.565828
  1017 106.585 4.05672 -39.8175
  1018 107.502 -11.3901 -6.72408
  1019 138.289 -0.0884856 -0.559467
  1020 131.071 12.0697 -13.7259
  1021 74.7932 -0.535997 1.88871
  1022 74.7600 -0.541559 -1.90931
  1023 2.65125 0.475471 -3.47558
  1024 85.3744 -4.03320 -6.38311
  1025 72.3108 -5.62513 -18.6984
  1026 85.2989 -4.02188 6.30384
  1027 125.369 -3.77912 12.8552
  1028 112.296 -6.97784 0.338629
  1029 117.446 2.12800 -11.9402
  1030 120.786 15.1140 2.50698
  1031 167.062 9.44532 4.33085
  1032 124.443 -9.42015 6.63346
  1033 77.3980 -6.29244 -14.2110
  1034 116.334 4.07164 -11.1454
  1035 86.6826 -7.22516 -23.3367
  1036 168.015 36.8370 -0.392136
  1037 112.764 7.34866 5.60345
  1038 144.830 -0.898789 -8.11401
  1039 108.179 -11.3900 6.11698
  1040 124.255 -3.89045 10.0137
  1041 123.581 -6.48157 7.44669
  1042 122.906 -6.13663 6.51123
  1043 152.353 19.2456 -10.9399
  1044 122.380 -1.94715 10.0343
  1045 110.853 -13.1463 11.8906
  1046 118.350 -4.79569 2.42507
  1047 77.4435 -6.30222 14.1207
  1048 110.825 -8.23543 -0.931938
  1049 63.4453 -3.04823 -19.8458
  1050 91.4807 -9.54920 15.6305
  1051 124.843 -0.807486 -5.40349
  1052 121.274 -1.35703 -11.3441
  1053 104.887 -8.39975 -3.95320
  1054 63.5568 -3.14324 19.6764
  1055 112.367 0.242332 -7.79367
  1056 83.1978 -5.66043 -9.99960
  1057 153.063 32.8442 5.29008
  1058 33.0273 5.70078 -18.5700
  1059 268.861 19.0378 26.2794
  1060 60.4769 4.70606 -28.0354
  1061 122.927 -10.1620 -4.39002
  1062 83.2146 -5.60906 9.90865
  1063 111.060 1.12175 8.68446
  1064 60.9995 -1.29916 6.36388
  1065 60.9622 -1.33188 -6.43407
  1066 124.162 -3.42454 -11.8967
  1067 133.261 -0.567867 0.903215
  1068 129.988 -0.255673 2.41352
  1069 128.009 4.27762 14.7694
  1070 119.368 -0.898768 10.6230
  1071 93.2317 9.80784 43.1242
  1072 139.260 -0.0649577 0.283829
  1073 128.547 17.4971 9.39782
  1074 107.817 1.50329 7.45935
  1075 131.852 -0.462072 2.33248
  1076 82.5194 -0.963290 -1.53115
  1077 82.5302 -0.951963 1.51912
  1078 51.9161 -1.52456 -10.5990
  1079 52.1404 -1.57907 10.5171
  1080 108.155 5.31825 3.12216
  1081 167.851 8.34208 -10.6389
  1082 154.167 -0.633862 -21.9350
  1083 120.676 -0.0942998 -3.26122
  1084 91.5299 -9.62263 -15.7560
  1085 105.105 -7.98727 3.47691
  1086 121.432 -0.267153 3.40641
  1087 127.884 -9.22707 -7.73774
  1088 77.4140 -0.216506 0.929280
  1089 77.3987 -0.220090 -0.936147
  1090 122.688 -10.4535 4.38923
  1091 116.451 -2.30727 0.587590
  1092 116.432 -2.30877 -0.578700
  1093 113.210 -11.4497 3.55168
  1094 147.377 -4.83636 -0.263533
  1095 63.7391 -0.125960 -1.80096
  1096 63.8512 -0.121564 1.77957
  1097 99.4870 -6.18901 -26.7347
  1098 105.170 -2.51915 0.341161
  1099 105.183 -2.53539 -0.346103
  1100 64.0406 33.7100 47.3380
  1101 147.353 12.0094 -12.1170
  1102 20.7525 10.3723 -13.7458
  1103 127.359 -1.78971 -2.56594
  1104 32.9187 11.5850 -21.2696
  1105 69.0269 -4.44139 -13.5311
  1106 139.395 -0.0968265 0.163555
  1107 139.463 -0.0873959 -0.123116
  1108 124.819 -7.08090 -8.94170
  1109 110.578 -12.3596 -16.8813
  1110 33.0378 4.85218 17.6962
  1111 135.646 13.4706 13.4755
  1112 123.618 -1.12130 -0.247595
  1113 123.628 -1.12295 0.260366
  1114 135.828 -8.86103 20.3750
  1115 138.615 28.0041 5.24575
  1116 80.7255 -2.05164 -4.00250
  1117 80.7422 -2.04075 3.96919
  1118 61.9749 7.23953 33.2561
  1119 117.175 0.567979 -11.5736
  1120 36.0683 11.8594 22.9343
  1121 153.233 -2.84232 -5.80980
  1122 148.748 33.2678 1.65982
  1123 101.723 -8.17037 4.96639
  1124 91.9628 0.435701 -0.469064
  1125 130.598 -1.07116 3.04538
  1126 135.597 -0.124846 1.19521
  1127 27.4796 0.0654531 -5.30361
  1128 27.9123 0.0503705 5.26429
  1129 104.177 1.66459 -5.51095
  1130 108.708 -3.20031 -0.0807332
  1131 108.680 -3.18250 0.0790493
  1132 11.1726 15.6799 -15.8683
  1133 18.0349 36.2444 -32.7354
  1134 110.184 -4.31620 -0.124039
  1135 110.232 -4.31896 0.119166
  1136 114.076 -2.70083 0.657807
  1137 114.059 -2.69327 -0.646534
  1138 29.2024 18.7702 22.9443
  1139 88.5320 -1.16408 -0.712490
  1140 88.5389 -1.15487 0.708151
  1141 112.105 8.41329 -0.135192
  1142 147.337 17.1120 -49.9283
  1143 138.104 23.9503 -8.97792
  1144 126.239 -4.80693 -12.2298
  1145 124.407 -6.15594 -9.00880
  1146 101.803 -8.25014 -5.05579
  1147 101.055 0.299384 3.40230
  1148 114.860 7.10765 -8.24481
  1149 113.144 6.02663 7.85855
  1150 118.269 -4.65115 -2.38526
  1151 112.597 -6.83319 -0.418257
  1152 101.882 -6.70317 -3.65301
  1153 121.775 -0.698539 6.35489
  1154 219.750 22.2755 3.12983
  1155 122.706 -2.59183 11.5855
  1156 122.783 8.06570 12.4881
  1157 113.754 -11.2461 -2.46067
  1158 13.0597 2.36635 -7.88478
  1159 115.893 -5.34352 -1.86274
  1160 74.3971 -0.146701 -0.0394557
  1161 74.4078 -0.146159 0.0388110
  1162 142.228 -3.75964 7.08014
  1163 135.585 -11.3846 3.74251
  1164 195.505 35.2864 8.24009
  1165 43.9391 -0.113244 -4.45550
  1166 44.2372 -0.103270 4.41810
  1167 102.756 -2.09905 -0.330870
  1168 102.749 -2.08406 0.327325
  1169 116.304 -10.2920 0.458661
  1170 92.8477 0.381417 1.53170
  1171 119.181 -8.48161 3.45458
  1172 6.31802 7.51855 -3.22595
  1173 20.5672 10.5017 13.4582
  1174 79.0668 -4.18815 25.8657
  1175 137.442 26.3976 -6.39940
  1176 132.374 -0.338737 -1.83870
  1177 140.027 -0.193838 0.122385
  1178 140.185 -0.276906 -0.0841553
  1179 77.8044 -0.230451 -0.143750
  1180 77.8164 -0.228744 0.142324
  1181 126.625 8.11900 14.2444
  1182 189.713 32.7857 -0.690469
  1183 130.271 21.6778 -6.39895
  1184 97.7513 -7.08938 26.5590
  1185 78.6433 -4.01052 -25.8206
  1186 86.9325 -5.97266 -8.91407
  1187 122.351 -3.33150 3.06121
  1188 171.644 37.5942 -0.0766733
  1189 86.9322 -5.93364 8.83504
  1190 125.248 -2.07241 2.32061
  1191 109.965 4.01227 7.48521
  1192 122.195 3.77249 13.6314
  1193 176.058 39.4642 3.10504
  1194 102.974 -2.72306 0.632975
  1195 102.982 -2.73852 -0.639505
  1196 126.787 -2.28145 4.68572
  1197 72.6853 -0.842931 2.98076
  1198 72.6334 -0.851881 -3.01198
  1199 124.116 -1.56706 -1.10598
  1200 50.4849 29.8232 -45.5685
  1201 107.398 -5.99817 -28.4195
  1202 99.9890 -3.20734 -1.32317
  1203 99.9963 -3.19043 1.32325
  1204 133.895 -0.529723 0.797160
  1205 126.080 -1.52693 1.86446
  1206 6.49645 7.84031 5.56717
  1207 138.047 -0.116678 0.647692
  1208 15.7064 19.4034 19.2460
  1209 122.968 -1.71857 -1.40622
  1210 -0.207706 -3.08482 -2.68954
  1211 85.9716 -8.37643 -19.9717
  1212 85.7101 -8.16891 19.7603
  1213 138.048 -0.208854 -0.709075
  1214 116.659 -6.14509 -2.16734
  1215 133.771 -0.472448 -0.833114
  1216 105.411 -3.44514 -0.489916
  1217 105.396 -3.42960 0.480181
  1218 124.031 -1.55372 1.04584
  1219 115.806 -5.24123 1.84315
  1220 111.188 -3.56257 -0.381788
  1221 111.232 -3.57533 0.397230
  1222 133.684 -0.487635 -0.685401
  1223 114.671 -12.0037 -19.1051
  1224 130.567 -0.677904 -0.717493
  1225 123.524 -1.77179 1.49240
  1226 83.9382 -1.00257 -1.11296
  1227 83.9480 -0.992303 1.10469
  1228 94.6149 -1.44626 -0.522399
  1229 94.6165 -1.43499 0.518849
  1230 156.288 24.2560 9.42590
  1231 131.143 -10.0069 6.08111
  1232 89.4163 -0.336187 32.9465
  1233 69.2065 -0.144656 1.14194
  1234 69.1469 -0.146084 -1.15517
  1235 123.614 -2.24548 8.76954
  1236 118.590 -1.69245 0.375924
  1237 118.598 -1.68556 -0.375668
  1238 135.112 26.5364 2.96783
  1239 124.908 -13.0306 14.8253
  1240 69.6867 -1.05663 4.22376
  1241 69.6141 -1.06535 -4.25954
  1242 118.348 -2.81039 1.31472
  1243 118.323 -2.82859 -1.28446
  1244 122.290 -3.28582 -2.96073
  1245 110.754 0.0111610 4.04131
  1246 196.075 48.6579 -15.1592
  1247 124.396 -4.49051 -7.94528
  1248 20.2195 5.05966 11.5424
  1249 128.631 -6.79692 10.9978
  1250 101.099 2.12310 -3.00993
  1251 7.21356 5.64806 3.86623
  1252 171.433 18.3636 0.395083
  1253 125.457 -5.66160 -10.9860
  1254 101.622 1.37269 4.60468
  1255 69.5349 -4.44663 13.4964
  1256 127.729 -9.83457 7.00925
  1257 187.861 34.4105 8.88289
  1258 41.7073 6.37504 22.6377
  1259 128.555 -1.42746 -4.02270
  1260 253.486 2.78340 -2.60819
  1261 262.466 3.98925 11.7128
  1262 281.096 9.79146 -27.6668
  1263 124.103 -3.82133 -9.72867
  1264 124.244 -5.61590 8.45659
  1265 126.366 -8.94329 8.11680
  1266 -3.74625 0.379977 2.41533
  1267 -3.42527 0.288292 -2.60987
  1268 123.212 -13.5635 -6.36845
  1269 126.464 -12.7260 -10.0060
  1270 93.5904 0.557035 -1.89641
  1271 122.756 -13.8221 10.0546
  1272 130.930 -6.15675 -11.1943
  1273 2.14851 3.71145 0.0448913
  1274 105.484 -1.91898 0.298115
  1275 105.493 -1.93464 -0.298913
  1276 130.570 -0.945407 2.77803
  1277 125.253 -2.03204 -2.19200
  1278 117.575 -12.8464 -2.99773
  1279 106.743 -5.84994 1.23320
  1280 106.179 -5.77189 -1.40803
  1281 126.144 -2.58838 6.29408
  1282 129.207 -4.69787 -12.6505
  1283 7.49740 5.89024 -3.68846
</Section>

newXOutput 18

<Section columns = "stress_xx | stress_yy | stress_xy">
  1 149.633 0.0143919 0.315488
  2 149.649 0.0158204 -0.316724
  3 77.5926 -0.0440560 -0.114504
  4 -1.00111 -0.995756 -1.43804
  5 277.870 104.151 86.1742
  6 275.167 108.219 -86.8007
  7 -1.16096 -0.951580 1.52286
  8 77.5819 -0.0443913 0.114118
  9 150.781 -0.229236 0.103518
  10 150.412 -0.371739 -0.0576696
  11 149.980 -0.228106 0.381417
  12 149.554 -0.332363 0.137725
  13 148.649 -0.272724 0.602518
  14 147.836 -0.280147 0.458696
  15 145.991 -0.249873 0.855464
  16 143.429 -0.145873 1.25254
  17 141.129 -0.170828 1.37810
  18 137.781 -0.266752 1.64821
  19 133.216 0.00387648 2.41274
  20 128.996 -0.197417 2.27342
  21 124.289 -0.273105 3.17655
  22 117.478 0.196520 2.74359
  23 112.621 0.275139 3.22643
  24 106.293 0.476854 2.50901
  25 101.948 0.468518 2.52207
  26 95.6450 0.686173 1.28084
  27 94.3336 1.08557 1.36807
  28 93.5511 0.872453 -0.402050
  29 94.6402 0.475350 -0.892958
  30 96.6356 0.483362 -1.09205
  31 101.352 0.626341 -2.18729
  32 105.931 0.493720 -2.78275
  33 112.715 0.0862037 -3.31051
  34 118.154 -0.0789680 -3.03925
  35 124.005 -0.219829 -3.00802
  36 129.331 -0.152570 -2.13684
  37 133.959 -0.152161 -1.84313
  38 137.814 -0.258262 -1.56160
  39 141.300 -0.175058 -1.10893
  40 143.518 -0.198119 -1.18606
  41 145.660 -0.260796 -0.871458
  42 147.720 -0.315694 -0.404971
  43 148.789 -0.248638 -0.460406
  44 149.391 -0.135668 -0.297050
  45 149.058 -0.0480436 -0.269791
  46 150.589 -0.380371 0.0322049
  47 150.840 -0.241057 -0.106943
  48 145.473 -0.0322522 -0.194370
  49 141.935 -0.498053 -0.336051
  50 137.656 -0.758014 -0.239944
  51 132.465 -1.17871 -0.323300
  52 127.580 -1.30887 -0.410560
  53 122.390 -1.69628 -0.386424
  54 117.820 -1.92065 -0.228336
  55 113.814 -2.19506 -0.102868
  56 109.201 -1.83375 -0.104537
  57 103.887 -1.73743 -0.144404
  58 98.7583 -1.39313 -0.0618380
  59 93.8911 -0.910481 -0.0319383
  60 89.2541 -0.664522 -0.00756913
  61 85.1690 -0.361129 0.0308779
  62 80.9666 -0.112449 -0.133099
  63 77.6560 0.105380 0.144103
  64 76.1952 0.326149 0.0887664
  65 77.2664 -0.00600267 0.224502
  66 76.2143 -0.0561362 0.266771
  67 75.2726 -0.0782068 0.334099
  68 73.9747 -0.0201889 0.444349
  69 72.3336 -0.0121943 0.566082
  70 71.1779 -0.117448 1.11781
  71 67.6399 0.100697 1.22595
  72 65.1868 -0.0142060 1.41863
  73 61.5311 -0.0742255 1.60521
  74 57.3012 -0.120359 1.95906
  75 52.0214 -0.0325806 2.37852
  76 45.5807 0.0260088 2.61154
  77 40.1081 -0.0711902 3.72576
  78 29.1347 0.357821 3.49162
  79 21.7663 0.310056 3.69556
  80 13.0341 -0.0480854 4.06502
  81 5.87873 0.713003 4.18008
  82 -2.21983 1.04147 2.41791
  83 -7.98849 1.05190 0.747654
  84 -7.48740 0.988171 -0.549440
  85 -6.86399 0.809382 -2.11360
  86 -4.00609 -0.301551 -1.96525
  87 -0.519268 -3.84653 -2.15694
  88 0.331632 -7.14973 -2.74922
  89 0.992401 -11.5574 -1.66817
  90 2.24561 -12.3099 -0.208483
  91 4.81037 -4.65462 5.92641
  92 14.6744 19.4544 21.3394
  93 90.1058 77.8228 76.3783
  94 334.928 49.3829 56.8405
  95 300.197 7.12845 18.7554
  96 277.637 2.90226 5.73980
  97 269.277 2.43562 0.463979
  98 273.597 3.28008 -4.93358
  99 299.295 6.57530 -14.8216
  100 356.953 23.8670 -49.5406
  101 53.0177 78.6931 -63.4124
  102 11.0133 12.1015 -17.4221
  103 5.23111 -4.12681 -6.07639
  104 2.08917 -12.4458 -0.744559
  105 0.537127 -8.90338 1.94124
  106 0.718174 -8.98606 2.40354
  107 0.0164467 -3.34705 2.38547
  108 -4.17603 -0.214167 1.87434
  109 -7.08544 0.607079 1.85522
  110 -7.87619 1.20507 0.595143
  111 -8.25740 1.04013 -0.676692
  112 -2.78354 1.06764 -2.25326
  113 5.37130 0.719625 -3.97850
  114 12.5142 0.0258256 -3.99762
  115 21.2335 0.335582 -3.70537
  116 28.6506 0.367855 -3.52122
  117 39.7321 -0.0727038 -3.76072
  118 45.2578 0.0295557 -2.63970
  119 51.7404 -0.0311978 -2.41119
  120 57.1553 -0.132292 -1.97633
  121 61.3404 -0.0713057 -1.61092
  122 65.0439 -0.00952200 -1.43523
  123 67.5245 0.0992700 -1.24148
  124 71.0974 -0.118497 -1.13102
  125 72.2711 -0.0128806 -0.574289
  126 73.9298 -0.0208274 -0.451138
  127 75.2409 -0.0792503 -0.339518
  128 76.1923 -0.0570274 -0.270584
  129 77.2500 -0.00679928 -0.226967
  130 76.1827 0.325612 -0.0899385
  131 77.6445 0.105140 -0.144820
  132 80.9543 -0.113374 0.132646
  133 85.1565 -0.363437 -0.0318092
  134 89.2432 -0.669690 0.00646493
  135 93.8834 -0.917695 0.0308593
  136 98.7549 -1.40351 0.0607946
  137 103.889 -1.75044 0.143599
  138 109.208 -1.84869 0.103803
  139 113.825 -2.21151 0.102602
  140 117.834 -1.93696 0.228907
  141 122.409 -1.71111 0.388045
  142 127.594 -1.31929 0.416453
  143 132.473 -1.18799 0.351126
  144 137.677 -0.709585 0.245478
  145 142.037 -0.482116 0.328851
  146 145.490 -0.0545543 0.191655
  147 128.830 -12.0913 -1.86437
  148 128.732 -11.9306 1.91141
  149 134.345 19.3812 -7.12978
  150 144.051 8.53051 15.3625
  151 108.991 -10.4053 -23.3171
  152 109.848 -10.4016 22.5317
  153 104.933 -4.55630 2.50218
  154 104.947 -4.62318 -2.50614
  155 153.365 5.45655 -12.2650
  156 128.482 -4.55241 3.52073
  157 128.430 -4.43732 -3.47522
  158 166.087 37.4545 2.19940
  159 131.012 -0.206866 -14.7651
  160 96.1710 -7.71928 -10.3406
  161 96.1627 -7.65111 10.2390
  162 131.392 -2.94199 13.4423
  163 123.965 9.00291 8.67681
  164 50.5945 8.38250 -27.7941
  165 56.3106 7.92298 29.3213
  166 162.633 1.64882 2.91887
  167 132.000 -5.00846 -9.56621
  168 175.527 38.6172 -2.02902
  169 118.514 -3.31822 0.354169
  170 118.486 -3.30520 -0.342059
  171 134.108 -1.49363 -1.56305
  172 134.575 -1.32553 1.35862
  173 91.5408 -1.40415 -1.57238
  174 91.5480 -1.38871 1.56203
  175 145.001 -4.11458 29.5832
  176 119.776 4.90410 -9.33123
  177 77.8109 -5.90736 -16.8904
  178 78.0476 -5.86287 16.7671
  179 87.1522 -2.99154 -5.42717
  180 87.1556 -2.95536 5.38015
  181 132.698 -3.42047 8.12418
  182 120.281 -8.30132 0.435861
  183 119.831 -8.23914 -0.226245
  184 137.645 -13.2534 -1.15552
  185 138.328 -12.6248 -0.579107
  186 190.860 44.8183 -5.22814
  187 137.066 22.1468 6.68798
  188 137.715 8.47831 -15.2463
  189 144.652 -1.59562 -34.6132
  190 137.142 -7.69355 -11.0881
  191 138.292 -5.46904 12.8820
  192 114.898 -13.0748 11.0429
  193 114.950 -12.9869 -11.0030
  194 122.061 1.51498 11.2628
  195 54.8955 -1.26339 -20.5749
  196 55.0422 -1.39026 20.4371
  197 216.385 32.6376 4.58825
  198 129.739 -7.69381 6.29460
  199 134.812 -2.38822 -5.37680
  200 105.545 -2.63992 -1.07636
  201 105.544 -2.62425 1.07157
  202 128.649 -1.65591 -10.3153
  203 146.903 21.6431 -12.4131
  204 121.719 10.8952 -1.74496
  205 78.1303 -2.89366 7.74193
  206 78.0053 -2.90461 -7.80780
  207 137.156 -1.41085 3.03284
  208 132.528 2.49855 15.1557
  209 107.270 -7.94842 -4.65807
  210 106.482 -7.52910 4.80774
  211 157.093 23.3035 11.7783
  212 186.624 24.5958 2.12500
  213 11.7906 9.48430 -7.25021
  214 10.8799 8.76822 6.12722
  215 75.7343 21.4293 49.7228
  216 128.406 -8.51197 -5.03257
  217 137.716 -1.35680 -2.74436
  218 120.569 1.01307 -10.3643
  219 83.1845 -0.905088 -2.39305
  220 83.2078 -0.894532 2.36838
  221 114.999 -5.44513 -0.568658
  222 115.050 -5.47512 0.501229
  223 129.879 -1.72881 8.81708
  224 151.132 -8.78792 2.02521
  225 148.515 30.6472 -3.65610
  226 116.486 -11.3320 -4.82630
  227 148.393 -2.55288 10.4439
  228 125.949 -2.01618 0.675210
  229 125.953 -1.99746 -0.674051
  230 115.572 -11.2762 5.06118
  231 132.948 -8.38497 9.12777
  232 189.648 23.2617 -9.79730
  233 40.6354 24.2421 -35.4568
  234 110.593 3.79266 2.20346
  235 132.782 11.7310 12.7275
  236 142.408 -0.959960 -13.9157
  237 132.711 -4.73682 -12.6784
  238 68.7954 -2.30993 -9.76759
  239 69.0492 -2.27351 9.72890
  240 133.011 -1.55082 -6.90181
  241 126.849 -3.12945 1.96365
  242 126.790 -3.12272 -1.90823
  243 25.3621 2.49980 -12.8633
  244 25.8161 2.19380 12.8251
  245 142.228 -12.4011 -9.82327
  246 140.907 -0.384161 0.461964
  247 141.081 -0.392694 -0.488645
  248 129.493 10.7277 -11.6122
  249 112.992 2.09056 6.72564
  250 244.295 39.1693 26.1283
  251 242.501 27.6228 -16.4949
  252 172.670 37.6282 -0.583466
  253 107.631 -5.11315 31.2424
  254 98.5560 -3.23540 -32.7318
  255 112.524 -2.30650 -0.287269
  256 112.511 -2.28942 0.284058
  257 92.3263 -2.58771 3.22513
  258 92.3315 -2.62522 -3.25900
  259 136.788 -1.38971 4.36470
  260 132.434 -9.39029 -7.68741
  261 83.4301 -0.198489 -0.544622
  262 83.4440 -0.195363 0.540378
  263 130.752 -5.22607 -6.06100
  264 53.5966 -1.79423 -13.4961
  265 53.8515 -1.80049 13.3887
  266 132.258 -5.68361 10.2954
  267 100.419 -10.6614 18.7204
  268 100.702 -10.8536 -18.6650
  269 112.351 4.21131 -3.12990
  270 96.9179 -1.56005 -1.05327
  271 96.9226 -1.54827 1.04812
  272 123.047 -0.331468 8.35920
  273 147.890 27.2685 8.65176
  274 77.2032 -1.01566 4.12763
  275 77.1427 -1.02476 -4.16794
  276 136.212 -11.3151 5.79225
  277 126.096 -14.0924 -12.0481
  278 141.331 -0.574102 1.44271
  279 96.1925 -5.85831 -6.99392
  280 96.0063 -5.78969 6.96203
  281 176.240 16.7772 43.9191
  282 80.5523 -6.47048 22.4986
  283 130.590 18.3991 -0.760154
  284 167.469 18.2164 -8.50516
  285 125.371 -9.70910 2.47657
  286 126.151 -14.4851 10.7621
  287 80.8245 -6.35842 -22.7756
  288 14.5881 17.9426 15.9554
  289 130.773 -5.24805 6.16780
  290 172.684 22.2464 7.07510
  291 142.565 -0.510578 -1.25043
  292 127.295 4.42313 -13.3621
  293 126.359 -7.12594 3.65924
  294 123.644 -10.4643 -0.510901
  295 126.765 5.79729 12.8514
  296 135.528 -11.3260 -5.27040
  297 192.829 37.8427 -2.90275
  298 126.324 -6.84551 -3.50870
  299 105.659 29.4413 -61.3842
  300 129.428 -13.6966 -1.52664
  301 128.482 -14.0666 3.02645
  302 93.2709 -8.54183 -14.7429
  303 82.6988 -0.361920 -1.19846
  304 82.7177 -0.355687 1.18693
  305 93.3000 -8.54579 14.6544
  306 136.574 -0.206521 -15.3970
  307 148.302 -6.11995 -7.36009
  308 111.717 -6.82400 -2.21279
  309 111.630 -6.83882 2.25929
  310 135.234 -11.6344 19.7469
  311 134.167 -1.02723 5.23066
  312 164.700 0.406976 5.78459
  313 109.241 -3.91843 -1.16121
  314 109.245 -3.90256 1.15190
  315 98.8802 -2.66812 -2.04496
  316 98.8763 -2.64116 2.04037
  317 111.731 1.44441 -6.50959
  318 145.822 10.6943 -14.9561
  319 228.400 61.1863 -28.1933
  320 133.323 -1.04198 -0.541486
  321 133.236 -1.02674 0.553217
  322 70.1868 0.0148599 28.0718
  323 98.4910 -4.60115 -4.51734
  324 98.2852 -4.58168 4.52748
  325 70.1783 -0.140296 -27.9656
  326 138.468 16.3913 -12.5117
  327 156.229 7.66678 11.7824
  328 135.310 -9.66125 -22.0408
  329 123.431 -4.73143 1.80779
  330 123.298 -4.69282 -1.74988
  331 132.213 -2.63504 -3.05270
  332 123.150 -0.249856 -7.82334
  333 139.228 0.642991 15.1618
  334 139.570 -0.898242 -3.03301
  335 82.0015 -5.11655 11.2805
  336 81.9124 -5.14761 -11.3779
  337 128.948 -0.299096 13.9811
  338 77.5356 -0.693250 -2.42661
  339 77.5852 -0.686528 2.40096
  340 133.135 -2.96802 4.59225
  341 159.425 32.7464 -6.75189
  342 132.129 -2.65881 3.15829
  343 140.086 17.6683 12.5857
  344 134.266 -2.46309 14.6760
  345 105.376 -2.01139 0.363505
  346 105.380 -2.02553 -0.367031
  347 126.530 -0.465712 -12.3899
  348 168.821 35.6325 4.82315
  349 139.333 25.7258 0.264014
  350 85.5678 10.0197 -42.0307
  351 7.99708 3.83174 -5.33579
  352 8.86287 4.13914 5.78273
  353 -0.643250 0.862458 2.76659
  354 -0.0799796 0.410927 -2.87032
  355 251.191 17.4093 6.08929
  356 115.569 -9.47036 -2.57707
  357 133.261 -2.86143 -4.48455
  358 119.682 -2.04805 0.295667
  359 119.668 -2.02943 -0.296092
  360 127.406 14.0790 -6.28021
  361 109.002 -11.2048 9.06216
  362 9.11495 13.4318 -9.62027
  363 109.126 -11.2066 -9.24716
  364 129.158 14.7035 6.68398
  365 132.707 -3.47522 -7.76076
  366 141.117 -7.81951 -9.69736
  367 149.522 31.8723 2.53174
  368 141.504 -8.77195 8.22257
  369 56.3252 -1.46977 9.06032
  370 55.9588 -1.44192 -9.12726
  371 31.3812 0.841067 -12.4148
  372 31.7564 0.704645 12.3558
  373 113.637 0.306198 6.60000
  374 221.948 63.8812 23.3215
  375 137.536 -0.816473 -3.78260
  376 106.001 -9.09012 -6.87787
  377 105.896 -9.06135 6.86714
  378 131.739 -2.99489 -9.68422
  379 151.190 -7.30184 2.41542
  380 115.564 -9.45933 2.67437
  381 166.828 0.806560 -12.0867
  382 91.3857 -0.799652 -0.375275
  383 91.3953 -0.792270 0.371509
  384 129.248 -0.733267 -6.11237
  385 67.7045 -1.03968 -5.92914
  386 67.7525 -1.07148 5.85092
  387 155.293 19.8100 -12.9712
  388 83.4087 5.95470 38.9448
  389 121.077 -6.37023 1.20720
  390 121.199 -6.35693 -1.21457
  391 142.063 24.1764 -8.02935
  392 134.875 -3.96293 -13.9889
  393 135.954 -13.8457 10.2952
  394 112.117 -2.99679 -0.424695
  395 112.101 -2.97966 0.417570
  396 130.291 -10.0341 5.42808
  397 141.028 -0.612703 2.27054
  398 85.7736 -3.26181 -6.84254
  399 85.8051 -3.25985 6.77657
  400 131.748 4.41483 -14.9257
  401 124.800 -2.63289 1.03531
  402 124.796 -2.63793 -1.01642
  403 128.658 -1.49974 11.4579
  404 119.030 8.61149 2.98188
  405 133.848 -5.60683 12.3164
  406 194.774 41.0296 6.62719
  407 63.2250 -3.42370 -18.0701
  408 63.4101 -3.42591 17.9203
  409 27.9743 15.2684 -21.0199
  410 144.793 -0.345123 0.668142
  411 70.5570 -0.654404 -3.74309
  412 70.6574 -0.640502 3.70697
  413 131.869 -3.39690 9.51348
  414 119.549 -13.0162 5.59065
  415 135.779 -1.57715 2.17175
  416 137.492 7.00639 15.6569
  417 29.4249 16.2570 22.0009
  418 119.742 -12.9492 -5.08002
  419 123.808 -11.5366 -0.308648
  420 38.6578 -0.781016 -11.3148
  421 38.9852 -0.813027 11.2300
  422 94.7188 -7.48293 -27.1473
  423 142.476 -2.08063 13.6165
  424 94.3148 -7.60839 26.8930
  425 131.421 -7.34264 -8.22871
  426 120.839 8.08856 -6.56639
  427 131.455 -5.62582 7.76909
  428 142.441 -0.557511 -1.57203
  429 4.02219 4.08938 1.46031
  430 28.0316 31.7626 31.3399
  431 125.712 -0.467992 5.85791
  432 103.949 1.35193 2.83364
  433 105.915 1.66641 -3.85556
  434 90.3814 -1.58625 -2.27304
  435 90.3864 -1.56502 2.25515
  436 129.597 -10.0305 -5.03453
  437 130.572 -2.53402 -12.8720
  438 104.568 1.87506 -1.04796
  439 194.903 46.3041 8.25842
  440 25.7508 8.83880 -15.6945
  441 28.4923 8.11713 16.8365
  442 120.967 -4.29318 1.01987
  443 120.918 -4.27970 -0.984795
  444 161.498 36.0811 -0.566685
  445 102.654 40.1447 62.7323
  446 156.563 -2.30424 -3.62123
  447 87.9144 -4.71741 -9.28897
  448 87.9517 -4.68242 9.20089
  449 88.1459 -2.07249 3.60211
  450 88.1336 -2.08906 -3.63995
  451 120.178 2.60756 -10.6497
  452 145.616 -0.141260 -0.453323
  453 116.525 5.26791 5.95013
  454 149.157 18.4605 13.7810
  455 123.993 -9.22108 -1.95680
  456 135.741 -1.49307 -2.10599
  457 143.071 -0.497564 1.44924
  458 145.216 -0.147064 0.260109
  459 145.354 -0.174336 -0.197827
  460 76.7843 -0.163591 0.885191
  461 76.7483 -0.165893 -0.896025
  462 135.960 -8.58956 9.93091
  463 121.378 4.73453 10.3086
  464 127.413 0.502855 -13.6085
  465 133.946 -2.74604 5.84094
  466 196.860 30.9816 -36.1912
  467 134.115 -7.40090 -10.9248
  468 0.826353 2.46447 0.740847
  469 0.834515 2.48594 -0.0786856
  470 105.305 -6.07985 3.73505
  471 104.933 -6.00346 -3.69735
  472 168.844 2.45535 18.9687
  473 46.5478 41.0909 -47.0230
  474 132.076 -0.374073 4.60915
  475 151.245 -8.87790 -10.3588
  476 78.4306 -4.62588 13.1041
  477 161.035 28.5863 -9.67877
  478 132.167 -7.11300 9.22670
  479 110.200 -5.34571 -1.64478
  480 110.298 -5.25377 1.63744
  481 113.606 0.579271 -5.83464
  482 78.1777 -4.61014 -13.1964
  483 116.729 0.0167655 5.88465
  484 113.061 -12.9078 -16.5471
  485 112.767 -12.9275 16.5927
  486 136.662 -0.858637 4.16569
  487 122.759 11.5433 1.23378
  488 126.919 1.90364 42.5578
  489 185.922 38.2198 -0.241801
  490 128.017 -2.06189 1.09966
  491 128.028 -2.05363 -1.12912
  492 96.8760 -1.79540 -1.38716
  493 96.8791 -1.77921 1.38041
  494 50.7971 2.49514 23.4277
  495 132.710 -6.35149 -10.6364
  496 120.081 -2.56668 0.338942
  497 120.069 -2.55586 -0.335436
  498 104.238 -11.1026 13.5537
  499 51.8164 3.27481 -24.0398
  500 133.070 -10.8099 -5.73266
  501 2.10239 0.0894485 1.38494
  502 114.623 5.83810 0.426204
  503 128.546 -1.37827 -0.372414
  504 128.539 -1.39991 0.366162
  505 104.321 -11.0871 -13.6658
  506 151.430 -7.92031 13.6192
  507 149.211 5.43052 14.1652
  508 138.140 -0.825849 -1.07639
  509 132.660 -10.9663 5.79662
  510 80.5824 -0.104115 -0.147857
  511 80.5954 -0.103293 0.146227
  512 132.235 -5.04240 -11.2417
  513 127.298 9.41212 11.3292
  514 147.334 3.64517 -13.9735
  515 80.1026 -0.154069 -0.495016
  516 80.1191 -0.152079 0.490936
  517 261.918 37.8047 -34.0330
  518 132.657 15.8475 10.0248
  519 138.273 -0.747519 0.963082
  520 124.096 -11.7875 0.604235
  521 103.309 -3.50118 2.00489
  522 103.312 -3.53014 -2.00093
  523 145.177 -8.79461 5.11439
  524 138.997 -2.73350 -14.2290
  525 155.196 30.7821 7.90908
  526 128.554 2.19861 14.0970
  527 130.524 -2.41225 2.01739
  528 126.985 -13.4898 -15.7538
  529 131.092 -3.20920 10.9874
  530 259.318 11.8370 -4.78836
  531 144.165 -10.8321 -1.42393
  532 137.279 -0.790714 -0.279086
  533 137.309 -0.850054 0.254048
  534 261.981 17.6013 16.8641
  535 125.176 -0.0598670 11.9891
  536 177.749 29.4220 -4.73362
  537 132.748 -3.53586 -5.72839
  538 57.6567 -0.577490 -4.06195
  539 57.8546 -0.550040 4.01724
  540 88.8587 -8.35553 -18.8348
  541 88.9182 -8.21431 18.6859
  542 130.456 -2.30541 -1.99468
  543 141.712 5.22143 -15.4422
  544 124.374 -8.47246 2.42832
  545 133.274 15.3137 -10.4250
  546 135.109 -1.50396 5.61070
  547 170.752 8.14068 -0.317799
  548 114.903 -3.95619 -0.224799
  549 114.863 -3.93922 0.217937
  550 125.297 -5.89127 2.82051
  551 186.482 36.3930 -0.947368
  552 131.565 5.75889 14.6533
  553 55.8095 14.4357 34.7835
  554 128.329 -7.72487 28.1127
  555 171.201 7.41937 -30.7496
  556 134.552 11.1379 -13.6784
  557 120.134 -10.3221 -24.3100
  558 129.993 -14.2120 -4.01628
  559 136.055 -13.7180 -6.26951
  560 17.2911 21.9362 -20.8283
  561 136.692 -1.63219 -3.57239
  562 206.750 40.3608 -11.1649
  563 125.996 -5.63827 -3.06927
  564 127.124 -4.07651 2.52645
  565 127.003 -3.97845 -2.43746
  566 85.6290 -0.551026 -1.07733
  567 85.6431 -0.543813 1.06855
  568 11.2546 1.31919 -6.70340
  569 11.9747 1.37977 6.86618
  570 63.6312 -3.03380 -13.8166
  571 64.1445 -3.04912 13.7863
  572 128.843 -6.94405 -5.40364
  573 131.573 -14.2684 4.40516
  574 135.273 -12.7925 1.90123
  575 109.826 -1.94742 -0.337371
  576 109.818 -1.93166 0.335201
  577 104.633 -10.9343 -20.8304
  578 117.743 -9.59876 25.7775
  579 102.000 -10.2739 20.9636
  580 132.307 -2.91325 -13.8628
  581 81.1108 -1.43869 4.11421
  582 81.0722 -1.45439 -4.15339
  583 125.473 6.89388 -11.3632
  584 125.821 -0.218237 -5.31796
  585 157.905 34.6106 -3.64414
  586 102.056 -1.59343 -0.360773
  587 102.056 -1.58158 0.358641
  588 134.915 -0.379780 -3.04737
  589 91.6493 -3.22656 -4.47592
  590 91.6454 -3.21336 4.43173
  591 75.4717 3.63579 33.4295
  592 131.317 -5.99321 -7.86328
  593 72.2735 -3.74955 23.9653
  594 129.037 -6.64913 5.49795
  595 136.259 -1.83006 3.92653
  596 134.704 -1.11248 -0.969132
  597 92.5628 -1.22051 -0.975374
  598 92.5707 -1.20977 0.968911
  599 151.355 30.4530 -7.05695
  600 72.2264 -3.59585 -24.0661
  601 128.619 -5.51648 -4.46036
  602 115.470 -2.11963 -0.124744
  603 115.457 -2.10202 0.124085
  604 220.570 29.8502 -5.17342
  605 74.6819 -0.523391 2.28771
  606 74.6155 -0.528682 -2.31194
  607 118.625 2.66250 9.69901
  608 172.964 14.0077 -3.76478
  609 80.5495 0.707450 -33.2112
  610 40.1967 1.14078 -17.9046
  611 40.5546 0.894184 17.8078
  612 100.678 -6.01831 5.45686
  613 101.791 -6.19542 -5.27553
  614 174.067 34.9852 4.54855
  615 134.112 -1.15754 0.889632
  616 113.070 3.09530 -5.83865
  617 142.389 25.7689 6.34584
  618 141.825 26.7497 -4.21818
  619 116.590 -6.51318 -0.429189
  620 117.517 -6.35854 0.00273292
  621 83.9582 18.1299 -48.0052
  622 99.3465 -3.51368 -2.97535
  623 99.3505 -3.47121 2.96207
  624 260.024 53.1294 39.8929
  625 132.239 -4.29482 12.0732
  626 73.7997 -2.72507 -8.85461
  627 209.444 46.1921 29.6056
  628 73.9786 -2.70826 8.81518
  629 127.366 -4.92113 -33.0024
  630 87.2822 -0.489168 -0.398410
  631 87.2940 -0.484831 0.395924
  632 108.678 0.924733 5.08738
  633 48.2443 -0.757448 -7.96917
  634 48.5427 -0.759172 7.90053
  635 115.048 -8.22569 1.87009
  636 120.924 -9.73539 0.0401127
  637 143.841 -0.266123 -1.30304
  638 78.0816 -0.150460 0.642175
  639 78.0555 -0.152993 -0.650201
  640 108.093 -2.46914 -0.451783
  641 108.086 -2.45329 0.446723
  642 125.354 -13.8544 15.9542
  643 143.521 16.0655 -13.9642
  644 94.2633 -4.54384 -5.78479
  645 94.1857 -4.46517 5.73796
  646 112.833 -8.22275 -2.87840
  647 179.239 39.2737 0.287211
  648 134.441 -12.9642 -1.13452
  649 115.939 -2.75857 -0.0356472
  650 115.919 -2.74261 0.0365097
  651 160.884 17.4938 11.2961
  652 134.533 -1.86919 -6.10166
  653 117.458 -0.172453 -4.79960
  654 53.4755 -1.81707 -17.3194
  655 53.6552 -1.87304 17.1665
  656 112.593 -9.82094 -4.93560
  657 169.772 37.8400 0.150783
  658 130.657 17.7424 -4.51505
  659 85.2505 -0.847987 -2.01383
  660 85.2667 -0.835868 1.99479
  661 122.538 -3.41517 -0.957995
  662 122.562 -3.42134 0.987018
  663 232.145 30.4315 13.3227
  664 146.474 -0.337594 0.372674
  665 140.784 -0.503448 2.20614
  666 140.158 -0.522293 -2.55756
  667 132.701 -12.3178 3.05078
  668 95.9577 -1.18098 -0.488002
  669 95.9636 -1.17170 0.485262
  670 141.058 22.7460 9.72948
  671 182.440 40.7363 -1.45130
  672 98.3472 -7.46909 -8.20391
  673 98.3078 -7.39153 8.15636
  674 124.273 -12.8286 -1.78408
  675 130.486 7.74940 -13.7729
  676 156.686 0.344763 6.99016
  677 102.133 -1.96043 -0.917837
  678 102.133 -1.94622 0.912883
  679 88.3648 -7.82380 -17.0108
  680 131.413 -12.6824 -1.80305
  681 108.695 -12.0717 14.9197
  682 51.4257 16.4042 -33.5229
  683 101.049 -9.47356 11.4961
  684 121.757 0.0300737 4.45722
  685 88.4396 -7.73259 16.8867
  686 128.540 -5.62886 4.51518
  687 101.096 -9.43680 -11.6120
  688 102.076 1.26711 1.06287
  689 78.8033 -2.23076 6.25843
  690 78.7312 -2.23460 -6.30869
  691 108.778 -12.3863 -15.0926
  692 135.021 -8.84847 -9.61284
  693 123.630 -1.64409 -0.238973
  694 123.649 -1.66350 0.239973
  695 138.118 -8.73786 9.60212
  696 125.276 -13.1013 2.26430
  697 152.579 13.9893 13.8526
  698 137.332 -2.52665 14.5782
  699 132.139 -4.68472 9.02209
  700 125.246 10.2686 -8.61817
  701 151.807 25.6508 10.9161
  702 130.829 -1.78345 -8.58672
  703 130.771 -4.26291 4.85793
  704 134.271 21.1277 2.44557
  705 132.881 -2.20297 7.55794
  706 41.2525 27.9141 35.0497
  707 123.817 -14.2207 -8.86099
  708 143.392 2.64418 14.9033
  709 145.066 -4.45429 -10.9841
  710 145.623 -0.136376 0.743546
  711 132.139 -4.47147 -7.19708
  712 123.974 -14.3346 7.97648
  713 244.316 21.6165 -3.63836
  714 71.5115 -0.338987 2.39818
  715 71.4211 -0.342886 -2.42372
  716 134.337 -2.34148 -3.47146
  717 146.550 -0.0989335 -0.718364
  718 112.365 -9.97721 4.96393
  719 135.587 -4.99644 13.3106
  720 208.977 48.6444 -13.1646
  721 128.507 -9.30182 4.76074
  722 143.012 -9.36540 -6.18600
  723 130.826 -4.14335 -4.78270
  724 146.621 -0.192281 -0.255887
  725 131.972 0.00673359 14.9619
  726 5.86054 4.52347 6.98892
  727 150.813 -5.99904 -20.8789
  728 163.577 9.49654 7.68490
  729 135.864 -13.8344 5.46903
  730 94.9915 -2.38402 2.45113
  731 94.9963 -2.41890 -2.46577
  732 129.280 61.8365 -65.9106
  733 138.195 -9.08668 -8.94942
  734 101.649 0.458354 -2.03075
  735 120.008 0.628978 9.49585
  736 133.040 -6.60941 10.8243
  737 127.527 -10.7465 2.80435
  738 133.285 -12.0904 -17.1345
  739 126.700 -10.0260 -3.00606
  740 150.642 -7.21907 -2.92258
  741 138.619 -1.02841 2.05261
  742 122.890 -7.39734 1.79940
  743 226.435 45.3302 -23.7695
  744 131.481 -3.43002 3.89587
  745 129.289 2.10061 -14.4890
  746 111.232 -1.30150 37.2352
  747 138.851 11.2193 14.9116
  748 119.389 -9.45564 0.609373
  749 91.2926 -7.32502 -12.3738
  750 91.2924 -7.30186 12.2629
  751 126.200 14.1877 -2.01550
  752 128.955 -1.47693 13.0106
  753 130.566 -3.08058 -11.1992
  754 123.035 -7.54461 -1.84507
  755 118.849 -10.7162 2.39516
  756 135.343 22.4588 -2.78530
  757 127.365 -11.0216 -2.29949
  758 127.657 -8.06158 4.59145
  759 129.646 -1.55033 0.763717
  760 129.734 -1.50394 -0.760282
  761 174.479 38.6336 1.53408
  762 143.118 -12.1264 -3.16182
  763 132.551 -3.99015 7.15003
  764 138.709 -1.02156 -1.88169
  765 139.383 0.956453 -15.3026
  766 159.573 8.24539 -9.77832
  767 75.3669 -0.0965300 -1.10613
  768 75.4154 -0.0953200 1.09334
  769 1.01205 -2.67236 -1.92082
  770 135.256 -0.129659 2.82785
  771 123.004 -0.237545 -10.5456
  772 127.455 -1.18858 9.37824
  773 117.971 13.9540 55.0950
  774 145.199 30.1235 -0.339561
  775 102.704 -7.49591 6.27120
  776 16.6341 0.428688 -6.69681
  777 17.1887 0.320239 6.77108
  778 126.217 -0.904887 -10.5437
  779 103.008 -7.57454 -6.26633
  780 137.871 -1.12799 1.59246
  781 68.3608 -3.00929 11.8034
  782 67.7463 -3.00004 -11.8172
  783 131.481 -3.32612 -3.79777
  784 81.9644 -2.18281 -5.42993
  785 82.0044 -2.16723 5.37556
  786 137.105 -1.21185 -4.26077
  787 103.246 -2.83771 -1.59518
  788 103.245 -2.81723 1.59524
  789 149.877 -0.955992 -11.0786
  790 134.120 -1.38202 -15.0861
  791 65.9911 -0.455488 -3.07799
  792 66.1296 -0.451300 3.03890
  793 2.47982 1.69701 -3.92831
  794 3.11052 1.78751 4.14224
  795 106.854 0.489071 -3.70051
  796 122.679 -13.7907 -6.41093
  797 -1.45330 -1.02016 2.46748
  798 -1.25980 -1.17616 -2.43175
  799 127.812 -2.46848 1.60098
  800 138.862 -10.7812 -5.55183
  801 142.610 21.2281 -11.3866
  802 138.516 -1.00614 -1.50959
  803 303.119 60.0993 -56.9328
  804 127.787 -2.45859 -1.58138
  805 193.340 37.1923 2.66899
  806 136.404 3.98640 -15.6958
  807 151.284 11.3915 -14.1288
  808 23.5691 -0.281765 -6.23579
  809 24.0662 -0.320019 6.22295
  810 83.2192 -1.28132 3.18271
  811 83.1923 -1.29269 -3.21533
  812 78.8632 -0.216652 0.588510
  813 78.8436 -0.218833 -0.594113
  814 152.613 25.7837 -10.8611
  815 88.2655 -0.610719 -0.851107
  816 88.2771 -0.603455 0.845246
  817 129.366 -1.30000 -13.5675
  818 190.269 18.2392 14.3646
  819 115.376 2.50411 -8.14322
  820 38.4616 -0.361308 6.73642
  821 38.0946 -0.364489 -6.79428
  822 153.063 3.57551 39.1601
  823 134.179 -2.36167 3.58310
  824 118.267 7.78268 -3.39611
  825 53.0856 -0.104269 4.62515
  826 52.7846 -0.0785603 -4.66294
  827 80.8347 -0.461874 -1.54626
  828 80.8611 -0.455219 1.52957
  829 14.2704 12.8198 10.6285
  830 123.801 2.91084 12.1744
  831 138.268 20.4088 -9.68944
  832 149.458 17.3627 -13.9162
  833 96.8199 -3.78556 -3.97854
  834 96.7558 -3.75417 3.96975
  835 154.491 33.1767 5.00809
  836 134.142 -0.987152 -0.215608
  837 134.146 -0.979328 0.239380
  838 132.130 -3.90128 -9.05386
  839 110.016 -7.43550 3.39763
  840 121.887 -13.7081 6.46711
  841 144.236 -11.8191 10.2006
  842 108.884 -3.20648 -0.802031
  843 108.880 -3.19211 0.794226
  844 124.423 11.5064 5.52049
  845 116.534 1.53411 -8.81131
  846 32.4431 36.5458 36.4714
  847 119.238 -10.6316 -2.09532
  848 119.579 -5.35168 0.762980
  849 119.645 -5.35897 -0.768296
  850 131.578 -1.91427 14.3173
  851 130.837 -8.56301 -7.04013
  852 116.372 -7.77534 -0.963882
  853 273.070 8.85540 -13.7645
  854 110.500 -10.5577 7.04297
  855 110.420 -10.6996 -7.16797
  856 131.550 -1.54170 7.31796
  857 200.093 51.2836 -9.96706
  858 103.418 -9.52703 -9.03632
  859 114.807 -12.9848 8.37358
  860 103.378 -9.40809 8.94878
  861 112.305 -4.57199 -0.856166
  862 112.298 -4.55369 0.847156
  863 15.9116 7.01909 9.27964
  864 141.475 10.5939 -15.1770
  865 107.524 -4.27348 -1.64158
  866 107.541 -4.22760 1.64845
  867 106.041 -1.78424 -0.193299
  868 106.037 -1.77043 0.191588
  869 117.326 -2.29249 0.144158
  870 117.311 -2.27537 -0.144547
  871 94.1416 -1.93843 -2.13386
  872 94.1451 -1.91549 2.12281
  873 107.998 -5.78845 -2.58753
  874 108.009 -5.74474 2.59827
  875 2.45098 -1.57528 -0.809074
  876 164.490 30.8661 8.58503
  877 141.415 -4.90986 -12.4756
  878 114.728 -12.7991 -8.47464
  879 124.142 -3.94983 1.61469
  880 124.084 -3.90549 -1.57666
  881 135.273 0.198642 15.4023
  882 148.271 -10.5841 -5.04846
  883 131.655 8.79481 -47.6347
  884 58.1571 -0.841540 23.2468
  885 -2.76086 1.35919 -1.38691
  886 -2.45167 1.53062 1.56386
  887 15.7811 7.46682 -9.46375
  888 132.573 -3.72951 5.70662
  889 140.053 -0.824756 -2.42781
  890 125.696 -12.0317 19.8989
  891 58.0138 -0.771523 -23.3471
  892 140.098 -11.4004 4.21829
  893 157.043 -4.90325 16.8461
  894 111.048 0.431815 3.92934
  895 128.485 12.2227 9.44046
  896 68.6019 -3.91142 17.1945
  897 68.3267 -3.94360 -17.3194
  898 82.4239 -4.05456 -9.60546
  899 87.6864 -4.18109 -29.7717
  900 139.812 -3.21896 13.8365
  901 193.591 44.9073 5.22798
  902 140.149 5.42546 15.4766
  903 132.508 -2.77171 -8.22788
  904 89.5921 -3.74707 30.5208
  905 169.670 31.1517 -6.76620
  906 16.1013 13.8818 -13.1898
  907 121.403 -0.261468 -4.25172
  908 82.5103 -4.01941 9.51100
  909 101.296 -2.30206 1.42253
  910 101.297 -2.31960 -1.42685
  911 131.036 -8.51823 7.24856
  912 136.733 -0.742132 0.636799
  913 100.052 0.988710 -37.1460
  914 144.473 -0.273521 1.15417
  915 143.223 -0.219194 -1.45103
  916 104.240 0.867072 -3.39206
  917 137.870 -0.541397 -2.51817
  918 101.759 -4.88484 -3.58342
  919 101.827 -4.80811 3.59286
  920 -3.55925 1.19433 -2.07674
  921 -4.81260 0.719508 2.15888
  922 136.737 -0.681545 -0.639060
  923 43.5290 -0.956614 15.6605
  924 43.2420 -0.856126 -15.7570
  925 145.076 21.2617 12.0701
  926 266.478 4.79136 4.30010
  927 136.264 15.2069 12.4944
  928 156.164 -5.62587 3.79447
  929 134.727 -7.45045 10.9634
  930 168.021 35.3311 -5.13473
  931 101.818 0.381058 2.55353
  932 129.747 -2.95345 -2.45772
  933 134.193 7.22096 -15.1030
  934 163.919 4.59976 -4.18363
  935 126.224 -7.78356 -3.72943
  936 62.2481 -0.377856 -3.45737
  937 62.3229 -0.364647 3.40517
  938 133.411 -3.05547 -6.55786
  939 4.10897 5.33018 0.711685
  940 128.019 -13.2638 -0.439167
  941 108.988 3.12913 -0.351092
  942 166.681 36.9033 -3.41760
  943 25.5803 19.1021 -22.3270
  944 127.469 -0.944847 -8.40501
  945 86.8862 -1.54445 -2.95076
  946 86.8992 -1.52541 2.92192
  947 0.660378 -3.76533 2.90720
  948 85.7389 -6.50440 -13.7947
  949 130.341 -7.49316 -6.80754
  950 78.4811 0.166822 -0.239320
  951 78.4948 0.167795 0.237326
  952 130.790 15.8994 -7.58945
  953 142.300 -0.317655 -0.234800
  954 142.297 -0.324444 0.303221
  955 85.7705 -6.48396 13.6917
  956 131.608 -0.153023 -3.34850
  957 152.424 1.08986 10.7667
  958 135.079 -1.79816 2.79879
  959 20.4838 5.44935 -11.9120
  960 140.372 -0.760877 2.20980
  961 125.864 0.982360 13.0781
  962 132.780 18.4596 6.75443
  963 133.288 1.55159 -15.4831
  964 90.6900 -5.00567 -8.16372
  965 144.667 -5.06728 10.6372
  966 90.7462 -4.98361 8.07259
  967 3.87871 4.34913 0.0103750
  968 14.7661 2.72510 8.71033
  969 73.1083 -1.37015 5.68290
  970 73.0140 -1.37257 -5.72011
  971 129.836 -3.01549 2.57540
  972 138.744 24.2839 3.77394
  973 70.3175 6.59047 -35.0311
  974 116.133 -7.31193 0.786162
  975 108.967 -11.4666 -10.8698
  976 159.677 30.7254 8.67062
  977 122.581 -2.09246 0.343590
  978 122.577 -2.07924 -0.343973
  979 134.782 -2.40003 -4.77505
  980 123.200 10.5959 -5.09623
  981 289.373 84.1650 56.8597
  982 24.5571 1.49751 -11.6535
  983 24.9880 1.24761 11.6842
  984 1.82260 -3.01580 0.287853
  985 123.677 6.80573 10.4596
  986 108.919 -11.5331 10.7820
  987 135.641 -6.36245 -12.3607
  988 147.679 12.1002 15.1347
  989 142.750 -11.5210 -12.8068
  990 209.077 44.1217 13.9552
  991 120.211 -1.88098 0.000869609
  992 120.196 -1.86329 -0.000556982
  993 141.309 -5.70212 11.8786
  994 9.51233 14.3998 15.9182
  995 61.4418 -1.35571 8.17258
  996 61.2338 -1.33860 -8.26968
  997 74.1019 -3.74685 11.1264
  998 73.8357 -3.69241 -11.1753
  999 83.7391 -3.57876 7.92932
  1000 91.5244 -0.791450 -0.393908
  1001 91.5338 -0.785160 0.391989
  1002 238.136 73.5549 -46.1237
  1003 213.082 53.3068 20.9385
  1004 83.6718 -3.59910 -8.00425
  1005 145.606 -0.629036 13.0617
  1006 129.117 13.4056 -9.10789
  1007 91.1935 -7.78446 24.6470
  1008 117.900 -13.9167 -12.8682
  1009 134.890 -1.06145 -4.95939
  1010 59.8593 4.29249 28.3979
  1011 76.8930 -5.89641 19.7037
  1012 117.827 5.97108 -6.52765
  1013 136.260 -2.66058 -14.7178
  1014 178.982 68.2559 75.7131
  1015 110.823 3.31736 4.62581
  1016 152.844 33.2541 -0.598242
  1017 113.124 4.31033 -42.2915
  1018 114.133 -12.0899 -7.16194
  1019 146.744 -0.0961697 -0.590403
  1020 139.151 12.8122 -14.5329
  1021 79.4816 -0.567693 2.00791
  1022 79.4462 -0.573580 -2.02969
  1023 2.82090 0.543535 -3.71219
  1024 90.6842 -4.27928 -6.78565
  1025 76.8046 -5.97385 -19.8651
  1026 90.6044 -4.26735 6.70174
  1027 133.092 -4.01344 13.6066
  1028 119.221 -7.40685 0.336166
  1029 124.708 2.26065 -12.6484
  1030 128.257 16.0477 2.65568
  1031 177.265 10.0467 4.66225
  1032 132.099 -10.0010 7.00302
  1033 82.2095 -6.67987 -15.0985
  1034 123.532 4.32510 -11.8077
  1035 92.0403 -7.67422 -24.7931
  1036 178.339 39.0858 -0.427439
  1037 119.754 7.80608 5.93759
  1038 153.714 -0.952546 -8.55970
  1039 114.851 -12.0899 6.51835
  1040 131.907 -4.13184 10.5960
  1041 131.186 -6.88205 7.87029
  1042 130.470 -6.51595 6.87939
  1043 161.706 20.4305 -11.5556
  1044 129.926 -2.06821 10.6230
  1045 117.679 -13.9560 12.6491
  1046 125.637 -5.09257 2.55200
  1047 82.2580 -6.69033 15.0030
  1048 117.661 -8.74093 -1.01348
  1049 67.3966 -3.23935 -21.0842
  1050 97.1399 -10.1380 16.6106
  1051 132.533 -0.858665 -5.71884
  1052 128.757 -1.44124 -12.0121
  1053 111.366 -8.91491 -4.21724
  1054 67.5150 -3.34005 20.9047
  1055 119.330 0.258457 -8.25643
  1056 88.3685 -6.00724 -10.6266
  1057 162.483 34.8552 5.58450
  1058 35.1025 6.05020 -19.7399
  1059 285.114 20.1871 27.8529
  1060 64.2327 4.99086 -29.7868
  1061 130.491 -10.7881 -4.62333
  1062 88.3866 -5.95283 10.5303
  1063 117.946 1.19325 9.20136
  1064 64.8316 -1.37853 6.75985
  1065 64.7921 -1.41322 -6.83421
  1066 131.812 -3.63673 -12.5928
  1067 141.424 -0.606480 0.952176
  1068 137.977 -0.272712 2.55312
  1069 135.899 4.53988 15.6388
  1070 126.741 -0.954310 11.2498
  1071 98.9638 10.4154 45.8014
  1072 147.772 -0.0704715 0.299043
  1073 136.483 18.5741 9.95192
  1074 114.513 1.59877 7.90423
  1075 139.947 -0.491904 2.46683
  1076 87.6717 -1.02069 -1.62925
  1077 87.6833 -1.00870 1.61653
  1078 55.1808 -1.61855 -11.2589
  1079 55.4184 -1.67643 11.1723
  1080 114.871 5.65122 3.30871
  1081 178.092 8.87560 -11.3520
  1082 163.576 -0.655568 -23.3270
  1083 128.126 -0.100587 -3.45288
  1084 97.1915 -10.2159 -16.7438
  1085 111.597 -8.47721 3.71168
  1086 128.927 -0.284039 3.60649
  1087 135.748 -9.79645 -8.17176
  1088 82.2660 -0.228677 0.988158
  1089 82.2495 -0.232470 -0.995417
  1090 130.237 -11.0975 4.62245
  1091 123.622 -2.45223 0.614357
  1092 123.602 -2.45385 -0.604970
  1093 120.185 -12.1534 3.79831
  1094 156.401 -5.13004 -0.331257
  1095 67.7520 -0.133438 -1.91320
  1096 67.8709 -0.128781 1.89056
  1097 105.613 -6.57383 -28.4033
  1098 111.671 -2.67469 0.370313
  1099 111.684 -2.69186 -0.375557
  1100 67.9845 35.8115 50.2790
  1101 156.401 12.7490 -12.8073
  1102 22.0626 11.0171 -14.6231
  1103 135.179 -1.90356 -2.70830
  1104 34.9818 12.3000 -22.6105
  1105 73.3322 -4.71488 -14.3747
  1106 147.910 -0.104791 0.172766
  1107 147.982 -0.0947832 -0.129958
  1108 132.501 -7.51837 -9.45379
  1109 117.382 -13.1219 -17.9470
  1110 35.1140 5.14960 18.8110
  1111 144.000 14.2981 14.2634
  1112 131.211 -1.19491 -0.260633
  1113 131.223 -1.19664 0.274148
  1114 144.142 -9.39925 21.6648
  1115 147.164 29.7219 5.55031
  1116 85.7628 -2.17590 -4.25533
  1117 85.7807 -2.16439 4.22011
  1118 65.8172 7.68263 35.3316
  1119 124.421 0.604012 -12.2594
  1120 38.3243 12.5923 24.3777
  1121 162.604 -3.00849 -6.21927
  1122 157.912 35.3029 1.75364
  1123 108.011 -8.67117 5.29134
  1124 97.7195 0.464885 -0.497173
  1125 138.614 -1.13964 3.21861
  1126 143.906 -0.134165 1.26291
  1127 29.2437 0.0690291 -5.63499
  1128 29.7020 0.0530479 5.59334
  1129 110.656 1.77084 -5.84017
  1130 115.419 -3.39790 -0.0977525
  1131 115.389 -3.37910 0.0959435
  1132 11.8724 16.7335 -16.8850
  1133 19.1544 38.5989 -34.7945
  1134 116.982 -4.58220 -0.115360
  1135 117.033 -4.58502 0.110141
  1136 121.106 -2.86918 0.686937
  1137 121.089 -2.86121 -0.675030
  1138 31.0293 19.9398 24.3936
  1139 94.0436 -1.23418 -0.759134
  1140 94.0510 -1.22445 0.754549
  1141 119.057 8.93698 -0.143060
  1142 156.308 18.2071 -53.0230
  1143 146.617 25.4213 -9.49949
  1144 134.012 -5.10445 -12.9418
  1145 132.065 -6.53665 -9.52698
  1146 108.096 -8.75570 -5.38631
  1147 107.353 0.319134 3.60554
  1148 121.973 7.54954 -8.73546
  1149 120.156 6.40200 8.32685
  1150 125.551 -4.93928 -2.50995
  1151 119.539 -7.25348 -0.420853
  1152 108.182 -7.11358 -3.89530
  1153 129.288 -0.742254 6.72787
  1154 233.135 23.6287 3.31923
  1155 130.272 -2.75258 12.2652
  1156 130.366 8.56343 13.2276
  1157 120.762 -11.9372 -2.64079
  1158 13.9029 2.51160 -8.38794
  1159 123.033 -5.67345 -1.95495
  1160 79.0741 -0.154854 -0.0422149
  1161 79.0858 -0.154279 0.0415345
  1162 150.952 -3.99111 7.46422
  1163 143.900 -12.0841 4.01573
  1164 207.469 37.4354 8.75715
  1165 46.7259 -0.119628 -4.73258
  1166 47.0416 -0.109039 4.69300
  1167 109.113 -2.22845 -0.356171
  1168 109.105 -2.21260 0.352413
  1169 123.467 -10.9249 0.456988
  1170 98.6576 0.406632 1.62364
  1171 126.519 -9.00403 3.63560
  1172 6.72201 7.99894 -3.44829
  1173 21.8646 11.1550 14.3167
  1174 83.9601 -4.45114 27.4792
  1175 145.919 28.0179 -6.77152
  1176 140.499 -0.360522 -1.94473
  1177 148.580 -0.206784 0.128869
  1178 148.747 -0.294870 -0.0884166
  1179 82.6816 -0.243330 -0.153202
  1180 82.6945 -0.241525 0.151696
  1181 134.436 8.61866 15.0854
  1182 201.330 34.7799 -0.732647
  1183 138.314 23.0110 -6.77496
  1184 103.775 -7.52955 28.2168
  1185 83.5105 -4.26291 -27.4311
  1186 92.3299 -6.33826 -9.47501
  1187 129.876 -3.53955 3.22896
  1188 182.169 39.9063 -0.0252052
  1189 92.3299 -6.29697 9.39135
  1190 132.943 -2.20385 2.44760
  1191 116.787 4.26363 7.93176
  1192 129.740 4.00563 14.4382
  1193 186.857 41.8793 3.33672
  1194 109.344 -2.89049 0.680569
  1195 109.353 -2.90683 -0.687487
  1196 134.580 -2.42514 4.95224
  1197 77.2409 -0.893533 3.16801
  1198 77.1857 -0.903006 -3.20104
  1199 131.741 -1.66770 -1.16432
  1200 53.6093 31.6771 -48.4071
  1201 113.999 -6.36873 -30.1941
  1202 106.180 -3.40361 -1.41533
  1203 106.188 -3.38575 1.41544
  1204 142.094 -0.565725 0.840955
  1205 133.823 -1.62510 1.96620
  1206 6.90932 8.35024 5.93668
  1207 146.492 -0.125159 0.683669
  1208 16.6928 20.6392 20.4724
  1209 130.525 -1.82844 -1.48087
  1210 -0.218625 -3.27201 -2.85319
  1211 91.2906 -8.89505 -21.2195
  1212 91.0138 -8.67482 20.9953
  1213 146.493 -0.222838 -0.748683
  1214 123.845 -6.52403 -2.27606
  1215 141.962 -0.504995 -0.878391
  1216 111.925 -3.65707 -0.532389
  1217 111.910 -3.64067 0.522066
  1218 131.651 -1.65359 1.10082
  1219 122.941 -5.56476 1.93438
  1220 118.047 -3.78300 -0.390859
  1221 118.093 -3.79645 0.407185
  1222 141.869 -0.521209 -0.722492
  1223 121.719 -12.7436 -20.3086
  1224 138.570 -0.723997 -0.755829
  1225 131.115 -1.88487 1.57219
  1226 89.1759 -1.06237 -1.18509
  1227 89.1865 -1.05151 1.17635
  1228 100.488 -1.53433 -0.558093
  1229 100.490 -1.52242 0.554341
  1230 165.882 25.7481 9.94820
  1231 139.199 -10.6242 6.41151
  1232 94.9284 -0.359718 34.9985
  1233 73.5586 -0.152801 1.21378
  1234 73.4952 -0.154313 -1.22777
  1235 131.230 -2.38515 9.28182
  1236 125.887 -1.80035 0.393596
  1237 125.896 -1.79307 -0.393327
  1238 143.450 28.1655 3.14119
  1239 132.574 -13.8319 15.7705
  1240 74.0558 -1.12046 4.48760
  1241 73.9787 -1.12968 -4.52544
  1242 125.633 -2.98621 1.38139
  1243 125.606 -3.00559 -1.34937
  1244 129.811 -3.49119 -3.12263
  1245 117.624 0.0122357 4.28105
  1246 208.070 51.6363 -16.1247
  1247 132.052 -4.76903 -8.40272
  1248 21.5023 5.37190 12.2763
  1249 136.543 -7.21720 11.6310
  1250 107.397 2.25833 -3.18991
  1251 7.68083 6.00115 4.12321
  1252 181.909 19.5101 0.348811
  1253 133.180 -6.01176 -11.6227
  1254 107.951 1.46065 4.88021
  1255 73.8712 -4.72052 14.3383
  1256 135.582 -10.4412 7.39900
  1257 199.325 36.5609 9.51276
  1258 44.3138 6.76589 24.0598
  1259 136.452 -1.51861 -4.25189
  1260 268.828 2.95350 -2.76400
  1261 278.332 4.22885 12.4098
  1262 298.060 10.3747 -29.3191
  1263 131.746 -4.05852 -10.2943
  1264 131.890 -5.96347 8.94234
  1265 134.139 -9.49522 8.57539
  1266 -3.97571 0.404880 2.56201
  1267 -3.63457 0.307748 -2.76897
  1268 130.784 -14.3988 -6.79508
  1269 134.226 -13.5092 -10.6577
  1270 99.4441 0.593203 -2.01006
  1271 130.297 -14.6728 10.7069
  1272 138.981 -6.53738 -11.8378
  1273 2.29487 3.94613 0.0610466
  1274 112.004 -2.03809 0.317719
  1275 112.014 -2.05466 -0.318569
  1276 138.583 -1.00690 2.93499
  1277 132.948 -2.16105 -2.31161
  1278 124.812 -13.6367 -3.21408
  1279 113.336 -6.20887 1.32749
  1280 112.738 -6.12589 -1.51240
  1281 133.903 -2.75028 6.65670
  1282 137.157 -4.98884 -13.3850
  1283 7.98263 6.25841 -3.93577
</Section>

newXOutput 19

<Section columns = "stress_xx | stress_yy | stress_xy">
  1 158.220 0.0136064 0.332722
  2 158.235 0.0151517 -0.334016
  3 82.1913 -0.0460921 -0.120753
  4 -1.05972 -1.05388 -1.52227
  5 293.509 110.228 91.1160
  6 290.657 114.523 -91.7528
  7 -1.22898 -1.00697 1.61227
  8 82.1797 -0.0464457 0.120348
  9 159.430 -0.243144 0.108924
  10 159.042 -0.393934 -0.0616112
  11 158.588 -0.242462 0.401655
  12 158.141 -0.352544 0.144020
  13 157.189 -0.289548 0.634430
  14 156.336 -0.297248 0.482366
  15 154.394 -0.265040 0.901096
  16 151.696 -0.155768 1.31963
  17 149.274 -0.181707 1.45248
  18 145.746 -0.282609 1.73781
  19 140.934 0.00323940 2.54475
  20 136.486 -0.209139 2.39853
  21 131.520 -0.288715 3.35233
  22 124.336 0.207641 2.89616
  23 119.210 0.291437 3.40648
  24 112.530 0.504620 2.64961
  25 107.943 0.496903 2.66367
  26 101.289 0.726637 1.35295
  27 99.9039 1.14940 1.44525
  28 99.0773 0.924358 -0.424792
  29 100.227 0.504694 -0.943177
  30 102.334 0.512398 -1.15358
  31 107.313 0.663375 -2.31024
  32 112.147 0.522945 -2.93861
  33 119.307 0.0921216 -3.49552
  34 125.047 -0.0830498 -3.20821
  35 131.221 -0.232300 -3.17442
  36 136.838 -0.161673 -2.25456
  37 141.718 -0.161521 -1.94409
  38 145.781 -0.273714 -1.64659
  39 149.454 -0.185889 -1.16854
  40 151.790 -0.210782 -1.24948
  41 154.044 -0.276766 -0.917901
  42 156.213 -0.334774 -0.425715
  43 157.337 -0.263886 -0.484527
  44 157.969 -0.144677 -0.312273
  45 157.616 -0.0524442 -0.283657
  46 159.228 -0.402865 0.0347161
  47 159.491 -0.255588 -0.112522
  48 153.834 -0.0371017 -0.205023
  49 150.103 -0.530692 -0.355034
  50 145.589 -0.806518 -0.252655
  51 140.112 -1.25170 -0.340629
  52 134.957 -1.38915 -0.432202
  53 129.480 -1.79792 -0.406938
  54 124.655 -2.03440 -0.239911
  55 120.426 -2.32325 -0.107427
  56 115.555 -1.94041 -0.109057
  57 109.945 -1.83760 -0.151428
  58 104.531 -1.47266 -0.0641783
  59 99.3923 -0.961678 -0.0328730
  60 94.4975 -0.701339 -0.00729469
  61 90.1857 -0.380438 0.0331459
  62 85.7511 -0.117967 -0.140294
  63 82.2578 0.111748 0.152741
  64 80.7155 0.344657 0.0944304
  65 81.8437 -0.00603254 0.238167
  66 80.7307 -0.0589069 0.283168
  67 79.7332 -0.0822179 0.354575
  68 78.3593 -0.0209093 0.471214
  69 76.6221 -0.0126188 0.600050
  70 75.3964 -0.123553 1.18380
  71 71.6539 0.106606 1.29812
  72 69.0575 -0.0147784 1.50155
  73 65.1884 -0.0781874 1.69919
  74 60.7124 -0.126937 2.07355
  75 55.1251 -0.0341999 2.51752
  76 48.3095 0.0276492 2.76453
  77 42.5153 -0.0748731 3.94420
  78 30.9027 0.378360 3.69716
  79 23.1013 0.327794 3.91317
  80 13.8527 -0.0515512 4.30549
  81 6.27075 0.753808 4.42894
  82 -2.31227 1.10191 2.56502
  83 -8.43028 1.11315 0.797089
  84 -7.91050 1.04661 -0.575626
  85 -7.26100 0.857656 -2.23422
  86 -4.23885 -0.318056 -2.07883
  87 -0.548467 -4.06999 -2.28199
  88 0.352497 -7.56291 -2.90684
  89 1.05211 -12.2161 -1.75888
  90 2.37926 -12.9942 -0.208904
  91 5.09471 -4.85562 6.29213
  92 15.5307 20.7011 22.6107
  93 95.2186 82.4635 80.7814
  94 353.826 52.1914 60.0224
  95 317.187 7.53183 19.7964
  96 293.399 3.06823 6.05835
  97 284.586 2.57586 0.489094
  98 289.144 3.46765 -5.20843
  99 316.241 6.94930 -15.6446
  100 377.022 25.2221 -52.2933
  101 56.0438 83.4179 -67.0849
  102 11.6550 12.9437 -18.4685
  103 5.54097 -4.29670 -6.45782
  104 2.21389 -13.1337 -0.802798
  105 0.571001 -9.40735 2.04607
  106 0.761926 -9.50620 2.54072
  107 0.0180814 -3.54075 2.52387
  108 -4.41884 -0.225329 1.98234
  109 -7.49514 0.643303 1.96075
  110 -8.32151 1.27620 0.623810
  111 -8.71372 1.10055 -0.722079
  112 -2.90751 1.12958 -2.39077
  113 5.73523 0.760794 -4.21558
  114 13.3041 0.0266496 -4.23412
  115 22.5390 0.354770 -3.92349
  116 30.3918 0.388950 -3.72840
  117 42.1184 -0.0764770 -3.98109
  118 47.9688 0.0313987 -2.79425
  119 54.8285 -0.0327488 -2.55201
  120 60.5585 -0.139551 -2.09174
  121 64.9870 -0.0750897 -1.70518
  122 68.9065 -0.00982752 -1.51906
  123 71.5318 0.105102 -1.31449
  124 75.3112 -0.124659 -1.19773
  125 76.5558 -0.0133424 -0.608699
  126 78.3115 -0.0215829 -0.478368
  127 79.6994 -0.0833192 -0.360284
  128 80.7072 -0.0598476 -0.287184
  129 81.8260 -0.00687234 -0.240762
  130 80.7020 0.344095 -0.0956637
  131 82.2453 0.111496 -0.153496
  132 85.7378 -0.118942 0.139819
  133 90.1723 -0.382870 -0.0341251
  134 94.4857 -0.706784 0.00613432
  135 99.3840 -0.969276 0.0317397
  136 104.527 -1.48359 0.0630819
  137 109.947 -1.85131 0.150581
  138 115.563 -1.95614 0.108284
  139 120.438 -2.34059 0.107146
  140 124.670 -2.05158 0.240514
  141 129.500 -1.81356 0.408648
  142 134.972 -1.40012 0.438418
  143 140.121 -1.26148 0.369996
  144 145.612 -0.755286 0.258478
  145 150.210 -0.513832 0.347421
  146 153.852 -0.0606940 0.202152
  147 136.284 -12.7914 -1.93520
  148 136.180 -12.6212 1.98493
  149 142.150 20.5041 -7.52431
  150 152.387 9.02229 16.2031
  151 115.303 -11.0107 -24.6916
  152 116.210 -11.0065 23.8612
  153 111.046 -4.81822 2.66096
  154 111.060 -4.88883 -2.66509
  155 162.217 5.77292 -12.9175
  156 135.916 -4.81836 3.69975
  157 135.861 -4.69674 -3.65198
  158 175.698 39.6072 2.30850
  159 138.612 -0.219144 -15.5814
  160 101.779 -8.16414 -10.9544
  161 101.770 -8.09216 10.8472
  162 139.008 -3.11378 14.1814
  163 131.183 9.52834 9.16117
  164 53.5623 8.86513 -29.4335
  165 59.6062 8.37977 31.0496
  166 171.992 1.75050 3.02754
  167 139.641 -5.30038 -10.0840
  168 185.661 40.8437 -2.09780
  169 125.388 -3.51180 0.361672
  170 125.359 -3.49812 -0.348921
  171 141.850 -1.58458 -1.64166
  172 142.342 -1.40689 1.42670
  173 96.9081 -1.48343 -1.66850
  174 96.9160 -1.46716 1.65760
  175 153.335 -4.34115 31.3289
  176 126.758 5.19216 -9.85261
  177 82.3648 -6.25044 -17.8818
  178 82.6153 -6.20343 17.7517
  179 92.2630 -3.16242 -5.74929
  180 92.2667 -3.12423 5.69974
  181 140.378 -3.62074 8.56408
  182 127.254 -8.78111 0.434318
  183 126.779 -8.71535 -0.213163
  184 145.592 -14.0209 -1.26496
  185 146.315 -13.3559 -0.568999
  186 201.855 47.4030 -5.58047
  187 145.026 23.4279 7.05740
  188 145.697 8.96863 -16.0871
  189 152.960 -1.67439 -36.6473
  190 145.073 -8.14056 -11.6836
  191 146.290 -5.78775 13.5800
  192 121.557 -13.8315 11.7084
  193 121.611 -13.7384 -11.6663
  194 129.167 1.60447 11.8903
  195 58.1258 -1.34057 -21.7851
  196 58.2807 -1.47454 21.6397
  197 228.810 34.5031 4.85519
  198 137.247 -8.14038 6.62355
  199 142.604 -2.52942 -5.66482
  200 111.695 -2.79191 -1.14736
  201 111.694 -2.77540 1.14231
  202 136.114 -1.75259 -10.8840
  203 155.412 22.8934 -13.0903
  204 128.813 11.5314 -1.84216
  205 82.7238 -3.05944 8.19726
  206 82.5916 -3.07096 -8.26670
  207 145.071 -1.49628 3.19210
  208 140.215 2.64302 15.9947
  209 113.509 -8.40612 -4.94704
  210 112.678 -7.96255 5.10447
  211 166.173 24.6497 12.4068
  212 197.341 26.0420 2.32484
  213 12.4990 10.0441 -7.69767
  214 11.5345 9.28573 6.50666
  215 80.1257 22.6803 52.6286
  216 135.839 -9.00545 -5.28895
  217 145.662 -1.43891 -2.88831
  218 127.593 1.07367 -10.9420
  219 88.0818 -0.955723 -2.53568
  220 88.1066 -0.944589 2.50968
  221 121.675 -5.75972 -0.620123
  222 121.730 -5.79157 0.548858
  223 137.411 -1.82985 9.30167
  224 159.837 -9.29313 2.19239
  225 157.129 32.4141 -3.85361
  226 123.240 -11.9864 -5.13214
  227 156.958 -2.70170 10.9945
  228 133.237 -2.13657 0.706139
  229 133.241 -2.11682 -0.704930
  230 122.276 -11.9275 5.37997
  231 140.640 -8.87196 9.61451
  232 200.518 24.6384 -10.4401
  233 43.0170 25.6603 -37.5501
  234 117.066 4.01774 2.32742
  235 140.493 12.4110 13.4336
  236 150.643 -1.01718 -14.6710
  237 140.397 -5.01270 -13.3715
  238 72.8508 -2.44280 -10.3393
  239 73.1191 -2.40434 10.2986
  240 140.712 -1.64254 -7.27806
  241 134.189 -3.31360 2.05994
  242 134.126 -3.30657 -2.00150
  243 26.8781 2.64316 -13.6293
  244 27.3575 2.31953 13.5886
  245 150.425 -13.1174 -10.4325
  246 149.019 -0.410662 0.484707
  247 149.203 -0.419729 -0.513115
  248 137.019 11.3512 -12.2578
  249 119.598 2.21564 7.10252
  250 258.267 41.4075 27.6280
  251 256.362 29.2008 -17.4362
  252 182.653 39.7890 -0.603141
  253 113.859 -5.41165 33.0757
  254 104.267 -3.42738 -34.6505
  255 119.064 -2.44087 -0.310157
  256 119.050 -2.42288 0.306757
  257 97.7332 -2.73529 3.42016
  258 97.7386 -2.77488 -3.45588
  259 144.690 -1.47306 4.59878
  260 140.095 -9.93505 -8.09126
  261 88.3490 -0.208722 -0.577668
  262 88.3640 -0.205427 0.573198
  263 138.317 -5.53089 -6.38113
  264 56.7667 -1.89893 -14.2877
  265 57.0359 -1.90553 14.1744
  266 139.914 -6.01450 10.8533
  267 106.253 -11.2806 19.8254
  268 106.551 -11.4839 -19.7667
  269 118.922 4.46072 -3.30530
  270 102.587 -1.64883 -1.11790
  271 102.592 -1.63642 1.11248
  272 130.207 -0.349904 8.82324
  273 156.463 28.8418 9.12242
  274 81.7550 -1.07296 4.37072
  275 81.6909 -1.08256 -4.41322
  276 144.084 -11.9713 6.08311
  277 133.384 -14.9088 -12.7779
  278 149.472 -0.611153 1.51728
  279 101.808 -6.19482 -7.41189
  280 101.612 -6.12236 7.37829
  281 186.306 17.7982 46.4950
  282 85.2522 -6.84904 23.8206
  283 138.185 19.4667 -0.802081
  284 177.119 19.2763 -8.93116
  285 132.631 -10.2709 2.58702
  286 133.443 -15.3240 11.4177
  287 85.5393 -6.73066 -24.1130
  288 15.4540 19.0092 16.9173
  289 138.339 -5.55403 6.49374
  290 182.628 23.5393 7.41581
  291 150.773 -0.543618 -1.31507
  292 134.694 4.68114 -14.1050
  293 133.675 -7.53931 3.84122
  294 130.805 -11.0695 -0.509053
  295 134.135 6.13492 13.5668
  296 143.362 -11.9826 -5.53210
  297 203.943 40.0107 -3.08461
  298 133.638 -7.24276 -3.68293
  299 111.730 31.1672 -64.9525
  300 136.911 -14.4894 -1.65207
  301 135.912 -14.8810 3.23762
  302 98.7075 -9.03611 -15.6121
  303 87.5735 -0.381631 -1.27065
  304 87.5938 -0.375058 1.25850
  305 98.7386 -9.04039 15.5187
  306 144.484 -0.219600 -16.2433
  307 156.857 -6.47405 -7.73359
  308 118.208 -7.21726 -2.36052
  309 118.117 -7.23297 2.40987
  310 143.029 -12.3053 20.9244
  311 141.933 -1.08844 5.51559
  312 174.167 0.443864 6.17673
  313 115.596 -4.14434 -1.24136
  314 115.600 -4.12765 1.23154
  315 104.656 -2.82075 -2.17175
  316 104.652 -2.79232 2.16693
  317 118.267 1.53097 -6.87418
  318 154.260 11.3123 -15.7724
  319 241.500 64.7107 -29.8532
  320 141.019 -1.10715 -0.568119
  321 140.927 -1.09101 0.580511
  322 74.2853 0.0102753 29.7211
  323 104.240 -4.86505 -4.79160
  324 104.023 -4.84460 4.80241
  325 74.2761 -0.154234 -29.6087
  326 146.500 17.3398 -13.2018
  327 165.243 8.11105 12.4049
  328 143.106 -10.2178 -23.3508
  329 130.581 -5.00686 1.89119
  330 130.440 -4.96614 -1.83007
  331 139.853 -2.79133 -3.20995
  332 130.315 -0.263796 -8.25742
  333 147.287 0.678196 15.9923
  334 147.622 -0.953042 -3.19478
  335 86.8061 -5.41140 11.9443
  336 86.7117 -5.44417 -12.0471
  337 136.434 -0.316328 14.7554
  338 82.1121 -0.731996 -2.57039
  339 82.1647 -0.724906 2.54336
  340 140.831 -3.14308 4.83457
  341 168.651 34.6340 -7.10590
  342 139.766 -2.81636 3.32127
  343 148.209 18.6896 13.2790
  344 142.044 -2.60726 15.4825
  345 111.518 -2.12743 0.388833
  346 111.521 -2.14233 -0.392552
  347 133.881 -0.492351 -13.0766
  348 178.577 37.6857 5.05909
  349 147.425 27.2127 0.278537
  350 90.5295 10.5978 -44.4891
  351 8.49077 4.05524 -5.66323
  352 9.40640 4.38082 6.13600
  353 -0.672844 0.916997 2.92005
  354 -0.0783568 0.440006 -3.03019
  355 265.521 18.4027 6.43278
  356 122.275 -10.0169 -2.75125
  357 140.963 -3.03047 -4.72104
  358 126.621 -2.16924 0.307736
  359 126.606 -2.14960 -0.308196
  360 134.819 14.8977 -6.62966
  361 115.333 -11.8521 9.60929
  362 9.66067 14.2409 -10.2105
  363 115.464 -11.8538 -9.80468
  364 136.670 15.5579 7.05590
  365 140.386 -3.67879 -8.18015
  366 149.270 -8.27357 -10.2095
  367 158.193 33.7091 2.66819
  368 149.677 -9.28122 8.64952
  369 59.6625 -1.55446 9.59108
  370 59.2755 -1.52498 -9.66161
  371 33.2587 0.888506 -13.1479
  372 33.6547 0.744338 13.0856
  373 120.279 0.326695 6.96907
  374 234.670 67.5786 24.7324
  375 145.482 -0.865938 -3.98696
  376 112.166 -9.61390 -7.29567
  377 112.056 -9.58367 7.28435
  378 139.369 -3.17011 -10.2130
  379 159.902 -7.72317 2.50310
  380 122.270 -10.0053 2.85423
  381 176.406 0.867515 -12.8409
  382 96.7468 -0.844320 -0.399612
  383 96.7571 -0.836543 0.395651
  384 136.747 -0.776568 -6.44874
  385 71.7072 -1.09887 -6.27591
  386 71.7578 -1.13254 6.19334
  387 164.268 20.9552 -13.6673
  388 88.2506 6.29780 41.2264
  389 128.095 -6.73908 1.25304
  390 128.224 -6.72510 -1.26077
  391 150.306 25.5735 -8.46930
  392 142.685 -4.19396 -14.7545
  393 143.798 -14.6464 10.9287
  394 118.634 -3.17053 -0.459919
  395 118.617 -3.15250 0.452386
  396 137.830 -10.6155 5.70403
  397 149.160 -0.650492 2.39105
  398 90.8035 -3.44828 -7.24671
  399 90.8369 -3.44627 7.17713
  400 139.394 4.67104 -15.7528
  401 132.024 -2.78848 1.08230
  402 132.021 -2.79386 -1.06240
  403 136.125 -1.58751 12.0903
  404 125.973 9.11600 3.14902
  405 141.596 -5.93333 12.9866
  406 205.998 43.3833 7.03483
  407 66.9406 -3.62416 -19.1311
  408 67.1363 -3.62645 18.9729
  409 29.6287 16.1606 -22.2743
  410 153.120 -0.368302 0.702155
  411 74.7296 -0.690981 -3.96238
  412 74.8358 -0.676304 3.92429
  413 139.507 -3.59540 10.0319
  414 126.475 -13.7689 5.94365
  415 143.615 -1.67263 2.28322
  416 145.461 7.41112 16.5210
  417 31.1614 17.2070 23.3106
  418 126.679 -13.6977 -5.40350
  419 130.978 -12.2037 -0.359037
  420 40.9637 -0.827436 -11.9806
  421 41.3092 -0.861243 11.8911
  422 100.218 -7.92104 -28.7418
  423 150.712 -2.20311 14.3542
  424 99.7926 -8.05334 28.4731
  425 139.026 -7.76917 -8.66704
  426 127.882 8.56226 -6.93317
  427 139.062 -5.95360 8.18449
  428 150.644 -0.592889 -1.65402
  429 4.26550 4.34467 1.56577
  430 29.6795 33.6509 33.2008
  431 133.019 -0.494955 6.18171
  432 110.053 1.43409 2.99307
  433 112.129 1.76692 -4.07204
  434 95.6823 -1.67590 -2.41061
  435 95.6878 -1.65350 2.39176
  436 137.097 -10.6116 -5.28841
  437 138.142 -2.68201 -13.5807
  438 110.706 1.98840 -1.10678
  439 206.126 48.9745 8.78656
  440 27.2807 9.35252 -16.6331
  441 30.1809 8.58871 17.8408
  442 127.978 -4.54295 1.06059
  443 127.926 -4.52881 -1.02359
  444 170.850 38.1550 -0.595265
  445 108.531 42.5271 66.3800
  446 165.582 -2.43330 -3.77451
  447 93.0590 -4.98861 -9.83733
  448 93.0987 -4.95170 9.74442
  449 93.3177 -2.19025 3.81759
  450 93.3044 -2.20772 -3.85749
  451 127.181 2.76173 -11.2442
  452 153.987 -0.152224 -0.476074
  453 123.327 5.57833 6.28350
  454 157.787 19.5263 14.5306
  455 131.175 -9.75468 -2.03939
  456 143.574 -1.58380 -2.21423
  457 151.309 -0.529486 1.52478
  458 153.563 -0.158731 0.273130
  459 153.708 -0.187625 -0.207507
  460 81.3265 -0.172271 0.938175
  461 81.2882 -0.174700 -0.949592
  462 143.823 -9.08846 10.4606
  463 128.450 5.01229 10.8843
  464 134.814 0.532454 -14.3633
  465 141.691 -2.90800 6.15370
  466 208.094 32.8326 -38.3458
  467 141.876 -7.83099 -11.5139
  468 0.892407 2.61002 0.795348
  469 0.900278 2.63350 -0.0948069
  470 111.436 -6.42960 3.96800
  471 111.043 -6.34863 -3.92762
  472 178.530 2.62214 20.1182
  473 49.2451 43.5225 -49.7787
  474 139.730 -0.396907 4.86169
  475 159.947 -9.38626 -11.0049
  476 83.0287 -4.89297 13.8734
  477 170.342 30.2374 -10.1872
  478 139.816 -7.52645 9.72162
  479 116.608 -5.65369 -1.75636
  480 116.711 -5.55658 1.74865
  481 120.246 0.614189 -6.16066
  482 82.7611 -4.87623 -13.9707
  483 123.542 0.0191420 6.21272
  484 119.610 -13.6564 -17.5309
  485 119.300 -13.6772 17.5798
  486 144.561 -0.910254 4.39113
  487 129.912 12.2170 1.30290
  488 134.224 2.02378 45.0449
  489 196.652 40.4101 -0.255563
  490 135.420 -2.18516 1.15242
  491 135.432 -2.17644 -1.18356
  492 102.541 -1.89759 -1.47337
  493 102.545 -1.88053 1.46627
  494 53.7818 2.63572 24.8102
  495 140.392 -6.72096 -11.2119
  496 127.043 -2.71754 0.349357
  497 127.030 -2.70614 -0.345683
  498 110.296 -11.7452 14.3592
  499 54.8596 3.46011 -25.4578
  500 140.765 -11.4366 -6.02288
  501 2.23148 0.110227 1.45173
  502 121.320 6.18232 0.450382
  503 135.977 -1.46254 -0.389957
  504 135.971 -1.48538 0.383347
  505 110.382 -11.7287 -14.4776
  506 160.142 -8.37135 14.4519
  507 157.831 5.74326 14.9303
  508 146.102 -0.878083 -1.13060
  509 140.332 -11.6019 6.09066
  510 85.3448 -0.109211 -0.157146
  511 85.3588 -0.108344 0.155431
  512 139.892 -5.33597 -11.8539
  513 134.701 9.95956 11.9599
  514 155.847 3.85509 -14.7289
  515 84.8363 -0.162116 -0.524766
  516 84.8540 -0.160017 0.520469
  517 276.855 39.9615 -35.9670
  518 140.364 16.7660 10.5812
  519 146.243 -0.795421 1.01144
  520 131.282 -12.4692 0.671884
  521 109.332 -3.70224 2.13241
  522 109.335 -3.73279 -2.12819
  523 153.553 -9.30427 5.36044
  524 147.038 -2.89373 -15.0044
  525 164.183 32.5562 8.33204
  526 136.020 2.32666 14.8795
  527 138.069 -2.55574 2.11840
  528 134.319 -14.2714 -16.6977
  529 138.689 -3.39672 11.5892
  530 274.087 12.5133 -5.05947
  531 152.481 -11.4587 -1.45910
  532 145.192 -0.841203 -0.292337
  533 145.224 -0.903922 0.265845
  534 276.904 18.6028 17.8160
  535 132.453 -0.0626972 12.6546
  536 187.983 31.1330 -4.93603
  537 140.425 -3.74342 -6.03320
  538 61.0831 -0.610435 -4.29923
  539 61.2921 -0.581408 4.25204
  540 94.0378 -8.84117 -19.9424
  541 94.1012 -8.69178 19.7851
  542 137.996 -2.44283 -2.09469
  543 149.914 5.52239 -16.2883
  544 131.578 -8.96293 2.53838
  545 141.016 16.2017 -11.0027
  546 142.922 -1.59366 5.91421
  547 180.568 8.62417 -0.400678
  548 121.575 -4.18541 -0.252478
  549 121.533 -4.16757 0.245199
  550 132.553 -6.23343 2.95764
  551 197.208 38.5079 -1.07505
  552 139.202 6.09279 15.4663
  553 59.0677 15.2752 36.8305
  554 135.728 -8.16937 29.7692
  555 181.003 7.87808 -32.5716
  556 142.360 11.7835 -14.4357
  557 127.074 -10.9208 -25.7450
  558 137.507 -15.0349 -4.28568
  559 143.907 -14.5121 -6.67151
  560 18.3114 23.2494 -22.0742
  561 144.583 -1.73041 -3.76103
  562 218.640 42.6756 -11.8299
  563 133.291 -5.96624 -3.22098
  564 134.480 -4.31494 2.65145
  565 134.353 -4.21134 -2.55762
  566 90.6684 -0.581303 -1.14269
  567 90.6835 -0.573697 1.13344
  568 11.9533 1.39493 -7.10433
  569 12.7140 1.45911 7.27656
  570 67.3800 -3.20975 -14.6267
  571 67.9225 -3.22600 14.5950
  572 136.300 -7.34753 -5.68384
  573 139.176 -15.0946 4.69773
  574 143.088 -13.5337 1.96904
  575 116.216 -2.06071 -0.359936
  576 116.207 -2.04410 0.357640
  577 110.702 -11.5700 -22.0592
  578 124.548 -10.1558 27.2968
  579 107.920 -10.8715 22.1997
  580 139.975 -3.08326 -14.6250
  581 85.8849 -1.52011 4.35777
  582 85.8439 -1.53667 -4.39908
  583 132.772 7.29631 -11.9965
  584 133.134 -0.231002 -5.61184
  585 167.052 36.6023 -3.83605
  586 108.012 -1.68475 -0.383559
  587 108.012 -1.67227 0.381311
  588 142.724 -0.402579 -3.21371
  589 97.0152 -3.41078 -4.74419
  590 97.0113 -3.39690 4.69756
  591 79.8661 3.84177 35.3912
  592 138.917 -6.34204 -8.28339
  593 76.4971 -3.97141 25.3737
  594 136.504 -7.03549 5.78380
  595 144.128 -1.93951 4.13455
  596 142.477 -1.18162 -1.01739
  597 97.9885 -1.28937 -1.03567
  598 97.9970 -1.27805 1.02887
  599 160.126 32.2086 -7.43672
  600 76.4470 -3.80908 -25.4801
  601 136.062 -5.83784 -4.69003
  602 122.175 -2.24394 -0.135076
  603 122.161 -2.22538 0.134372
  604 233.224 31.5560 -5.47342
  605 79.0958 -0.552729 2.42245
  606 79.0255 -0.558310 -2.44799
  607 125.542 2.81984 10.2411
  608 182.911 14.8309 -3.91282
  609 85.2343 0.742872 -35.1589
  610 42.5754 1.20356 -18.9624
  611 42.9535 0.943029 18.8600
  612 106.548 -6.36415 5.78757
  613 107.724 -6.55145 -5.59628
  614 184.110 37.0062 4.75434
  615 141.852 -1.22928 0.933498
  616 119.680 3.27939 -6.16575
  617 150.652 27.2573 6.69379
  618 150.057 28.2945 -4.44949
  619 123.356 -6.88945 -0.475519
  620 124.335 -6.72618 0.0247180
  621 88.8175 19.1852 -50.8100
  622 105.147 -3.71480 -3.15813
  623 105.151 -3.66999 3.14415
  624 274.872 56.1666 42.1791
  625 139.898 -4.54520 12.7329
  626 78.1437 -2.88140 -9.37379
  627 221.406 48.9250 31.4126
  628 78.3329 -2.86368 9.33227
  629 134.706 -5.20263 -34.9400
  630 92.4156 -0.515817 -0.422528
  631 92.4283 -0.511247 0.419911
  632 115.045 0.980796 5.37261
  633 51.1159 -0.801150 -8.43555
  634 51.4309 -0.802979 8.36312
  635 121.726 -8.70036 2.00175
  636 127.932 -10.2979 0.0136330
  637 152.124 -0.283306 -1.37177
  638 82.6992 -0.158466 0.681083
  639 82.6714 -0.161138 -0.689538
  640 114.385 -2.61195 -0.484955
  641 114.378 -2.59526 0.479614
  642 132.598 -14.6571 16.9088
  643 151.835 16.9942 -14.7301
  644 99.7731 -4.80428 -6.13082
  645 99.6913 -4.72118 6.08140
  646 119.386 -8.69673 -3.06690
  647 189.589 41.5314 0.335724
  648 142.209 -13.7151 -1.15902
  649 122.669 -2.91965 -0.0475518
  650 122.648 -2.90285 0.0484385
  651 170.167 18.5068 11.8886
  652 142.313 -1.98014 -6.43162
  653 124.311 -0.181436 -5.06691
  654 56.6306 -1.92466 -18.3368
  655 56.8204 -1.98375 18.1754
  656 119.130 -10.3875 -5.24450
  657 179.593 40.0121 0.156444
  658 138.254 18.7720 -4.76564
  659 90.2652 -0.895331 -2.13468
  660 90.2825 -0.882547 2.11462
  661 129.637 -3.61512 -0.998206
  662 129.663 -3.62156 1.02880
  663 245.439 32.1692 14.0872
  664 154.891 -0.359333 0.391556
  665 148.904 -0.534566 2.32382
  666 148.245 -0.554178 -2.69502
  667 140.372 -13.0314 3.18671
  668 101.574 -1.24791 -0.518144
  669 101.580 -1.23814 0.515258
  670 149.242 24.0602 10.2645
  671 192.968 43.0790 -1.57201
  672 104.081 -7.89897 -8.69422
  673 104.039 -7.81709 8.64408
  674 131.468 -13.5705 -1.92043
  675 138.064 8.19945 -14.5377
  676 165.715 0.366554 7.33665
  677 108.092 -2.07284 -0.976812
  678 108.093 -2.05788 0.971594
  679 93.5199 -8.27761 -18.0111
  680 139.012 -13.4169 -1.86811
  681 115.001 -12.7714 15.8068
  682 54.4322 17.3567 -35.4972
  683 106.929 -10.0209 12.1803
  684 128.848 0.0319374 4.70453
  685 93.5994 -8.18119 17.8801
  686 135.979 -5.95656 4.74770
  687 106.979 -9.98196 -12.3027
  688 108.076 1.34396 1.12264
  689 83.4399 -2.35801 6.62694
  690 83.3636 -2.36201 -6.67991
  691 115.088 -13.1041 -15.9897
  692 142.831 -9.36220 -10.1251
  693 130.788 -1.74302 -0.249274
  694 130.808 -1.76351 0.250321
  695 146.102 -9.24545 10.1109
  696 132.527 -13.8593 2.42916
  697 161.396 14.7974 14.5990
  698 145.280 -2.67496 15.3758
  699 139.787 -4.95816 9.51001
  700 132.535 10.8672 -9.09850
  701 160.596 27.1309 11.5060
  702 138.412 -1.88788 -9.05760
  703 138.335 -4.51235 5.11225
  704 142.074 22.3514 2.58113
  705 140.573 -2.33250 7.96922
  706 43.6654 29.5517 37.1179
  707 130.979 -15.0440 -9.40585
  708 151.685 2.79526 15.7156
  709 153.444 -4.71318 -11.5680
  710 153.997 -0.146496 0.781901
  711 139.784 -4.73286 -7.58267
  712 131.146 -15.1645 8.47017
  713 258.272 22.8517 -3.84557
  714 75.7428 -0.357854 2.53926
  715 75.6472 -0.361964 -2.56619
  716 142.096 -2.48067 -3.65297
  717 154.976 -0.106549 -0.755650
  718 118.890 -10.5529 5.27450
  719 143.435 -5.28768 14.0360
  720 220.950 51.4802 -14.0095
  721 135.945 -9.84081 5.00064
  722 151.267 -9.90822 -6.49511
  723 138.393 -4.38601 -5.03299
  724 155.045 -0.205802 -0.268336
  725 139.625 0.00618657 15.7885
  726 6.20938 4.82824 7.42045
  727 159.482 -6.33628 -22.1293
  728 173.001 10.0509 8.06604
  729 143.707 -14.6348 5.82548
  730 100.549 -2.51993 2.60111
  731 100.554 -2.55674 -2.61653
  732 136.638 65.5009 -69.7440
  733 146.183 -9.61412 -9.42083
  734 107.625 0.488182 -2.14498
  735 127.001 0.666935 10.0250
  736 140.740 -6.99389 11.4096
  737 134.908 -11.3686 2.93120
  738 140.972 -12.7901 -18.1600
  739 134.035 -10.6065 -3.14591
  740 159.324 -7.63524 -3.03985
  741 146.613 -1.09184 2.15899
  742 130.011 -7.82556 1.87641
  743 239.426 47.9277 -25.1483
  744 139.082 -3.63178 4.09824
  745 136.796 2.22299 -15.2927
  746 117.657 -1.37463 39.4164
  747 146.899 11.8677 15.7342
  748 126.311 -10.0020 0.672329
  749 96.6215 -7.74783 -13.1038
  750 96.6216 -7.72345 12.9867
  751 133.546 15.0135 -2.12753
  752 136.438 -1.56334 13.7292
  753 138.135 -3.26026 -11.8136
  754 130.163 -7.98152 -1.92448
  755 125.739 -11.3352 2.56186
  756 143.207 23.7587 -2.93875
  757 134.736 -11.6596 -2.39722
  758 135.046 -8.52903 4.82415
  759 137.139 -1.64451 0.800528
  760 137.232 -1.59549 -0.796870
  761 184.562 40.8531 1.59579
  762 151.371 -12.8275 -3.38964
  763 140.219 -4.22363 7.53373
  764 146.706 -1.08474 -1.97873
  765 147.451 1.01031 -16.1410
  766 168.774 8.72587 -10.2831
  767 79.8260 -0.101336 -1.17178
  768 79.8775 -0.100059 1.15830
  769 1.07496 -2.81674 -2.02348
  770 143.084 -0.138267 2.98197
  771 130.162 -0.249986 -11.1316
  772 134.856 -1.25780 9.89605
  773 124.755 14.7820 58.3033
  774 153.626 31.8610 -0.358166
  775 108.685 -7.92733 6.65135
  776 17.6554 0.452669 -7.09434
  777 18.2410 0.337976 7.17292
  778 133.550 -0.957264 -11.1273
  779 109.006 -8.01034 -6.64632
  780 145.821 -1.19759 1.67380
  781 72.3861 -3.18322 12.4951
  782 71.7365 -3.17339 -12.5093
  783 139.082 -3.52194 -3.99492
  784 86.7823 -2.30700 -5.75040
  785 86.8247 -2.29058 5.69306
  786 145.024 -1.28501 -4.48951
  787 109.266 -3.00049 -1.69697
  788 109.266 -2.97891 1.69706
  789 158.527 -1.01135 -11.6647
  790 141.891 -1.46320 -15.9167
  791 69.9021 -0.481257 -3.25819
  792 70.0484 -0.476830 3.21695
  793 2.65792 1.79589 -4.16687
  794 3.32415 1.89178 4.39342
  795 113.120 0.518652 -3.90780
  796 129.780 -14.5887 -6.81349
  797 -1.53577 -1.07748 2.60906
  798 -1.33185 -1.24332 -2.57209
  799 135.205 -2.61504 1.67933
  800 146.884 -11.4063 -5.82727
  801 150.879 22.4550 -12.0114
  802 146.501 -1.06857 -1.58682
  803 320.297 63.5445 -60.1603
  804 135.178 -2.60464 -1.65873
  805 204.484 39.3225 2.83619
  806 144.308 4.21648 -16.5614
  807 160.026 12.0502 -14.8920
  808 25.0019 -0.298741 -6.60404
  809 25.5267 -0.339181 6.59051
  810 88.1154 -1.35380 3.37200
  811 88.0867 -1.36579 -3.40638
  812 83.5270 -0.228330 0.623818
  813 83.5060 -0.230632 -0.629720
  814 161.447 27.2722 -11.4464
  815 93.4525 -0.644448 -0.902930
  816 93.4650 -0.636792 0.896759
  817 136.873 -1.37565 -14.3174
  818 201.164 19.3319 15.2674
  819 122.113 2.65311 -8.59887
  820 40.7656 -0.382354 7.13210
  821 40.3783 -0.385727 -7.19316
  822 161.841 3.80291 41.4557
  823 141.930 -2.50202 3.77045
  824 125.168 8.23917 -3.58599
  825 56.2450 -0.109747 4.89554
  826 55.9272 -0.0825483 -4.93539
  827 85.6029 -0.487304 -1.63879
  828 85.6310 -0.480284 1.62121
  829 15.1207 13.5790 11.2753
  830 131.005 3.08166 12.8528
  831 146.294 21.5895 -10.2239
  832 158.105 18.3663 -14.6729
  833 102.477 -4.00223 -4.21962
  834 102.409 -3.96916 4.21044
  835 163.443 35.0872 5.27516
  836 141.882 -1.04922 -0.226048
  837 141.886 -1.04092 0.251145
  838 139.779 -4.12948 -9.54525
  839 116.412 -7.86400 3.61426
  840 128.944 -14.5012 6.87212
  841 152.547 -12.5001 10.8333
  842 115.220 -3.39156 -0.859551
  843 115.216 -3.37644 0.851317
  844 131.668 12.1772 5.82875
  845 123.335 1.62582 -9.30368
  846 34.3356 38.7492 38.6249
  847 126.150 -11.2456 -2.24489
  848 126.513 -5.66185 0.786333
  849 126.583 -5.66970 -0.792003
  850 139.207 -2.02632 15.1064
  851 138.408 -9.05990 -7.40938
  852 123.125 -8.22408 -1.04312
  853 288.595 9.35818 -14.5368
  854 116.918 -11.1672 7.47328
  855 116.833 -11.3170 -7.60544
  856 139.172 -1.63221 7.71870
  857 211.602 54.2488 -10.6049
  858 109.435 -10.0766 -9.57835
  859 121.464 -13.7356 8.88466
  860 109.393 -9.95091 9.48589
  861 118.831 -4.83597 -0.921033
  862 118.824 -4.81672 0.911505
  863 16.8651 7.42937 9.84256
  864 149.669 11.2062 -16.0108
  865 113.783 -4.51956 -1.75038
  866 113.801 -4.47114 1.75766
  867 112.220 -1.88736 -0.206370
  868 112.215 -1.87281 0.204565
  869 124.134 -2.42730 0.145566
  870 124.118 -2.40926 -0.145994
  871 99.6533 -2.04856 -2.26385
  872 99.6572 -2.02437 2.25222
  873 114.281 -6.12145 -2.75385
  874 114.293 -6.07538 2.76531
  875 2.59995 -1.64162 -0.873787
  876 173.993 32.6484 9.02826
  877 149.588 -5.19584 -13.1476
  878 121.380 -13.5391 -8.99136
  879 131.331 -4.18060 1.68935
  880 131.270 -4.13381 -1.64925
  881 143.110 0.208753 16.2507
  882 156.811 -11.1937 -5.38810
  883 139.222 9.32242 -50.4152
  884 61.5694 -0.895049 24.6152
  885 -2.89855 1.43879 -1.47667
  886 -2.57217 1.62041 1.66379
  887 16.7278 7.90321 -10.0383
  888 140.240 -3.94830 6.00982
  889 148.128 -0.875839 -2.55581
  890 132.955 -12.7288 21.0808
  891 61.4178 -0.821265 -24.7212
  892 148.187 -12.0614 4.41621
  893 166.068 -5.17462 17.8664
  894 117.548 0.457731 4.14917
  895 135.957 12.9332 9.96604
  896 72.6290 -4.13938 18.2030
  897 72.3379 -4.17341 -18.3348
  898 87.2574 -4.28754 -10.1705
  899 92.7828 -4.42858 -31.5190
  900 147.898 -3.40741 14.5891
  901 204.725 47.5128 5.60259
  902 148.265 5.73785 16.3269
  903 140.179 -2.93430 -8.67568
  904 94.7969 -3.96884 32.3117
  905 179.462 32.9538 -7.09861
  906 17.0600 14.7007 -13.9887
  907 128.474 -0.275994 -4.48763
  908 87.3488 -4.25044 10.0709
  909 107.208 -2.43405 1.51254
  910 107.209 -2.45253 -1.51709
  911 138.618 -9.01249 7.62958
  912 144.618 -0.789989 0.668245
  913 105.843 1.04319 -39.3203
  914 152.790 -0.291023 1.21481
  915 151.476 -0.233463 -1.52818
  916 110.360 0.919394 -3.58252
  917 145.838 -0.573434 -2.65494
  918 107.693 -5.16523 -3.80440
  919 107.765 -5.08423 3.81448
  920 -3.75813 1.26590 -2.19169
  921 -5.08523 0.762659 2.27985
  922 144.620 -0.725853 -0.670871
  923 46.1079 -1.01449 16.5835
  924 45.8048 -0.908340 -16.6854
  925 153.482 22.4896 12.7304
  926 281.635 5.06475 4.53975
  927 144.172 16.0871 13.1856
  928 165.152 -5.94495 4.06624
  929 142.522 -7.88355 11.5541
  930 177.732 37.3677 -5.38755
  931 107.804 0.405496 2.69706
  932 137.249 -3.12806 -2.58143
  933 141.977 7.63934 -15.9391
  934 173.355 4.87381 -4.36357
  935 133.532 -8.23475 -3.91397
  936 65.9416 -0.399138 -3.65928
  937 66.0205 -0.385179 3.60417
  938 141.127 -3.23516 -6.91019
  939 4.36009 5.65092 0.770788
  940 135.425 -14.0314 -0.500877
  941 115.371 3.31602 -0.370744
  942 176.322 39.0268 -3.58558
  943 27.0914 20.2272 -23.6607
  944 134.870 -0.999880 -8.86902
  945 91.9897 -1.63179 -3.12723
  946 92.0037 -1.61171 3.09683
  947 0.702901 -3.97858 3.07026
  948 90.7511 -6.88019 -14.6056
  949 137.884 -7.92838 -7.16551
  950 83.1268 0.176759 -0.253878
  951 83.1417 0.177782 0.251779
  952 138.393 16.8223 -8.01081
  953 150.487 -0.340032 -0.247082
  954 150.484 -0.347171 0.319258
  955 90.7849 -6.85867 14.4970
  956 139.238 -0.162959 -3.53223
  957 161.218 1.15269 11.3330
  958 142.878 -1.90614 2.94396
  959 21.7102 5.76536 -12.6265
  960 148.464 -0.808194 2.32593
  961 133.180 1.04058 13.8050
  962 140.497 19.5295 7.12933
  963 141.016 1.64106 -16.3388
  964 95.9938 -5.29319 -8.64739
  965 153.021 -5.36249 11.2013
  966 96.0534 -5.26996 8.55123
  967 4.11743 4.61146 -0.00577859
  968 15.6616 2.88265 9.23355
  969 77.4203 -1.44812 6.01639
  970 77.3206 -1.45064 -6.05559
  971 137.343 -3.19353 2.70554
  972 146.801 25.6880 3.98198
  973 74.4137 6.96842 -37.0874
  974 122.873 -7.73412 0.854285
  975 115.293 -12.1295 -11.5218
  976 168.913 32.4972 9.12814
  977 129.681 -2.21659 0.356543
  978 129.677 -2.20265 -0.356967
  979 142.570 -2.54223 -5.02893
  980 130.376 11.2145 -5.38063
  981 305.785 89.0061 60.1290
  982 26.0323 1.58277 -12.3456
  983 26.4872 1.31852 12.3779
  984 1.93220 -3.16770 0.318929
  985 130.877 7.20360 11.0433
  986 115.243 -12.2001 11.4291
  987 143.489 -6.73251 -13.0312
  988 156.220 12.7983 15.9593
  989 150.973 -12.1851 -13.5890
  990 221.100 46.6534 14.7839
  991 127.180 -1.99266 -0.00143343
  992 127.163 -1.97400 0.00175553
  993 149.476 -6.03423 12.5166
  994 10.0727 15.3045 16.8772
  995 65.0779 -1.43356 8.65071
  996 64.8582 -1.41546 -8.75311
  997 78.4575 -3.96270 11.7792
  998 78.1761 -3.90502 -11.8307
  999 88.6505 -3.78412 8.39726
  1000 96.8937 -0.835572 -0.417516
  1001 96.9038 -0.828946 0.415495
  1002 251.696 77.8371 -48.8445
  1003 225.327 56.3733 22.1839
  1004 88.5792 -3.80555 -8.47629
  1005 154.019 -0.667399 13.7649
  1006 136.625 14.1845 -9.61422
  1007 96.4971 -8.23941 26.0952
  1008 124.726 -14.7228 -13.6413
  1009 142.694 -1.12460 -5.22927
  1010 63.3620 4.53653 30.0696
  1011 81.3892 -6.24032 20.8612
  1012 124.702 6.32202 -6.89292
  1013 144.149 -2.81633 -15.5242
  1014 189.120 72.3144 80.0965
  1015 117.308 3.51428 4.88556
  1016 161.706 35.1692 -0.630321
  1017 119.649 4.56397 -44.7637
  1018 120.754 -12.7883 -7.60176
  1019 155.178 -0.104093 -0.620889
  1020 147.217 13.5533 -15.3342
  1021 84.1714 -0.599182 2.12721
  1022 84.1338 -0.605391 -2.15017
  1023 2.99100 0.616025 -3.95103
  1024 95.9907 -4.52467 -7.18857
  1025 81.2954 -6.32223 -21.0316
  1026 95.9067 -4.51215 7.10004
  1027 140.801 -4.24752 14.3522
  1028 126.134 -7.83504 0.331053
  1029 131.962 2.39326 -13.3523
  1030 135.719 16.9801 2.80347
  1031 187.440 10.6494 5.00049
  1032 139.741 -10.5809 7.36749
  1033 87.0179 -7.06662 -15.9859
  1034 130.722 4.57845 -12.4661
  1035 97.3909 -8.12297 -26.2493
  1036 188.642 41.3285 -0.463951
  1037 126.737 8.26327 6.26989
  1038 162.577 -1.00599 -8.99843
  1039 121.513 -12.7885 6.92185
  1040 139.547 -4.37302 11.1735
  1041 138.778 -7.28198 8.28917
  1042 138.021 -6.89477 7.24317
  1043 171.040 21.6133 -12.1636
  1044 137.460 -2.18918 11.2073
  1045 124.493 -14.7644 13.4094
  1046 132.910 -5.38912 2.67615
  1047 87.0693 -7.07777 15.8852
  1048 124.485 -9.24537 -1.09763
  1049 71.3462 -3.43053 -22.3222
  1050 102.792 -10.7259 17.5912
  1051 140.210 -0.909923 -6.03165
  1052 136.228 -1.52538 -12.6753
  1053 117.835 -9.42894 -4.48316
  1054 71.4715 -3.53689 22.1328
  1055 126.285 0.274696 -8.71640
  1056 93.5357 -6.35324 -11.2539
  1057 171.885 36.8613 5.87480
  1058 37.1789 6.39881 -20.9107
  1059 301.304 21.3318 29.4185
  1060 67.9857 5.27459 -31.5381
  1061 138.040 -11.4131 -4.85201
  1062 93.5551 -6.29582 11.1523
  1063 124.825 1.26491 9.71531
  1064 68.6658 -1.45768 7.15560
  1065 68.6241 -1.49434 -7.23408
  1066 139.450 -3.84870 -13.2835
  1067 149.568 -0.645437 1.00030
  1068 145.951 -0.289869 2.69145
  1069 143.775 4.80157 16.5021
  1070 134.103 -1.00978 11.8724
  1071 104.685 11.0224 48.4764
  1072 156.261 -0.0761464 0.313976
  1073 144.407 19.6491 10.5022
  1074 121.202 1.69443 8.34666
  1075 148.026 -0.521842 2.59990
  1076 92.8231 -1.07777 -1.72761
  1077 92.8357 -1.06512 1.71421
  1078 58.4477 -1.71238 -11.9185
  1079 58.6986 -1.77363 11.8272
  1080 121.582 5.98425 3.49427
  1081 188.305 9.41053 -12.0705
  1082 172.959 -0.675195 -24.7213
  1083 135.566 -0.106919 -3.64316
  1084 102.846 -10.8082 -17.7318
  1085 118.080 -8.96607 3.94840
  1086 136.411 -0.300947 3.80511
  1087 143.597 -10.3650 -8.60017
  1088 87.1192 -0.240692 1.04712
  1089 87.1015 -0.244693 -1.05477
  1090 137.772 -11.7404 4.85102
  1091 130.781 -2.59726 0.640009
  1092 130.759 -2.59901 -0.630133
  1093 127.149 -12.8559 4.04770
  1094 165.404 -5.42271 -0.404771
  1095 71.7681 -0.140871 -2.02538
  1096 71.8938 -0.135955 2.00151
  1097 111.729 -6.95841 -30.0715
  1098 118.163 -2.83001 0.400337
  1099 118.177 -2.84808 -0.405884
  1100 71.9216 37.9124 53.2178
  1101 165.430 13.4874 -13.4900
  1102 23.3742 11.6614 -15.5026
  1103 142.983 -2.01762 -2.84863
  1104 37.0455 13.0140 -23.9528
  1105 77.6363 -4.98788 -15.2180
  1106 156.403 -0.112966 0.181865
  1107 156.479 -0.102383 -0.136705
  1108 140.169 -7.95524 -9.96058
  1109 124.173 -13.8830 -19.0139
  1110 37.1915 5.44634 19.9267
  1111 152.340 15.1240 15.0451
  1112 138.790 -1.26890 -0.273399
  1113 138.802 -1.27071 0.287651
  1114 152.436 -9.93566 22.9564
  1115 155.699 31.4359 5.85221
  1116 90.7989 -2.29970 -4.50844
  1117 90.8181 -2.28758 4.47132
  1118 69.6558 8.12466 37.4067
  1119 131.656 0.640111 -12.9409
  1120 40.5803 13.3242 25.8222
  1121 171.950 -3.17332 -6.63396
  1122 167.061 37.3330 1.84633
  1123 114.292 -9.17083 5.61789
  1124 103.477 0.494294 -0.525142
  1125 146.615 -1.20829 3.38992
  1126 152.196 -0.143655 1.32982
  1127 31.0131 0.0725477 -5.96635
  1128 31.4969 0.0556729 5.92238
  1129 117.132 1.87735 -6.16764
  1130 122.120 -3.59520 -0.116109
  1131 122.089 -3.57542 0.114173
  1132 12.5723 17.7956 -17.9045
  1133 20.2730 40.9635 -36.8548
  1134 123.771 -4.84776 -0.104843
  1135 123.824 -4.85062 0.0992722
  1136 128.125 -3.03746 0.714726
  1137 128.107 -3.02910 -0.702192
  1138 32.8564 21.1090 25.8445
  1139 99.5525 -1.30397 -0.806009
  1140 99.5605 -1.29372 0.801182
  1141 126.002 9.46040 -0.150863
  1142 165.251 19.3050 -56.1146
  1143 155.116 26.8893 -10.0166
  1144 141.771 -5.40162 -13.6479
  1145 139.709 -6.91687 -10.0401
  1146 114.380 -9.26010 -5.71844
  1147 113.648 0.339003 3.80771
  1148 129.079 7.99116 -9.22329
  1149 127.160 6.77722 8.79252
  1150 132.820 -5.22710 -2.63190
  1151 126.471 -7.67297 -0.420807
  1152 114.474 -7.52301 -4.13915
  1153 136.789 -0.785973 7.09811
  1154 246.481 24.9774 3.50791
  1155 137.826 -2.91318 12.9400
  1156 137.939 9.06044 13.9625
  1157 127.759 -12.6270 -2.82387
  1158 14.7493 2.65655 -8.89229
  1159 130.161 -6.00290 -2.04443
  1160 83.7539 -0.162891 -0.0450065
  1161 83.7666 -0.162284 0.0442911
  1162 159.658 -4.22214 7.84169
  1163 152.197 -12.7821 4.29338
  1164 219.403 39.5779 9.27437
  1165 49.5171 -0.125932 -5.00949
  1166 49.8504 -0.114727 4.96773
  1167 115.462 -2.35763 -0.381987
  1168 115.454 -2.34094 0.378017
  1169 130.619 -11.5565 0.451902
  1170 104.468 0.432006 1.71513
  1171 133.844 -9.52556 3.81269
  1172 7.12705 8.48054 -3.67300
  1173 23.1633 11.8078 15.1770
  1174 88.8478 -4.71427 29.0922
  1175 154.383 29.6347 -7.14046
  1176 148.608 -0.382377 -2.04975
  1177 157.110 -0.219820 0.135224
  1178 157.286 -0.312905 -0.0925672
  1179 87.5602 -0.256035 -0.162705
  1180 87.5741 -0.254132 0.161121
  1181 142.235 9.11744 15.9209
  1182 212.919 36.7678 -0.774715
  1183 146.345 24.3417 -7.14824
  1184 109.788 -7.96938 29.8743
  1185 88.3720 -4.51549 -29.0411
  1186 97.7230 -6.70298 -10.0363
  1187 137.387 -3.74756 3.39406
  1188 192.670 42.2141 0.0325801
  1189 97.7233 -6.65944 9.94808
  1190 140.623 -2.33550 2.57257
  1191 123.604 4.51506 8.37587
  1192 137.274 4.23847 15.2398
  1193 197.632 44.2884 3.57260
  1194 115.706 -3.05760 0.729056
  1195 115.715 -3.07479 -0.736361
  1196 142.357 -2.56894 5.21580
  1197 81.7978 -0.943894 3.35535
  1198 81.7393 -0.953888 -3.39017
  1199 139.351 -1.76864 -1.22147
  1200 56.7299 33.5299 -51.2444
  1201 120.587 -6.73877 -31.9684
  1202 112.364 -3.59940 -1.50855
  1203 112.373 -3.58060 1.50868
  1204 150.273 -0.602044 0.884076
  1205 141.549 -1.72358 2.06627
  1206 7.32298 8.86247 6.30866
  1207 154.917 -0.133771 0.719142
  1208 17.6797 21.8777 21.7016
  1209 138.068 -1.93858 -1.55405
  1210 -0.229307 -3.45855 -3.01632
  1211 96.6032 -9.41309 -22.4672
  1212 96.3112 -9.18018 22.2303
  1213 154.918 -0.236926 -0.787766
  1214 131.019 -6.90236 -2.38178
  1215 150.135 -0.537875 -0.922909
  1216 118.431 -3.86859 -0.576184
  1217 118.415 -3.85135 0.565276
  1218 139.256 -1.75376 1.15464
  1219 130.064 -5.88782 2.02293
  1220 124.895 -4.00317 -0.398276
  1221 124.944 -4.01729 0.415476
  1222 150.035 -0.555125 -0.758943
  1223 128.752 -13.4824 -21.5131
  1224 146.555 -0.770499 -0.793438
  1225 138.691 -1.99820 1.65046
  1226 94.4124 -1.12184 -1.25750
  1227 94.4239 -1.11039 1.24829
  1228 106.356 -1.62212 -0.594125
  1229 106.358 -1.60958 0.590172
  1230 175.455 27.2375 10.4629
  1231 147.239 -11.2405 6.73628
  1232 100.432 -0.383533 37.0497
  1233 77.9134 -0.160843 1.28566
  1234 77.8463 -0.162439 -1.30041
  1235 138.835 -2.52474 9.79005
  1236 133.171 -1.90848 0.410616
  1237 133.180 -1.90081 -0.410336
  1238 151.775 29.7912 3.31317
  1239 140.224 -14.6317 16.7178
  1240 78.4263 -1.18403 4.75139
  1241 78.3447 -1.19375 -4.79127
  1242 132.905 -3.16204 1.44631
  1243 132.877 -3.18260 -1.41256
  1244 137.318 -3.69655 -3.28193
  1245 124.488 0.0133535 4.51933
  1246 220.035 54.6075 -17.0921
  1247 139.695 -5.04730 -8.85573
  1248 22.7872 5.68367 13.0116
  1249 144.441 -7.63693 12.2581
  1250 113.692 2.39386 -3.36895
  1251 8.14999 6.35425 4.38196
  1252 192.358 20.6566 0.294548
  1253 140.889 -6.36148 -12.2539
  1254 114.278 1.54887 5.15433
  1255 78.2061 -4.99393 15.1798
  1256 143.420 -11.0468 7.78328
  1257 210.757 38.7113 10.1510
  1258 46.9202 7.15586 25.4827
  1259 144.334 -1.60999 -4.47859
  1260 284.113 3.12316 -2.91899
  1261 294.138 4.46735 13.1029
  1262 314.956 10.9547 -30.9627
  1263 139.376 -4.29552 -10.8551
  1264 139.524 -6.31063 9.42325
  1265 141.897 -10.0463 9.02847
  1266 -4.20464 0.429916 2.70819
  1267 -3.84331 0.327369 -2.92761
  1268 138.340 -15.2326 -7.22492
  1269 141.973 -14.2909 -11.3123
  1270 105.298 0.629526 -2.12315
  1271 137.824 -15.5219 11.3619
  1272 147.017 -6.91752 -12.4749
  1273 2.44263 4.18112 0.0787421
  1274 118.515 -2.15711 0.337429
  1275 118.525 -2.17456 -0.338331
  1276 146.579 -1.06866 3.09007
  1277 140.627 -2.29028 -2.42926
  1278 132.035 -14.4256 -3.43369
  1279 119.919 -6.56702 1.42369
  1280 119.287 -6.47912 -1.61860
  1281 141.649 -2.91219 7.01585
  1282 145.093 -5.27948 -14.1132
  1283 8.46976 6.62657 -4.18502
</Section>

newXOutput 20

<Section columns = "stress_xx | stress_yy | stress_xy">
  1 166.783 0.0126505 0.349817
  2 166.799 0.0143162 -0.351167
  3 86.7935 -0.0480683 -0.126950
  4 -1.11830 -1.11196 -1.60646
  5 309.072 116.299 96.0436
  6 306.073 120.820 -96.6880
  7 -1.29697 -1.06229 1.70167
  8 86.7809 -0.0484401 0.126528
  9 168.055 -0.257095 0.114258
  10 167.648 -0.416161 -0.0656092
  11 167.173 -0.256915 0.421660
  12 166.705 -0.372788 0.150127
  13 165.708 -0.306454 0.665971
  14 164.814 -0.314414 0.505689
  15 162.777 -0.280255 0.946234
  16 159.944 -0.165801 1.38603
  17 157.402 -0.192674 1.52615
  18 153.697 -0.298483 1.82661
  19 148.639 0.00250938 2.67571
  20 143.964 -0.220871 2.52272
  21 138.742 -0.304276 3.52692
  22 131.187 0.218716 3.04779
  23 125.794 0.307748 3.58548
  24 118.766 0.532355 2.78945
  25 113.937 0.525377 2.80454
  26 106.935 0.767114 1.42471
  27 105.476 1.21323 1.52208
  28 104.606 0.976328 -0.447437
  29 105.816 0.534188 -0.993145
  30 108.034 0.541500 -1.21481
  31 113.275 0.700430 -2.43257
  32 118.362 0.552189 -3.09362
  33 125.895 0.0981310 -3.67948
  34 131.935 -0.0870710 -3.37612
  35 138.427 -0.244723 -3.33969
  36 144.334 -0.170791 -2.37143
  37 149.463 -0.170925 -2.04425
  38 153.732 -0.289192 -1.73086
  39 157.590 -0.196777 -1.22755
  40 160.042 -0.223551 -1.31224
  41 162.409 -0.292801 -0.963835
  42 164.684 -0.353906 -0.446137
  43 165.863 -0.279199 -0.508336
  44 166.524 -0.153793 -0.327259
  45 166.151 -0.0570091 -0.297314
  46 167.843 -0.425369 0.0372908
  47 168.119 -0.270155 -0.118026
  48 162.173 -0.0422592 -0.215593
  49 158.251 -0.563677 -0.373932
  50 153.504 -0.855425 -0.265217
  51 147.744 -1.32506 -0.357779
  52 142.321 -1.46975 -0.453578
  53 136.557 -1.89975 -0.427216
  54 131.479 -2.14820 -0.251291
  55 127.028 -2.45133 -0.111830
  56 121.902 -2.04692 -0.113405
  57 115.997 -1.93754 -0.158296
  58 110.299 -1.55192 -0.0663819
  59 104.891 -1.01262 -0.0337085
  60 99.7398 -0.737909 -0.00694475
  61 95.2029 -0.399537 0.0354611
  62 90.5377 -0.123366 -0.147422
  63 86.8629 0.118133 0.161394
  64 85.2397 0.363093 0.100140
  65 86.4242 -0.00602748 0.251878
  66 85.2504 -0.0616203 0.299638
  67 84.1971 -0.0861655 0.375135
  68 82.7471 -0.0215793 0.498153
  69 80.9139 -0.0130116 0.634086
  70 79.6181 -0.129571 1.24982
  71 75.6714 0.112514 1.37028
  72 72.9319 -0.0153221 1.58441
  73 68.8497 -0.0821051 1.79311
  74 64.1279 -0.133459 2.18795
  75 58.2335 -0.0357860 2.65641
  76 51.0435 0.0293024 2.91744
  77 44.9275 -0.0784998 4.16255
  78 32.6766 0.398845 3.90270
  79 24.4423 0.345479 4.13079
  80 14.6769 -0.0550838 4.54610
  81 6.66779 0.794490 4.67811
  82 -2.40056 1.16225 2.71266
  83 -8.86900 1.17434 0.847118
  84 -8.33170 1.10508 -0.601142
  85 -7.65726 0.906003 -2.35445
  86 -4.47128 -0.334427 -2.19219
  87 -0.577519 -4.29313 -2.40684
  88 0.373511 -7.97528 -3.06402
  89 1.11197 -12.8724 -1.84878
  90 2.51307 -13.6740 -0.208034
  91 5.37918 -5.04871 6.65969
  92 16.3862 21.9587 23.8835
  93 100.311 87.1105 85.1744
  94 372.639 54.9895 63.1869
  95 334.105 7.93350 20.8307
  96 309.101 3.23369 6.37487
  97 299.838 2.71577 0.513981
  98 304.632 3.65464 -5.48166
  99 333.116 7.32193 -16.4625
  100 396.992 26.5719 -55.0288
  101 59.0597 88.1524 -70.7508
  102 12.2960 13.8000 -19.5171
  103 5.85104 -4.45866 -6.84184
  104 2.33881 -13.8167 -0.862610
  105 0.605124 -9.90915 2.14988
  106 0.805842 -10.0254 2.67744
  107 0.0197889 -3.73411 2.66207
  108 -4.66133 -0.236335 2.09009
  109 -7.90405 0.679582 2.06588
  110 -8.76486 1.34736 0.651784
  111 -9.16683 1.16088 -0.768074
  112 -3.02714 1.19143 -2.52881
  113 6.10437 0.801838 -4.45299
  114 14.0998 0.0274005 -4.47076
  115 23.8507 0.373899 -4.14161
  116 32.1389 0.409987 -3.93558
  117 44.5100 -0.0801941 -4.20136
  118 50.6849 0.0332539 -2.94870
  119 57.9214 -0.0342681 -2.69270
  120 63.9659 -0.146753 -2.20705
  121 68.6376 -0.0788288 -1.79938
  122 72.7728 -0.0101052 -1.60283
  123 75.5428 0.110933 -1.38750
  124 79.5282 -0.130734 -1.26446
  125 80.8439 -0.0137721 -0.643173
  126 82.6965 -0.0222878 -0.505668
  127 84.1612 -0.0873243 -0.381132
  128 85.2253 -0.0626101 -0.303855
  129 86.4052 -0.00691008 -0.254602
  130 85.2250 0.362507 -0.101434
  131 86.8494 0.117869 -0.162187
  132 90.5234 -0.124391 0.146925
  133 95.1885 -0.402094 -0.0364873
  134 99.7272 -0.743627 0.00572910
  135 104.882 -1.02060 0.0325217
  136 110.294 -1.56340 0.0652334
  137 115.999 -1.95193 0.157409
  138 121.910 -2.06345 0.112593
  139 127.041 -2.46955 0.111533
  140 131.495 -2.16627 0.251924
  141 136.579 -1.91619 0.429017
  142 142.337 -1.48128 0.460116
  143 147.753 -1.33533 0.388676
  144 153.528 -0.801396 0.271325
  145 158.364 -0.545895 0.365906
  146 162.193 -0.0671393 0.212568
  147 143.725 -13.4902 -2.00191
  148 143.614 -13.3107 2.05431
  149 149.945 21.6251 -7.91616
  150 160.708 9.51300 17.0369
  151 121.603 -11.6154 -26.0664
  152 122.561 -11.6106 25.1911
  153 117.152 -5.07948 2.82095
  154 117.167 -5.15379 -2.82524
  155 171.050 6.08884 -13.5627
  156 143.336 -5.08409 3.87581
  157 143.278 -4.95597 -3.82580
  158 185.292 41.7544 2.41543
  159 146.200 -0.231421 -16.3922
  160 107.381 -8.60800 -11.5688
  161 107.372 -8.53224 11.4559
  162 146.612 -3.28541 14.9149
  163 138.392 10.0533 9.64272
  164 56.5290 9.34661 -31.0733
  165 62.9000 8.83555 32.7782
  166 181.329 1.85272 3.12949
  167 147.269 -5.59198 -10.5971
  168 195.774 43.0653 -2.16121
  169 132.251 -3.70519 0.367772
  170 132.221 -3.69086 -0.354387
  171 149.575 -1.67585 -1.71886
  172 150.093 -1.48861 1.49353
  173 102.273 -1.56235 -1.76499
  174 102.282 -1.54524 1.75356
  175 161.649 -4.56604 33.0752
  176 133.734 5.48017 -10.3710
  177 86.9161 -6.59305 -18.8729
  178 87.1802 -6.54350 18.7361
  179 97.3718 -3.33274 -6.07169
  180 97.3759 -3.29255 6.01962
  181 148.044 -3.82090 8.99994
  182 134.216 -9.25996 0.429901
  183 133.715 -9.19064 -0.197290
  184 153.522 -14.7871 -1.37882
  185 154.286 -14.0858 -0.554190
  186 212.825 49.9821 -5.93749
  187 152.975 24.7066 7.42424
  188 153.666 9.45807 -16.9220
  189 161.247 -1.75152 -38.6810
  190 152.989 -8.58695 -12.2732
  191 154.273 -6.10611 14.2717
  192 128.206 -14.5870 12.3755
  193 128.262 -14.4886 -12.3312
  194 136.265 1.69401 12.5141
  195 61.3560 -1.41805 -22.9954
  196 61.5191 -1.55908 22.8423
  197 241.202 36.3627 5.12179
  198 144.742 -8.58628 6.94809
  199 150.382 -2.67070 -5.94984
  200 117.838 -2.94352 -1.21917
  201 117.836 -2.92620 1.21386
  202 143.568 -1.84918 -11.4485
  203 163.907 24.1413 -13.7619
  204 135.900 12.1671 -1.93877
  205 87.3169 -3.22474 8.65254
  206 87.1776 -3.23682 -8.72554
  207 152.971 -1.58196 3.34933
  208 147.891 2.78723 16.8280
  209 119.740 -8.86275 -5.23757
  210 118.866 -8.39498 5.40265
  211 175.236 25.9932 13.0283
  212 208.029 27.4882 2.53260
  213 13.2089 10.6041 -8.14740
  214 12.1906 9.80343 6.88815
  215 84.5101 23.9302 55.5323
  216 143.258 -9.49814 -5.54111
  217 153.590 -1.52124 -3.03041
  218 134.609 1.13439 -11.5162
  219 92.9793 -1.00608 -2.67850
  220 93.0057 -0.994367 2.65119
  221 128.343 -6.07368 -0.673485
  222 128.401 -6.10739 0.598396
  223 144.932 -1.93081 9.78262
  224 168.523 -9.79703 2.36468
  225 165.729 34.1770 -4.04924
  226 129.985 -12.6394 -5.44028
  227 165.505 -2.85033 11.5383
  228 140.511 -2.25714 0.736143
  229 140.516 -2.23636 -0.734885
  230 128.970 -12.5774 5.70099
  231 148.318 -9.35826 10.0959
  232 211.358 26.0161 -11.0899
  233 45.3974 27.0777 -39.6442
  234 123.535 4.24303 2.45076
  235 148.192 13.0899 14.1351
  236 158.862 -1.07446 -15.4195
  237 148.070 -5.28826 -14.0591
  238 76.9071 -2.57535 -10.9107
  239 77.1897 -2.53485 10.8680
  240 148.399 -1.73431 -7.65115
  241 141.516 -3.49774 2.15420
  242 141.450 -3.49042 -2.09277
  243 28.3967 2.78611 -14.3963
  244 28.9013 2.44489 14.3532
  245 158.604 -13.8323 -11.0451
  246 157.113 -0.437568 0.506985
  247 157.305 -0.447173 -0.537136
  248 144.535 11.9738 -12.8993
  249 126.199 2.34095 7.47739
  250 272.196 43.6386 29.1237
  251 270.180 30.7737 -18.3742
  252 192.617 41.9441 -0.621265
  253 120.075 -5.70990 34.9085
  254 109.969 -3.61954 -36.5683
  255 125.595 -2.57509 -0.333673
  256 125.581 -2.55620 0.330083
  257 103.137 -2.88237 3.61574
  258 103.143 -2.92402 -3.65328
  259 152.576 -1.55657 4.83046
  260 147.743 -10.4790 -8.48995
  261 93.2689 -0.218800 -0.610816
  262 93.2849 -0.215338 0.606124
  263 145.868 -5.83542 -6.69740
  264 59.9385 -2.00353 -15.0791
  265 60.2219 -2.01048 14.9598
  266 147.557 -6.34500 11.4060
  267 112.080 -11.8989 20.9307
  268 112.393 -12.1133 -20.8686
  269 125.488 4.71031 -3.47976
  270 108.252 -1.73727 -1.18280
  271 108.257 -1.72423 1.17711
  272 137.359 -0.368223 9.28432
  273 165.021 30.4118 9.58897
  274 86.3076 -1.13000 4.61382
  275 86.2400 -1.14009 -4.65848
  276 151.941 -12.6264 6.36864
  277 140.657 -15.7238 -13.5099
  278 157.594 -0.648546 1.59077
  279 107.418 -6.53045 -7.83051
  280 107.212 -6.45418 7.79522
  281 196.340 18.8230 49.0699
  282 89.9479 -7.22738 25.1423
  283 145.770 20.5328 -0.843710
  284 186.748 20.3350 -9.34923
  285 139.878 -10.8318 2.69374
  286 140.721 -16.1614 12.0757
  287 90.2496 -7.10269 -25.4501
  288 16.3207 20.0770 17.8817
  289 145.892 -5.85970 6.81576
  290 192.550 24.8305 7.74848
  291 158.961 -0.576971 -1.37878
  292 142.083 4.93892 -14.8434
  293 140.978 -7.95203 4.01967
  294 137.955 -11.6736 -0.503824
  295 141.496 6.47219 14.2778
  296 151.180 -12.6381 -5.78865
  297 215.033 42.1725 -3.26763
  298 140.939 -7.63941 -3.85375
  299 117.786 32.8924 -68.5160
  300 144.381 -15.2808 -1.78128
  301 143.329 -15.6939 3.45230
  302 104.138 -9.52949 -16.4815
  303 92.4491 -0.401171 -1.34300
  304 92.4707 -0.394260 1.33025
  305 104.172 -9.53411 16.3832
  306 152.380 -0.232760 -17.0833
  307 165.394 -6.82748 -8.10074
  308 124.691 -7.60963 -2.51009
  309 124.595 -7.62623 2.56230
  310 150.807 -12.9747 22.1036
  311 149.684 -1.14974 5.79811
  312 183.610 0.482186 6.57438
  313 121.943 -4.36975 -1.32276
  314 121.948 -4.35225 1.31243
  315 110.428 -2.97291 -2.29921
  316 110.424 -2.94301 2.29417
  317 124.798 1.61770 -7.23679
  318 162.681 11.9290 -16.5818
  319 254.563 68.2271 -31.5130
  320 148.698 -1.17271 -0.594203
  321 148.602 -1.15568 0.607253
  322 78.3804 0.00510126 31.3702
  323 109.983 -5.12822 -5.06675
  324 109.755 -5.10680 5.07823
  325 78.3705 -0.168785 -31.2515
  326 154.520 18.2867 -13.8870
  327 174.238 8.55462 13.0199
  328 150.886 -10.7731 -24.6620
  329 137.718 -5.28195 1.97216
  330 137.571 -5.23916 -1.90786
  331 147.479 -2.94775 -3.36484
  332 137.472 -0.277653 -8.68871
  333 155.331 0.713142 16.8162
  334 155.657 -1.00805 -3.35480
  335 91.6084 -5.70558 12.6080
  336 91.5087 -5.74004 -12.7161
  337 143.908 -0.333510 15.5246
  338 86.6899 -0.770522 -2.71426
  339 86.7456 -0.763066 2.68586
  340 148.512 -3.31817 5.07394
  341 177.861 36.5174 -7.45530
  342 147.387 -2.97403 3.48184
  343 156.320 19.7089 13.9671
  344 149.809 -2.75134 16.2828
  345 117.652 -2.24322 0.414574
  346 117.656 -2.25886 -0.418484
  347 141.222 -0.518901 -13.7589
  348 188.314 39.7343 5.28994
  349 155.505 28.6967 0.292950
  350 95.4833 11.1747 -46.9459
  351 8.98697 4.27853 -5.99214
  352 9.95234 4.62230 6.49069
  353 -0.701538 0.971950 3.07251
  354 -0.0760436 0.469620 -3.18907
  355 279.802 19.3929 6.77469
  356 128.972 -10.5622 -2.92780
  357 148.650 -3.19957 -4.95464
  358 133.549 -2.29050 0.319244
  359 133.533 -2.26984 -0.319741
  360 142.223 15.7154 -6.97697
  361 121.655 -12.4981 10.1579
  362 10.2074 15.0520 -10.8033
  363 121.792 -12.4997 -10.3636
  364 144.172 16.4111 7.42552
  365 148.052 -3.88227 -8.59558
  366 157.407 -8.72696 -10.7155
  367 166.851 35.5418 2.80330
  368 157.833 -9.78974 9.07041
  369 63.0023 -1.63895 10.1216
  370 62.5947 -1.60785 -10.1957
  371 35.1395 0.935727 -13.8814
  372 35.5563 0.783844 13.8157
  373 126.916 0.347461 7.33607
  374 247.356 71.2694 26.1473
  375 153.412 -0.915555 -4.18940
  376 118.323 -10.1365 -7.71485
  377 118.208 -10.1048 7.70294
  378 146.987 -3.34521 -10.7374
  379 168.595 -8.14358 2.58499
  380 128.966 -10.5501 3.03647
  381 185.959 0.929963 -13.5996
  382 102.106 -0.888729 -0.424186
  383 102.117 -0.880561 0.420031
  384 144.235 -0.819885 -6.78263
  385 75.7118 -1.15786 -6.62244
  386 75.7651 -1.19338 6.53555
  387 173.226 22.0983 -14.3563
  388 93.0853 6.64012 43.5069
  389 135.102 -7.10729 1.29621
  390 135.238 -7.09262 -1.30429
  391 158.536 26.9679 -8.90578
  392 150.482 -4.42475 -15.5141
  393 151.626 -15.4457 11.5652
  394 125.142 -3.34398 -0.496218
  395 125.124 -3.32507 0.488278
  396 145.354 -11.1959 5.97537
  397 157.273 -0.688463 2.51017
  398 95.8315 -3.63415 -7.65102
  399 95.8669 -3.63212 7.57787
  400 147.028 4.92689 -16.5745
  401 139.236 -2.94413 1.12782
  402 139.232 -2.94986 -1.10693
  403 143.580 -1.67524 12.7182
  404 132.910 9.62028 3.31527
  405 149.331 -6.25946 13.6511
  406 217.197 45.7305 7.44430
  407 70.6557 -3.82451 -20.1918
  408 70.8620 -3.82688 20.0253
  409 31.2841 17.0522 -23.5306
  410 161.426 -0.391781 0.735612
  411 78.9044 -0.727351 -4.18155
  412 79.0163 -0.711902 4.14151
  413 147.131 -3.79374 10.5460
  414 133.390 -14.5202 6.29921
  415 151.435 -1.76838 2.39298
  416 153.417 7.81505 17.3790
  417 32.8985 18.1563 24.6220
  418 133.605 -14.4449 -5.72957
  419 138.135 -12.8695 -0.412842
  420 43.2729 -0.873904 -12.6464
  421 43.6365 -0.909496 12.5522
  422 105.710 -8.35891 -30.3359
  423 158.933 -2.32557 15.0851
  424 105.263 -8.49801 30.0529
  425 146.618 -8.19509 -9.10051
  426 134.918 9.03573 -7.29785
  427 146.655 -6.28101 8.59545
  428 158.829 -0.628537 -1.73490
  429 4.50953 4.60157 1.67336
  430 31.3272 35.5413 35.0634
  431 140.316 -0.521856 6.50328
  432 116.156 1.51653 3.15171
  433 118.340 1.86771 -4.28739
  434 100.981 -1.76514 -2.54858
  435 100.987 -1.74159 2.52877
  436 144.583 -11.1918 -5.53780
  437 145.701 -2.82989 -14.2841
  438 116.843 2.10207 -1.16529
  439 217.323 51.6390 9.31913
  440 28.8121 9.86556 -17.5734
  441 31.8709 9.05964 18.8466
  442 134.978 -4.79240 1.09927
  443 134.924 -4.77761 -1.06036
  444 180.187 40.2236 -0.623340
  445 114.390 44.9117 70.0229
  446 174.580 -2.56163 -3.92142
  447 98.2006 -5.25912 -10.3859
  448 98.2427 -5.22031 10.2882
  449 98.4878 -2.30755 4.03344
  450 98.4736 -2.32591 -4.07537
  451 134.177 2.91599 -11.8352
  452 162.337 -0.163465 -0.498414
  453 130.124 5.88882 6.61508
  454 166.403 20.5900 15.2737
  455 138.345 -10.2873 -2.11853
  456 151.391 -1.67484 -2.32081
  457 159.527 -0.561685 1.59929
  458 161.890 -0.170712 0.285911
  459 162.041 -0.201230 -0.216983
  460 85.8711 -0.180850 0.991250
  461 85.8306 -0.183404 -1.00324
  462 151.670 -9.58665 10.9846
  463 135.513 5.28997 11.4567
  464 142.205 0.562063 -15.1132
  465 149.421 -3.06998 6.46319
  466 219.291 34.6867 -40.5028
  467 149.622 -8.26050 -12.0973
  468 0.960359 2.75564 0.851038
  469 0.967856 2.78120 -0.112180
  470 117.560 -6.77848 4.20233
  471 117.146 -6.69292 -4.15922
  472 188.188 2.79138 21.2713
  473 51.9379 45.9556 -52.5331
  474 147.371 -0.419829 5.11226
  475 168.629 -9.89308 -11.6548
  476 87.6249 -5.15951 14.6425
  477 179.632 31.8853 -10.6891
  478 147.451 -7.93934 10.2114
  479 123.007 -5.96096 -1.86949
  480 123.117 -5.85871 1.86142
  481 126.882 0.649199 -6.48481
  482 87.3428 -5.14177 -14.7447
  483 130.349 0.0216685 6.53885
  484 126.149 -14.4038 -18.5157
  485 125.822 -14.4258 18.5679
  486 152.445 -0.961986 4.61448
  487 137.057 12.8900 1.37165
  488 141.510 2.14481 47.5303
  489 207.359 42.5943 -0.269277
  490 142.810 -2.30863 1.20392
  491 142.821 -2.29945 -1.23674
  492 108.203 -1.99941 -1.56006
  493 108.207 -1.98148 1.55261
  494 56.7661 2.77563 26.1932
  495 148.060 -7.08995 -11.7821
  496 133.993 -2.86836 0.358769
  497 133.979 -2.85641 -0.354931
  498 116.344 -12.3867 15.1655
  499 57.9021 3.64461 -26.8762
  500 148.446 -12.0623 -6.30810
  501 2.36115 0.132696 1.51691
  502 128.012 6.52662 0.474462
  503 143.394 -1.54713 -0.407040
  504 143.387 -1.57117 0.400074
  505 116.435 -12.3691 -15.2903
  506 168.833 -8.82077 15.2878
  507 166.434 6.05531 15.6882
  508 154.047 -0.930695 -1.18386
  509 147.990 -12.2365 6.37970
  510 90.1094 -0.114196 -0.166496
  511 90.1244 -0.113284 0.164697
  512 147.535 -5.62920 -12.4608
  513 142.094 10.5063 12.5869
  514 164.343 4.06456 -15.4772
  515 89.5721 -0.170053 -0.554580
  516 89.5910 -0.167846 0.550068
  517 291.741 42.1111 -37.8938
  518 148.060 17.6830 11.1340
  519 154.195 -0.843730 1.05892
  520 138.455 -13.1496 0.742935
  521 115.349 -3.90276 2.26093
  522 115.352 -3.93488 -2.25645
  523 161.912 -9.81307 5.60065
  524 155.064 -3.05387 -15.7733
  525 173.154 34.3264 8.75047
  526 143.476 2.45457 15.6570
  527 145.598 -2.69938 2.21755
  528 141.639 -15.0516 -17.6435
  529 146.273 -3.58411 12.1861
  530 288.805 13.1874 -5.32946
  531 160.779 -12.0841 -1.48909
  532 153.087 -0.892102 -0.305256
  533 153.121 -0.958190 0.277313
  534 291.774 19.6007 18.7636
  535 139.721 -0.0654472 13.3158
  536 198.193 32.8420 -5.13036
  537 148.086 -3.95092 -6.33460
  538 64.5130 -0.643267 -4.53632
  539 64.7330 -0.612667 4.48666
  540 99.2116 -9.32616 -21.0500
  541 99.2790 -9.16862 20.8844
  542 145.522 -2.58044 -2.19287
  543 158.102 5.82270 -17.1276
  544 138.770 -9.45253 2.64497
  545 148.746 17.0883 -11.5766
  546 150.721 -1.68348 6.21491
  547 190.359 9.10819 -0.490378
  548 128.237 -4.41424 -0.281678
  549 128.193 -4.39555 0.273980
  550 139.796 -6.57510 3.09172
  551 207.907 40.6200 -1.21034
  552 146.827 6.42617 16.2740
  553 62.3232 16.1137 38.8774
  554 143.110 -8.61279 31.4260
  555 190.775 8.33922 -34.3948
  556 150.157 12.4280 -15.1879
  557 134.000 -11.5186 -27.1805
  558 145.006 -15.8563 -4.55859
  559 151.743 -15.3048 -7.07703
  560 19.3320 24.5650 -23.3222
  561 152.458 -1.82885 -3.94740
  562 230.501 44.9839 -12.4956
  563 140.573 -6.29380 -3.36963
  564 141.824 -4.55320 2.77396
  565 141.689 -4.44410 -2.67533
  566 95.7078 -0.611348 -1.20824
  567 95.7240 -0.603353 1.19854
  568 12.6560 1.47048 -7.50597
  569 13.4571 1.53826 7.68762
  570 71.1292 -3.38542 -15.4365
  571 71.7008 -3.40260 15.4033
  572 143.744 -7.75045 -5.96004
  573 146.764 -15.9194 4.99385
  574 150.888 -14.2736 2.03215
  575 122.597 -2.17386 -0.382785
  576 122.588 -2.15641 0.380365
  577 116.762 -12.2049 -23.2883
  578 131.340 -10.7120 28.8164
  579 113.832 -11.4684 23.4360
  580 147.630 -3.25312 -15.3815
  581 90.6590 -1.60118 4.60148
  582 90.6157 -1.61860 -4.64489
  583 140.063 7.69840 -12.6259
  584 140.436 -0.243760 -5.90370
  585 176.182 38.5892 -4.02557
  586 113.962 -1.77581 -0.406508
  587 113.963 -1.76270 0.404145
  588 150.518 -0.425426 -3.37868
  589 102.378 -3.59439 -5.01295
  590 102.374 -3.57984 4.96392
  591 84.2554 4.04690 37.3523
  592 146.503 -6.69045 -8.69898
  593 80.7175 -4.19340 26.7820
  594 143.959 -7.42133 6.06566
  595 151.981 -2.04914 4.34014
  596 150.233 -1.25113 -1.06472
  597 103.412 -1.35791 -1.09627
  598 103.421 -1.34602 1.08913
  599 168.882 33.9604 -7.81270
  600 80.6645 -4.02249 -26.8938
  601 143.492 -6.15885 -4.91624
  602 128.869 -2.36819 -0.145721
  603 128.855 -2.34869 0.144972
  604 245.842 33.2565 -5.77293
  605 83.5117 -0.581909 2.55720
  606 83.4375 -0.587778 -2.58404
  607 132.453 2.97725 10.7801
  608 192.832 15.6539 -4.05305
  609 89.9132 0.777626 -37.1059
  610 44.9555 1.26588 -20.0207
  611 45.3539 0.991468 19.9126
  612 112.412 -6.70909 6.11928
  613 113.650 -6.90655 -5.91812
  614 194.130 39.0233 4.95356
  615 149.576 -1.30139 0.976474
  616 126.285 3.46371 -6.49107
  617 158.903 28.7428 7.03901
  618 158.278 29.8362 -4.67900
  619 130.112 -7.26498 -0.524073
  620 131.143 -7.09312 0.0490057
  621 93.6681 20.2393 -53.6125
  622 110.942 -3.91532 -3.34170
  623 110.947 -3.86817 3.32705
  624 289.671 59.1942 44.4587
  625 147.545 -4.79531 13.3872
  626 82.4880 -3.03730 -9.89275
  627 233.329 51.6595 33.2263
  628 82.6874 -3.01868 9.84917
  629 142.030 -5.48326 -36.8773
  630 97.5486 -0.542236 -0.446715
  631 97.5623 -0.537435 0.443968
  632 121.409 1.03704 5.65633
  633 53.9910 -0.844755 -8.90165
  634 54.3225 -0.846690 8.82547
  635 128.394 -9.17404 2.13568
  636 134.929 -10.8594 -0.0158989
  637 160.388 -0.300649 -1.43966
  638 87.3192 -0.166380 0.720105
  639 87.2896 -0.169190 -0.728986
  640 120.670 -2.75449 -0.518819
  641 120.663 -2.73696 0.513198
  642 139.828 -15.4584 17.8650
  643 160.135 17.9211 -15.4900
  644 105.279 -5.06398 -6.47744
  645 105.193 -4.97647 6.42544
  646 125.930 -9.16965 -3.25741
  647 199.917 43.7833 0.387575
  648 149.963 -14.4647 -1.17902
  649 129.389 -3.08059 -0.0604874
  650 129.368 -3.06295 0.0613955
  651 179.430 19.5181 12.4734
  652 150.079 -2.09119 -6.75851
  653 131.158 -0.190294 -5.33261
  654 59.7867 -2.03231 -19.3540
  655 59.9865 -2.09450 19.1841
  656 125.657 -10.9529 -5.55534
  657 189.396 42.1783 0.161764
  658 145.842 19.8001 -5.01461
  659 95.2796 -0.942400 -2.25577
  660 95.2981 -0.928956 2.23469
  661 136.724 -3.81494 -1.03671
  662 136.751 -3.82164 1.06887
  663 258.694 33.9012 14.8495
  664 163.287 -0.381267 0.410119
  665 157.007 -0.565841 2.44022
  666 156.316 -0.586184 -2.83111
  667 148.030 -13.7437 3.31801
  668 107.186 -1.31456 -0.548434
  669 107.193 -1.30429 0.545404
  670 157.413 25.3718 10.7954
  671 203.473 45.4160 -1.69645
  672 109.808 -8.32781 -9.18531
  673 109.765 -8.24165 9.13261
  674 138.650 -14.3111 -2.06010
  675 145.632 8.64889 -15.2977
  676 174.724 0.388543 7.67624
  677 114.047 -2.18493 -1.03631
  678 114.047 -2.16923 1.03083
  679 98.6703 -8.73071 -19.0113
  680 146.597 -14.1500 -1.92882
  681 121.298 -13.4699 16.6949
  682 57.4366 18.3079 -37.4717
  683 112.802 -10.5672 12.8653
  684 135.931 0.0338110 4.95025
  685 98.7545 -8.62911 18.8734
  686 143.404 -6.28387 4.97670
  687 112.854 -10.5260 -12.9941
  688 114.074 1.42107 1.18212
  689 88.0763 -2.48483 6.99545
  690 87.9958 -2.48899 -7.05111
  691 121.388 -13.8208 -16.8878
  692 150.626 -9.87517 -10.6318
  693 137.934 -1.84217 -0.259181
  694 137.955 -1.86372 0.260273
  695 154.070 -9.75231 10.6137
  696 139.765 -14.6159 2.59737
  697 170.195 15.6038 15.3380
  698 153.215 -2.82320 16.1670
  699 147.422 -5.23137 9.99336
  700 139.816 11.4651 -9.57595
  701 169.369 28.6079 12.0902
  702 145.983 -1.99225 -9.52483
  703 145.884 -4.76164 5.36324
  704 149.867 23.5730 2.71579
  705 148.252 -2.46202 8.37695
  706 46.0766 31.1888 39.1867
  707 138.128 -15.8659 -9.95319
  708 159.962 2.94588 16.5209
  709 161.806 -4.97171 -12.1453
  710 162.351 -0.156835 0.819690
  711 147.415 -4.99407 -7.96424
  712 138.304 -15.9929 8.96644
  713 272.183 24.0830 -4.05205
  714 79.9766 -0.376606 2.68033
  715 79.8758 -0.380924 -2.70863
  716 149.840 -2.62000 -3.83207
  717 163.380 -0.114352 -0.792413
  718 125.405 -11.1273 5.58702
  719 151.268 -5.57861 14.7553
  720 232.888 54.3133 -14.8619
  721 143.370 -10.3789 5.23628
  722 159.506 -10.4501 -6.79836
  723 145.946 -4.62854 -5.27998
  724 163.447 -0.219552 -0.280513
  725 147.267 0.00555226 16.6093
  726 6.55865 5.13721 7.85418
  727 168.129 -6.67180 -23.3820
  728 182.403 10.6048 8.43961
  729 151.534 -15.4339 6.18561
  730 106.104 -2.65537 2.75169
  731 106.109 -2.69409 -2.76787
  732 143.969 69.1680 -73.5722
  733 154.155 -10.1408 -9.88638
  734 113.600 0.518320 -2.25866
  735 133.986 0.704997 10.5510
  736 148.427 -7.37789 11.9894
  737 142.276 -11.9895 3.05400
  738 148.642 -13.4885 -19.1874
  739 141.357 -11.1859 -3.28183
  740 167.987 -8.05047 -3.15129
  741 154.589 -1.15558 2.26386
  742 137.119 -8.25303 1.95036
  743 252.381 50.5178 -26.5248
  744 146.669 -3.83353 4.29777
  745 144.292 2.34526 -16.0912
  746 124.069 -1.44738 41.5965
  747 154.934 12.5149 16.5508
  748 133.222 -10.5472 0.738152
  749 101.946 -8.16977 -13.8340
  750 101.946 -8.14417 13.7108
  751 140.884 15.8383 -2.23885
  752 143.911 -1.64969 14.4427
  753 145.691 -3.43975 -12.4232
  754 137.280 -8.41766 -2.00080
  755 132.618 -11.9530 2.73127
  756 151.061 25.0563 -3.09108
  757 142.095 -12.2965 -2.49096
  758 142.423 -8.99573 5.05288
  759 144.617 -1.73899 0.836485
  760 144.715 -1.68735 -0.832600
  761 194.624 43.0668 1.65446
  762 159.605 -13.5273 -3.62191
  763 147.873 -4.45696 7.91350
  764 154.685 -1.14823 -2.07433
  765 155.504 1.06393 -16.9727
  766 177.954 9.20590 -10.7804
  767 84.2877 -0.106047 -1.23748
  768 84.3421 -0.104705 1.22332
  769 1.13824 -2.95973 -2.12501
  770 150.897 -0.146979 3.13480
  771 137.310 -0.262259 -11.7139
  772 142.246 -1.32694 10.4102
  773 131.522 15.6108 61.5081
  774 162.039 33.5947 -0.376626
  775 114.660 -8.35771 7.03266
  776 18.6813 0.476517 -7.49225
  777 19.2978 0.355595 7.57512
  778 140.873 -1.00955 -11.7070
  779 114.997 -8.44507 -7.02750
  780 153.753 -1.26751 1.75384
  781 76.4116 -3.35681 13.1864
  782 75.7271 -3.34639 -13.2011
  783 146.669 -3.71777 -4.18930
  784 91.5995 -2.43073 -6.07094
  785 91.6443 -2.41347 6.01068
  786 152.928 -1.35837 -4.71593
  787 115.281 -3.16282 -1.79958
  788 115.281 -3.14015 1.79970
  789 167.159 -1.06657 -12.2438
  790 149.649 -1.54434 -16.7411
  791 73.8161 -0.506913 -3.43829
  792 73.9702 -0.502248 3.39491
  793 2.83952 1.89466 -4.40626
  794 3.54112 1.99595 4.64542
  795 119.384 0.548321 -4.11396
  796 136.869 -15.3852 -7.21873
  797 -1.61792 -1.13450 2.75025
  798 -1.40368 -1.31026 -2.71213
  799 142.584 -2.76172 1.75601
  800 154.889 -12.0303 -6.09725
  801 159.134 23.6795 -12.6314
  802 154.468 -1.13132 -1.66284
  803 337.404 66.9801 -63.3745
  804 142.556 -2.75082 -1.73443
  805 215.603 41.4465 3.00444
  806 152.199 4.44610 -17.4207
  807 168.751 12.7076 -15.6479
  808 26.4398 -0.315758 -6.97244
  809 26.9920 -0.358376 6.95822
  810 93.0114 -1.42596 3.56149
  811 92.9810 -1.43856 -3.59762
  812 88.1932 -0.239893 0.659195
  813 88.1708 -0.242315 -0.665394
  814 170.265 28.7578 -12.0260
  815 98.6387 -0.677939 -0.954933
  816 98.6521 -0.669895 0.948456
  817 144.368 -1.45119 -15.0620
  818 212.027 20.4268 16.1763
  819 128.845 2.80230 -9.05200
  820 43.0740 -0.403375 7.52770
  821 42.6665 -0.406941 -7.59195
  822 170.594 4.03218 43.7503
  823 149.666 -2.64250 3.95531
  824 132.062 8.69550 -3.77481
  825 59.4082 -0.115152 5.16573
  826 59.0738 -0.0864665 -5.20763
  827 90.3722 -0.512546 -1.73149
  828 90.4021 -0.505163 1.71301
  829 15.9721 14.3387 11.9244
  830 138.200 3.25245 13.5271
  831 154.307 22.7682 -10.7545
  832 166.737 19.3681 -15.4229
  833 108.129 -4.21825 -4.46143
  834 108.058 -4.18352 4.45187
  835 172.379 36.9933 5.53927
  836 149.606 -1.11169 -0.236253
  837 149.610 -1.10292 0.262666
  838 147.415 -4.35753 -10.0322
  839 122.798 -8.29153 3.83264
  840 135.988 -15.2929 7.27972
  841 160.838 -13.1796 11.4696
  842 121.548 -3.57623 -0.918157
  843 121.544 -3.56038 0.909495
  844 138.905 12.8473 6.13523
  845 130.131 1.71769 -9.79327
  846 36.2261 40.9583 40.7791
  847 133.051 -11.8584 -2.39724
  848 133.436 -5.97150 0.807412
  849 133.509 -5.97992 -0.813442
  850 146.824 -2.13830 15.8899
  851 145.965 -9.55604 -7.77386
  852 129.868 -8.67187 -1.12473
  853 304.062 9.85901 -15.3052
  854 123.326 -11.7753 7.90527
  855 123.236 -11.9332 -8.04456
  856 146.783 -1.72270 8.11627
  857 223.083 57.2084 -11.2482
  858 115.444 -10.6249 -10.1215
  859 128.111 -14.4850 9.39768
  860 115.400 -10.4926 10.0241
  861 125.349 -5.09940 -0.987424
  862 125.341 -5.07922 0.977381
  863 17.8205 7.83937 10.4073
  864 157.850 11.8173 -16.8383
  865 120.034 -4.76505 -1.86045
  866 120.053 -4.71411 1.86815
  867 118.391 -1.99027 -0.219618
  868 118.387 -1.97499 0.217720
  869 130.931 -2.56209 0.146230
  870 130.914 -2.54313 -0.146698
  871 105.162 -2.15827 -2.39430
  872 105.166 -2.13284 2.38209
  873 120.557 -6.45362 -2.92166
  874 120.569 -6.40523 2.93384
  875 2.74943 -1.70508 -0.940363
  876 183.478 34.4272 9.46490
  877 157.746 -5.48149 -13.8131
  878 128.021 -14.2776 -9.50999
  879 138.508 -4.41119 1.76185
  880 138.444 -4.36197 -1.71971
  881 150.935 0.218712 17.0929
  882 165.333 -11.8020 -5.73227
  883 146.769 9.85115 -53.1934
  884 64.9807 -0.948990 25.9837
  885 -3.03355 1.51836 -1.56733
  886 -2.69008 1.71017 1.76459
  887 17.6765 8.33929 -10.6147
  888 147.892 -4.16701 6.30957
  889 156.186 -0.927191 -2.68224
  890 140.199 -13.4248 22.2638
  891 64.8209 -0.871478 -26.0952
  892 156.259 -12.7213 4.60879
  893 175.068 -5.44412 18.8898
  894 124.044 0.483702 4.36778
  895 143.419 13.6428 10.4884
  896 76.6550 -4.36710 19.2111
  897 76.3481 -4.40298 -19.3498
  898 92.0890 -4.51991 -10.7356
  899 97.8723 -4.67624 -33.2660
  900 155.970 -3.59575 15.3351
  901 215.832 50.1143 5.98425
  902 156.366 6.04953 17.1707
  903 147.837 -3.09684 -9.11962
  904 99.9944 -4.19075 34.1022
  905 189.233 34.7526 -7.42403
  906 18.0200 15.5198 -14.7901
  907 135.537 -0.290427 -4.72201
  908 92.1856 -4.48087 10.6308
  909 113.115 -2.56566 1.60321
  910 113.115 -2.58507 -1.60798
  911 146.187 -9.50600 8.00577
  912 152.484 -0.838280 0.699059
  913 111.624 1.09728 -41.4934
  914 161.088 -0.308673 1.27468
  915 159.710 -0.247877 -1.60446
  916 116.479 0.971859 -3.77200
  917 153.790 -0.605491 -2.79049
  918 113.621 -5.44487 -4.02643
  919 113.697 -5.35962 4.03717
  920 -3.95587 1.33762 -2.30585
  921 -5.35672 0.805901 2.40017
  922 152.487 -0.770598 -0.702074
  923 48.6886 -1.07254 17.5066
  924 48.3696 -0.960750 -17.6139
  925 161.875 23.7149 13.3855
  926 296.737 5.33722 4.77798
  927 152.068 16.9657 13.8721
  928 174.118 -6.26273 4.34317
  929 150.303 -8.31607 12.1390
  930 187.424 39.3999 -5.63512
  931 113.789 0.430152 2.83986
  932 144.737 -3.30275 -2.70293
  933 149.750 8.05704 -16.7695
  934 182.769 5.14827 -4.53646
  935 140.828 -8.68521 -4.09481
  936 69.6384 -0.420316 -3.86103
  937 69.7213 -0.405611 3.80301
  938 148.829 -3.41483 -7.25897
  939 4.61223 5.97244 0.831766
  940 142.817 -14.7976 -0.566396
  941 121.752 3.50321 -0.390289
  942 185.946 41.1451 -3.75003
  943 28.6031 21.3526 -24.9965
  944 142.261 -1.05485 -9.32976
  945 97.0923 -1.71875 -3.30399
  946 97.1072 -1.69763 3.27204
  947 0.745826 -4.19093 3.23246
  948 95.7598 -7.25523 -15.4165
  949 145.413 -8.36299 -7.51895
  950 87.7754 0.186709 -0.268484
  951 87.7914 0.187782 0.266282
  952 145.986 17.7439 -8.42948
  953 158.655 -0.362794 -0.259202
  954 158.652 -0.370277 0.335105
  955 95.7957 -7.23264 15.3022
  956 146.855 -0.172995 -3.71455
  957 169.994 1.21541 11.8921
  958 150.662 -2.01436 3.08708
  959 22.9389 6.08087 -13.3425
  960 156.539 -0.855777 2.44060
  961 140.487 1.09885 14.5274
  962 148.203 20.5977 7.50183
  963 148.733 1.73035 -17.1886
  964 101.294 -5.57995 -9.13139
  965 161.359 -5.65736 11.7588
  966 101.357 -5.55557 9.03022
  967 4.35729 4.87450 -0.0237561
  968 16.5600 3.03990 9.75794
  969 81.7333 -1.52582 6.34977
  970 81.6282 -1.52842 -6.39093
  971 144.836 -3.37162 2.83342
  972 154.847 27.0894 4.18851
  973 78.5054 7.34533 -39.1432
  974 129.603 -8.15545 0.924716
  975 121.609 -12.7912 -12.1752
  976 178.132 34.2651 9.58004
  977 136.770 -2.34081 0.368733
  978 136.765 -2.32617 -0.369199
  979 150.342 -2.68454 -5.27995
  980 137.545 11.8326 -5.66338
  981 322.132 93.8353 63.3900
  982 27.5108 1.66772 -13.0384
  983 27.9896 1.38916 13.0723
  984 2.04206 -3.31682 0.351545
  985 138.069 7.60120 11.6237
  986 121.557 -12.8657 12.0776
  987 151.324 -7.10210 -13.6956
  988 164.746 13.4950 16.7769
  989 159.178 -12.8477 -14.3742
  990 233.092 49.1781 15.6132
  991 134.137 -2.10444 -0.00398358
  992 134.119 -2.08482 0.00431419
  993 157.626 -6.36594 13.1481
  994 10.6331 16.2153 17.8385
  995 68.7162 -1.51119 9.12853
  996 68.4848 -1.49210 -9.23619
  997 82.8127 -4.17804 12.4319
  998 82.5160 -4.11712 -12.4859
  999 93.5601 -3.98891 8.86533
  1000 102.261 -0.879429 -0.441168
  1001 102.272 -0.872470 0.439046
  1002 265.209 82.1144 -51.5658
  1003 237.541 59.4322 23.4305
  1004 93.4848 -4.01142 -8.94842
  1005 162.415 -0.705880 14.4612
  1006 144.123 14.9624 -10.1174
  1007 101.794 -8.69403 27.5432
  1008 131.540 -15.5275 -14.4160
  1009 150.484 -1.18782 -5.49683
  1010 66.8625 4.77965 31.7414
  1011 85.8823 -6.58391 22.0185
  1012 131.571 6.67292 -7.25616
  1013 152.024 -2.97198 -16.3241
  1014 199.217 76.3772 84.4718
  1015 123.790 3.71139 5.14396
  1016 170.553 37.0798 -0.662070
  1017 126.160 4.81762 -47.2341
  1018 127.364 -13.4853 -8.04353
  1019 163.590 -0.112253 -0.650930
  1020 155.270 14.2930 -16.1297
  1021 88.8625 -0.630464 2.24664
  1022 88.8227 -0.636993 -2.27076
  1023 3.16155 0.692929 -4.19209
  1024 101.294 -4.76937 -7.59185
  1025 85.7831 -6.67026 -22.1978
  1026 101.206 -4.75626 7.49875
  1027 148.498 -4.48137 15.0919
  1028 133.037 -8.26241 0.323309
  1029 139.206 2.52584 -14.0519
  1030 143.173 17.9113 2.95034
  1031 197.587 11.2534 5.34550
  1032 147.369 -11.1599 7.72690
  1033 91.8230 -7.45270 -16.8731
  1034 137.903 4.83169 -13.1206
  1035 102.735 -8.57143 -27.7052
  1036 198.925 43.5651 -0.501662
  1037 133.713 8.72025 6.60036
  1038 171.421 -1.05913 -9.43025
  1039 128.165 -13.4857 7.32745
  1040 147.173 -4.61398 11.7460
  1041 146.356 -7.68138 8.70335
  1042 145.557 -7.27309 7.60260
  1043 180.353 22.7941 -12.7640
  1044 144.983 -2.31008 11.7873
  1045 131.296 -15.5714 14.1714
  1046 140.172 -5.68532 2.79756
  1047 91.8775 -7.46454 16.7673
  1048 131.300 -9.74874 -1.18437
  1049 75.2940 -3.62178 -23.5599
  1050 108.438 -11.3129 18.5720
  1051 147.874 -0.961260 -6.34195
  1052 143.689 -1.60944 -13.3340
  1053 124.295 -9.94183 -4.75096
  1054 75.4261 -3.73377 23.3606
  1055 133.233 0.291048 -9.17362
  1056 98.6994 -6.69844 -11.8813
  1057 181.269 38.8627 6.16104
  1058 39.2564 6.74663 -22.0826
  1059 317.432 22.4719 30.9762
  1060 71.7358 5.55725 -33.2891
  1061 145.576 -12.0371 -5.07607
  1062 98.7201 -6.63802 11.7744
  1063 131.698 1.33672 10.2263
  1064 72.5020 -1.53662 7.55112
  1065 72.4582 -1.57524 -7.63371
  1066 147.075 -4.06044 -13.9688
  1067 157.692 -0.684736 1.04759
  1068 153.909 -0.307146 2.82853
  1069 151.639 5.06271 17.3593
  1070 141.455 -1.06516 12.4908
  1071 110.395 11.6288 51.1492
  1072 164.728 -0.0819809 0.328631
  1073 152.319 20.7223 11.0488
  1074 127.887 1.79027 8.78666
  1075 156.088 -0.551885 2.73169
  1076 97.9737 -1.13453 -1.82622
  1077 97.9872 -1.12123 1.81215
  1078 61.7167 -1.80606 -12.5778
  1079 61.9809 -1.87068 12.4819
  1080 128.288 6.31735 3.67885
  1081 198.489 9.94689 -12.7943
  1082 182.315 -0.692747 -26.1178
  1083 142.995 -0.113296 -3.83206
  1084 108.494 -11.3996 -18.7202
  1085 124.553 -9.45386 4.18705
  1086 143.884 -0.317876 4.00229
  1087 151.431 -10.9326 -9.02299
  1088 91.9737 -0.252552 1.10616
  1089 91.9548 -0.256758 -1.11419
  1090 145.293 -12.3822 5.07498
  1091 137.927 -2.74235 0.664558
  1092 137.904 -2.74423 -0.654198
  1093 134.101 -13.5569 4.29983
  1094 174.385 -5.71437 -0.484034
  1095 75.7874 -0.148258 -2.13752
  1096 75.9198 -0.143085 2.11242
  1097 117.834 -7.34276 -31.7395
  1098 124.646 -2.98509 0.431225
  1099 124.661 -3.00406 -0.437075
  1100 75.8518 40.0127 56.1544
  1101 174.440 14.2246 -14.1652
  1102 24.6872 12.3053 -16.3841
  1103 150.771 -2.13189 -2.98697
  1104 39.1098 13.7269 -25.2963
  1105 81.9393 -5.26041 -16.0610
  1106 164.874 -0.121351 0.190852
  1107 164.953 -0.110194 -0.143357
  1108 147.823 -8.39152 -10.4621
  1109 130.952 -14.6429 -20.0819
  1110 39.2702 5.74241 21.0434
  1111 160.665 15.9483 15.8206
  1112 146.353 -1.34328 -0.285895
  1113 146.366 -1.34515 0.300879
  1114 160.710 -10.4703 24.2498
  1115 164.221 33.1462 6.15148
  1116 95.8338 -2.42304 -4.76182
  1117 95.8542 -2.41032 4.72282
  1118 73.4907 8.56560 39.4813
  1119 138.883 0.676277 -13.6181
  1120 42.8365 14.0552 27.2678
  1121 181.274 -3.33681 -7.05384
  1122 176.194 39.3580 1.93790
  1123 120.563 -9.66936 5.94605
  1124 109.235 0.523926 -0.552973
  1125 154.598 -1.27711 3.55932
  1126 160.467 -0.153314 1.39595
  1127 32.7878 0.0760094 -6.29768
  1128 33.2968 0.0582459 6.25140
  1129 123.604 1.98410 -6.49337
  1130 128.812 -3.79221 -0.135792
  1131 128.779 -3.77146 0.133726
  1132 13.2723 18.8661 -18.9268
  1133 21.3906 43.3381 -38.9165
  1134 130.549 -5.11287 -0.0925021
  1135 130.605 -5.11576 0.0865753
  1136 135.132 -3.20566 0.741186
  1137 135.113 -3.19692 -0.728033
  1138 34.6835 22.2778 27.2971
  1139 105.059 -1.37346 -0.853113
  1140 105.067 -1.36269 0.848047
  1141 132.940 9.98358 -0.158601
  1142 174.167 20.4060 -59.2031
  1143 163.601 28.3543 -10.5292
  1144 149.516 -5.69843 -14.3482
  1145 147.339 -7.29662 -10.5481
  1146 120.656 -9.76334 -6.05216
  1147 119.940 0.358990 4.00880
  1148 136.177 8.43251 -9.70831
  1149 134.157 7.15229 9.25560
  1150 140.077 -5.51461 -2.75113
  1151 133.391 -8.09167 -0.418141
  1152 120.758 -7.93144 -4.38454
  1153 144.279 -0.829697 7.46563
  1154 259.786 26.3217 3.69588
  1155 145.368 -3.07363 13.6097
  1156 145.501 9.55672 14.6928
  1157 134.744 -13.3153 -3.00988
  1158 15.5988 2.80119 -9.39782
  1159 137.277 -6.33187 -2.13122
  1160 88.4365 -0.170812 -0.0478303
  1161 88.4502 -0.170173 0.0470802
  1162 168.344 -4.45274 8.21257
  1163 160.475 -13.4787 4.57542
  1164 231.307 41.7139 9.79174
  1165 52.3130 -0.132154 -5.28622
  1166 52.6636 -0.120335 5.24231
  1167 121.804 -2.48660 -0.408312
  1168 121.796 -2.46907 0.404131
  1169 137.758 -12.1870 0.443428
  1170 110.279 0.457537 1.80620
  1171 141.156 -10.0462 3.98587
  1172 7.53313 8.96333 -3.90008
  1173 24.4633 12.4604 16.0394
  1174 93.7298 -4.97753 30.7048
  1175 162.834 31.2481 -7.50625
  1176 156.700 -0.404299 -2.15378
  1177 165.617 -0.232946 0.141450
  1178 165.801 -0.331011 -0.0966080
  1179 92.4401 -0.268567 -0.172259
  1180 92.4551 -0.266567 0.170597
  1181 150.022 9.61534 16.7508
  1182 224.480 38.7494 -0.816674
  1183 154.365 25.6700 -7.51881
  1184 115.792 -8.40887 31.5314
  1185 93.2279 -4.76826 -30.6507
  1186 103.112 -7.06680 -10.5981
  1187 144.884 -3.95554 3.55653
  1188 203.148 44.5176 0.0966340
  1189 103.113 -7.02103 10.5052
  1190 148.287 -2.46734 2.69554
  1191 130.414 4.76655 8.81755
  1192 144.797 4.47102 16.0363
  1193 208.384 46.6917 3.81263
  1194 122.060 -3.22438 0.778429
  1195 122.070 -3.24242 -0.786119
  1196 150.120 -2.71286 5.47641
  1197 86.3559 -0.994016 3.54278
  1198 86.2941 -1.00453 -3.57937
  1199 146.945 -1.86986 -1.27741
  1200 59.8469 35.3814 -54.0805
  1201 127.163 -7.10832 -33.7425
  1202 118.542 -3.79470 -1.60281
  1203 118.551 -3.77496 1.60296
  1204 158.432 -0.638678 0.926530
  1205 149.261 -1.82235 2.16471
  1206 7.73740 9.37696 6.68309
  1207 163.321 -0.142515 0.754117
  1208 18.6671 23.1188 22.9333
  1209 145.597 -2.04898 -1.62576
  1210 -0.239750 -3.64445 -3.17894
  1211 101.909 -9.93056 -23.7148
  1212 101.602 -9.68501 23.4652
  1213 163.322 -0.251115 -0.826327
  1214 138.181 -7.28010 -2.48452
  1215 158.288 -0.571085 -0.966675
  1216 124.928 -4.07971 -0.621291
  1217 124.911 -4.06164 0.609800
  1218 146.845 -1.85422 1.20731
  1219 137.175 -6.21040 2.10881
  1220 131.733 -4.22307 -0.404051
  1221 131.784 -4.23785 0.422117
  1222 158.182 -0.589377 -0.794757
  1223 135.772 -14.2200 -22.7186
  1224 154.522 -0.817407 -0.830328
  1225 146.252 -2.11177 1.72724
  1226 99.6477 -1.18098 -1.33019
  1227 99.6600 -1.16894 1.32052
  1228 112.219 -1.70964 -0.630491
  1229 112.222 -1.69647 0.626340
  1230 185.008 28.7242 10.9701
  1231 155.263 -11.8559 7.05546
  1232 105.926 -0.407628 39.0999
  1233 82.2711 -0.168783 1.35758
  1234 82.2002 -0.170462 -1.37308
  1235 146.426 -2.66425 10.2942
  1236 140.442 -2.01683 0.426992
  1237 140.451 -2.00877 -0.426701
  1238 160.088 31.4135 3.48377
  1239 147.858 -15.4300 17.6672
  1240 82.7981 -1.24735 5.01514
  1241 82.7120 -1.25756 -5.05705
  1242 140.164 -3.33786 1.50951
  1243 140.134 -3.35961 -1.47404
  1244 144.810 -3.90188 -3.43865
  1245 131.346 0.0145143 4.75614
  1246 231.970 57.5715 -18.0614
  1247 147.323 -5.32532 -9.30435
  1248 24.0744 5.99498 13.7484
  1249 152.324 -8.05612 12.8790
  1250 119.984 2.52967 -3.54707
  1251 8.62102 6.70736 4.64246
  1252 202.779 21.8030 0.232352
  1253 148.585 -6.71075 -12.8794
  1254 120.601 1.63734 5.42705
  1255 82.5398 -5.26687 16.0212
  1256 151.244 -11.6515 8.16213
  1257 222.158 40.8617 10.7974
  1258 49.5264 7.54496 26.9063
  1259 152.199 -1.70157 -4.70280
  1260 299.342 3.29238 -3.07317
  1261 309.882 4.70475 13.7921
  1262 331.784 11.5314 -32.5976
  1263 146.993 -4.53232 -11.4111
  1264 147.143 -6.65738 9.89935
  1265 149.641 -10.5966 9.47607
  1266 -4.43302 0.455085 2.85388
  1267 -4.05150 0.347157 -3.08578
  1268 145.881 -16.0649 -7.65794
  1269 149.703 -15.0713 -11.9699
  1270 111.152 0.666004 -2.23568
  1271 145.335 -16.3694 12.0195
  1272 155.038 -7.29715 -13.1057
  1273 2.59178 4.41642 0.0979730
  1274 125.017 -2.27601 0.357244
  1275 125.028 -2.29435 -0.358200
  1276 154.558 -1.13068 3.24330
  1277 148.291 -2.41971 -2.54499
  1278 139.246 -15.2130 -3.65653
  1279 126.494 -6.92440 1.52180
  1280 125.828 -6.83156 -1.72661
  1281 149.379 -3.07409 7.37155
  1282 153.014 -5.56979 -14.8350
  1283 8.95879 6.99474 -4.43619
</Section>

newXOutput 21

<Section columns = "stress_xx | stress_yy | stress_xy">
  1 175.323 0.0115258 0.366772
  2 175.339 0.0133152 -0.368177
  3 91.3991 -0.0499851 -0.133096
  4 -1.17685 -1.16999 -1.69061
  5 324.559 122.365 100.957
  6 321.416 127.111 -101.606
  7 -1.36494 -1.11755 1.79104
  8 91.3854 -0.0503748 0.132656
  9 176.656 -0.271087 0.119521
  10 176.230 -0.438418 -0.0696627
  11 175.734 -0.271463 0.441436
  12 175.246 -0.393096 0.156046
  13 174.205 -0.323439 0.697143
  14 173.271 -0.331643 0.528667
  15 171.140 -0.295518 0.990881
  16 168.174 -0.175973 1.45173
  17 165.513 -0.203729 1.59912
  18 161.632 -0.314375 1.91465
  19 156.332 0.00168691 2.80561
  20 151.432 -0.232615 2.64599
  21 145.955 -0.319788 3.70033
  22 138.032 0.229743 3.19847
  23 132.373 0.324071 3.76343
  24 124.999 0.560061 2.92853
  25 119.931 0.553941 2.94468
  26 112.582 0.807602 1.49612
  27 111.050 1.27706 1.59854
  28 110.136 1.02836 -0.469984
  29 111.406 0.563833 -1.04286
  30 113.735 0.570668 -1.27574
  31 119.235 0.737505 -2.55427
  32 124.575 0.581454 -3.24779
  33 132.479 0.104231 -3.86239
  34 138.815 -0.0910317 -3.54297
  35 145.624 -0.257097 -3.50384
  36 151.818 -0.179922 -2.48744
  37 157.195 -0.180372 -2.14362
  38 161.668 -0.304698 -1.81440
  39 165.709 -0.207720 -1.28597
  40 168.276 -0.236426 -1.37433
  41 170.754 -0.308902 -1.00926
  42 173.134 -0.373090 -0.466239
  43 174.367 -0.294574 -0.531838
  44 175.057 -0.163015 -0.342011
  45 174.663 -0.0617367 -0.310762
  46 176.434 -0.447882 0.0399283
  47 176.723 -0.284755 -0.123456
  48 170.491 -0.0477215 -0.226081
  49 166.380 -0.597004 -0.392745
  50 161.402 -0.904731 -0.277632
  51 155.360 -1.39879 -0.374752
  52 149.670 -1.55068 -0.474691
  53 143.623 -2.00175 -0.447262
  54 138.294 -2.26207 -0.262476
  55 133.622 -2.57929 -0.116077
  56 128.242 -2.15328 -0.117583
  57 122.044 -2.03725 -0.165010
  58 116.062 -1.63092 -0.0684501
  59 110.387 -1.06330 -0.0344457
  60 104.981 -0.774232 -0.00651998
  61 100.221 -0.418428 0.0378229
  62 95.3263 -0.128648 -0.154482
  63 91.4714 0.124537 0.170064
  64 89.7676 0.381457 0.105896
  65 91.0078 -0.00598763 0.265636
  66 89.7734 -0.0642767 0.316180
  67 88.6643 -0.0900499 0.395779
  68 87.1382 -0.0221992 0.525164
  69 85.2090 -0.0133727 0.668187
  70 83.8429 -0.135502 1.31585
  71 79.6924 0.118420 1.44244
  72 76.8100 -0.0158370 1.66720
  73 72.5148 -0.0859787 1.88697
  74 67.5475 -0.139926 2.30226
  75 61.3464 -0.0373389 2.79520
  76 53.7824 0.0309686 3.07026
  77 47.3449 -0.0820704 4.38080
  78 34.4562 0.419275 4.10824
  79 25.7892 0.363112 4.34842
  80 15.5067 -0.0586825 4.78685
  81 7.06983 0.835050 4.92759
  82 -2.48469 1.22250 2.86082
  83 -9.30464 1.23546 0.897741
  84 -8.75101 1.16358 -0.625990
  85 -8.05278 0.954421 -2.47426
  86 -4.70340 -0.350664 -2.30533
  87 -0.606424 -4.51597 -2.53149
  88 0.394671 -8.38684 -3.22075
  89 1.17197 -13.5264 -1.93787
  90 2.64705 -14.3496 -0.205878
  91 5.66379 -5.23389 7.02907
  92 17.2409 23.2273 25.1580
  93 105.384 91.7637 89.5573
  94 391.366 57.7772 66.3341
  95 350.951 8.33349 21.8585
  96 324.742 3.39864 6.68938
  97 315.033 2.85536 0.538640
  98 320.062 3.84105 -5.75329
  99 349.921 7.69321 -17.2753
  100 416.864 27.9167 -57.7472
  101 62.0655 92.8967 -74.4101
  102 12.9363 14.6703 -20.5680
  103 6.16134 -4.61271 -7.22843
  104 2.46392 -14.4950 -0.923990
  105 0.639495 -10.4088 2.25267
  106 0.849922 -10.5437 2.81371
  107 0.0215690 -3.92711 2.80005
  108 -4.90352 -0.247184 2.19759
  109 -8.31219 0.715916 2.17062
  110 -9.20625 1.41854 0.679068
  111 -9.61672 1.22113 -0.814676
  112 -3.14245 1.25318 -2.66739
  113 6.47872 0.842758 -4.69072
  114 14.9013 0.0280790 -4.70754
  115 25.1684 0.392970 -4.35974
  116 33.8921 0.430966 -4.14275
  117 46.9067 -0.0838551 -4.42152
  118 53.4062 0.0351216 -3.10307
  119 61.0189 -0.0357556 -2.83328
  120 67.3776 -0.153898 -2.32227
  121 72.2922 -0.0825230 -1.89352
  122 76.6429 -0.0103551 -1.68651
  123 79.5573 0.116763 -1.46049
  124 83.7483 -0.136722 -1.33119
  125 85.1353 -0.0141699 -0.677708
  126 87.0848 -0.0229423 -0.533037
  127 88.6262 -0.0912657 -0.402060
  128 89.7467 -0.0653154 -0.320595
  129 90.9875 -0.00691265 -0.268487
  130 89.7518 0.380846 -0.107249
  131 91.4567 0.124261 -0.170893
  132 95.3109 -0.129721 0.153965
  133 100.205 -0.421107 -0.0388956
  134 104.968 -0.780220 0.00524993
  135 110.377 -1.07165 0.0332064
  136 116.058 -1.64294 0.0672502
  137 122.045 -2.05232 0.164083
  138 128.250 -2.17060 0.116732
  139 133.635 -2.59839 0.115764
  140 138.310 -2.28101 0.263139
  141 143.645 -2.01898 0.449151
  142 149.687 -1.56276 0.481548
  143 155.370 -1.40955 0.407168
  144 161.427 -0.847911 0.284021
  145 166.498 -0.578301 0.384308
  146 170.512 -0.0738872 0.222901
  147 151.151 -14.1877 -2.06453
  148 151.035 -13.9989 2.11959
  149 157.729 22.7443 -8.30535
  150 169.014 10.0027 17.8640
  151 127.893 -12.2193 -27.4414
  152 128.902 -12.2139 26.5213
  153 123.252 -5.34006 2.98215
  154 123.267 -5.41805 -2.98658
  155 179.865 6.40430 -14.2005
  156 150.743 -5.34960 4.04891
  157 150.682 -5.21500 -3.99671
  158 194.868 43.8961 2.52023
  159 153.776 -0.243695 -17.1973
  160 112.977 -9.05084 -12.1836
  161 112.969 -8.97133 12.0652
  162 154.204 -3.45689 15.6430
  163 145.593 10.5778 10.1215
  164 59.4947 9.82695 -32.7135
  165 66.1917 9.29033 34.5071
  166 190.644 1.95550 3.22478
  167 154.883 -5.88328 -11.1053
  168 205.866 45.2820 -2.21930
  169 139.104 -3.89840 0.372479
  170 139.072 -3.88342 -0.358469
  171 157.285 -1.76743 -1.79468
  172 157.827 -1.57066 1.55912
  173 107.636 -1.64092 -1.86185
  174 107.646 -1.62298 1.84989
  175 169.941 -4.78924 34.8220
  176 140.702 5.76814 -10.8865
  177 91.4647 -6.93516 -19.8637
  178 91.7425 -6.88309 19.7203
  179 102.479 -3.50250 -6.39437
  180 102.483 -3.46034 6.33980
  181 155.696 -4.02094 9.43178
  182 141.166 -9.73788 0.422630
  183 140.641 -9.66500 -0.178650
  184 161.435 -15.5519 -1.49705
  185 162.240 -14.8145 -0.534711
  186 223.770 52.5557 -6.29917
  187 160.913 25.9830 7.78851
  188 161.623 9.94662 -17.7509
  189 169.512 -1.82699 -40.7144
  190 160.890 -9.03271 -12.8567
  191 162.242 -6.42412 14.9571
  192 134.844 -15.3410 13.0442
  193 134.902 -15.2374 -12.9978
  194 143.356 1.78358 13.1341
  195 64.5863 -1.49583 -24.2055
  196 64.7575 -1.64389 24.0449
  197 253.560 38.2164 5.38804
  198 152.223 -9.03152 7.26827
  199 158.144 -2.81204 -6.23188
  200 123.974 -3.09477 -1.29176
  201 123.973 -3.07664 1.28621
  202 151.011 -1.94568 -12.0090
  203 172.387 25.3868 -14.4278
  204 142.980 12.8024 -2.03480
  205 91.9096 -3.38956 9.10777
  206 91.7630 -3.40219 -9.18429
  207 160.853 -1.66788 3.50455
  208 155.555 2.93118 17.6558
  209 125.964 -9.31830 -5.52965
  210 125.046 -8.82637 5.70227
  211 184.282 27.3340 13.6430
  212 218.690 28.9344 2.74821
  213 13.9204 11.1643 -8.59939
  214 12.8482 10.3213 7.27169
  215 88.8874 25.1790 58.4338
  216 150.664 -9.99003 -5.78908
  217 161.502 -1.60382 -3.17068
  218 141.617 1.19521 -12.0871
  219 97.8770 -1.05615 -2.82150
  220 97.9049 -1.04387 2.79288
  221 135.000 -6.38701 -0.728728
  222 135.061 -6.42259 0.649830
  223 152.440 -2.03169 10.2600
  224 177.188 -10.2996 2.54205
  225 174.316 35.9360 -4.24301
  226 136.718 -13.2912 -5.75071
  227 174.035 -2.99878 12.0752
  228 147.772 -2.37789 0.765228
  229 147.778 -2.35608 -0.763925
  230 135.653 -13.2260 6.02420
  231 155.982 -9.84386 10.5719
  232 222.167 27.3947 -11.7467
  233 47.7768 28.4941 -41.7390
  234 130.000 4.46853 2.57348
  235 155.881 13.7678 14.8320
  236 167.065 -1.13179 -16.1614
  237 155.730 -5.56350 -14.7411
  238 80.9641 -2.70757 -11.4817
  239 81.2610 -2.66505 11.4371
  240 156.072 -1.82612 -8.02109
  241 148.830 -3.68187 2.24645
  242 148.760 -3.67427 -2.18205
  243 29.9178 2.92867 -15.1643
  244 30.4476 2.56989 15.1187
  245 166.764 -14.5457 -11.6610
  246 165.188 -0.464876 0.528801
  247 165.389 -0.475021 -0.560712
  248 152.041 12.5956 -13.5368
  249 132.795 2.46648 7.85023
  250 286.082 45.8626 30.6152
  251 283.953 32.3416 -19.3092
  252 202.562 44.0935 -0.637852
  253 126.281 -6.00789 36.7407
  254 115.661 -3.81187 -38.4854
  255 132.117 -2.70915 -0.357812
  256 132.102 -2.68936 0.354032
  257 108.539 -3.02895 3.81185
  258 108.544 -3.07265 -3.85121
  259 160.447 -1.64024 5.05975
  260 155.376 -11.0220 -8.88352
  261 98.1897 -0.228722 -0.644065
  262 98.2068 -0.225094 0.639154
  263 153.405 -6.13966 -7.00982
  264 63.1120 -2.10803 -15.8701
  265 63.4095 -2.11532 15.7450
  266 155.187 -6.67511 11.9537
  267 117.898 -12.5164 22.0364
  268 118.226 -12.7419 -21.9710
  269 132.049 4.96008 -3.65328
  270 113.913 -1.82539 -1.24798
  271 113.919 -1.81173 1.24202
  272 144.502 -0.386426 9.74244
  273 173.566 31.9784 10.0514
  274 90.8612 -1.18678 4.85692
  275 90.7899 -1.19735 -4.90374
  276 159.783 -13.2806 6.64889
  277 147.917 -16.5375 -14.2440
  278 165.698 -0.686276 1.66319
  279 113.024 -6.86520 -8.24979
  280 112.808 -6.78514 8.21283
  281 206.341 19.8514 51.6439
  282 94.6392 -7.60548 26.4639
  283 153.346 21.5972 -0.885042
  284 196.354 21.3925 -9.75943
  285 147.112 -11.3916 2.79674
  286 147.985 -16.9974 12.7361
  287 94.9556 -7.47451 -26.7868
  288 17.1882 21.1460 18.8486
  289 153.430 -6.16506 7.13389
  290 202.448 26.1202 8.07316
  291 167.130 -0.610634 -1.44156
  292 149.462 5.19647 -15.5771
  293 148.268 -8.36412 4.19462
  294 145.092 -12.2765 -0.495241
  295 148.847 6.80910 14.9845
  296 158.984 -13.2925 -6.04007
  297 226.097 44.3280 -3.45178
  298 148.227 -8.03546 -4.02119
  299 123.826 34.6169 -72.0747
  300 151.836 -16.0708 -1.91424
  301 150.731 -16.5053 3.67048
  302 109.564 -10.0220 -17.3510
  303 97.3255 -0.420541 -1.41553
  304 97.3484 -0.413294 1.40217
  305 109.599 -10.0269 17.2478
  306 160.263 -0.245996 -17.9170
  307 173.913 -7.18024 -8.46157
  308 131.164 -8.00111 -2.66149
  309 131.064 -8.01860 2.71657
  310 158.568 -13.6427 23.2844
  311 157.422 -1.21111 6.07822
  312 193.030 0.521938 6.97748
  313 128.283 -4.59465 -1.40538
  314 128.288 -4.57636 1.39455
  315 116.194 -3.12459 -2.42733
  316 116.190 -3.09325 2.42208
  317 131.325 1.70460 -7.59743
  318 171.087 12.5446 -17.3845
  319 267.590 71.7353 -33.1727
  320 156.362 -1.23867 -0.619742
  321 156.261 -1.22074 0.633446
  322 82.4720 -0.000659644 33.0189
  323 115.722 -5.39065 -5.34276
  324 115.483 -5.36827 5.35493
  325 82.4614 -0.183948 -32.8940
  326 162.527 19.2319 -14.5672
  327 183.213 8.99751 13.6274
  328 158.647 -11.3271 -25.9747
  329 144.844 -5.55672 2.05072
  330 144.689 -5.51186 -1.98326
  331 155.089 -3.10429 -3.51739
  332 144.620 -0.291427 -9.11721
  333 163.361 0.747833 17.6336
  334 163.675 -1.06325 -3.51307
  335 96.4085 -5.99909 13.2717
  336 96.3035 -6.03523 -13.3851
  337 151.371 -0.350642 16.2887
  338 91.2692 -0.808828 -2.85823
  339 91.3278 -0.801009 2.82846
  340 156.178 -3.49330 5.31038
  341 187.053 38.3966 -7.80012
  342 154.993 -3.13180 3.64002
  343 164.418 20.7263 14.6502
  344 157.561 -2.89531 17.0771
  345 123.780 -2.35875 0.440724
  346 123.784 -2.37513 -0.444824
  347 148.552 -0.545362 -14.4367
  348 198.032 41.7782 5.51573
  349 163.574 30.1778 0.307254
  350 100.429 11.7503 -49.4011
  351 9.48570 4.50161 -6.32251
  352 10.5007 4.86358 6.84679
  353 -0.729334 1.02732 3.22396
  354 -0.0730417 0.499767 -3.34698
  355 294.035 20.3797 7.11503
  356 135.658 -11.1065 -3.10672
  357 156.322 -3.36872 -5.18537
  358 140.466 -2.41180 0.330196
  359 140.449 -2.39015 -0.330731
  360 149.618 16.5320 -7.32213
  361 127.968 -13.1428 10.7079
  362 10.7552 15.8652 -11.3987
  363 128.111 -13.1444 -10.9239
  364 151.664 17.2631 7.79287
  365 155.704 -4.08564 -9.00710
  366 165.527 -9.17968 -11.2152
  367 175.496 37.3703 2.93709
  368 165.973 -10.2975 9.48529
  369 66.3446 -1.72324 10.6518
  370 65.9166 -1.69052 -10.7294
  371 37.0237 0.982731 -14.6151
  372 37.4611 0.823162 14.5461
  373 133.548 0.368495 7.70102
  374 260.005 74.9537 27.5660
  375 161.327 -0.965320 -4.38992
  376 124.472 -10.6579 -8.13538
  377 124.352 -10.6248 8.12289
  378 154.591 -3.52021 -11.2575
  379 177.267 -8.56308 2.66111
  380 135.652 -11.0938 3.22107
  381 195.486 0.993903 -14.3628
  382 107.463 -0.932880 -0.448993
  383 107.475 -0.924326 0.444647
  384 151.711 -0.863219 -7.11406
  385 79.7184 -1.21662 -6.96872
  386 79.7744 -1.25401 6.87754
  387 182.167 23.2392 -15.0382
  388 97.9130 6.98167 45.7864
  389 142.097 -7.47485 1.33674
  390 142.240 -7.45951 -1.34517
  391 166.754 28.3596 -9.33881
  392 158.264 -4.65530 -16.2676
  393 159.437 -16.2434 12.2047
  394 131.641 -3.51715 -0.533584
  395 131.622 -3.49736 0.525237
  396 152.866 -11.7753 6.24212
  397 165.369 -0.726615 2.62793
  398 100.858 -3.81945 -8.05546
  399 100.895 -3.81738 7.97877
  400 154.651 5.18238 -17.3907
  401 146.436 -3.09983 1.17188
  402 146.431 -3.10592 -1.15001
  403 151.024 -1.76290 13.3416
  404 139.840 10.1243 3.48062
  405 157.052 -6.58522 14.3097
  406 228.369 48.0713 7.85558
  407 74.3702 -4.02475 -21.2522
  408 74.5871 -4.02719 21.0775
  409 32.9403 17.9430 -24.7888
  410 169.712 -0.415557 0.768518
  411 83.0814 -0.763513 -4.40061
  412 83.1990 -0.747298 4.35864
  413 154.742 -3.99193 11.0556
  414 140.293 -15.2700 6.65728
  415 159.238 -1.86441 2.50103
  416 161.360 8.21821 18.2309
  417 34.6361 19.1049 25.9349
  418 140.519 -15.1906 -6.05822
  419 145.280 -13.5341 -0.470038
  420 45.5856 -0.920418 -13.3123
  421 45.9671 -0.957787 13.2134
  422 111.193 -8.79656 -31.9297
  423 167.138 -2.44801 15.8092
  424 110.725 -8.94238 31.6325
  425 154.196 -8.62041 -9.52914
  426 141.947 9.50897 -7.66044
  427 154.235 -6.60808 9.00202
  428 166.994 -0.664451 -1.81469
  429 4.75429 4.86006 1.78306
  430 32.9746 37.4338 36.9278
  431 147.604 -0.548697 6.82264
  432 122.257 1.59926 3.30956
  433 124.548 1.96876 -4.50163
  434 106.278 -1.85399 -2.68693
  435 106.285 -1.82929 2.66619
  436 152.055 -11.7709 -5.78272
  437 153.248 -2.97763 -14.9824
  438 122.977 2.21607 -1.22349
  439 228.494 54.2978 9.85606
  440 30.3452 10.3779 -18.5153
  441 33.5622 9.52993 19.8538
  442 141.967 -5.04153 1.13594
  443 141.910 -5.02611 -1.09513
  444 189.507 42.2869 -0.650913
  445 120.232 47.2986 73.6611
  446 183.558 -2.68923 -4.06201
  447 103.339 -5.52894 -10.9346
  448 103.384 -5.48824 10.8321
  449 103.656 -2.42441 4.24963
  450 103.641 -2.44364 -4.29358
  451 141.165 3.07033 -12.4228
  452 170.666 -0.174980 -0.520347
  453 136.914 6.19936 6.94486
  454 175.002 21.6516 16.0103
  455 145.503 -10.8190 -2.19425
  456 159.191 -1.76617 -2.42576
  457 167.727 -0.594157 1.67280
  458 170.195 -0.183003 0.298455
  459 170.354 -0.215147 -0.226256
  460 90.4182 -0.189327 1.04441
  461 90.3753 -0.192006 -1.05698
  462 159.503 -10.0841 11.5027
  463 142.569 5.56757 12.0257
  464 149.586 0.591685 -15.8582
  465 157.136 -3.23200 6.76942
  466 230.450 36.5439 -42.6624
  467 157.355 -8.68942 -12.6750
  468 1.03021 2.90131 0.907913
  469 1.03724 2.92904 -0.130800
  470 123.677 -7.12651 4.43803
  471 123.243 -7.03635 -4.39215
  472 197.820 2.96306 22.4278
  473 54.6261 48.3902 -55.2862
  474 154.999 -0.442839 5.36085
  475 177.290 -10.3984 -12.3085
  476 92.2192 -5.42550 15.4113
  477 188.903 33.5298 -11.1845
  478 155.071 -8.35168 10.6962
  479 129.398 -6.26753 -1.98417
  480 129.513 -6.16015 1.97574
  481 133.512 0.684300 -6.80712
  482 91.9226 -5.40674 -15.5184
  483 137.150 0.0243442 6.86304
  484 132.677 -15.1500 -19.5016
  485 132.333 -15.1732 19.5572
  486 160.314 -1.01383 4.83576
  487 144.194 13.5625 1.44002
  488 148.780 2.26674 50.0138
  489 218.043 44.7721 -0.282942
  490 150.185 -2.43229 1.25417
  491 150.197 -2.42266 -1.28867
  492 113.861 -2.10086 -1.64722
  493 113.865 -2.08206 1.63943
  494 59.7500 2.91487 27.5767
  495 155.715 -7.45848 -12.3471
  496 140.932 -3.01915 0.367188
  497 140.917 -3.00664 -0.363190
  498 122.385 -13.0270 15.9727
  499 60.9440 3.82832 -28.2949
  500 156.113 -12.6869 -6.58833
  501 2.49142 0.156852 1.58050
  502 134.699 6.87100 0.498445
  503 150.797 -1.63204 -0.423668
  504 150.790 -1.65728 0.416346
  505 122.479 -13.0084 -16.1038
  506 177.503 -9.26856 16.1271
  507 175.020 6.36668 16.4388
  508 161.974 -0.983681 -1.23616
  509 155.633 -12.8700 6.66377
  510 94.8760 -0.119071 -0.175906
  511 94.8921 -0.118115 0.174024
  512 155.166 -5.92209 -13.0626
  513 149.478 11.0524 13.2100
  514 172.823 4.27359 -16.2184
  515 94.3099 -0.177881 -0.584456
  516 94.3301 -0.175567 0.579732
  517 306.577 44.2535 -39.8131
  518 155.746 18.5986 11.6832
  519 162.129 -0.892441 1.10554
  520 145.616 -13.8288 0.817362
  521 121.360 -4.10275 2.39044
  522 121.363 -4.13642 -2.38570
  523 170.252 -10.3210 5.83506
  524 163.076 -3.21393 -16.5357
  525 182.109 36.0926 9.16439
  526 150.921 2.58236 16.4295
  527 153.113 -2.84316 2.31485
  528 148.943 -15.8306 -18.5910
  529 153.845 -3.77134 12.7784
  530 303.470 13.8593 -5.59831
  531 169.059 -12.7084 -1.51394
  532 160.965 -0.943406 -0.317846
  533 161.001 -1.01285 0.288453
  534 306.592 20.5950 19.7070
  535 146.979 -0.0681164 13.9728
  536 208.379 34.5488 -5.31666
  537 155.734 -4.15836 -6.63260
  538 67.9466 -0.675986 -4.77322
  539 68.1775 -0.643817 4.72110
  540 104.380 -9.81051 -22.1575
  541 104.451 -9.64484 21.9835
  542 153.033 -2.71822 -2.28925
  543 166.274 6.12238 -17.9603
  544 145.949 -9.94127 2.74810
  545 156.466 17.9735 -12.1467
  546 158.504 -1.77343 6.51280
  547 200.126 9.59276 -0.586851
  548 134.890 -4.64268 -0.312387
  549 134.844 -4.62315 0.304268
  550 147.026 -6.91628 3.22277
  551 218.580 42.7294 -1.35318
  552 154.442 6.75905 17.0765
  553 65.5758 16.9512 40.9244
  554 150.476 -9.05513 33.0830
  555 200.519 8.80278 -36.2194
  556 157.942 13.0715 -15.9351
  557 140.912 -12.1155 -28.6165
  558 152.491 -16.6763 -4.83499
  559 159.562 -16.0961 -7.48603
  560 20.3529 25.8830 -24.5724
  561 160.317 -1.92752 -4.13151
  562 242.333 47.2859 -13.1621
  563 147.842 -6.62094 -3.51524
  564 149.154 -4.79129 2.89400
  565 149.012 -4.67671 -2.79061
  566 100.747 -0.641162 -1.27400
  567 100.764 -0.632781 1.26384
  568 13.3625 1.54582 -7.90831
  569 14.2040 1.61721 8.09938
  570 74.8790 -3.56081 -16.2459
  571 75.4795 -3.57892 16.2114
  572 151.174 -8.15281 -6.23226
  573 154.336 -16.7427 5.29349
  574 158.672 -15.0123 2.09062
  575 128.971 -2.28685 -0.405915
  576 128.962 -2.26857 0.403370
  577 122.812 -12.8389 -24.5178
  578 138.118 -11.2674 30.3363
  579 119.735 -12.0646 24.6726
  580 155.273 -3.42280 -16.1323
  581 95.4332 -1.68189 4.84533
  582 95.3876 -1.70016 -4.89081
  583 147.344 8.10016 -13.2515
  584 147.729 -0.256509 -6.19353
  585 185.297 40.5714 -4.21271
  586 119.908 -1.86659 -0.429617
  587 119.908 -1.85287 0.427140
  588 158.298 -0.448320 -3.54228
  589 107.738 -3.77740 -5.28221
  590 107.734 -3.76218 5.23078
  591 88.6397 4.25117 39.3128
  592 154.075 -7.03845 -9.11008
  593 84.9348 -4.41552 28.1900
  594 151.400 -7.80663 6.34355
  595 159.818 -2.15895 4.54331
  596 157.973 -1.32103 -1.11114
  597 108.833 -1.42613 -1.15716
  598 108.843 -1.41367 1.14969
  599 177.624 35.7083 -8.18491
  600 84.8787 -4.23607 -28.3073
  601 150.908 -6.47950 -5.13900
  602 135.554 -2.49239 -0.156678
  603 135.539 -2.47195 0.155882
  604 258.426 34.9517 -6.07195
  605 87.9296 -0.610933 2.69194
  606 87.8515 -0.617087 -2.72007
  607 139.357 3.13475 11.3161
  608 202.730 16.4769 -4.18552
  609 94.5862 0.811715 -39.0522
  610 47.3371 1.32773 -21.0794
  611 47.7556 1.03950 20.9658
  612 118.270 -7.05315 6.45198
  613 119.569 -7.26074 -6.24101
  614 204.130 41.0364 5.14626
  615 157.284 -1.37388 1.01857
  616 132.885 3.64824 -6.81464
  617 167.141 30.2252 7.38152
  618 166.486 31.3747 -4.90671
  619 136.857 -7.63975 -0.574832
  620 137.941 -7.45936 0.0755774
  621 98.5099 21.2922 -56.4129
  622 116.732 -4.11523 -3.52607
  623 116.737 -4.06577 3.51075
  624 304.422 62.2123 46.7316
  625 155.178 -5.04516 14.0362
  626 86.8323 -3.19276 -10.4115
  627 245.214 54.3957 35.0465
  628 87.0420 -3.17325 10.3659
  629 149.337 -5.76301 -38.8140
  630 102.681 -0.568425 -0.470970
  631 102.696 -0.563396 0.468094
  632 127.770 1.09346 5.93853
  633 56.8696 -0.888263 -9.36746
  634 57.2176 -0.890305 9.28755
  635 135.053 -9.64671 2.27188
  636 141.914 -11.4197 -0.0484597
  637 168.633 -0.318151 -1.50673
  638 91.9415 -0.174203 0.759241
  639 91.9102 -0.177150 -0.768543
  640 126.947 -2.89675 -0.553368
  641 126.940 -2.87840 0.547469
  642 147.043 -16.2584 18.8229
  643 168.421 18.8463 -16.2439
  644 110.781 -5.32294 -6.82463
  645 110.691 -5.23103 6.77006
  646 132.464 -9.64151 -3.44992
  647 210.225 46.0296 0.442737
  648 157.701 -15.2130 -1.19456
  649 136.100 -3.24138 -0.0744453
  650 136.077 -3.22292 0.0753718
  651 188.674 20.5278 13.0506
  652 157.831 -2.20234 -7.08234
  653 137.999 -0.199026 -5.59669
  654 62.9436 -2.14003 -20.3711
  655 63.1534 -2.20531 20.1927
  656 132.175 -11.5170 -5.86811
  657 199.181 44.3388 0.166743
  658 153.420 20.8266 -5.26198
  659 100.294 -0.989193 -2.37710
  660 100.313 -0.975094 2.35502
  661 143.799 -4.01465 -1.07353
  662 143.828 -4.02159 1.10723
  663 271.910 35.6277 15.6097
  664 171.660 -0.403392 0.428366
  665 165.093 -0.597273 2.55535
  666 164.369 -0.618310 -2.96584
  667 155.672 -14.4549 3.44470
  668 112.795 -1.38093 -0.578871
  669 112.803 -1.37018 0.575698
  670 165.572 26.6809 11.3224
  671 213.956 47.7472 -1.82458
  672 115.530 -8.75562 -9.67717
  673 115.485 -8.66519 9.62192
  674 145.819 -15.0502 -2.20307
  675 153.189 9.09772 -16.0529
  676 183.712 0.410736 8.00897
  677 119.995 -2.29671 -1.09632
  678 119.996 -2.28026 1.09058
  679 103.816 -9.18310 -20.0114
  680 154.167 -14.8819 -1.98520
  681 127.585 -14.1673 17.5840
  682 60.4389 19.2577 -39.4464
  683 118.668 -11.1125 13.5510
  684 143.007 0.0356946 5.19438
  685 103.905 -9.07634 19.8667
  686 150.816 -6.61080 5.20222
  687 118.722 -11.0690 -13.6862
  688 120.072 1.49842 1.24130
  689 92.7126 -2.61121 7.36397
  690 92.6279 -2.61553 -7.42229
  691 127.679 -14.5363 -17.7868
  692 158.406 -10.3874 -11.1328
  693 145.068 -1.94154 -0.268695
  694 145.090 -1.96415 0.269831
  695 162.023 -10.2585 11.1106
  696 146.990 -15.3711 2.76891
  697 178.977 16.4088 16.0698
  698 161.135 -2.97139 16.9518
  699 155.043 -5.50433 10.4722
  700 147.089 12.0625 -10.0505
  701 178.126 30.0817 12.6689
  702 153.541 -2.09657 -9.98843
  703 153.420 -5.01076 5.61091
  704 157.650 24.7926 2.84957
  705 155.918 -2.59153 8.78115
  706 48.4862 32.8253 41.2561
  707 145.263 -16.6864 -10.5030
  708 168.225 3.09606 17.3194
  709 170.150 -5.22986 -12.7159
  710 170.685 -0.167391 0.856918
  711 155.031 -5.25509 -8.34182
  712 145.450 -16.8198 9.46526
  713 286.049 25.3104 -4.25780
  714 84.2128 -0.395241 2.82138
  715 84.1068 -0.399766 -2.85105
  716 157.569 -2.75947 -4.00879
  717 171.763 -0.122341 -0.828658
  718 131.911 -11.7005 5.90147
  719 159.087 -5.86923 15.4684
  720 244.792 57.1435 -15.7215
  721 150.781 -10.9161 5.46768
  722 167.728 -10.9911 -7.09581
  723 153.484 -4.87093 -5.52371
  724 171.828 -0.233530 -0.292421
  725 154.896 0.00483326 17.4244
  726 6.90836 5.45035 8.29010
  727 176.754 -7.00560 -24.6369
  728 191.783 11.1583 8.80566
  729 159.345 -16.2314 6.54940
  730 111.655 -2.79034 2.90285
  731 111.660 -2.83096 -2.91980
  732 151.273 72.8378 -77.3954
  733 162.111 -10.6666 -10.3461
  734 119.574 0.548767 -2.37177
  735 140.964 0.743164 11.0739
  736 156.100 -7.76140 12.5638
  737 149.631 -12.6093 3.17277
  738 156.296 -14.1856 -20.2166
  739 148.666 -11.7642 -3.41385
  740 176.631 -8.46475 -3.25694
  741 162.548 -1.21961 2.36723
  742 144.215 -8.67973 2.02129
  743 265.300 53.1004 -27.8992
  744 154.242 -4.03526 4.49449
  745 151.778 2.46740 -16.8846
  746 130.468 -1.51975 43.7756
  747 162.957 13.1609 17.3616
  748 140.122 -11.0914 0.806818
  749 107.265 -8.59082 -14.5644
  750 107.266 -8.56403 14.4351
  751 148.213 16.6622 -2.34948
  752 151.372 -1.73597 15.1513
  753 153.235 -3.61907 -13.0281
  754 144.384 -8.85305 -2.07405
  755 139.486 -12.5696 2.90339
  756 158.903 26.3516 -3.24231
  757 149.441 -12.9322 -2.58075
  758 149.786 -9.46169 5.27766
  759 152.081 -1.83377 0.871594
  760 152.183 -1.77953 -0.867481
  761 204.667 45.2748 1.71013
  762 167.821 -14.2257 -3.85859
  763 155.513 -4.69014 8.28938
  764 162.647 -1.21205 -2.16850
  765 163.543 1.11731 -17.7979
  766 187.114 9.68547 -11.2702
  767 88.7518 -0.110665 -1.30324
  768 88.8093 -0.109257 1.28839
  769 1.20188 -3.10132 -2.22542
  770 158.697 -0.155796 3.28633
  771 144.450 -0.274363 -12.2925
  772 149.625 -1.39600 10.9208
  773 138.272 16.4404 64.7092
  774 170.440 35.3247 -0.394942
  775 120.628 -8.78705 7.41512
  776 19.7119 0.500234 -7.89054
  777 20.3590 0.373097 7.97770
  778 148.186 -1.06173 -12.2828
  779 120.982 -8.87873 -7.40983
  780 161.668 -1.33777 1.83258
  781 80.4374 -3.53007 13.8774
  782 79.7180 -3.51905 -13.8925
  783 154.241 -3.91360 -4.38092
  784 96.4161 -2.55400 -6.39157
  785 96.4634 -2.53592 6.32840
  786 160.815 -1.43192 -4.94005
  787 121.289 -3.32469 -1.90302
  788 121.289 -3.30094 1.90317
  789 175.773 -1.12167 -12.8159
  790 157.395 -1.62545 -17.5595
  791 77.7330 -0.532458 -3.61828
  792 77.8949 -0.527556 3.57278
  793 3.02462 1.99333 -4.64644
  794 3.76141 2.10003 4.89822
  795 125.646 0.578078 -4.31900
  796 143.944 -16.1803 -7.62663
  797 -1.69973 -1.19123 2.89105
  798 -1.47528 -1.37698 -2.85187
  799 149.950 -2.90853 1.83104
  800 162.879 -12.6533 -6.36182
  801 167.377 24.9016 -13.2465
  802 162.418 -1.19441 -1.73765
  803 354.442 70.4059 -66.5757
  804 149.920 -2.89714 -1.80849
  805 226.697 43.5643 3.17373
  806 160.078 4.67526 -18.2740
  807 177.459 13.3639 -16.3966
  808 27.8826 -0.332815 -7.34097
  809 28.4621 -0.377605 7.32608
  810 97.9073 -1.49781 3.75118
  811 97.8752 -1.51102 -3.78904
  812 92.8618 -0.251341 0.694640
  813 92.8379 -0.253882 -0.701131
  814 179.067 30.2403 -12.6000
  815 103.824 -0.711191 -1.00711
  816 103.838 -0.702763 1.00033
  817 151.852 -1.52663 -15.8015
  818 222.857 21.5238 17.0911
  819 135.572 2.95166 -9.50262
  820 45.3868 -0.424371 7.92321
  821 44.9592 -0.428129 -7.99062
  822 179.323 4.26331 46.0440
  823 157.386 -2.78313 4.13772
  824 138.949 9.15169 -3.96257
  825 62.5753 -0.120484 5.43572
  826 62.2242 -0.0903149 -5.47965
  827 95.1427 -0.537601 -1.82433
  828 95.1744 -0.529858 1.80497
  829 16.8246 15.0990 12.5758
  830 145.386 3.42319 14.1974
  831 162.309 23.9446 -11.2813
  832 175.353 20.3680 -16.1664
  833 113.777 -4.43362 -4.70394
  834 113.703 -4.39724 4.69402
  835 181.301 38.8950 5.80046
  836 157.313 -1.17458 -0.246225
  837 157.318 -1.16533 0.273945
  838 155.037 -4.58543 -10.5149
  839 129.177 -8.71809 4.05277
  840 143.020 -16.0832 7.68989
  841 169.111 -13.8576 12.1092
  842 127.868 -3.76052 -0.977838
  843 127.864 -3.74395 0.968751
  844 146.134 13.5168 6.43994
  845 136.920 1.80973 -10.2801
  846 38.1148 43.1730 42.9339
  847 139.940 -12.4700 -2.55235
  848 140.348 -6.28064 0.826237
  849 140.425 -6.28965 -0.832630
  850 154.428 -2.25020 16.6677
  851 153.509 -10.0514 -8.13358
  852 136.600 -9.11872 -1.20869
  853 319.471 10.3579 -16.0696
  854 129.725 -12.3822 8.33891
  855 129.630 -12.5480 -8.48531
  856 154.380 -1.81316 8.51069
  857 234.536 60.1625 -11.8968
  858 121.446 -11.1720 -10.6656
  859 134.747 -15.2330 9.91261
  860 121.401 -11.0331 10.5634
  861 131.857 -5.36228 -1.05533
  862 131.849 -5.34118 1.04477
  863 18.7778 8.24909 10.9739
  864 166.016 12.4273 -17.6596
  865 126.278 -5.00996 -1.97180
  866 126.298 -4.95652 1.97991
  867 124.556 -2.09297 -0.233043
  868 124.552 -2.07697 0.231052
  869 137.718 -2.69685 0.146156
  870 137.700 -2.67699 -0.146666
  871 110.667 -2.26756 -2.52520
  872 110.672 -2.24089 2.51243
  873 126.825 -6.78498 -3.09092
  874 126.838 -6.73427 3.10384
  875 2.89944 -1.76568 -1.00880
  876 192.943 36.2023 9.89498
  877 165.888 -5.76681 -14.4720
  878 134.652 -15.0148 -10.0305
  879 145.672 -4.64158 1.83222
  880 145.605 -4.58996 -1.78807
  881 158.747 0.228523 17.9289
  882 173.834 -12.4088 -6.08094
  883 154.297 10.3810 -55.9692
  884 68.3908 -1.00336 27.3522
  885 -3.16586 1.59789 -1.65886
  886 -2.80541 1.79991 1.86624
  887 18.6272 8.77505 -11.1930
  888 155.529 -4.38564 6.60590
  889 164.226 -0.978807 -2.80712
  890 147.427 -14.1196 23.4479
  891 68.2228 -0.922157 -27.4693
  892 164.315 -13.3802 4.79604
  893 184.046 -5.71176 19.9163
  894 130.537 0.509728 4.58517
  895 150.871 14.3514 11.0076
  896 80.6799 -4.59458 20.2189
  897 80.3573 -4.63230 -20.3644
  898 96.9188 -4.75168 -11.3006
  899 102.955 -4.92406 -35.0124
  900 164.026 -3.78396 16.0746
  901 226.910 52.7120 6.37291
  902 164.453 6.36051 18.0082
  903 155.482 -3.25931 -9.55973
  904 105.185 -4.41279 35.8921
  905 198.984 36.5482 -7.74251
  906 18.9811 16.3392 -15.5940
  907 142.593 -0.304770 -4.95489
  908 97.0204 -4.71071 11.1907
  909 119.017 -2.69690 1.69454
  910 119.017 -2.71723 -1.69951
  911 153.742 -9.99876 8.37716
  912 160.334 -0.887001 0.729246
  913 117.394 1.15097 -43.6653
  914 169.366 -0.326469 1.33380
  915 167.925 -0.262434 -1.67988
  916 122.597 1.02447 -3.96050
  917 161.726 -0.637567 -2.92485
  918 119.543 -5.72374 -4.24951
  919 119.623 -5.63428 4.26092
  920 -4.15246 1.40949 -2.41923
  921 -5.62706 0.849232 2.51983
  922 160.337 -0.815776 -0.732674
  923 51.2712 -1.13076 18.4299
  924 50.9364 -1.01336 -18.5426
  925 170.254 24.9378 14.0352
  926 311.784 5.60879 5.01481
  927 159.952 17.8428 14.5539
  928 183.063 -6.57919 4.62522
  929 158.069 -8.74802 12.7181
  930 197.097 41.4275 -5.87749
  931 119.774 0.455027 2.98193
  932 152.211 -3.47751 -2.82224
  933 157.510 8.47407 -17.5943
  934 192.160 5.42315 -4.70235
  935 148.111 -9.13494 -4.27198
  936 73.3384 -0.441392 -4.06260
  937 73.4254 -0.425942 4.00170
  938 156.516 -3.59449 -7.60422
  939 4.86539 6.29474 0.894611
  940 150.195 -15.5625 -0.635696
  941 128.129 3.69070 -0.409727
  942 195.551 43.2584 -3.91099
  943 30.1153 22.4780 -26.3344
  944 149.641 -1.10976 -9.78727
  945 102.194 -1.80533 -3.48103
  946 102.210 -1.78318 3.44755
  947 0.789151 -4.40238 3.39378
  948 100.765 -7.62953 -16.2272
  949 152.929 -8.79698 -7.86790
  950 92.4268 0.196673 -0.283140
  951 92.4439 0.197794 0.280835
  952 153.570 18.6642 -8.84545
  953 166.803 -0.385934 -0.271163
  954 166.800 -0.393757 0.350762
  955 100.803 -7.60588 16.1074
  956 154.459 -0.183130 -3.89547
  957 178.751 1.27803 12.4440
  958 158.429 -2.12279 3.22816
  959 24.1698 6.39588 -14.0599
  960 164.596 -0.903625 2.55382
  961 147.784 1.15718 15.2452
  962 155.899 21.6642 7.87192
  963 156.436 1.81947 -18.0325
  964 106.591 -5.86596 -9.61571
  965 169.680 -5.95189 12.3097
  966 106.657 -5.84043 9.50957
  967 4.59830 5.13825 -0.0435514
  968 17.4612 3.19685 10.2835
  969 86.0472 -1.60322 6.68303
  970 85.9368 -1.60591 -6.72613
  971 152.315 -3.54976 2.95906
  972 162.882 28.4883 4.39354
  973 82.5926 7.72118 -41.1984
  974 136.322 -8.57590 0.997434
  975 127.916 -13.4516 -12.8299
  976 187.334 36.0292 10.0264
  977 143.846 -2.46512 0.380165
  978 143.841 -2.44978 -0.380675
  979 158.100 -2.82694 -5.52813
  980 144.706 12.4501 -5.94448
  981 338.413 98.6526 66.6425
  982 28.9925 1.75236 -13.7319
  983 29.4951 1.45954 13.7674
  984 2.15218 -3.46318 0.385694
  985 145.252 7.99853 12.2007
  986 127.863 -13.5301 12.7273
  987 159.144 -7.47121 -14.3540
  988 173.255 14.1903 17.5876
  989 167.364 -13.5087 -15.1624
  990 245.055 51.6960 16.4433
  991 141.083 -2.21630 -0.00677864
  992 141.064 -2.19573 0.00711682
  993 165.761 -6.69728 13.7731
  994 11.1936 17.1323 18.8023
  995 72.3566 -1.58862 9.60604
  996 72.1137 -1.56854 -9.71892
  997 87.1672 -4.39288 13.0842
  998 86.8554 -4.32872 -13.1409
  999 98.4680 -4.19314 9.33351
  1000 107.627 -0.923022 -0.464863
  1001 107.638 -0.915734 0.462640
  1002 278.673 86.3868 -54.2874
  1003 249.724 62.4837 24.6785
  1004 98.3886 -4.21672 -9.42062
  1005 170.794 -0.744472 15.1506
  1006 151.611 15.7392 -10.6174
  1007 107.084 -9.14832 28.9910
  1008 138.342 -16.3309 -15.1923
  1009 158.259 -1.25111 -5.76208
  1010 70.3609 5.02185 33.4133
  1011 90.3724 -6.92717 23.1755
  1012 138.433 7.02379 -7.61740
  1013 159.885 -3.12753 -17.1177
  1014 209.271 80.4443 88.8392
  1015 130.268 3.90870 5.40104
  1016 179.386 38.9860 -0.693489
  1017 132.657 5.07130 -49.7028
  1018 133.964 -14.1809 -8.48722
  1019 171.981 -0.120648 -0.680528
  1020 163.310 15.0314 -16.9195
  1021 93.5549 -0.661541 2.36617
  1022 93.5128 -0.668387 -2.39145
  1023 3.33256 0.774232 -4.43536
  1024 106.594 -5.01338 -7.99549
  1025 90.2677 -7.01797 -23.3637
  1026 106.502 -4.99970 7.89784
  1027 156.182 -4.71498 15.8257
  1028 139.929 -8.68895 0.312957
  1029 146.441 2.65838 -14.7471
  1030 150.617 18.8411 3.09631
  1031 207.707 11.8587 5.69723
  1032 154.983 -11.7380 8.08129
  1033 96.6251 -7.83809 -17.7602
  1034 145.076 5.08482 -13.7712
  1035 108.071 -9.01959 -29.1607
  1036 209.187 45.7956 -0.540565
  1037 140.682 9.17700 6.92900
  1038 180.246 -1.11195 -9.85519
  1039 134.806 -14.1816 7.73514
  1040 154.786 -4.85473 12.3136
  1041 153.921 -8.08022 9.11286
  1042 153.080 -7.65091 7.95771
  1043 189.648 23.9730 -13.3568
  1044 152.493 -2.43090 12.3629
  1045 138.087 -16.3771 14.9350
  1046 147.420 -5.98119 2.91625
  1047 96.6826 -7.85064 17.6493
  1048 138.103 -10.2510 -1.27369
  1049 79.2400 -3.81308 -24.7974
  1050 114.076 -11.8990 19.5531
  1051 155.525 -1.01267 -6.64976
  1052 151.138 -1.69342 -13.9880
  1053 130.746 -10.4536 -5.02062
  1054 79.3791 -3.93068 24.5882
  1055 140.174 0.307512 -9.62808
  1056 103.859 -7.04284 -12.5088
  1057 190.637 40.8593 6.44321
  1058 41.3352 7.09366 -23.2555
  1059 333.497 23.6074 32.5263
  1060 75.4829 5.83884 -35.0401
  1061 153.097 -12.6599 -5.29556
  1062 103.882 -6.97943 12.3967
  1063 138.564 1.40870 10.7344
  1064 76.3403 -1.61535 7.94640
  1065 76.2944 -1.65592 -8.03306
  1066 154.687 -4.27196 -14.6489
  1067 165.798 -0.724371 1.09407
  1068 161.851 -0.324539 2.96435
  1069 159.490 5.32328 18.2104
  1070 148.796 -1.12047 13.1050
  1071 116.094 12.2346 53.8198
  1072 173.173 -0.0879734 0.343010
  1073 160.220 21.7936 11.5915
  1074 134.566 1.88628 9.22424
  1075 164.132 -0.582032 2.86221
  1076 103.123 -1.19096 -1.92508
  1077 103.138 -1.17701 1.91035
  1078 64.9879 -1.89959 -13.2367
  1079 65.2652 -1.96756 13.1362
  1080 134.988 6.65050 3.86245
  1081 208.645 10.4847 -13.5234
  1082 191.646 -0.708231 -27.5166
  1083 150.414 -0.119718 -4.01960
  1084 114.135 -11.9901 -19.7088
  1085 131.018 -9.94058 4.42761
  1086 151.346 -0.334825 4.19804
  1087 159.251 -11.4994 -9.44027
  1088 96.8294 -0.264258 1.16528
  1089 96.8093 -0.268667 -1.17369
  1090 152.800 -13.0229 5.29436
  1091 145.061 -2.88751 0.688011
  1092 145.037 -2.88952 -0.677175
  1093 141.042 -14.2566 4.55468
  1094 183.345 -6.00500 -0.569009
  1095 79.8097 -0.155600 -2.24960
  1096 79.9488 -0.150171 2.22330
  1097 123.929 -7.72687 -33.4070
  1098 131.121 -3.13994 0.462971
  1099 131.137 -3.15980 -0.469122
  1100 79.7751 42.1123 59.0888
  1101 183.432 14.9606 -14.8328
  1102 26.0016 12.9487 -17.2677
  1103 158.543 -2.24637 -3.12331
  1104 41.1746 14.4387 -26.6411
  1105 86.2410 -5.53247 -16.9037
  1106 173.323 -0.129942 0.199727
  1107 173.405 -0.118213 -0.149916
  1108 155.463 -8.82719 -10.9584
  1109 137.719 -15.4016 -21.1510
  1110 41.3501 6.03781 22.1611
  1111 168.976 16.7709 16.5900
  1112 153.901 -1.41803 -0.298123
  1113 153.915 -1.41997 0.313832
  1114 168.964 -11.0031 25.5450
  1115 172.729 34.8528 6.44812
  1116 100.868 -2.54593 -5.01546
  1117 100.889 -2.53262 4.97461
  1118 77.3219 9.00548 41.5555
  1119 146.101 0.712511 -14.2911
  1120 45.0927 14.7851 28.7144
  1121 190.573 -3.49895 -7.47885
  1122 185.313 41.3780 2.02835
  1123 126.827 -10.1667 6.27578
  1124 114.994 0.553781 -0.580666
  1125 162.565 -1.34609 3.72683
  1126 168.719 -0.163139 1.46131
  1127 34.5677 0.0794147 -6.62898
  1128 35.1019 0.0607675 6.58041
  1129 130.072 2.09111 -6.81737
  1130 135.494 -3.98892 -0.156790
  1131 135.459 -3.96721 0.154591
  1132 13.9725 19.9450 -19.9518
  1133 22.5072 45.7228 -40.9794
  1134 137.317 -5.37754 -0.0783534
  1135 137.376 -5.38045 0.0720655
  1136 142.128 -3.37380 0.766326
  1137 142.107 -3.36468 -0.752563
  1138 36.5108 23.4462 28.7513
  1139 110.562 -1.44264 -0.900443
  1140 110.571 -1.43136 0.895141
  1141 139.872 10.5065 -0.166275
  1142 183.056 21.5098 -62.2884
  1143 172.072 29.8164 -11.0373
  1144 157.247 -5.99490 -15.0425
  1145 154.956 -7.67589 -11.0512
  1146 126.924 -10.2654 -6.38747
  1147 126.230 0.379095 4.20882
  1148 143.267 8.87360 -10.1905
  1149 141.148 7.52721 9.71607
  1150 147.320 -5.80182 -2.86766
  1151 140.301 -8.50958 -0.412875
  1152 127.034 -8.33889 -4.63145
  1153 151.757 -0.873426 7.83043
  1154 273.052 27.6616 3.88313
  1155 152.898 -3.23393 14.2745
  1156 153.053 10.0523 15.4184
  1157 141.718 -14.0024 -3.19880
  1158 16.4513 2.94553 -9.90451
  1159 144.381 -6.66037 -2.21533
  1160 93.1218 -0.178619 -0.0506858
  1161 93.1366 -0.177948 0.0499017
  1162 177.011 -4.68290 8.57692
  1163 168.735 -14.1739 4.86184
  1164 243.182 43.8436 10.3093
  1165 55.1133 -0.138295 -5.56277
  1166 55.4812 -0.125863 5.51673
  1167 128.138 -2.61535 -0.435143
  1168 128.130 -2.59699 0.430751
  1169 144.885 -12.8162 0.431591
  1170 116.090 0.483225 1.89682
  1171 148.456 -10.5659 4.15517
  1172 7.94024 9.44731 -4.12952
  1173 25.7647 13.1125 16.9036
  1174 98.6060 -5.24092 32.3169
  1175 171.271 32.8582 -7.86891
  1176 164.774 -0.426288 -2.25683
  1177 174.102 -0.246161 0.147550
  1178 174.295 -0.349185 -0.100540
  1179 97.3213 -0.280926 -0.181863
  1180 97.3374 -0.278829 0.180124
  1181 157.797 10.1124 17.5751
  1182 236.014 40.7248 -0.858525
  1183 162.373 26.9958 -7.88668
  1184 121.785 -8.84801 33.1883
  1185 98.0781 -5.02122 -32.2599
  1186 108.496 -7.42974 -11.1601
  1187 152.367 -4.16347 3.71639
  1188 213.603 46.8168 0.166908
  1189 108.497 -7.38175 11.0628
  1190 155.935 -2.59938 2.81651
  1191 137.219 5.01811 9.25682
  1192 152.310 4.70328 16.8277
  1193 219.112 49.0891 4.05679
  1194 128.407 -3.39083 0.828680
  1195 128.416 -3.40971 -0.836753
  1196 157.867 -2.85689 5.73410
  1197 90.9151 -1.04390 3.73029
  1198 90.8500 -1.05492 -3.76864
  1199 154.524 -1.97137 -1.33218
  1200 62.9601 37.2318 -56.9153
  1201 133.726 -7.47735 -35.5163
  1202 124.712 -3.98951 -1.69810
  1203 124.722 -3.96885 1.69828
  1204 166.572 -0.675623 0.968321
  1205 156.956 -1.92141 2.26152
  1206 8.15260 9.89372 7.05998
  1207 171.705 -0.151388 0.788599
  1208 19.6549 24.3625 24.1676
  1209 153.110 -2.15964 -1.69601
  1210 -0.249955 -3.82970 -3.34105
  1211 107.209 -10.4475 -24.9624
  1212 106.887 -10.1893 24.7001
  1213 171.705 -0.265405 -0.864371
  1214 145.330 -7.65723 -2.58430
  1215 166.422 -0.604621 -1.00970
  1216 131.416 -4.29043 -0.667697
  1217 131.398 -4.27154 0.655625
  1218 154.419 -1.95498 1.25884
  1219 144.274 -6.53250 2.19204
  1220 138.560 -4.44270 -0.408199
  1221 138.613 -4.45813 0.427121
  1222 166.309 -0.623964 -0.829942
  1223 142.778 -14.9564 -23.9251
  1224 162.470 -0.864715 -0.866503
  1225 153.798 -2.22559 1.80253
  1226 104.882 -1.23980 -1.40315
  1227 104.895 -1.22718 1.39303
  1228 118.078 -1.79689 -0.667188
  1229 118.081 -1.78309 0.662839
  1230 194.541 30.2082 11.4699
  1231 163.271 -12.4704 7.36910
  1232 111.411 -0.432003 41.1493
  1233 86.6314 -0.176622 1.42955
  1234 86.5568 -0.178383 -1.44579
  1235 154.005 -2.80367 10.7944
  1236 147.699 -2.12540 0.442727
  1237 147.709 -2.11695 -0.442426
  1238 168.388 33.0325 3.65300
  1239 155.475 -16.2268 18.6185
  1240 87.1712 -1.31041 5.27885
  1241 87.0807 -1.32111 -5.32276
  1242 147.410 -3.51368 1.57101
  1243 147.378 -3.53663 -1.53383
  1244 152.289 -4.10721 -3.59281
  1245 138.197 0.0157178 4.99150
  1246 243.875 60.5283 -19.0325
  1247 154.939 -5.60307 -9.74861
  1248 25.3636 6.30584 14.4865
  1249 160.193 -8.47477 13.4940
  1250 126.274 2.66577 -3.72425
  1251 9.09392 7.06047 4.90471
  1252 213.173 22.9492 0.162280
  1253 156.268 -7.05959 -13.4994
  1254 126.921 1.72605 5.69838
  1255 86.8722 -5.53935 16.8622
  1256 159.052 -12.2552 8.53557
  1257 233.527 43.0121 11.4521
  1258 52.1325 7.93318 28.3307
  1259 160.049 -1.79336 -4.92455
  1260 314.513 3.46116 -3.22656
  1261 325.566 4.94106 14.4773
  1262 348.543 12.1050 -34.2240
  1263 154.597 -4.76891 -11.9624
  1264 154.749 -7.00373 10.3707
  1265 157.370 -11.1461 9.91823
  1266 -4.66085 0.480387 2.99907
  1267 -4.25913 0.367109 -3.24349
  1268 153.407 -16.8958 -8.09413
  1269 157.417 -15.8502 -12.6303
  1270 117.006 0.702637 -2.34765
  1271 152.831 -17.2155 12.6798
  1272 163.043 -7.67628 -13.7302
  1273 2.74231 4.65203 0.118734
  1274 131.511 -2.39480 0.377164
  1275 131.522 -2.41402 -0.378173
  1276 162.520 -1.19296 3.39469
  1277 155.939 -2.54935 -2.65879
  1278 146.443 -15.9989 -3.88259
  1279 133.058 -7.28099 1.62180
  1280 132.359 -7.18322 -1.83642
  1281 157.096 -3.23600 7.72382
  1282 160.921 -5.85978 -15.5506
  1283 9.44972 7.36291 -4.68927
</Section>

newXOutput 22

<Section columns = "stress_xx | stress_yy | stress_xy">
  1 183.840 0.0102340 0.383590
  2 183.856 0.0121505 -0.385048
  3 96.0079 -0.0518426 -0.139191
  4 -1.23537 -1.22797 -1.77472
  5 339.972 128.424 105.856
  6 336.684 133.394 -106.508
  7 -1.43287 -1.17274 1.88040
  8 95.9932 -0.0522502 0.138734
  9 185.233 -0.285121 0.124713
  10 184.789 -0.460707 -0.0737711
  11 184.273 -0.286106 0.460983
  12 183.765 -0.413467 0.161781
  13 182.680 -0.340503 0.727949
  14 181.706 -0.348936 0.551303
  15 179.483 -0.310829 1.03504
  16 176.386 -0.186281 1.51675
  17 173.607 -0.214870 1.67139
  18 169.552 -0.330285 2.00191
  19 164.011 0.000772474 2.93448
  20 158.889 -0.244368 2.76836
  21 153.159 -0.335251 3.87257
  22 144.871 0.240724 3.34821
  23 138.948 0.340406 3.94034
  24 131.230 0.587736 3.06687
  25 125.924 0.582594 3.08410
  26 118.230 0.848102 1.56717
  27 116.626 1.34089 1.67466
  28 115.669 1.08046 -0.492433
  29 116.999 0.593627 -1.09233
  30 119.437 0.599900 -1.33638
  31 125.196 0.774602 -2.67537
  32 130.786 0.610740 -3.40111
  33 139.058 0.110422 -4.04427
  34 145.689 -0.0949322 -3.70878
  35 152.813 -0.269422 -3.66687
  36 159.292 -0.189067 -2.60262
  37 164.913 -0.189862 -2.24221
  38 169.589 -0.320230 -1.89722
  39 173.812 -0.218720 -1.34380
  40 176.492 -0.249406 -1.43576
  41 179.079 -0.325066 -1.05419
  42 181.563 -0.392326 -0.486024
  43 182.849 -0.310012 -0.555033
  44 183.567 -0.172342 -0.356532
  45 183.153 -0.0666255 -0.324003
  46 185.002 -0.470404 0.0426278
  47 185.303 -0.299390 -0.128812
  48 178.788 -0.0534857 -0.236487
  49 174.489 -0.630669 -0.411473
  50 169.282 -0.954432 -0.289901
  51 162.961 -1.47288 -0.391548
  52 157.006 -1.63194 -0.495542
  53 150.676 -2.10393 -0.467076
  54 145.097 -2.37600 -0.273469
  55 140.206 -2.70713 -0.120170
  56 134.573 -2.25950 -0.121593
  57 128.084 -2.13672 -0.171571
  58 121.822 -1.70964 -0.0703839
  59 115.880 -1.11372 -0.0350854
  60 110.221 -0.810309 -0.00602105
  61 105.239 -0.437113 0.0402310
  62 100.117 -0.133813 -0.161476
  63 96.0830 0.130958 0.178749
  64 94.2992 0.399749 0.111696
  65 95.5945 -0.00591315 0.279439
  66 94.2996 -0.0668765 0.332792
  67 93.1345 -0.0938715 0.416505
  68 91.5324 -0.0227693 0.552247
  69 89.5074 -0.0137024 0.702352
  70 88.0708 -0.141348 1.38189
  71 83.7170 0.124325 1.51460
  72 80.6917 -0.0163233 1.74994
  73 76.1838 -0.0898082 1.98078
  74 70.9713 -0.146338 2.41648
  75 64.4638 -0.0388586 2.93387
  76 56.5263 0.0326478 3.22301
  77 49.7672 -0.0855847 4.59897
  78 36.2416 0.439652 4.31379
  79 27.1419 0.380692 4.56606
  80 16.3421 -0.0623468 5.02773
  81 7.47687 0.875489 5.17739
  82 -2.56469 1.28267 3.00951
  83 -9.73722 1.29651 0.948955
  84 -9.16843 1.22211 -0.650171
  85 -8.44756 1.00291 -2.59367
  86 -4.93520 -0.366766 -2.41824
  87 -0.635182 -4.73851 -2.65593
  88 0.415980 -8.79758 -3.37703
  89 1.23211 -14.1781 -2.02615
  90 2.78119 -15.0208 -0.202438
  91 5.94853 -5.41120 7.40026
  92 18.0947 24.5067 26.4339
  93 110.436 96.4230 93.9302
  94 410.007 60.5547 69.4642
  95 367.727 8.73178 22.8798
  96 340.322 3.56309 7.00190
  97 330.172 2.99462 0.563072
  98 335.433 4.02690 -6.02332
  99 366.656 8.06315 -18.0830
  100 436.638 29.2563 -60.4488
  101 65.0613 97.6505 -78.0627
  102 13.5759 15.5546 -21.6210
  103 6.47186 -4.75887 -7.61758
  104 2.58923 -15.1683 -0.986933
  105 0.674113 -10.9063 2.35444
  106 0.894165 -11.0611 2.94951
  107 0.0234214 -4.11977 2.93782
  108 -5.14539 -0.257877 2.30484
  109 -8.71956 0.752306 2.27496
  110 -9.64567 1.48975 0.705662
  111 -10.0634 1.28130 -0.861883
  112 -3.25344 1.31484 -2.80651
  113 6.85824 0.883554 -4.92877
  114 15.7086 0.0286858 -4.94445
  115 26.4922 0.411984 -4.57787
  116 35.6511 0.451887 -4.34992
  117 49.3087 -0.0874599 -4.64158
  118 56.1326 0.0370016 -3.25734
  119 64.1210 -0.0372114 -2.97374
  120 70.7934 -0.160985 -2.43738
  121 75.9506 -0.0861726 -1.98760
  122 80.5166 -0.0105773 -1.77013
  123 83.5753 0.122593 -1.53347
  124 87.9715 -0.142624 -1.39794
  125 89.4299 -0.0145358 -0.712304
  126 91.4762 -0.0235468 -0.560475
  127 93.0944 -0.0951439 -0.423067
  128 94.2712 -0.0679636 -0.337404
  129 95.5729 -0.00688021 -0.282416
  130 94.2822 0.399115 -0.113108
  131 96.0673 0.130671 -0.179615
  132 100.100 -0.134935 0.160939
  133 105.222 -0.439913 -0.0413493
  134 110.207 -0.816565 0.00469746
  135 115.870 -1.12245 0.0337944
  136 121.817 -1.72220 0.0691335
  137 128.086 -2.15248 0.170605
  138 134.582 -2.27760 0.120703
  139 140.220 -2.72710 0.119841
  140 145.114 -2.39580 0.274162
  141 150.700 -2.12195 0.469054
  142 157.024 -1.64456 0.502717
  143 162.971 -1.48414 0.425474
  144 169.309 -0.894825 0.296567
  145 174.613 -0.611047 0.402626
  146 178.810 -0.0809346 0.233153
  147 158.565 -14.8841 -2.12307
  148 158.442 -14.6859 2.18079
  149 165.502 23.8616 -8.69189
  150 177.305 10.4913 18.6845
  151 134.172 -12.8226 -28.8166
  152 135.231 -12.8165 27.8519
  153 129.345 -5.59998 3.14452
  154 129.361 -5.68163 -3.14911
  155 188.661 6.71931 -14.8311
  156 158.136 -5.61490 4.21908
  157 158.072 -5.47385 -4.16474
  158 204.426 46.0324 2.62289
  159 161.341 -0.255963 -17.9970
  160 118.568 -9.49269 -12.7990
  161 118.560 -9.40944 12.6751
  162 161.783 -3.62821 16.3656
  163 152.786 11.1019 10.5975
  164 62.4594 10.3062 -34.3542
  165 69.4816 9.74410 36.2363
  166 199.936 2.05882 3.31344
  167 162.484 -6.17428 -11.6089
  168 215.938 47.4939 -2.27210
  169 145.946 -4.09141 0.375806
  170 145.913 -4.07580 -0.361177
  171 164.978 -1.85932 -1.86911
  172 165.546 -1.65306 1.62349
  173 112.997 -1.71912 -1.95908
  174 113.007 -1.70036 1.94658
  175 178.212 -5.01076 36.5692
  176 147.662 6.05606 -11.3990
  177 96.0106 -7.27679 -20.8542
  178 96.3021 -7.22221 20.7042
  179 107.583 -3.67171 -6.71730
  180 107.589 -3.62759 6.66026
  181 163.334 -4.22087 9.85962
  182 148.105 -10.2149 0.412529
  183 147.555 -10.1384 -0.157263
  184 169.332 -16.3154 -1.61963
  185 170.178 -15.5419 -0.510594
  186 234.689 55.1237 -6.66546
  187 168.839 27.2570 8.15022
  188 169.566 10.4343 -18.5738
  189 177.756 -1.90082 -42.7475
  190 168.777 -9.47785 -13.4342
  191 170.196 -6.74178 15.6361
  192 141.471 -16.0938 13.7146
  193 141.531 -15.9849 -13.6660
  194 150.438 1.87320 13.7504
  195 67.8165 -1.57391 -25.4156
  196 67.9959 -1.72897 25.2475
  197 265.886 40.0644 5.65394
  198 159.691 -9.47610 7.58412
  199 165.892 -2.95344 -6.51097
  200 130.104 -3.24565 -1.36515
  201 130.103 -3.22673 1.35935
  202 158.442 -2.04210 -12.5654
  203 180.853 26.6298 -15.0881
  204 150.052 13.4370 -2.13025
  205 96.5017 -3.55389 9.56294
  206 96.3480 -3.56707 -9.64295
  207 168.719 -1.75406 3.65778
  208 163.206 3.07489 18.4779
  209 132.179 -9.77278 -5.82326
  210 131.219 -9.25674 6.00331
  211 193.310 28.6723 14.2509
  212 229.322 30.3806 2.97163
  213 14.6335 11.7247 -9.05362
  214 13.5074 10.8394 7.65727
  215 93.2577 26.4268 61.3331
  216 158.056 -10.4811 -6.03290
  217 169.397 -1.68662 -3.30913
  218 148.618 1.25615 -12.6545
  219 102.775 -1.10594 -2.96468
  220 102.804 -1.09309 2.93476
  221 141.648 -6.69971 -0.785836
  222 141.712 -6.73718 0.703142
  223 159.937 -2.13250 10.7337
  224 185.833 -10.8010 2.72446
  225 182.889 37.6911 -4.43491
  226 143.441 -13.9416 -6.06341
  227 182.547 -3.14705 12.6055
  228 155.021 -2.49880 0.793403
  229 155.026 -2.47597 -0.792055
  230 142.326 -13.8733 6.34959
  231 163.632 -10.3288 11.0427
  232 232.945 28.7743 -12.4103
  233 50.1551 29.9097 -43.8345
  234 136.461 4.69424 2.69560
  235 163.558 14.4446 15.5243
  236 175.253 -1.18917 -16.8965
  237 163.377 -5.83843 -15.4175
  238 85.0218 -2.83945 -12.0523
  239 85.3330 -2.79492 12.0059
  240 163.732 -1.91798 -8.38790
  241 156.130 -3.86599 2.33670
  242 156.057 -3.85811 -2.26935
  243 31.4415 3.07082 -15.9333
  244 31.9962 2.69453 15.8851
  245 174.905 -15.2577 -12.2801
  246 173.243 -0.492581 0.550161
  247 173.453 -0.503270 -0.583847
  248 159.538 13.2166 -14.1704
  249 139.387 2.59223 8.22106
  250 299.926 48.0795 32.1026
  251 297.683 33.9044 -20.2409
  252 212.488 46.2373 -0.652911
  253 132.474 -6.30562 38.5723
  254 121.344 -4.00437 -40.4016
  255 138.631 -2.84305 -0.382568
  256 138.615 -2.82238 0.378597
  257 113.937 -3.17502 4.00850
  258 113.942 -3.22075 -4.04965
  259 168.301 -1.72407 5.28667
  260 162.996 -11.5643 -9.27201
  261 103.111 -0.238490 -0.677414
  262 103.130 -0.234698 0.672287
  263 160.929 -6.44360 -7.31843
  264 66.2873 -2.21243 -16.6609
  265 66.5988 -2.22005 16.5299
  266 162.803 -7.00484 12.4964
  267 123.708 -13.1330 23.1423
  268 124.051 -13.3695 -23.0736
  269 138.607 5.21003 -3.82587
  270 119.571 -1.91318 -1.31343
  271 119.577 -1.89891 1.30721
  272 151.635 -0.404513 10.1976
  273 182.097 33.5418 10.5098
  274 95.4155 -1.24329 5.10003
  275 95.3407 -1.25434 -5.14897
  276 167.609 -13.9337 6.92389
  277 155.162 -17.3498 -14.9804
  278 173.782 -0.724341 1.73453
  279 118.625 -7.19907 -8.66971
  280 118.399 -7.11523 8.63109
  281 216.310 20.8835 54.2168
  282 99.3262 -7.98335 27.7851
  283 160.912 22.6600 -0.926079
  284 205.939 22.4488 -10.1618
  285 154.334 -11.9504 2.89606
  286 155.236 -17.8320 13.3988
  287 99.6570 -7.84614 -28.1233
  288 18.0564 22.2161 19.8179
  289 160.955 -6.47011 7.44816
  290 212.322 27.4081 8.38991
  291 175.279 -0.644603 -1.50342
  292 156.831 5.45380 -16.3063
  293 155.546 -8.77556 4.36609
  294 152.217 -12.8783 -0.483328
  295 156.189 7.14566 15.6868
  296 166.773 -13.9458 -6.28642
  297 237.137 46.4773 -3.63707
  298 155.503 -8.43090 -4.18526
  299 129.850 36.3408 -75.6287
  300 159.277 -16.8594 -2.05094
  301 158.119 -17.3154 3.89211
  302 114.984 -10.5136 -18.2206
  303 102.203 -0.439741 -1.48822
  304 102.227 -0.432161 1.47426
  305 115.021 -10.5189 18.1126
  306 168.132 -0.259306 -18.7444
  307 182.413 -7.53233 -8.81614
  308 137.629 -8.39171 -2.81470
  309 137.525 -8.41008 2.87267
  310 166.311 -14.3092 24.4668
  311 165.145 -1.27257 6.35593
  312 202.426 0.563120 7.38600
  313 134.615 -4.81904 -1.48923
  314 134.620 -4.79997 1.47789
  315 121.956 -3.27581 -2.55612
  316 121.952 -3.24302 2.55066
  317 137.848 1.79167 -7.95611
  318 179.478 13.1590 -18.1804
  319 280.580 75.2354 -34.8322
  320 164.009 -1.30502 -0.644741
  321 163.904 -1.28619 0.659097
  322 86.5603 -0.00700485 34.6675
  323 121.456 -5.65234 -5.61962
  324 121.205 -5.62904 5.63249
  325 86.5488 -0.199720 -34.5362
  326 170.522 20.1754 -15.2426
  327 192.169 9.43973 14.2274
  328 166.391 -11.8798 -27.2886
  329 151.958 -5.83116 2.12690
  330 151.795 -5.78425 -2.05630
  331 162.684 -3.26095 -3.66762
  332 151.759 -0.305120 -9.54293
  333 171.376 0.782274 18.4445
  334 171.676 -1.11866 -3.66960
  335 101.206 -6.29193 13.9354
  336 101.096 -6.32974 -14.0540
  337 158.824 -0.367721 17.0476
  338 95.8499 -0.846915 -3.00228
  339 95.9115 -0.838736 2.97117
  340 163.829 -3.66847 5.54392
  341 196.230 40.2717 -8.14039
  342 162.585 -3.28967 3.79582
  343 172.503 21.7417 15.3283
  344 165.300 -3.03919 17.8653
  345 129.902 -2.47402 0.467280
  346 129.906 -2.49114 -0.471568
  347 155.873 -0.571734 -15.1100
  348 207.731 43.8175 5.73650
  349 171.631 31.6561 0.321447
  350 105.367 12.3248 -51.8547
  351 9.98692 4.72449 -6.65434
  352 11.0514 5.10467 7.20430
  353 -0.756235 1.08310 3.37439
  354 -0.0693533 0.530447 -3.50391
  355 308.220 21.3633 7.45380
  356 142.334 -11.6495 -3.28798
  357 163.980 -3.53794 -5.41325
  358 147.372 -2.53317 0.340596
  359 147.354 -2.51052 -0.341170
  360 157.003 17.3476 -7.66516
  361 134.272 -13.7862 11.2594
  362 11.3039 16.6803 -11.9967
  363 134.421 -13.7877 -11.4856
  364 159.147 18.1141 8.15794
  365 163.342 -4.28891 -9.41471
  366 173.632 -9.63174 -11.7088
  367 184.127 39.1948 3.06954
  368 174.096 -10.8045 9.89418
  369 69.6893 -1.80733 11.1817
  370 69.2409 -1.77300 -11.2628
  371 38.9113 1.02952 -15.3491
  372 39.3691 0.862294 15.2768
  373 140.175 0.389794 8.06391
  374 272.619 78.6315 28.9885
  375 169.226 -1.01523 -4.58854
  376 130.614 -11.1781 -8.55725
  377 130.488 -11.1436 8.54418
  378 162.183 -3.69508 -11.7733
  379 185.920 -8.98165 2.73151
  380 142.328 -11.6364 3.40800
  381 204.988 1.05933 -15.1305
  382 112.819 -0.976774 -0.474031
  383 112.832 -0.967837 0.469497
  384 159.176 -0.906569 -7.44304
  385 83.7269 -1.27517 -7.31476
  386 83.7855 -1.31443 7.21931
  387 191.090 24.3780 -15.7131
  388 102.733 7.32245 48.0647
  389 149.081 -7.84176 1.37465
  390 149.231 -7.82576 -1.38341
  391 174.960 29.7486 -9.76839
  392 166.034 -4.88559 -17.0150
  393 167.232 -17.0396 12.8470
  394 138.132 -3.69002 -0.572006
  395 138.112 -3.66937 0.563254
  396 160.363 -12.3538 6.50432
  397 173.447 -0.764945 2.74433
  398 105.882 -4.00415 -8.46003
  399 105.921 -4.00207 8.37983
  400 162.262 5.43750 -18.2015
  401 153.622 -3.25559 1.21451
  402 153.618 -3.26203 -1.19166
  403 158.456 -1.85051 13.9607
  404 146.764 10.6282 3.64509
  405 164.760 -6.91059 14.9627
  406 239.517 50.4057 8.26864
  407 78.0843 -4.22488 -22.3123
  408 78.3116 -4.22739 22.1294
  409 34.5974 18.8333 -26.0488
  410 177.977 -0.439625 0.800878
  411 87.2604 -0.799468 -4.61954
  412 87.3837 -0.782491 4.57566
  413 162.340 -4.18996 11.5610
  414 147.185 -16.0185 7.01786
  415 167.025 -1.96070 2.60740
  416 169.289 8.62059 19.0768
  417 36.3742 20.0528 27.2494
  418 147.421 -15.9349 -6.38942
  419 152.413 -14.1974 -0.530600
  420 47.9015 -0.966978 -13.9781
  421 48.3009 -1.00611 13.8745
  422 116.669 -9.23397 -33.5232
  423 175.328 -2.57042 16.5267
  424 116.179 -9.38646 33.2118
  425 161.761 -9.04513 -9.95296
  426 148.969 9.98197 -8.02095
  427 161.801 -6.93478 9.40421
  428 175.140 -0.700629 -1.89340
  429 4.99977 5.12014 1.89488
  430 34.6217 39.3283 38.7939
  431 154.882 -0.575476 7.13980
  432 128.357 1.68227 3.46663
  433 130.755 2.07007 -4.71476
  434 111.573 -1.94244 -2.82566
  435 111.580 -1.91660 2.80399
  436 159.514 -12.3490 -6.02321
  437 160.782 -3.12524 -15.6756
  438 129.110 2.33040 -1.28139
  439 239.639 56.9508 10.3973
  440 31.8797 10.8896 -19.4589
  441 35.2548 9.99957 20.8625
  442 148.945 -5.29035 1.17060
  443 148.885 -5.27431 -1.12792
  444 198.811 44.3450 -0.677989
  445 126.056 49.6876 77.2944
  446 192.515 -2.81608 -4.19631
  447 108.474 -5.79808 -11.4834
  448 108.521 -5.75550 11.3762
  449 108.823 -2.54081 4.46618
  450 108.807 -2.56092 -4.51213
  451 148.146 3.22475 -13.0070
  452 178.975 -0.186767 -0.541877
  453 143.699 6.50995 7.27286
  454 183.586 22.7110 16.7404
  455 152.648 -11.3497 -2.26658
  456 166.975 -1.85779 -2.52908
  457 175.907 -0.626901 1.74529
  458 178.479 -0.195602 0.310764
  459 178.645 -0.229373 -0.235327
  460 94.9677 -0.197704 1.09767
  461 94.9225 -0.200506 -1.11080
  462 167.321 -10.5809 12.0151
  463 149.617 5.84509 12.5915
  464 156.956 0.621320 -16.5984
  465 164.837 -3.39405 7.07243
  466 241.573 38.4042 -44.8243
  467 165.073 -9.11775 -13.2471
  468 1.10194 3.04706 0.965970
  469 1.10844 3.07703 -0.150665
  470 129.787 -7.47367 4.67508
  471 129.333 -7.37891 -4.62638
  472 207.426 3.13716 23.5878
  473 57.3098 50.8263 -58.0380
  474 162.615 -0.465935 5.60749
  475 185.929 -10.9022 -12.9661
  476 96.8116 -5.69093 16.1799
  477 198.157 35.1712 -11.6735
  478 162.679 -8.76347 11.1759
  479 135.781 -6.57338 -2.10037
  480 135.902 -6.46091 2.09159
  481 140.137 0.719492 -7.12759
  482 96.5006 -5.67116 -16.2919
  483 143.945 0.0271685 7.18531
  484 139.193 -15.8951 -20.4885
  485 138.833 -15.9194 20.5475
  486 168.168 -1.06579 5.05500
  487 151.324 14.2344 1.50802
  488 156.031 2.38957 52.4955
  489 228.705 46.9438 -0.296558
  490 157.547 -2.55614 1.30319
  491 157.559 -2.54605 -1.33936
  492 119.515 -2.20193 -1.73485
  493 119.519 -2.18228 1.72672
  494 62.7333 3.05344 28.9605
  495 163.355 -7.82654 -12.9067
  496 147.859 -3.16990 0.374621
  497 147.844 -3.15685 -0.370467
  498 128.417 -13.6662 16.7806
  499 63.9852 4.01124 -29.7141
  500 163.766 -13.3106 -6.86363
  501 2.62227 0.182690 1.64250
  502 141.381 7.21546 0.522330
  503 158.186 -1.71727 -0.439845
  504 158.179 -1.74369 0.432168
  505 128.516 -13.6465 -16.9181
  506 186.152 -9.71473 16.9696
  507 183.588 6.67737 17.1822
  508 169.884 -1.03704 -1.28752
  509 163.262 -13.5024 6.94291
  510 99.6447 -0.123837 -0.185377
  511 99.6619 -0.122836 0.183413
  512 162.783 -6.21463 -13.6591
  513 156.853 11.5979 13.8293
  514 181.287 4.48216 -16.9525
  515 99.0497 -0.185600 -0.614394
  516 99.0712 -0.183180 0.609460
  517 321.363 46.3887 -41.7252
  518 163.421 19.5126 12.2289
  519 170.045 -0.941551 1.15130
  520 152.764 -14.5067 0.895142
  521 127.365 -4.30221 2.52093
  522 127.368 -4.33742 -2.51592
  523 178.576 -10.8281 6.06369
  524 171.072 -3.37389 -17.2915
  525 191.049 37.8549 9.57385
  526 158.356 2.71002 17.1970
  527 160.614 -2.98710 2.41031
  528 156.233 -16.6082 -19.5402
  529 161.404 -3.95843 13.3659
  530 318.083 14.5291 -5.86605
  531 177.321 -13.3315 -1.53369
  532 168.825 -0.995111 -0.330109
  533 168.863 -1.06790 0.299270
  534 321.357 21.5856 20.6460
  535 154.227 -0.0707044 14.6255
  536 218.541 36.2535 -5.49499
  537 163.367 -4.36573 -6.92725
  538 71.3837 -0.708593 -5.00991
  539 71.6255 -0.674859 4.95537
  540 109.543 -10.2942 -23.2649
  541 109.619 -10.1204 23.0826
  542 160.529 -2.85617 -2.38382
  543 174.433 6.42142 -18.7864
  544 153.116 -10.4291 2.84780
  545 164.175 18.8573 -12.7130
  546 166.274 -1.86350 6.80792
  547 209.868 10.0779 -0.690051
  548 141.533 -4.87072 -0.344590
  549 141.485 -4.85037 0.336050
  550 154.244 -7.25697 3.35082
  551 229.227 44.8359 -1.50352
  552 162.045 7.09141 17.8737
  553 68.8256 17.7875 42.9713
  554 157.826 -9.49639 34.7403
  555 210.234 9.26877 -38.0452
  556 165.716 13.7140 -16.6773
  557 147.810 -12.7114 -30.0529
  558 159.962 -17.4949 -5.11485
  559 167.365 -16.8860 -7.89851
  560 21.3741 27.2035 -25.8247
  561 168.159 -2.02641 -4.31338
  562 254.135 49.5814 -13.8293
  563 155.099 -6.94766 -3.65785
  564 156.471 -5.02922 3.01157
  565 156.322 -4.90918 -2.90347
  566 105.786 -0.670747 -1.33995
  567 105.805 -0.661982 1.32934
  568 14.0731 1.62096 -8.31135
  569 14.9546 1.69596 8.51182
  570 78.6291 -3.73592 -17.0550
  571 79.2586 -3.75497 17.0192
  572 158.591 -8.55462 -6.50054
  573 161.894 -17.5646 5.59662
  574 166.442 -15.7497 2.14445
  575 135.337 -2.39969 -0.429324
  576 135.327 -2.38059 0.426655
  577 128.853 -13.4722 -25.7475
  578 144.884 -11.8220 31.8564
  579 125.629 -12.6600 25.9094
  580 162.902 -3.59232 -16.8774
  581 100.207 -1.76226 5.08931
  582 100.159 -1.78138 -5.13685
  583 154.617 8.50158 -13.8734
  584 155.012 -0.269251 -6.48137
  585 194.397 42.5489 -4.39747
  586 125.848 -1.95711 -0.452886
  587 125.848 -1.94278 0.450295
  588 166.065 -0.471263 -3.70453
  589 113.095 -3.95980 -5.55195
  590 113.092 -3.94393 5.49815
  591 93.0189 4.45459 41.2727
  592 161.633 -7.38602 -9.51672
  593 89.1489 -4.63777 29.5979
  594 158.828 -8.19141 6.61751
  595 167.639 -2.26893 4.74410
  596 165.696 -1.39130 -1.15666
  597 114.252 -1.49403 -1.21835
  598 114.262 -1.48101 1.21055
  599 186.351 37.4523 -8.55339
  600 89.0898 -4.44983 -29.7205
  601 158.311 -6.79980 -5.35834
  602 142.229 -2.61652 -0.167942
  603 142.213 -2.59515 0.167100
  604 270.975 36.6415 -6.37049
  605 92.3494 -0.639800 2.82669
  606 92.2674 -0.646237 -2.85610
  607 146.254 3.29232 11.8491
  608 212.602 17.2999 -4.31029
  609 99.2532 0.845143 -40.9977
  610 49.7202 1.38911 -22.1386
  611 50.1586 1.08714 22.0193
  612 124.122 -7.39631 6.78565
  613 125.483 -7.61401 -6.56496
  614 214.108 43.0456 5.33247
  615 164.975 -1.44673 1.05978
  616 139.481 3.83299 -7.13646
  617 175.367 31.7048 7.72134
  618 174.682 32.9102 -5.13263
  619 143.593 -8.01377 -0.627778
  620 144.728 -7.82489 0.104415
  621 103.343 22.3439 -59.2112
  622 122.518 -4.31454 -3.71122
  623 122.523 -4.26278 3.69524
  624 319.125 65.2209 48.9978
  625 162.799 -5.29475 14.6798
  626 91.1767 -3.34778 -10.9300
  627 257.060 57.1335 36.8732
  628 91.3966 -3.32740 10.8824
  629 156.627 -6.04188 -40.7503
  630 107.813 -0.594385 -0.495292
  631 107.829 -0.589130 0.492289
  632 134.128 1.15006 6.21923
  633 59.7517 -0.931675 -9.83299
  634 60.1160 -0.933824 9.74937
  635 141.701 -10.1184 2.41032
  636 148.888 -11.9790 -0.0840263
  637 176.858 -0.335810 -1.57298
  638 96.5661 -0.181935 0.798489
  639 96.5330 -0.185019 -0.808207
  640 133.218 -3.03873 -0.588596
  641 133.210 -3.01957 0.582421
  642 154.245 -17.0570 19.7824
  643 176.692 19.7697 -16.9920
  644 116.278 -5.58115 -7.17237
  645 116.184 -5.48487 7.11526
  646 138.989 -10.1123 -3.64442
  647 220.511 48.2702 0.501184
  648 165.424 -15.9601 -1.20567
  649 142.800 -3.40202 -0.0894165
  650 142.777 -3.38276 0.0903586
  651 197.898 21.5357 13.6201
  652 165.568 -2.31358 -7.40313
  653 144.833 -0.207635 -5.85918
  654 66.1015 -2.24782 -21.3879
  655 66.3212 -2.31617 21.2011
  656 138.683 -12.0799 -6.18280
  657 208.947 46.4935 0.171384
  658 160.989 21.8516 -5.50775
  659 105.308 -1.03571 -2.49866
  660 105.328 -1.02096 2.47558
  661 150.862 -4.21423 -1.10868
  662 150.892 -4.22141 1.14390
  663 285.087 37.3485 16.3679
  664 180.013 -0.425708 0.446298
  665 173.161 -0.628860 2.66923
  666 172.405 -0.650555 -3.09922
  667 163.300 -15.1648 3.56683
  668 118.401 -1.44702 -0.609452
  669 118.409 -1.43579 0.606138
  670 173.718 27.9874 11.8454
  671 224.416 50.0727 -1.95639
  672 121.246 -9.18239 -10.1698
  673 121.200 -9.08774 10.1120
  674 152.976 -15.7880 -2.34931
  675 160.735 9.54593 -16.8032
  676 192.680 0.433138 8.33488
  677 125.938 -2.40815 -1.15683
  678 125.939 -2.39098 1.15084
  679 108.957 -9.63479 -21.0113
  680 161.722 -15.6126 -2.03727
  681 133.862 -14.8635 18.4739
  682 63.4391 20.2062 -41.4212
  683 124.527 -11.6566 14.2376
  684 150.074 0.0375881 5.43693
  685 109.050 -9.52288 20.8599
  686 158.215 -6.93735 5.42428
  687 124.583 -11.6109 -14.3791
  688 126.069 1.57603 1.30018
  689 97.3488 -2.73716 7.73248
  690 97.2599 -2.74163 -7.79344
  691 133.959 -15.2506 -18.6867
  692 166.172 -10.8989 -11.6281
  693 152.189 -2.04112 -0.277821
  694 152.212 -2.06478 0.278999
  695 169.960 -10.7639 11.6016
  696 154.202 -16.1250 2.94376
  697 187.742 17.2121 16.7943
  698 169.042 -3.11951 17.7303
  699 162.651 -5.77705 10.9465
  700 154.352 12.6593 -10.5223
  701 186.869 31.5525 13.2420
  702 161.087 -2.20083 -10.4484
  703 160.942 -5.25973 5.85530
  704 165.422 26.0101 2.98245
  705 163.569 -2.72102 9.18185
  706 50.8941 34.4614 43.3261
  707 152.385 -17.5055 -11.0553
  708 176.471 3.24579 18.1111
  709 178.477 -5.48764 -13.2800
  710 178.997 -0.178162 0.893590
  711 162.634 -5.51592 -8.71544
  712 152.583 -17.6453 9.96663
  713 299.871 26.5340 -4.46282
  714 88.4514 -0.413760 2.96242
  715 88.3402 -0.418490 -2.99343
  716 165.281 -2.89908 -4.18315
  717 180.126 -0.130515 -0.864390
  718 138.408 -12.2726 6.21784
  719 166.893 -6.15954 16.1755
  720 256.661 59.9710 -16.5883
  721 158.179 -11.4524 5.69487
  722 175.932 -11.5313 -7.38749
  723 161.009 -5.11320 -5.76419
  724 180.187 -0.247733 -0.304061
  725 162.513 0.00403213 18.2339
  726 7.25849 5.76767 8.72819
  727 185.358 -7.33770 -25.8942
  728 201.142 11.7114 9.16424
  729 167.139 -17.0276 6.91682
  730 117.202 -2.92484 3.05460
  731 117.207 -2.96734 -3.07230
  732 158.551 76.5102 -81.2135
  733 170.052 -11.1917 -10.8000
  734 125.547 0.579522 -2.48431
  735 147.935 0.781436 11.5936
  736 163.759 -8.14443 13.1327
  737 156.972 -13.2280 3.28755
  738 163.933 -14.8815 -21.2477
  739 155.962 -12.3416 -3.54201
  740 185.255 -8.87809 -3.35685
  741 170.490 -1.28395 2.46911
  742 151.300 -9.10567 2.08921
  743 278.183 55.6757 -29.2713
  744 161.801 -4.23697 4.68841
  745 159.252 2.58944 -17.6727
  746 136.855 -1.59174 45.9536
  747 170.966 13.8057 18.1667
  748 147.010 -11.6345 0.878306
  749 112.580 -9.01100 -15.2949
  750 112.582 -8.98302 15.1596
  751 155.533 17.4851 -2.45941
  752 158.821 -1.82219 15.8549
  753 160.767 -3.79822 -13.6283
  754 151.477 -9.28768 -2.14427
  755 146.343 -13.1849 3.07819
  756 166.735 27.6446 -3.39243
  757 156.773 -13.5668 -2.66661
  758 157.137 -9.92691 5.49852
  759 159.530 -1.92884 0.905864
  760 159.637 -1.87201 -0.901520
  761 214.691 47.4771 1.76281
  762 176.019 -14.9228 -4.09965
  763 163.139 -4.92318 8.66138
  764 170.592 -1.27617 -2.26125
  765 171.567 1.17047 -18.6165
  766 196.254 10.1646 -11.7526
  767 93.2184 -0.115190 -1.36904
  768 93.2788 -0.113717 1.35353
  769 1.26589 -3.24152 -2.32470
  770 166.482 -0.164717 3.43658
  771 151.582 -0.286299 -12.8674
  772 156.994 -1.46498 11.4278
  773 145.005 17.2707 67.9067
  774 178.828 37.0511 -0.413115
  775 126.589 -9.21536 7.79872
  776 20.7470 0.523821 -8.28919
  777 21.4246 0.390484 8.38063
  778 155.488 -1.11382 -12.8547
  779 126.959 -9.31134 -7.79332
  780 169.566 -1.40835 1.91005
  781 84.4635 -3.70298 14.5681
  782 83.7093 -3.69137 -14.5835
  783 161.799 -4.10943 -4.56980
  784 101.232 -2.67681 -6.71226
  785 101.282 -2.65792 6.64621
  786 168.687 -1.50566 -5.16188
  787 127.292 -3.48610 -2.00726
  788 127.292 -3.46129 2.00745
  789 184.370 -1.17663 -13.3811
  790 165.127 -1.70653 -18.3718
  791 81.6528 -0.557892 -3.79816
  792 81.8224 -0.552753 3.75055
  793 3.21320 2.09190 -4.88743
  794 3.98501 2.20401 5.15183
  795 131.905 0.607923 -4.52293
  796 151.007 -16.9739 -8.03718
  797 -1.78121 -1.24767 3.03146
  798 -1.54666 -1.44347 -2.99132
  799 157.301 -3.05546 1.90442
  800 170.852 -13.2753 -6.62100
  801 175.606 26.1214 -13.8569
  802 170.349 -1.25783 -1.81126
  803 371.410 73.8220 -69.7638
  804 157.270 -3.04359 -1.88092
  805 237.766 45.6759 3.34405
  806 167.943 4.90398 -19.1210
  807 186.150 14.0189 -17.1381
  808 29.3304 -0.349912 -7.70964
  809 29.9370 -0.396866 7.69407
  810 102.803 -1.56935 3.94106
  811 102.769 -1.58316 -3.98063
  812 97.5326 -0.262676 0.730151
  813 97.5073 -0.265335 -0.736932
  814 187.854 31.7198 -13.1682
  815 109.009 -0.744206 -1.05947
  816 109.024 -0.735398 1.05239
  817 159.325 -1.60197 -16.5359
  818 233.656 22.6230 18.0120
  819 142.292 3.10121 -9.95074
  820 47.7040 -0.445341 8.31863
  821 47.2565 -0.449293 -8.38919
  822 188.027 4.49630 48.3368
  823 165.091 -2.92388 4.31768
  824 145.831 9.60772 -4.14926
  825 65.7461 -0.125745 5.70550
  826 65.3786 -0.0940936 -5.75145
  827 99.9143 -0.562469 -1.91733
  828 99.9477 -0.554369 1.89710
  829 17.6783 15.8598 13.2295
  830 152.564 3.59390 14.8637
  831 170.299 25.1190 -11.8043
  832 183.953 21.3660 -16.9033
  833 119.421 -4.64833 -4.94716
  834 119.344 -4.61033 4.93689
  835 190.207 40.7923 6.05873
  836 165.004 -1.23786 -0.255964
  837 165.010 -1.22814 0.284985
  838 162.646 -4.81317 -10.9932
  839 135.546 -9.14368 4.27462
  840 150.040 -16.8721 8.10261
  841 177.364 -14.5340 12.7523
  842 134.181 -3.94440 -1.03858
  843 134.177 -3.92713 1.02908
  844 153.354 14.1856 6.74289
  845 143.703 1.90192 -10.7641
  846 40.0015 45.3934 45.0894
  847 146.819 -13.0803 -2.71019
  848 147.249 -6.58926 0.842825
  849 147.330 -6.59888 -0.849586
  850 162.021 -2.36203 17.4399
  851 161.040 -10.5461 -8.48860
  852 143.323 -9.56462 -1.29500
  853 334.823 10.8549 -16.8302
  854 136.115 -12.9879 8.77419
  855 136.015 -13.1615 -8.92768
  856 161.965 -1.90359 8.90198
  857 245.960 63.1109 -12.5507
  858 127.441 -11.7180 -11.2109
  859 141.373 -15.9795 10.4295
  860 127.394 -11.5725 11.1038
  861 138.357 -5.62461 -1.12473
  862 138.349 -5.60261 1.11365
  863 19.7369 8.65851 11.5423
  864 174.168 13.0362 -18.4745
  865 132.514 -5.25429 -2.08441
  866 132.536 -5.19837 2.09293
  867 130.715 -2.19547 -0.246642
  868 130.710 -2.17875 0.244559
  869 144.495 -2.83159 0.145351
  870 144.476 -2.81083 -0.145905
  871 116.170 -2.37643 -2.65655
  872 116.175 -2.34853 2.64322
  873 133.085 -7.11551 -3.26163
  874 133.099 -7.06252 3.27529
  875 3.04996 -1.82342 -1.07908
  876 202.390 37.9740 10.3186
  877 174.014 -6.05178 -15.1244
  878 141.272 -15.7506 -10.5529
  879 152.824 -4.87179 1.90049
  880 152.754 -4.81777 -1.85433
  881 166.545 0.238189 18.7588
  882 182.316 -13.0141 -6.43407
  883 161.805 10.9120 -58.7425
  884 71.7999 -1.05816 28.7208
  885 -3.29549 1.67738 -1.75129
  886 -2.91817 1.88961 1.96875
  887 19.5798 9.21050 -11.7732
  888 163.152 -4.60420 6.89882
  889 172.248 -1.03069 -2.93047
  890 154.642 -14.8132 24.6332
  891 71.6238 -0.973302 -28.8434
  892 172.354 -14.0380 4.97801
  893 193.001 -5.97754 20.9458
  894 137.025 0.535809 4.80135
  895 158.314 15.0591 11.5236
  896 84.7037 -4.82182 21.2263
  897 84.3655 -4.86138 -21.3785
  898 101.747 -4.98285 -11.8655
  899 108.031 -5.17204 -36.7583
  900 172.068 -3.97204 16.8075
  901 237.962 55.3057 6.76849
  902 172.526 6.67079 18.8393
  903 163.113 -3.42173 -9.99604
  904 110.368 -4.63498 37.6815
  905 208.715 38.3406 -8.05409
  906 19.9435 17.1588 -16.4003
  907 149.640 -0.319021 -5.18625
  908 101.853 -4.93996 11.7505
  909 124.913 -2.82775 1.78651
  910 124.913 -2.84900 -1.79169
  911 161.283 -10.4908 8.74378
  912 168.166 -0.936148 0.758811
  913 123.154 1.20428 -45.8359
  914 177.625 -0.344410 1.39217
  915 176.122 -0.277133 -1.75445
  916 128.712 1.07721 -4.14803
  917 169.647 -0.669662 -3.05802
  918 125.459 -6.00186 -4.47362
  919 125.543 -5.90821 4.48571
  920 -4.34792 1.48150 -2.53182
  921 -5.89626 0.892653 2.63884
  922 168.169 -0.861380 -0.762677
  923 53.8557 -1.18914 19.3533
  924 53.5051 -1.06615 -19.4713
  925 178.618 26.1583 14.6796
  926 326.775 5.87946 5.25023
  927 167.824 18.7184 15.2310
  928 191.987 -6.89434 4.91236
  929 165.822 -9.17938 13.2915
  930 206.751 43.4507 -6.11469
  931 125.758 0.480119 3.12329
  932 159.670 -3.65235 -2.93939
  933 165.258 8.89043 -18.4136
  934 201.528 5.69844 -4.86129
  935 155.382 -9.58393 -4.44551
  936 77.0417 -0.462364 -4.26399
  937 77.1325 -0.446174 4.20023
  938 164.188 -3.77414 -7.94597
  939 5.11956 6.61780 0.959317
  940 157.560 -16.3259 -0.708751
  941 134.502 3.87849 -0.429060
  942 205.139 45.3666 -4.06848
  943 31.6282 23.6036 -27.6745
  944 157.010 -1.16461 -10.2416
  945 107.294 -1.89152 -3.65835
  946 107.311 -1.86835 3.62335
  947 0.832874 -4.61293 3.55424
  948 105.766 -8.00308 -17.0378
  949 160.431 -9.23036 -8.21239
  950 97.0809 0.206650 -0.297843
  951 97.0993 0.207820 0.295436
  952 161.143 19.5831 -9.25876
  953 174.932 -0.409450 -0.282965
  954 174.929 -0.417608 0.366233
  955 105.807 -7.97839 16.9124
  956 162.052 -0.193364 -4.07499
  957 187.489 1.34057 12.9889
  958 166.180 -2.23144 3.36722
  959 25.4030 6.71040 -14.7788
  960 172.634 -0.951733 2.66560
  961 155.071 1.21555 15.9585
  962 163.585 22.7290 8.23962
  963 164.128 1.90842 -18.8705
  964 111.884 -6.15121 -10.1003
  965 177.984 -6.24608 12.8542
  966 111.954 -6.12456 9.98926
  967 4.84045 5.40269 -0.0651586
  968 18.3653 3.35350 10.8102
  969 90.3622 -1.68034 7.01617
  970 90.2464 -1.68310 -7.06120
  971 159.780 -3.72796 3.08249
  972 170.905 29.8844 4.59709
  973 86.6753 8.09598 -43.2531
  974 143.032 -8.99549 1.07242
  975 134.214 -14.1108 -13.4859
  976 196.518 37.7895 10.4671
  977 150.910 -2.58953 0.390847
  978 150.905 -2.57349 -0.391402
  979 165.842 -2.96944 -5.77349
  980 151.858 13.0672 -6.22394
  981 354.628 103.458 69.8868
  982 30.4775 1.83671 -14.4260
  983 31.0037 1.52965 14.4631
  984 2.26255 -3.60676 0.421372
  985 152.427 8.39559 12.7743
  986 134.159 -14.1932 13.3784
  987 166.950 -7.83984 -15.0064
  988 181.749 14.8841 18.3912
  989 175.531 -14.1683 -15.9537
  990 256.987 54.2070 17.2740
  991 148.017 -2.32826 -0.00981643
  992 147.998 -2.30674 0.0101612
  993 173.880 -7.02822 14.3917
  994 11.7541 18.0555 19.7683
  995 75.9992 -1.66584 10.0832
  996 75.7448 -1.64477 -10.2013
  997 91.5212 -4.60723 13.7364
  998 91.1943 -4.53981 -13.7955
  999 103.374 -4.39681 9.80180
  1000 112.990 -0.966350 -0.488600
  1001 113.003 -0.958737 0.486278
  1002 292.089 90.6542 -57.0093
  1003 261.875 65.5277 25.9276
  1004 103.291 -4.42144 -9.89291
  1005 179.157 -0.783172 15.8331
  1006 159.090 16.5150 -11.1142
  1007 112.368 -9.60229 30.4385
  1008 145.132 -17.1330 -15.9704
  1009 166.020 -1.31447 -6.02504
  1010 73.8571 5.26314 35.0853
  1011 94.8593 -7.27010 24.3323
  1012 145.289 7.37462 -7.97663
  1013 167.733 -3.28296 -17.9050
  1014 219.284 84.5155 93.1985
  1015 136.742 4.10619 5.65678
  1016 188.205 40.8878 -0.724581
  1017 139.140 5.32499 -52.1697
  1018 140.554 -14.8751 -8.93281
  1019 180.351 -0.129275 -0.709687
  1020 171.337 15.7685 -17.7036
  1021 98.2485 -0.692413 2.48581
  1022 98.2042 -0.699574 -2.51223
  1023 3.50401 0.859920 -4.68083
  1024 111.891 -5.25671 -8.39947
  1025 94.7492 -7.36533 -24.5293
  1026 111.794 -5.24246 8.29732
  1027 163.852 -4.94836 16.5538
  1028 146.810 -9.11467 0.300015
  1029 153.667 2.79089 -15.4381
  1030 158.051 19.7698 3.24138
  1031 217.800 12.4653 6.05564
  1032 162.583 -12.3151 8.43068
  1033 101.424 -8.22281 -18.6472
  1034 152.240 5.33783 -14.4180
  1035 113.401 -9.46745 -30.6160
  1036 219.429 48.0200 -0.580648
  1037 147.644 9.63353 7.25582
  1038 189.052 -1.16444 -10.2733
  1039 141.437 -14.8761 8.14490
  1040 162.386 -5.09526 12.8764
  1041 161.471 -8.47853 9.51775
  1042 160.590 -8.02824 8.30852
  1043 198.923 25.1498 -13.9419
  1044 159.992 -2.55163 12.9343
  1045 144.865 -17.1814 15.7003
  1046 154.656 -6.27671 3.03223
  1047 101.485 -8.23607 18.5312
  1048 144.896 -10.7523 -1.36555
  1049 83.1843 -4.00445 -26.0345
  1050 119.708 -12.4841 20.5345
  1051 163.162 -1.06416 -6.95508
  1052 158.576 -1.77732 -14.6374
  1053 137.188 -10.9642 -5.29211
  1054 83.3302 -4.12762 25.8155
  1055 147.108 0.324089 -10.0798
  1056 109.016 -7.38643 -13.1366
  1057 199.988 42.8511 6.72136
  1058 43.4150 7.43989 -24.4293
  1059 349.501 24.7383 34.0686
  1060 79.2272 6.11937 -36.7908
  1061 160.605 -13.2818 -5.51051
  1062 109.040 -7.32006 13.0193
  1063 145.424 1.48084 11.2395
  1064 80.1806 -1.69386 8.34144
  1065 80.1325 -1.73638 -8.43216
  1066 162.287 -4.48324 -15.3236
  1067 173.885 -0.764340 1.13973
  1068 169.778 -0.342050 3.09893
  1069 167.328 5.58331 19.0556
  1070 156.127 -1.17570 13.7150
  1071 121.781 12.8397 56.4883
  1072 181.597 -0.0941224 0.357115
  1073 168.109 22.8629 12.1306
  1074 141.240 1.98246 9.65940
  1075 172.161 -0.612282 2.99147
  1076 108.272 -1.24708 -2.02419
  1077 108.287 -1.23249 2.00880
  1078 68.2611 -1.99296 -13.8954
  1079 68.5515 -2.06429 13.7903
  1080 141.683 6.98371 4.04508
  1081 218.772 11.0239 -14.2578
  1082 200.952 -0.721650 -28.9176
  1083 157.821 -0.126185 -4.20579
  1084 119.769 -12.5796 -20.6977
  1085 137.474 -10.4262 4.67007
  1086 158.797 -0.351796 4.39235
  1087 167.055 -12.0654 -9.85204
  1088 101.686 -0.275809 1.22448
  1089 101.665 -0.280420 -1.23327
  1090 160.294 -13.6626 5.50919
  1091 152.182 -3.03273 0.710378
  1092 152.157 -3.03488 -0.699072
  1093 147.971 -14.9549 4.81223
  1094 192.283 -6.29462 -0.659656
  1095 83.8350 -0.162897 -2.36164
  1096 83.9808 -0.157213 2.33413
  1097 130.012 -8.11073 -35.0743
  1098 137.588 -3.29456 0.495567
  1099 137.604 -3.31530 -0.502018
  1100 83.6915 44.2113 62.0211
  1101 192.405 15.6954 -15.4930
  1102 27.3175 13.5918 -18.1533
  1103 166.299 -2.36105 -3.25768
  1104 43.2399 15.1496 -27.9872
  1105 90.5415 -5.80404 -17.7460
  1106 181.749 -0.138739 0.208493
  1107 181.834 -0.126439 -0.156381
  1108 163.090 -9.26227 -11.4495
  1109 144.473 -16.1592 -22.2212
  1110 43.4312 6.33254 23.2797
  1111 177.272 17.5920 17.3533
  1112 161.434 -1.49315 -0.310086
  1113 161.449 -1.49515 0.326514
  1114 177.198 -11.5341 26.8419
  1115 181.225 36.5558 6.74215
  1116 105.900 -2.66836 -5.26937
  1117 105.923 -2.65447 5.22668
  1118 81.1493 9.44428 43.6293
  1119 153.309 0.748812 -14.9598
  1120 47.3490 15.5142 30.1621
  1121 199.850 -3.65974 -7.90896
  1122 194.415 43.3930 2.11770
  1123 133.083 -10.6630 6.60708
  1124 120.753 0.583858 -0.608221
  1125 170.515 -1.41523 3.89246
  1126 176.952 -0.173131 1.52591
  1127 36.3529 0.0827640 -6.96025
  1128 36.9120 0.0632381 6.90939
  1129 136.536 2.19837 -7.13965
  1130 142.166 -4.18534 -0.179091
  1131 142.130 -4.16269 0.176758
  1132 14.6727 21.0322 -20.9796
  1133 23.6229 48.1173 -43.0436
  1134 144.075 -5.64177 -0.0624117
  1135 144.137 -5.64468 0.0557578
  1136 149.112 -3.54186 0.790158
  1137 149.091 -3.53237 -0.775793
  1138 38.3382 24.6141 30.2072
  1139 116.063 -1.51151 -0.947998
  1140 116.072 -1.49973 0.942462
  1141 146.797 11.0292 -0.173885
  1142 191.918 22.6166 -65.3707
  1143 180.530 31.2756 -11.5410
  1144 164.965 -6.29100 -15.7310
  1145 162.559 -8.05467 -11.5492
  1146 133.183 -10.7663 -6.72434
  1147 132.517 0.399317 4.40778
  1148 150.350 9.31441 -10.6700
  1149 148.130 7.90198 10.1740
  1150 154.551 -6.08871 -2.98152
  1151 147.200 -8.92671 -0.405030
  1152 133.302 -8.74537 -4.87986
  1153 159.224 -0.917159 8.19254
  1154 286.277 28.9971 4.06967
  1155 160.416 -3.39407 14.9343
  1156 160.594 10.5471 16.1394
  1157 148.679 -14.6880 -3.39061
  1158 17.3069 3.08957 -10.4124
  1159 151.473 -6.98838 -2.29678
  1160 97.8098 -0.186312 -0.0535729
  1161 97.8256 -0.185609 0.0527551
  1162 185.660 -4.91262 8.93477
  1163 176.977 -14.8677 5.15260
  1164 255.028 45.9668 10.8269
  1165 57.9180 -0.144355 -5.83914
  1166 58.3032 -0.131311 5.79099
  1167 134.465 -2.74388 -0.462474
  1168 134.456 -2.72470 0.457872
  1169 151.999 -13.4443 0.416416
  1170 121.901 0.509070 1.98702
  1171 155.743 -11.0848 4.32063
  1172 8.34839 9.93248 -4.36132
  1173 27.0673 13.7643 17.7698
  1174 103.477 -5.50444 33.9287
  1175 179.695 34.4649 -8.22845
  1176 172.832 -0.448344 -2.35890
  1177 182.564 -0.259463 0.153523
  1178 182.765 -0.367427 -0.104365
  1179 102.204 -0.293112 -0.191517
  1180 102.221 -0.290921 0.189702
  1181 165.560 10.6085 18.3939
  1182 247.520 42.6940 -0.900268
  1183 170.369 28.3192 -8.25187
  1184 127.769 -9.28680 34.8448
  1185 102.923 -5.27437 -33.8686
  1186 113.876 -7.79180 -11.7226
  1187 159.836 -4.37137 3.87366
  1188 224.034 49.1118 0.243355
  1189 113.878 -7.74161 11.6207
  1190 163.569 -2.73162 2.93551
  1191 144.017 5.26973 9.69368
  1192 159.811 4.93525 17.6140
  1193 229.816 51.4806 4.30503
  1194 134.745 -3.55695 0.879801
  1195 134.756 -3.57666 -0.888255
  1196 165.599 -3.00102 5.98889
  1197 95.4755 -1.09355 3.91789
  1198 95.4071 -1.10507 -3.95797
  1199 162.088 -2.07315 -1.38576
  1200 66.0696 39.0809 -59.7488
  1201 140.276 -7.84588 -37.2898
  1202 130.876 -4.18384 -1.79441
  1203 130.886 -4.16227 1.79462
  1204 174.693 -0.712876 1.00946
  1205 164.635 -2.02076 2.35670
  1206 8.56856 10.4127 7.43931
  1207 180.067 -0.160389 0.822590
  1208 20.6433 25.6087 25.4045
  1209 160.609 -2.27055 -1.76481
  1210 -0.259924 -4.01430 -3.50264
  1211 112.503 -10.9638 -26.2097
  1212 112.166 -10.6930 25.9349
  1213 180.067 -0.279795 -0.901903
  1214 152.468 -8.03376 -2.68114
  1215 174.536 -0.638480 -1.05198
  1216 137.895 -4.50075 -0.715392
  1217 137.877 -4.48105 0.702741
  1218 161.978 -2.05602 1.30924
  1219 151.361 -6.85412 2.27264
  1220 145.376 -4.66206 -0.410733
  1221 145.432 -4.67812 0.430502
  1222 174.417 -0.658881 -0.864502
  1223 149.770 -15.6917 -25.1326
  1224 170.401 -0.912419 -0.901971
  1225 161.330 -2.33965 1.87635
  1226 110.114 -1.29829 -1.47638
  1227 110.128 -1.28509 1.46581
  1228 123.931 -1.88386 -0.704211
  1229 123.934 -1.86945 0.699668
  1230 204.053 31.6896 11.9621
  1231 171.263 -13.0838 7.67721
  1232 116.888 -0.456654 43.1978
  1233 90.9945 -0.184359 1.50155
  1234 90.9161 -0.186202 -1.51853
  1235 161.572 -2.94300 11.2906
  1236 154.943 -2.23418 0.457828
  1237 154.953 -2.22535 -0.457517
  1238 176.676 34.6481 3.82086
  1239 163.077 -17.0221 19.5719
  1240 91.5455 -1.37322 5.54250
  1241 91.4506 -1.38441 -5.58840
  1242 154.642 -3.68950 1.63080
  1243 154.609 -3.71365 -1.59194
  1244 159.754 -4.31250 -3.74443
  1245 145.042 0.0169639 5.22542
  1246 255.750 63.4780 -20.0055
  1247 162.540 -5.88057 -10.1885
  1248 26.6550 6.61623 15.2261
  1249 168.047 -8.89288 14.1028
  1250 132.561 2.80216 -3.90052
  1251 9.56868 7.41358 5.16870
  1252 223.539 24.0955 0.0843896
  1253 163.937 -7.40798 -14.1138
  1254 133.239 1.81501 5.96831
  1255 91.2032 -5.81135 17.7030
  1256 166.845 -12.8580 8.90365
  1257 244.864 45.1625 12.1148
  1258 54.7384 8.32052 29.7558
  1259 167.882 -1.88535 -5.14386
  1260 329.628 3.62950 -3.37914
  1261 341.189 5.17628 15.1587
  1262 365.234 12.6753 -35.8417
  1263 162.187 -5.00531 -12.5090
  1264 162.341 -7.34967 10.8372
  1265 165.085 -11.6947 10.3550
  1266 -4.88815 0.505821 3.14377
  1267 -4.46621 0.387226 -3.40074
  1268 160.919 -17.7252 -8.53346
  1269 165.115 -16.6278 -13.2936
  1270 122.860 0.739423 -2.45907
  1271 160.312 -18.0600 13.3427
  1272 171.033 -8.05490 -14.3484
  1273 2.89422 4.88795 0.141021
  1274 137.996 -2.51348 0.397187
  1275 138.008 -2.53357 -0.398249
  1276 170.465 -1.25550 3.54424
  1277 163.572 -2.67920 -2.77069
  1278 153.628 -16.7834 -4.11182
  1279 139.614 -7.63682 1.72367
  1280 138.882 -7.53411 -1.94801
  1281 164.798 -3.39791 8.07269
  1282 168.813 -6.14943 -16.2599
  1283 9.94253 7.73107 -4.94427
</Section>

newXOutput 23

<Section columns = "stress_xx | stress_yy | stress_xy">
  1 192.334 0.00877662 0.400272
  2 192.351 0.0108236 -0.401781
  3 100.620 -0.0536411 -0.145235
  4 -1.29386 -1.28590 -1.85879
  5 355.311 134.478 110.742
  6 351.880 139.670 -111.392
  7 -1.50076 -1.22787 1.96973
  8 100.604 -0.0540664 0.144761
  9 193.787 -0.299195 0.129836
  10 193.325 -0.483025 -0.0779337
  11 192.789 -0.300842 0.480305
  12 192.261 -0.433899 0.167333
  13 191.134 -0.357645 0.758393
  14 190.121 -0.366290 0.573601
  15 187.807 -0.326186 1.07872
  16 184.579 -0.196724 1.58109
  17 181.684 -0.226098 1.74296
  18 177.457 -0.346211 2.08841
  19 171.677 -0.000233452 3.06231
  20 166.335 -0.256131 2.88982
  21 160.354 -0.350666 4.04364
  22 151.704 0.251658 3.49702
  23 145.519 0.356752 4.11622
  24 137.459 0.615381 3.20446
  25 131.917 0.611335 3.22279
  26 123.880 0.888613 1.63788
  27 122.204 1.40472 1.75041
  28 121.203 1.13262 -0.514786
  29 122.593 0.623569 -1.14155
  30 125.141 0.629198 -1.39673
  31 131.155 0.811720 -2.79585
  32 136.995 0.640045 -3.55360
  33 145.633 0.116704 -4.22511
  34 152.557 -0.0987730 -3.87355
  35 159.992 -0.281700 -3.82879
  36 166.754 -0.198226 -2.71696
  37 172.619 -0.199395 -2.34002
  38 177.495 -0.335789 -1.97933
  39 181.897 -0.229775 -1.40106
  40 184.689 -0.262490 -1.49653
  41 187.385 -0.341294 -1.09862
  42 189.971 -0.411612 -0.505494
  43 191.310 -0.325512 -0.577925
  44 192.055 -0.181773 -0.370823
  45 191.621 -0.0716739 -0.337039
  46 193.547 -0.492935 0.0453887
  47 193.860 -0.314058 -0.134096
  48 187.063 -0.0595489 -0.246812
  49 182.578 -0.664668 -0.430117
  50 177.144 -1.00452 -0.302024
  51 170.546 -1.54734 -0.408170
  52 164.328 -1.71352 -0.516135
  53 157.718 -2.20628 -0.486661
  54 151.890 -2.48999 -0.284269
  55 146.782 -2.83486 -0.124109
  56 140.897 -2.36557 -0.125435
  57 134.119 -2.23597 -0.177980
  58 127.577 -1.78810 -0.0721844
  59 121.371 -1.16389 -0.0356285
  60 115.460 -0.846142 -0.00544863
  61 110.257 -0.455591 0.0426848
  62 104.909 -0.138861 -0.168403
  63 100.698 0.137397 0.187448
  64 98.8345 0.417970 0.117541
  65 100.184 -0.00580421 0.293286
  66 98.8288 -0.0694198 0.349474
  67 97.6079 -0.0976304 0.437313
  68 95.9299 -0.0232897 0.579401
  69 93.8090 -0.0140007 0.736582
  70 92.3017 -0.147108 1.44796
  71 87.7450 0.130229 1.58676
  72 84.5770 -0.0167811 1.83260
  73 79.8565 -0.0935938 2.07453
  74 74.3991 -0.152696 2.53061
  75 67.5856 -0.0403451 3.07243
  76 59.2751 0.0343402 3.37568
  77 52.1945 -0.0890429 4.81703
  78 38.0327 0.459975 4.51933
  79 28.5004 0.398221 4.78371
  80 17.1831 -0.0660760 5.26874
  81 7.88888 0.915808 5.42749
  82 -2.64056 1.34274 3.15873
  83 -10.1667 1.35749 1.00076
  84 -9.58395 1.28068 -0.673687
  85 -8.84160 1.05147 -2.71268
  86 -5.16667 -0.382735 -2.53094
  87 -0.663794 -4.96073 -2.78018
  88 0.437434 -9.20752 -3.53286
  89 1.29240 -14.8276 -2.11362
  90 2.91550 -15.6876 -0.197719
  91 6.23340 -5.58066 7.77326
  92 18.9477 25.7969 27.7114
  93 115.468 101.088 98.2929
  94 428.564 63.3220 72.5773
  95 384.432 9.12841 23.8946
  96 355.842 3.72703 7.31244
  97 345.254 3.13356 0.587282
  98 350.746 4.21218 -6.29177
  99 383.321 8.43175 -18.8857
  100 456.314 30.5908 -63.1335
  101 68.0470 102.414 -81.7085
  102 14.2147 16.4527 -22.6762
  103 6.78259 -4.89716 -8.00928
  104 2.71473 -15.8369 -1.05143
  105 0.708979 -11.4016 2.45519
  106 0.938570 -11.5775 3.08486
  107 0.0253461 -4.31208 3.07537
  108 -5.38696 -0.268415 2.41185
  109 -9.12615 0.788751 2.37891
  110 -10.0831 1.56098 0.731569
  111 -10.5069 1.34139 -0.909694
  112 -3.36012 1.37641 -2.94616
  113 7.24294 0.924227 -5.16714
  114 16.5217 0.0292213 -5.18150
  115 27.8220 0.430941 -4.79601
  116 37.4161 0.472752 -4.55707
  117 51.7157 -0.0910086 -4.86153
  118 58.8641 0.0388942 -3.41152
  119 67.2277 -0.0386353 -3.11408
  120 74.2135 -0.168015 -2.55239
  121 79.6129 -0.0897776 -2.08161
  122 84.3940 -0.0107718 -1.85368
  123 87.5968 0.128422 -1.60644
  124 92.1978 -0.148440 -1.46469
  125 93.7278 -0.0148701 -0.746959
  126 95.8708 -0.0241013 -0.587979
  127 97.5656 -0.0989591 -0.444153
  128 98.7989 -0.0705551 -0.354281
  129 100.161 -0.00681292 -0.296388
  130 98.8163 0.417314 -0.119011
  131 100.681 0.137100 -0.188351
  132 104.892 -0.140031 0.167847
  133 110.239 -0.458511 -0.0438481
  134 115.445 -0.852662 0.00407237
  135 121.360 -1.17298 0.0342868
  136 127.572 -1.80119 0.0708843
  137 134.120 -2.25239 0.176975
  138 140.906 -2.38444 0.124507
  139 146.796 -2.85568 0.123765
  140 151.908 -2.51064 0.284992
  141 157.742 -2.22507 0.488726
  142 164.347 -1.72668 0.523623
  143 170.557 -1.55907 0.443595
  144 177.172 -0.942135 0.308964
  145 182.709 -0.644129 0.420861
  146 187.087 -0.0882785 0.243324
  147 165.964 -15.5792 -2.17757
  148 165.836 -15.3716 2.23794
  149 173.264 24.9771 -9.07580
  150 185.581 10.9789 19.4982
  151 140.440 -13.4250 -30.1920
  152 141.550 -13.4183 29.1829
  153 135.431 -5.85924 3.30807
  154 135.447 -5.94453 -3.31280
  155 197.439 7.03387 -15.4544
  156 165.516 -5.87998 4.38635
  157 165.449 -5.73250 -4.32990
  158 213.967 48.1633 2.72342
  159 168.894 -0.268223 -18.7911
  160 124.153 -9.93354 -13.4150
  161 124.145 -9.84658 13.2855
  162 169.349 -3.79938 17.0828
  163 159.970 11.6255 11.0707
  164 65.4230 10.7842 -35.9952
  165 72.7694 10.1969 37.9658
  166 209.206 2.16270 3.39552
  167 170.072 -6.46496 -12.1077
  168 225.989 49.7010 -2.31966
  169 152.778 -4.28423 0.377764
  170 152.743 -4.26799 -0.362524
  171 172.656 -1.95152 -1.94217
  172 173.248 -1.73579 1.68664
  173 118.356 -1.79697 -2.05667
  174 118.367 -1.77739 2.04365
  175 186.462 -5.23060 38.3170
  176 154.616 6.34394 -11.9086
  177 100.554 -7.61793 -21.8445
  178 100.859 -7.56085 21.6878
  179 112.686 -3.84038 -7.04049
  180 112.692 -3.79429 6.98099
  181 170.959 -4.42068 10.2835
  182 155.033 -10.6909 0.399618
  183 154.458 -10.6110 -0.133151
  184 177.213 -17.0776 -1.74654
  185 178.100 -16.2680 -0.481870
  186 245.584 57.6861 -7.03633
  187 176.754 28.5287 8.50938
  188 177.496 10.9211 -19.3908
  189 185.978 -1.97301 -44.7802
  190 176.648 -9.92236 -14.0058
  191 178.135 -7.05908 16.3089
  192 148.087 -16.8452 14.3865
  193 148.149 -16.7310 -14.3359
  194 157.511 1.96287 14.3630
  195 71.0467 -1.65230 -26.6257
  196 71.2342 -1.81430 26.4500
  197 278.179 41.9065 5.91949
  198 167.146 -9.92001 7.89565
  199 173.624 -3.09491 -6.78712
  200 136.227 -3.39617 -1.43932
  201 136.226 -3.37645 1.43327
  202 165.862 -2.13843 -13.1178
  203 189.304 27.8704 -15.7428
  204 157.116 14.0712 -2.22512
  205 101.093 -3.71775 10.0181
  206 100.933 -3.73146 -10.1015
  207 176.568 -1.84047 3.80903
  208 170.846 3.21834 19.2945
  209 138.387 -10.2262 -6.11839
  210 137.385 -9.68609 6.30576
  211 202.320 30.0079 14.8520
  212 239.926 31.8268 3.20278
  213 15.3482 12.2852 -9.51008
  214 14.1682 11.3576 8.04488
  215 97.6209 27.6736 64.2302
  216 165.436 -10.9714 -6.27258
  217 177.275 -1.76964 -3.44577
  218 155.611 1.31720 -13.2186
  219 107.673 -1.15545 -3.10803
  220 107.704 -1.14204 3.07683
  221 148.286 -7.01179 -0.844794
  222 148.354 -7.05114 0.758317
  223 167.421 -2.23323 11.2038
  224 194.459 -11.3010 2.91187
  225 191.448 39.4424 -4.62497
  226 150.153 -14.5907 -6.37836
  227 191.041 -3.29513 13.1290
  228 162.256 -2.61987 0.820674
  229 162.261 -2.59603 -0.819285
  230 148.988 -14.5193 6.67714
  231 171.268 -10.8130 11.5082
  232 243.692 30.1548 -13.0808
  233 52.5323 31.3244 -45.9307
  234 142.919 4.92016 2.81712
  235 171.224 15.1203 16.2121
  236 183.425 -1.24658 -17.6250
  237 171.011 -6.11303 -16.0884
  238 89.0802 -2.97101 -12.6227
  239 89.4056 -2.92448 12.5743
  240 171.379 -2.00989 -8.75161
  241 163.417 -4.05009 2.42497
  242 163.340 -4.04195 -2.35471
  243 32.9677 3.21258 -16.7033
  244 33.5472 2.81881 16.6525
  245 183.029 -15.9683 -12.9025
  246 181.280 -0.520680 0.571068
  247 181.499 -0.531914 -0.606545
  248 167.024 13.8368 -14.7999
  249 145.974 2.71821 8.58990
  250 313.726 50.2894 33.5860
  251 311.370 35.4623 -21.1696
  252 222.395 48.3755 -0.666455
  253 138.657 -6.60310 40.4034
  254 127.017 -4.19704 -42.3170
  255 145.135 -2.97680 -0.407936
  256 145.120 -2.95525 0.403774
  257 119.333 -3.32059 4.20566
  258 119.338 -3.36835 -4.24859
  259 176.140 -1.80807 5.51124
  260 170.601 -12.1057 -9.65544
  261 108.034 -0.248103 -0.710862
  262 108.053 -0.244149 0.705520
  263 168.439 -6.74724 -7.62325
  264 69.4642 -2.31673 -17.4513
  265 69.7897 -2.32469 17.3146
  266 170.406 -7.33417 13.0340
  267 129.510 -13.7487 24.2486
  268 129.868 -13.9963 -24.1765
  269 145.159 5.46016 -3.99753
  270 125.225 -2.00064 -1.37914
  271 125.232 -1.98576 1.37266
  272 158.761 -0.422486 10.6499
  273 190.614 35.1019 10.9642
  274 99.9706 -1.29953 5.34313
  275 99.8922 -1.31107 -5.39418
  276 175.420 -14.5857 7.19367
  277 162.393 -18.1607 -15.7188
  278 181.848 -0.762737 1.80483
  279 124.221 -7.53206 -9.09026
  280 123.985 -7.44448 9.05001
  281 226.247 21.9193 56.7887
  282 104.009 -8.36099 29.1062
  283 168.468 23.7213 -0.966822
  284 215.502 23.5039 -10.5564
  285 161.543 -12.5081 2.99172
  286 162.472 -18.6651 14.0637
  287 104.354 -8.21756 -29.4594
  288 18.9255 23.2874 20.7897
  289 168.466 -6.77485 7.75859
  290 222.174 28.6945 8.69877
  291 183.409 -0.678875 -1.56436
  292 164.190 5.71090 -17.0308
  293 162.811 -9.18636 4.53410
  294 159.330 -13.4790 -0.468109
  295 163.521 7.48185 16.3849
  296 174.546 -14.5981 -6.52771
  297 248.151 48.6204 -3.82347
  298 162.765 -8.82575 -4.34600
  299 135.859 38.0640 -79.1780
  300 166.705 -17.6466 -2.19133
  301 165.494 -18.1240 4.11718
  302 120.398 -11.0043 -19.0904
  303 107.080 -0.458772 -1.56107
  304 107.106 -0.450862 1.54652
  305 120.438 -11.0100 18.9776
  306 175.987 -0.272686 -19.5655
  307 190.896 -7.88374 -9.16448
  308 144.085 -8.78141 -2.96971
  309 143.976 -8.80067 3.03057
  310 174.038 -14.9742 25.6507
  311 172.855 -1.33410 6.63128
  312 211.797 0.605730 7.79990
  313 140.939 -5.04293 -1.57428
  314 140.945 -5.02308 1.56245
  315 127.714 -3.42655 -2.68555
  316 127.710 -3.39234 2.67989
  317 144.366 1.87891 -8.31283
  318 187.854 13.7722 -18.9697
  319 293.534 78.7275 -36.4916
  320 171.641 -1.37176 -0.669205
  321 171.532 -1.35202 0.684209
  322 90.6451 -0.0139318 36.3157
  323 127.184 -5.91330 -5.89734
  324 126.923 -5.88908 5.91091
  325 90.6329 -0.216098 -36.1782
  326 178.504 21.1172 -15.9132
  327 201.107 9.88129 14.8201
  328 174.117 -12.4313 -28.6039
  329 159.059 -6.10527 2.20070
  330 158.889 -6.05633 -2.12699
  331 170.265 -3.41773 -3.81554
  332 158.889 -0.318730 -9.96590
  333 179.377 0.816469 19.2490
  334 179.659 -1.17426 -3.82442
  335 106.002 -6.58410 14.5991
  336 105.886 -6.62356 -14.7228
  337 166.265 -0.384748 17.8015
  338 100.432 -0.884784 -3.14643
  339 100.496 -0.876248 3.11397
  340 171.466 -3.84366 5.77457
  341 205.389 42.1426 -8.47613
  342 170.161 -3.44765 3.94927
  343 180.576 22.7552 16.0014
  344 173.025 -3.18297 18.6476
  345 136.017 -2.58904 0.494237
  346 136.021 -2.60687 -0.498713
  347 163.183 -0.598015 -15.7788
  348 217.411 45.8523 5.95228
  349 179.676 33.1315 0.335532
  350 110.297 12.8980 -54.3067
  351 10.4906 4.94716 -6.98762
  352 11.6045 5.34556 7.56320
  353 -0.782243 1.13929 3.52383
  354 -0.0649801 0.561657 -3.65987
  355 322.357 22.3437 7.79102
  356 149.000 -12.1914 -3.47155
  357 171.622 -3.70722 -5.63830
  358 154.266 -2.65458 0.350449
  359 154.248 -2.63095 -0.351063
  360 164.380 18.1621 -8.00606
  361 140.567 -14.4284 11.8123
  362 11.8537 17.4975 -12.5973
  363 140.722 -14.4297 -12.0487
  364 166.621 18.9638 8.52075
  365 170.966 -4.49207 -9.81845
  366 181.720 -10.0831 -12.1963
  367 192.744 41.0152 3.20068
  368 182.204 -11.3108 10.2971
  369 73.0364 -1.89123 11.7114
  370 72.5678 -1.85528 -11.7960
  371 40.8021 1.07609 -16.0833
  372 41.2802 0.901241 16.0077
  373 146.797 0.411358 8.42477
  374 285.196 82.3028 30.4147
  375 177.109 -1.06529 -4.78528
  376 136.747 -11.6971 -8.98045
  377 136.616 -11.6613 8.96681
  378 169.761 -3.86985 -12.2848
  379 194.554 -9.39931 2.79623
  380 148.993 -12.1778 3.59725
  381 214.465 1.12625 -15.9026
  382 118.173 -1.02041 -0.499298
  383 118.186 -1.01110 0.494578
  384 166.629 -0.949934 -7.76959
  385 87.7373 -1.33351 -7.66054
  386 87.7985 -1.37463 7.56085
  387 199.996 25.5147 -16.3809
  388 107.547 7.66246 50.3420
  389 156.053 -8.20803 1.40996
  390 156.210 -8.19137 -1.41905
  391 183.153 31.1349 -10.1946
  392 173.789 -5.11563 -17.7564
  393 175.010 -17.8344 13.4922
  394 144.614 -3.86261 -0.611475
  395 144.594 -3.84111 0.602319
  396 167.847 -12.9313 6.76200
  397 181.507 -0.803453 2.85939
  398 110.904 -4.18827 -8.86473
  399 110.945 -4.18618 8.78104
  400 169.862 5.69228 -19.0070
  401 160.796 -3.41140 1.25570
  402 160.791 -3.41821 -1.23189
  403 165.878 -1.93806 14.5753
  404 153.681 11.1317 3.80868
  405 172.454 -7.23559 15.6099
  406 250.639 52.7336 8.68346
  407 81.7977 -4.42489 -23.3722
  408 82.0355 -4.42747 23.1811
  409 36.2554 19.7228 -27.3107
  410 186.222 -0.463984 0.832696
  411 91.4416 -0.835218 -4.83836
  412 91.5706 -0.817483 4.79258
  413 169.924 -4.38784 12.0620
  414 154.065 -16.7655 7.38091
  415 174.795 -2.05727 2.71209
  416 177.206 9.02221 19.9167
  417 38.1128 21.0000 28.5656
  418 154.311 -16.6777 -6.72316
  419 159.533 -14.8594 -0.594502
  420 50.2208 -1.01358 -14.6439
  421 50.6378 -1.05448 14.5357
  422 122.137 -9.67114 -35.1163
  423 183.501 -2.69280 17.2375
  424 121.626 -9.83025 34.7909
  425 169.312 -9.46925 -10.3720
  426 155.984 10.4547 -8.37939
  427 169.353 -7.26113 9.80207
  428 183.268 -0.737068 -1.97102
  429 5.24597 5.38180 2.00879
  430 36.2686 41.2249 40.6617
  431 162.150 -0.602195 7.45476
  432 134.455 1.76557 3.62292
  433 136.959 2.17166 -4.92679
  434 116.866 -2.03050 -2.96478
  435 116.874 -2.00352 2.94218
  436 166.960 -12.9262 -6.25928
  437 168.305 -3.27272 -16.3637
  438 135.241 2.44505 -1.33898
  439 250.757 59.5981 10.9428
  440 33.4159 11.4006 -20.4040
  441 36.9486 10.4686 21.8726
  442 155.911 -5.53886 1.20328
  443 155.848 -5.52220 -1.15873
  444 208.099 46.3979 -0.704570
  445 131.863 52.0789 80.9230
  446 201.451 -2.94220 -4.32436
  447 113.607 -6.06653 -12.0324
  448 113.656 -6.02210 11.9205
  449 113.988 -2.65677 4.68306
  450 113.971 -2.67774 -4.73099
  451 155.119 3.37927 -13.5878
  452 187.262 -0.198823 -0.563007
  453 150.478 6.82060 7.59908
  454 192.155 23.7683 17.4641
  455 159.782 -11.8794 -2.33553
  456 174.742 -1.94970 -2.63080
  457 184.068 -0.659914 1.81679
  458 186.743 -0.208506 0.322840
  459 186.915 -0.243906 -0.244199
  460 99.5195 -0.205980 1.15100
  461 99.4719 -0.208905 -1.16469
  462 175.125 -11.0770 12.5218
  463 156.658 6.12253 13.1540
  464 164.316 0.650970 -17.3337
  465 172.523 -3.55613 7.37223
  466 252.658 40.2675 -46.9886
  467 172.777 -9.54549 -13.8136
  468 1.17556 3.19286 1.02520
  469 1.18143 3.22516 -0.171769
  470 135.891 -7.81998 4.91347
  471 135.415 -7.72060 -4.86190
  472 217.004 3.31370 24.7513
  473 59.9890 53.2638 -60.7884
  474 170.218 -0.489118 5.85218
  475 194.548 -11.4044 -13.6274
  476 101.402 -5.95582 16.9483
  477 207.393 36.8093 -12.1561
  478 170.272 -9.17470 11.6506
  479 142.156 -6.87853 -2.21808
  480 142.282 -6.76099 2.20897
  481 146.758 0.754774 -7.44623
  482 101.077 -5.93502 -17.0651
  483 150.733 0.0301405 7.50565
  484 145.698 -16.6391 -21.4765
  485 145.322 -16.6645 21.5390
  486 176.006 -1.11787 5.27219
  487 158.446 14.9057 1.57565
  488 163.266 2.51328 54.9753
  489 239.344 49.1093 -0.310127
  490 164.895 -2.68017 1.35099
  491 164.907 -2.66963 -1.38882
  492 125.165 -2.30263 -1.82294
  493 125.170 -2.28214 1.81447
  494 65.7161 3.19134 30.3448
  495 170.983 -8.19414 -13.4611
  496 154.776 -3.32061 0.381076
  497 154.760 -3.30703 -0.376771
  498 134.441 -14.3042 17.5894
  499 67.0258 4.19336 -31.1335
  500 171.404 -13.9332 -7.13402
  501 2.75370 0.210204 1.70291
  502 148.058 7.56000 0.546119
  503 165.560 -1.80281 -0.455573
  504 165.553 -1.83041 0.447542
  505 134.543 -14.2835 -17.7332
  506 194.780 -10.1593 17.8154
  507 192.140 6.98739 17.9184
  508 177.775 -1.09076 -1.33795
  509 170.877 -14.1339 7.21714
  510 104.415 -0.128493 -0.194906
  511 104.434 -0.127449 0.192861
  512 170.387 -6.50683 -14.2505
  513 164.218 12.1426 14.4448
  514 189.733 4.69030 -17.6797
  515 103.791 -0.193211 -0.644391
  516 103.814 -0.190685 0.639250
  517 336.098 48.5167 -43.6300
  518 171.085 20.4252 12.7711
  519 177.944 -0.991055 1.19621
  520 159.900 -15.1833 0.976248
  521 133.364 -4.50113 2.65239
  522 133.367 -4.53786 -2.64711
  523 186.881 -11.3343 6.28659
  524 179.054 -3.53376 -18.0409
  525 199.973 39.6132 9.97884
  526 165.780 2.83755 17.9596
  527 168.100 -3.13118 2.50396
  528 163.509 -17.3846 -20.4913
  529 168.950 -4.14537 13.9488
  530 332.645 15.1968 -6.13268
  531 185.566 -13.9534 -1.54836
  532 176.668 -1.04721 -0.342049
  533 176.707 -1.12334 0.309764
  534 336.071 22.5727 21.5808
  535 161.466 -0.0732108 15.2740
  536 228.679 37.9562 -5.66541
  537 170.985 -4.57305 -7.21855
  538 74.8243 -0.741088 -5.24641
  539 75.0769 -0.705792 5.18944
  540 114.701 -10.7773 -24.3722
  541 114.780 -10.5954 24.1816
  542 168.011 -2.99429 -2.47660
  543 182.576 6.71984 -19.6059
  544 160.270 -10.9161 2.94411
  545 171.873 19.7398 -13.2756
  546 174.028 -1.95369 7.10027
  547 219.586 10.5635 -0.799930
  548 148.167 -5.09837 -0.378276
  549 148.117 -5.07721 0.369312
  550 161.449 -7.59717 3.47589
  551 239.848 46.9398 -1.66130
  552 169.637 7.42327 18.6658
  553 72.0725 18.6229 45.0183
  554 165.160 -9.93658 36.3977
  555 219.919 9.73717 -39.8722
  556 173.478 14.3555 -17.4144
  557 154.694 -13.3064 -31.4897
  558 167.418 -18.3120 -5.39815
  559 175.152 -17.6744 -8.31442
  560 22.3955 28.5263 -27.0791
  561 175.986 -2.12551 -4.49302
  562 265.908 51.8707 -14.4973
  563 162.342 -7.27397 -3.79747
  564 163.774 -5.26698 3.12671
  565 163.619 -5.14151 -3.01393
  566 110.826 -0.700102 -1.40610
  567 110.845 -0.690958 1.39504
  568 14.7875 1.69591 -8.71508
  569 15.7090 1.77452 8.92494
  570 82.3797 -3.91075 -17.8638
  571 83.0379 -3.93075 17.8267
  572 165.995 -8.95588 -6.76490
  573 169.438 -18.3851 5.90321
  574 174.195 -16.4859 2.19369
  575 141.695 -2.51237 -0.453010
  576 141.684 -2.49246 0.450216
  577 134.884 -14.1046 -26.9776
  578 151.636 -12.3757 33.3767
  579 131.514 -13.2547 27.1464
  580 170.520 -3.76168 -17.6169
  581 104.982 -1.84229 5.33341
  582 104.931 -1.86224 -5.38300
  583 161.881 8.90268 -14.4916
  584 162.286 -0.281986 -6.76720
  585 203.481 44.5216 -4.57989
  586 131.782 -2.04736 -0.476312
  587 131.783 -2.03243 0.473609
  588 173.817 -0.494252 -3.86543
  589 118.449 -4.14160 -5.82218
  590 118.446 -4.12508 5.76601
  591 97.3931 4.65717 43.2320
  592 169.178 -7.73318 -9.91894
  593 93.3598 -4.86015 31.0055
  594 166.242 -8.57566 6.88756
  595 175.444 -2.37909 4.94251
  596 173.403 -1.46193 -1.20127
  597 119.668 -1.56162 -1.27983
  598 119.679 -1.54803 1.27171
  599 195.064 39.1926 -8.91814
  600 93.2976 -4.66376 -31.1335
  601 165.701 -7.11974 -5.57429
  602 148.894 -2.74059 -0.179512
  603 148.878 -2.71831 0.178623
  604 283.489 38.3259 -6.66853
  605 96.7711 -0.668510 2.96143
  606 96.6852 -0.675229 -2.99211
  607 153.144 3.44997 12.3790
  608 222.450 18.1229 -4.42741
  609 103.914 0.877911 -42.9425
  610 52.1046 1.45004 -23.1983
  611 52.5629 1.13437 23.0734
  612 129.968 -7.73859 7.12029
  613 131.390 -7.96637 -6.88995
  614 224.065 45.0508 5.51225
  615 172.651 -1.51994 1.10013
  616 146.071 4.01795 -7.45652
  617 183.581 33.1813 8.05848
  618 182.866 34.4425 -5.35677
  619 150.318 -8.38703 -0.682893
  620 151.504 -8.18972 0.135499
  621 108.167 23.3943 -62.0072
  622 128.298 -4.51324 -3.89715
  623 128.304 -4.45920 3.88052
  624 333.779 68.2201 51.2575
  625 170.407 -5.54408 15.3181
  626 95.5211 -3.50238 -11.4483
  627 268.868 59.8728 38.7064
  628 95.7512 -3.48113 11.3987
  629 163.902 -6.31989 -42.6861
  630 112.945 -0.620117 -0.519680
  631 112.962 -0.614639 0.516553
  632 140.482 1.20684 6.49843
  633 62.6373 -0.974990 -10.2982
  634 63.0177 -0.977247 10.2109
  635 148.340 -10.5890 2.55099
  636 155.851 -12.5371 -0.122576
  637 185.064 -0.353625 -1.63841
  638 101.193 -0.189577 0.837847
  639 101.158 -0.192797 -0.847977
  640 139.480 -3.18044 -0.624497
  641 139.472 -3.16047 0.618048
  642 161.432 -17.8543 20.7435
  643 184.950 20.6914 -17.7342
  644 121.772 -5.83862 -7.52067
  645 121.674 -5.73799 7.46102
  646 145.505 -10.5821 -3.84087
  647 230.776 50.5052 0.562889
  648 173.132 -16.7059 -1.21237
  649 149.491 -3.56252 -0.105392
  650 149.467 -3.54245 0.106347
  651 207.103 22.5420 14.1821
  652 173.291 -2.42493 -7.72091
  653 151.662 -0.216120 -6.12008
  654 69.2602 -2.35568 -22.4045
  655 69.4897 -2.42707 22.2094
  656 145.182 -12.6416 -6.49938
  657 218.695 48.6425 0.175689
  658 168.547 22.8750 -5.75193
  659 110.321 -1.08196 -2.62045
  660 110.343 -1.06657 2.59639
  661 157.914 -4.41368 -1.14216
  662 157.945 -4.42110 1.17890
  663 298.225 39.0638 17.1239
  664 188.344 -0.448212 0.463921
  665 181.212 -0.660600 2.78185
  666 180.425 -0.682917 -3.23124
  667 170.914 -15.8736 3.68441
  668 124.004 -1.51283 -0.640176
  669 124.012 -1.50113 0.636723
  670 181.852 29.2913 12.3645
  671 234.854 52.3924 -2.09183
  672 126.956 -9.60814 -10.6632
  673 126.908 -9.50928 10.6029
  674 160.120 -16.5243 -2.49881
  675 168.271 9.99353 -17.5488
  676 201.627 0.455753 8.65401
  677 131.876 -2.51928 -1.21786
  678 131.877 -2.50138 1.21161
  679 114.092 -10.0858 -22.0112
  680 169.264 -16.3419 -2.08508
  681 140.129 -15.5586 19.3648
  682 66.4371 21.1533 -43.3961
  683 130.379 -12.1997 14.9249
  684 157.133 0.0394914 5.67791
  685 114.191 -9.96874 21.8530
  686 165.600 -7.26351 5.64290
  687 130.437 -12.1517 -15.0728
  688 132.065 1.65388 1.35877
  689 101.985 -2.86268 8.10099
  690 101.892 -2.86729 -8.16456
  691 140.230 -15.9637 -19.5875
  692 173.924 -11.4096 -12.1179
  693 159.297 -2.14091 -0.286561
  694 159.322 -2.16561 0.287781
  695 177.883 -11.2686 12.0866
  696 161.401 -16.8774 3.12189
  697 196.490 18.0139 17.5116
  698 176.934 -3.26757 18.5025
  699 170.245 -6.04952 11.4163
  700 161.607 13.2555 -10.9912
  701 195.595 33.0202 13.8096
  702 168.620 -2.30503 -10.9048
  703 168.450 -5.50854 6.09642
  704 173.183 27.2255 3.11446
  705 171.208 -2.85049 9.57908
  706 53.3004 36.0969 45.3966
  707 159.494 -18.3231 -11.6099
  708 184.703 3.39508 18.8960
  709 186.788 -5.74505 -13.8376
  710 187.290 -0.189146 0.929710
  711 170.223 -5.77656 -9.08513
  712 159.702 -18.4694 10.4705
  713 313.648 27.7537 -4.66711
  714 92.6923 -0.432164 3.10344
  715 92.5760 -0.437097 -3.13579
  716 172.979 -3.03883 -4.35516
  717 188.467 -0.138872 -0.899612
  718 144.895 -12.8433 6.53610
  719 174.684 -6.44953 16.8765
  720 268.496 62.7958 -17.4623
  721 165.564 -11.9878 5.91788
  722 184.120 -12.0705 -7.67343
  723 168.519 -5.35533 -6.00145
  724 188.525 -0.262158 -0.315436
  725 170.118 0.00315140 19.0377
  726 7.60904 6.08913 9.16844
  727 193.939 -7.66809 -27.1536
  728 210.479 12.2641 9.51539
  729 174.918 -17.8222 7.28784
  730 122.746 -3.05887 3.20692
  731 122.751 -3.10325 -3.22536
  732 165.802 80.1851 -85.0264
  733 177.978 -11.7160 -11.2481
  734 131.519 0.610583 -2.59630
  735 154.898 0.819812 12.1102
  736 171.405 -8.52697 13.6963
  737 164.300 -13.8456 3.39837
  738 171.553 -15.5761 -22.2805
  739 163.245 -12.9179 -3.66631
  740 193.860 -9.29048 -3.45105
  741 178.414 -1.34858 2.56952
  742 158.372 -9.53086 2.15414
  743 291.031 58.2436 -30.6411
  744 169.344 -4.43866 4.87956
  745 166.716 2.71136 -18.4558
  746 143.228 -1.66335 48.1305
  747 178.962 14.4492 18.9659
  748 153.888 -12.1766 0.952593
  749 117.890 -9.43030 -16.0256
  750 117.892 -9.40115 15.8843
  751 162.845 18.3071 -2.56864
  752 166.260 -1.90835 16.5536
  753 168.287 -3.97718 -14.2239
  754 158.558 -9.72155 -2.21148
  755 153.189 -13.7990 3.25565
  756 174.556 28.9353 -3.54145
  757 164.092 -14.2003 -2.74856
  758 164.474 -10.3914 5.71550
  759 166.965 -2.02420 0.939299
  760 167.076 -1.96478 -0.934723
  761 224.694 49.6738 1.81254
  762 184.199 -15.6185 -4.34507
  763 170.751 -5.15607 9.02954
  764 178.519 -1.34061 -2.35260
  765 179.577 1.22340 -19.4286
  766 205.373 10.6433 -12.2276
  767 97.6874 -0.119622 -1.43490
  768 97.7508 -0.118085 1.41872
  769 1.33026 -3.38034 -2.42287
  770 174.253 -0.173740 3.58556
  771 158.704 -0.298067 -13.4387
  772 164.352 -1.53388 11.9313
  773 151.722 18.1018 71.1006
  774 187.203 38.7737 -0.431145
  775 132.544 -9.64263 8.18344
  776 21.7867 0.547277 -8.68822
  777 22.4947 0.407755 8.78393
  778 162.781 -1.16581 -13.4227
  779 132.930 -9.74288 -8.17795
  780 177.446 -1.47925 1.98626
  781 88.4897 -3.87555 15.2584
  782 87.7009 -3.86334 -15.2742
  783 169.342 -4.30526 -4.75597
  784 106.047 -2.79917 -7.03303
  785 106.099 -2.77947 6.96412
  786 176.544 -1.57959 -5.38143
  787 133.288 -3.64707 -2.11231
  788 133.289 -3.62119 2.11254
  789 192.948 -1.23144 -13.9394
  790 172.847 -1.78756 -19.1782
  791 85.5755 -0.583214 -3.97793
  792 85.7528 -0.577840 3.92823
  793 3.40526 2.19037 -5.12923
  794 4.21191 2.30789 5.40624
  795 138.161 0.637855 -4.72576
  796 158.058 -17.7660 -8.45034
  797 -1.86236 -1.30382 3.17149
  798 -1.61782 -1.50975 -3.13047
  799 164.639 -3.20251 1.97618
  800 178.810 -13.8963 -6.87482
  801 183.822 27.3389 -14.4625
  802 178.264 -1.32157 -1.88368
  803 388.309 77.2284 -72.9389
  804 164.606 -3.19016 -1.95173
  805 248.810 47.7814 3.51539
  806 175.795 5.13225 -19.9620
  807 194.824 14.6728 -17.8725
  808 30.7831 -0.367047 -8.07844
  809 31.4167 -0.416159 8.06221
  810 107.698 -1.64057 4.13112
  811 107.663 -1.65498 -4.17240
  812 102.206 -0.273896 0.765727
  813 102.179 -0.276673 -0.772795
  814 196.625 33.1963 -13.7308
  815 114.192 -0.776985 -1.11200
  816 114.208 -0.767800 1.10462
  817 166.787 -1.67721 -17.2652
  818 244.423 23.7244 18.9387
  819 149.007 3.25094 -10.3964
  820 50.0255 -0.466285 8.71396
  821 49.5582 -0.470431 -8.78764
  822 196.707 4.73114 50.6285
  823 172.781 -3.06477 4.49522
  824 152.706 10.0636 -4.33491
  825 68.9206 -0.130933 5.97509
  826 68.5368 -0.0978026 -6.02303
  827 104.687 -0.587150 -2.01047
  828 104.722 -0.578696 1.98938
  829 18.5332 16.6211 13.8856
  830 159.733 3.76456 15.5259
  831 178.277 26.2912 -12.3236
  832 192.538 22.3622 -17.6337
  833 125.061 -4.86239 -5.19108
  834 124.980 -4.82278 5.18047
  835 199.099 42.6851 6.31410
  836 172.679 -1.30155 -0.265474
  837 172.685 -1.29134 0.295787
  838 170.241 -5.04076 -11.4672
  839 141.908 -9.56831 4.49818
  840 157.047 -17.6595 8.51786
  841 185.599 -15.2089 13.3987
  842 140.486 -4.12790 -1.10039
  843 140.482 -4.10992 1.09046
  844 160.567 14.8538 7.04408
  845 150.480 1.99427 -11.2454
  846 41.8863 47.6194 47.2455
  847 153.686 -13.6894 -2.87075
  848 154.139 -6.89737 0.857193
  849 154.223 -6.90760 -0.864328
  850 169.601 -2.47377 18.2065
  851 168.556 -11.0399 -8.83892
  852 150.035 -10.0096 -1.38362
  853 350.117 11.3500 -17.5868
  854 142.497 -13.5922 9.21109
  855 142.391 -13.7738 -9.37165
  856 169.537 -1.99401 9.29016
  857 257.356 66.0539 -13.2098
  858 133.428 -12.2628 -11.7571
  859 147.988 -16.7247 10.9482
  860 133.380 -12.1107 11.6452
  861 144.848 -5.88640 -1.19561
  862 144.840 -5.86351 1.18403
  863 20.6978 9.06765 12.1125
  864 182.307 13.6439 -19.2833
  865 138.743 -5.49804 -2.19826
  866 138.766 -5.43965 2.20719
  867 136.866 -2.29775 -0.260414
  868 136.862 -2.28032 0.258239
  869 151.261 -2.96630 0.143820
  870 151.242 -2.94465 -0.144420
  871 121.669 -2.48487 -2.78835
  872 121.675 -2.45575 2.77445
  873 139.338 -7.44524 -3.43378
  874 139.353 -7.38998 3.44820
  875 3.20100 -1.87832 -1.15121
  876 211.817 39.7421 10.7357
  877 182.125 -6.33641 -15.7702
  878 147.882 -16.4849 -11.0771
  879 159.964 -5.10181 1.96665
  880 159.891 -5.04541 -1.91851
  881 174.330 0.247714 19.5827
  882 190.779 -13.6181 -6.79164
  883 169.294 11.4441 -61.5133
  884 75.2079 -1.11338 30.0894
  885 -3.42245 1.75684 -1.84459
  886 -3.02836 1.97929 2.07212
  887 20.5344 9.64563 -12.3554
  888 170.761 -4.82267 7.18838
  889 180.253 -1.08282 -3.05228
  890 161.841 -15.5056 25.8196
  891 75.0236 -1.02491 -30.2175
  892 180.377 -14.6947 5.15473
  893 201.932 -6.24147 21.9782
  894 143.510 0.561944 5.01633
  895 165.748 15.7660 12.0364
  896 88.7265 -5.04882 22.2333
  897 88.3726 -5.09022 -22.3922
  898 106.573 -5.21342 -12.4304
  899 113.100 -5.42017 -38.5037
  900 180.095 -4.15998 17.5341
  901 248.985 57.8956 7.17094
  902 180.586 6.98038 19.6640
  903 170.731 -3.58408 -10.4286
  904 115.543 -4.85730 39.4703
  905 218.425 40.1298 -8.35882
  906 20.9070 17.9786 -17.2090
  907 156.679 -0.333182 -5.41612
  908 106.685 -5.16862 12.3104
  909 130.804 -2.95824 1.87911
  910 130.804 -2.98038 -1.88451
  911 168.811 -10.9820 9.10566
  912 175.982 -0.985715 0.787761
  913 128.903 1.25720 -48.0052
  914 185.865 -0.362495 1.44979
  915 184.300 -0.291973 -1.82817
  916 134.827 1.13010 -4.33458
  917 177.552 -0.701774 -3.19001
  918 131.369 -6.27922 -4.69875
  919 131.457 -6.18141 4.71153
  920 -4.54223 1.55364 -2.64363
  921 -6.16432 0.936163 2.75719
  922 175.984 -0.907407 -0.792087
  923 56.4420 -1.24769 20.2769
  924 56.0758 -1.11914 -20.4002
  925 186.969 27.3763 15.3188
  926 341.712 6.14924 5.48427
  927 175.685 19.5924 15.9035
  928 200.889 -7.20819 5.20455
  929 173.560 -9.61017 13.8592
  930 216.387 45.4694 -6.34676
  931 131.742 0.505427 3.26393
  932 167.116 -3.82725 -3.05438
  933 172.995 9.30612 -19.2273
  934 210.875 5.97417 -5.01332
  935 162.640 -10.0322 -4.61542
  936 80.7480 -0.483234 -4.46521
  937 80.8428 -0.466306 4.39860
  938 171.847 -3.95376 -8.28423
  939 5.37474 6.94164 1.02588
  940 164.912 -17.0880 -0.785533
  941 140.873 4.06658 -0.448287
  942 214.709 47.4698 -4.22253
  943 33.1417 24.7292 -29.0166
  944 164.369 -1.21940 -10.6927
  945 112.393 -1.97734 -3.83594
  946 112.411 -1.95316 3.79943
  947 0.876996 -4.82258 3.71384
  948 110.764 -8.37589 -17.8483
  949 167.919 -9.66312 -8.55245
  950 101.738 0.216640 -0.312593
  951 101.757 0.217858 0.310086
  952 168.706 20.5008 -9.66940
  953 183.040 -0.433338 -0.294609
  954 183.038 -0.441824 0.381518
  955 110.807 -8.35016 17.7174
  956 169.632 -0.203696 -4.25313
  957 196.209 1.40301 13.5267
  958 173.916 -2.34030 3.50426
  959 26.6385 7.02443 -15.4992
  960 180.656 -1.00010 2.77595
  961 162.349 1.27399 16.6673
  962 171.260 23.7920 8.60493
  963 171.807 1.99719 -19.7027
  964 117.173 -6.43571 -10.5853
  965 186.271 -6.53991 13.3921
  966 117.247 -6.40795 10.4693
  967 5.08373 5.66783 -0.0885718
  968 19.2723 3.50986 11.3380
  969 94.6781 -1.75718 7.34918
  970 94.5569 -1.76001 -7.39611
  971 167.231 -3.90620 3.20370
  972 178.916 31.2780 4.79915
  973 90.7535 8.46974 -45.3072
  974 149.732 -9.41422 1.14966
  975 140.503 -14.7687 -14.1431
  976 205.686 39.5460 10.9024
  977 157.962 -2.71401 0.400783
  978 157.957 -2.69729 -0.401387
  979 173.569 -3.11203 -6.01604
  980 159.003 13.6837 -6.50177
  981 370.779 108.252 73.1226
  982 31.9658 1.92075 -15.1209
  983 32.5153 1.59950 15.1595
  984 2.37318 -3.74760 0.458574
  985 159.594 8.79240 13.3446
  986 140.446 -14.8551 14.0308
  987 174.742 -8.20799 -15.6529
  988 190.227 15.5765 19.1880
  989 183.679 -14.8264 -16.7479
  990 268.889 56.7113 18.1053
  991 154.940 -2.44029 -0.0130948
  992 154.920 -2.41785 0.0134453
  993 181.983 -7.35876 15.0040
  994 12.3147 18.9848 20.7367
  995 79.6440 -1.74284 10.5601
  996 79.3781 -1.72079 -10.6833
  997 95.8745 -4.82108 14.3883
  998 95.5326 -4.75040 -14.4499
  999 108.278 -4.59992 10.2702
  1000 118.352 -1.00942 -0.512378
  1001 118.365 -1.00148 0.509958
  1002 305.457 94.9167 -59.7315
  1003 273.995 68.5642 27.1780
  1004 108.191 -4.62560 -10.3653
  1005 187.504 -0.821973 16.5087
  1006 166.558 17.2898 -11.6080
  1007 117.644 -10.0559 31.8857
  1008 151.910 -17.9336 -16.7500
  1009 173.767 -1.37790 -6.28572
  1010 77.3512 5.50352 36.7573
  1011 99.3432 -7.61270 25.4888
  1012 152.139 7.72541 -8.33387
  1013 175.566 -3.43829 -18.6861
  1014 229.256 88.5908 97.5497
  1015 143.211 4.30387 5.91120
  1016 197.009 42.7851 -0.755348
  1017 145.609 5.57871 -54.6348
  1018 147.134 -15.5679 -9.38029
  1019 188.699 -0.138133 -0.738412
  1020 179.351 16.5042 -18.4821
  1021 102.943 -0.723081 2.60556
  1022 102.897 -0.730554 -2.63311
  1023 3.67591 0.949979 -4.92849
  1024 117.184 -5.49934 -8.80380
  1025 99.2276 -7.71236 -25.6946
  1026 117.084 -5.48454 8.69717
  1027 171.510 -5.18150 17.2760
  1028 153.680 -9.53957 0.284505
  1029 160.883 2.92337 -16.1249
  1030 165.477 20.6971 3.38555
  1031 227.866 13.0732 6.42067
  1032 170.168 -12.8914 8.77510
  1033 106.220 -8.60685 -19.5340
  1034 159.396 5.59074 -15.0609
  1035 118.723 -9.91501 -32.0709
  1036 229.650 50.2384 -0.621902
  1037 154.599 10.0898 7.58083
  1038 197.838 -1.21661 -10.6846
  1039 148.058 -15.5692 8.55671
  1040 169.973 -5.33558 13.4344
  1041 169.009 -8.87629 9.91803
  1042 168.085 -8.40506 8.65508
  1043 208.178 26.3246 -14.5196
  1044 167.478 -2.67228 13.5013
  1045 151.632 -17.9843 16.4673
  1046 161.879 -6.57188 3.14552
  1047 106.283 -8.62083 19.4130
  1048 151.679 -11.2525 -1.45994
  1049 87.1267 -4.19587 -27.2713
  1050 125.333 -13.0683 21.5162
  1051 170.787 -1.11573 -7.25793
  1052 166.002 -1.86114 -15.2822
  1053 143.621 -11.4737 -5.56542
  1054 87.2795 -4.32459 27.0426
  1055 154.035 0.340778 -10.5288
  1056 114.169 -7.72922 -13.7644
  1057 209.322 44.8383 6.99550
  1058 45.4960 7.78534 -25.6042
  1059 365.442 25.8647 35.6032
  1060 82.9686 6.39884 -38.5414
  1061 168.099 -13.9026 -5.72094
  1062 114.194 -7.65991 13.6420
  1063 152.277 1.55313 11.7418
  1064 84.0228 -1.77217 8.73625
  1065 83.9727 -1.81662 -8.83099
  1066 169.874 -4.69431 -15.9931
  1067 181.953 -0.804640 1.18458
  1068 177.690 -0.359676 3.23229
  1069 175.153 5.84278 19.8947
  1070 163.448 -1.23085 14.3209
  1071 127.458 13.4443 59.1546
  1072 189.999 -0.100426 0.370950
  1073 175.987 23.9304 12.6659
  1074 147.909 2.07881 10.0922
  1075 180.172 -0.642634 3.11949
  1076 113.420 -1.30288 -2.12355
  1077 113.436 -1.28765 2.10751
  1078 71.5364 -2.08618 -14.5537
  1079 71.8398 -2.16086 14.4440
  1080 148.373 7.31698 4.22674
  1081 228.871 11.5645 -14.9974
  1082 210.231 -0.733009 -30.3209
  1083 165.218 -0.132695 -4.39063
  1084 125.396 -13.1682 -21.6868
  1085 143.920 -10.9108 4.91440
  1086 166.237 -0.368787 4.58525
  1087 174.845 -12.6305 -10.2583
  1088 106.544 -0.287207 1.28376
  1089 106.522 -0.292019 -1.29292
  1090 167.774 -14.3011 5.71949
  1091 159.292 -3.17800 0.731668
  1092 159.265 -3.18030 -0.719899
  1093 154.889 -15.6519 5.07245
  1094 201.200 -6.58322 -0.755937
  1095 87.8633 -0.170148 -2.47362
  1096 88.0158 -0.164213 2.44492
  1097 136.086 -8.49436 -36.7411
  1098 144.046 -3.44895 0.529004
  1099 144.062 -3.47055 -0.535756
  1100 87.6010 46.3097 64.9511
  1101 201.360 16.4290 -16.1457
  1102 28.6348 14.2344 -19.0410
  1103 174.039 -2.47594 -3.39010
  1104 45.3058 15.8593 -29.3345
  1105 94.8407 -6.07514 -18.5881
  1106 190.153 -0.147739 0.217148
  1107 190.242 -0.134869 -0.162755
  1108 170.703 -9.69675 -11.9355
  1109 151.214 -16.9155 -23.2926
  1110 45.5135 6.62660 24.3992
  1111 185.554 18.4114 18.1106
  1112 168.951 -1.56863 -0.321785
  1113 168.967 -1.57069 0.338927
  1114 185.411 -12.0634 28.1405
  1115 189.706 38.2550 7.03358
  1116 110.931 -2.79035 -5.52352
  1117 110.956 -2.77587 5.47901
  1118 84.9730 9.88202 45.7026
  1119 160.508 0.785181 -15.6244
  1120 49.6053 16.2422 31.6109
  1121 209.102 -3.81920 -8.34415
  1122 203.503 45.4030 2.20594
  1123 139.330 -11.1581 6.93993
  1124 126.513 0.614156 -0.635640
  1125 178.448 -1.48453 4.05622
  1126 185.166 -0.183287 1.58975
  1127 38.1432 0.0860580 -7.29148
  1128 38.7271 0.0656582 7.23836
  1129 142.996 2.30587 -7.46021
  1130 148.828 -4.38147 -0.202685
  1131 148.791 -4.35789 0.200215
  1132 15.3731 22.1276 -22.0100
  1133 24.7374 50.5218 -45.1089
  1134 150.823 -5.90555 -0.0446920
  1135 150.887 -5.90845 0.0376671
  1136 156.085 -3.70984 0.812693
  1137 156.062 -3.69999 -0.797734
  1138 40.1656 25.7816 31.6647
  1139 121.560 -1.58008 -0.995774
  1140 121.571 -1.56780 0.990007
  1141 153.716 11.5516 -0.181432
  1142 200.752 23.7263 -68.4498
  1143 188.974 32.7318 -12.0404
  1144 172.670 -6.58675 -16.4138
  1145 170.148 -8.43298 -12.0424
  1146 139.435 -11.2661 -7.06275
  1147 138.802 0.419656 4.60567
  1148 157.425 9.75496 -11.1467
  1149 155.106 8.27660 10.6293
  1150 161.769 -6.37528 -3.09272
  1151 154.087 -9.34305 -0.394626
  1152 139.562 -9.15086 -5.12977
  1153 166.680 -0.960895 8.55197
  1154 299.463 30.3282 4.25550
  1155 167.923 -3.55405 15.5892
  1156 168.125 11.0413 16.8558
  1157 155.629 -15.3723 -3.58528
  1158 18.1655 3.23331 -10.9214
  1159 158.553 -7.31592 -2.37559
  1160 102.500 -0.193891 -0.0564911
  1161 102.517 -0.193156 0.0556402
  1162 194.289 -5.14190 9.28616
  1163 185.201 -15.5601 5.44766
  1164 266.844 48.0837 11.3447
  1165 60.7272 -0.150335 -6.11533
  1166 61.1294 -0.136680 6.06508
  1167 140.784 -2.87220 -0.490301
  1168 140.774 -2.85220 0.485490
  1169 159.102 -14.0712 0.397927
  1170 127.713 0.535070 2.07678
  1171 163.017 -11.6027 4.48226
  1172 8.75756 10.4188 -4.59546
  1173 28.3712 14.4157 18.6379
  1174 108.341 -5.76809 35.5399
  1175 188.106 36.0682 -8.58489
  1176 180.873 -0.470465 -2.45999
  1177 191.004 -0.272851 0.159372
  1178 191.213 -0.385736 -0.108083
  1179 107.087 -0.305128 -0.201219
  1180 107.106 -0.302843 0.199330
  1181 173.311 11.1038 19.2071
  1182 258.999 44.6570 -0.941905
  1183 178.354 29.6400 -8.61438
  1184 133.742 -9.72526 36.5009
  1185 107.761 -5.52770 -35.4768
  1186 119.252 -8.15298 -12.2854
  1187 167.290 -4.57922 4.02836
  1188 234.442 51.4025 0.325925
  1189 119.254 -8.10061 12.1790
  1190 171.187 -2.86404 3.05255
  1191 150.809 5.52142 10.1281
  1192 167.302 5.16694 18.3952
  1193 240.497 53.8664 4.55731
  1194 141.076 -3.72274 0.931783
  1195 141.087 -3.74327 -0.940617
  1196 173.316 -3.14526 6.24080
  1197 100.037 -1.14296 4.10555
  1198 99.9652 -1.15499 -4.14737
  1199 169.637 -2.17521 -1.43818
  1200 69.1754 40.9289 -62.5811
  1201 146.813 -8.21391 -39.0630
  1202 137.032 -4.37767 -1.89173
  1203 137.043 -4.35521 1.89198
  1204 182.794 -0.750433 1.04994
  1205 172.299 -2.12039 2.45029
  1206 8.98529 10.9340 7.82106
  1207 188.409 -0.169517 0.856097
  1208 21.6320 26.8575 26.6440
  1209 168.094 -2.38170 -1.83218
  1210 -0.269657 -4.19825 -3.66372
  1211 117.790 -11.4795 -27.4570
  1212 117.438 -11.1962 27.1696
  1213 188.409 -0.294284 -0.938927
  1214 159.593 -8.40969 -2.77507
  1215 182.632 -0.672659 -1.09353
  1216 144.366 -4.71067 -0.764365
  1217 144.348 -4.69018 0.751136
  1218 169.522 -2.15734 1.35852
  1219 158.436 -7.17526 2.35063
  1220 152.182 -4.88114 -0.411667
  1221 152.241 -4.89783 0.432273
  1222 182.506 -0.694124 -0.898442
  1223 156.748 -16.4257 -26.3410
  1224 178.315 -0.960515 -0.936737
  1225 168.846 -2.45395 1.94871
  1226 115.346 -1.35646 -1.54988
  1227 115.361 -1.34268 1.53887
  1228 129.780 -1.97056 -0.741558
  1229 129.783 -1.95555 0.736823
  1230 213.546 33.1683 12.4471
  1231 179.238 -13.6964 7.97985
  1232 122.355 -0.481580 45.2453
  1233 95.3602 -0.191996 1.57360
  1234 95.2780 -0.193920 -1.59131
  1235 169.125 -3.08225 11.7829
  1236 162.175 -2.34317 0.472300
  1237 162.185 -2.33396 -0.471979
  1238 184.952 36.2604 3.98737
  1239 170.662 -17.8159 20.5273
  1240 95.9211 -1.43578 5.80610
  1241 95.8217 -1.44744 -5.85396
  1242 161.862 -3.86531 1.68892
  1243 161.828 -3.89066 -1.64838
  1244 167.205 -4.51778 -3.89352
  1245 151.881 0.0182523 5.45791
  1246 267.596 66.4206 -20.9802
  1247 170.128 -6.15780 -10.6241
  1248 27.9484 6.92616 15.9670
  1249 175.887 -9.31044 14.7057
  1250 138.845 2.93883 -4.07586
  1251 10.0453 7.76670 5.43443
  1252 233.879 25.2416 -0.00126347
  1253 171.592 -7.75593 -14.7227
  1254 139.553 1.90421 6.23686
  1255 95.5329 -6.08288 18.5436
  1256 174.624 -13.4598 9.26639
  1257 256.170 47.3128 12.7856
  1258 57.3441 8.70700 31.1817
  1259 175.700 -1.97755 -5.36074
  1260 344.687 3.79741 -3.53094
  1261 356.752 5.41042 15.8362
  1262 381.859 13.2425 -37.4510
  1263 169.765 -5.24150 -13.0509
  1264 169.919 -7.69520 11.2991
  1265 172.786 -12.2426 10.7863
  1266 -5.11491 0.531386 3.28798
  1267 -4.67273 0.407508 -3.55752
  1268 168.415 -18.5532 -8.97590
  1269 172.796 -17.4039 -13.9598
  1270 128.714 0.776361 -2.56993
  1271 167.778 -18.9030 14.0081
  1272 179.008 -8.43302 -14.9604
  1273 3.04750 5.12417 0.164829
  1274 144.473 -2.63205 0.417312
  1275 144.485 -2.65300 -0.418427
  1276 178.394 -1.31829 3.69199
  1277 171.190 -2.80925 -2.88071
  1278 160.799 -17.5664 -4.34422
  1279 146.161 -7.99187 1.82740
  1280 145.395 -7.88421 -2.06136
  1281 172.486 -3.55983 8.41819
  1282 176.691 -6.43875 -16.9629
  1283 10.4372 8.09923 -5.20116
</Section>

newXOutput 24

<Section columns = "stress_xx | stress_yy | stress_xy">
  1 200.805 0.00715537 0.416817
  2 200.822 0.00933606 -0.418376
  3 105.235 -0.0553810 -0.151228
  4 -1.35231 -1.34379 -1.94282
  5 370.576 140.526 115.613
  6 367.002 145.939 -116.260
  7 -1.56863 -1.28294 2.05905
  8 105.218 -0.0558238 0.150738
  9 202.318 -0.313309 0.134889
  10 201.838 -0.505372 -0.0821498
  11 201.283 -0.315670 0.499402
  12 200.735 -0.454391 0.172704
  13 199.566 -0.374864 0.788477
  14 198.515 -0.383706 0.595564
  15 196.110 -0.341590 1.12192
  16 192.754 -0.207302 1.64475
  17 189.744 -0.237411 1.81385
  18 185.346 -0.362155 2.17415
  19 179.330 -0.00133039 3.18911
  20 173.770 -0.267905 3.01038
  21 167.541 -0.366032 4.21355
  22 158.530 0.262546 3.64490
  23 152.085 0.373111 4.29107
  24 143.686 0.642996 3.34130
  25 137.909 0.640165 3.36076
  26 129.532 0.929137 1.70824
  27 127.784 1.46855 1.82582
  28 126.739 1.18485 -0.537042
  29 128.188 0.653660 -1.19053
  30 130.845 0.658561 -1.45679
  31 137.115 0.848858 -2.91572
  32 143.202 0.669370 -3.70526
  33 152.203 0.123075 -4.40492
  34 159.418 -0.102554 -4.03729
  35 167.163 -0.293930 -3.98961
  36 174.205 -0.207398 -2.83046
  37 180.311 -0.208971 -2.43706
  38 185.385 -0.351375 -2.06073
  39 189.965 -0.240885 -1.45773
  40 192.868 -0.275677 -1.55666
  41 195.671 -0.357584 -1.14256
  42 198.358 -0.430948 -0.524652
  43 199.749 -0.341073 -0.600516
  44 200.521 -0.191307 -0.384886
  45 200.067 -0.0768803 -0.349872
  46 202.068 -0.515474 0.0482100
  47 202.393 -0.328758 -0.139308
  48 195.318 -0.0659080 -0.257055
  49 190.649 -0.698997 -0.448677
  50 184.988 -1.05500 -0.314004
  51 178.115 -1.62215 -0.424618
  52 171.636 -1.79541 -0.536470
  53 164.747 -2.30880 -0.506018
  54 158.673 -2.60403 -0.294880
  55 153.348 -2.96246 -0.127898
  56 147.214 -2.47150 -0.129111
  57 140.147 -2.33499 -0.184239
  58 133.328 -1.86629 -0.0738529
  59 126.859 -1.21380 -0.0360759
  60 120.698 -0.881730 -0.00480338
  61 115.275 -0.473864 0.0451839
  62 109.704 -0.143793 -0.175265
  63 105.316 0.143855 0.196163
  64 103.373 0.436120 0.123430
  65 104.777 -0.00566096 0.307178
  66 103.361 -0.0719070 0.366225
  67 102.084 -0.101327 0.458201
  68 100.330 -0.0237608 0.606624
  69 98.1138 -0.0142678 0.770873
  70 96.5356 -0.152783 1.51403
  71 91.7763 0.136131 1.65890
  72 88.4658 -0.0172104 1.91520
  73 83.5329 -0.0973355 2.16822
  74 77.8310 -0.158998 2.64464
  75 70.7119 -0.0417984 3.21088
  76 62.0289 0.0360459 3.52826
  77 54.6268 -0.0924448 5.03501
  78 39.8295 0.480245 4.72488
  79 29.8648 0.415699 5.00137
  80 18.0296 -0.0698695 5.50989
  81 8.30585 0.956007 5.67790
  82 -2.71231 1.40273 3.30846
  83 -10.5932 1.41841 1.05315
  84 -9.99760 1.33928 -0.696540
  85 -9.23490 1.10010 -2.83129
  86 -5.39784 -0.398570 -2.64341
  87 -0.692260 -5.18264 -2.90423
  88 0.459035 -9.61665 -3.68825
  89 1.35283 -15.4747 -2.20029
  90 3.04997 -16.3502 -0.191725
  91 6.51841 -5.74230 8.14805
  92 19.7998 27.0979 28.9904
  93 120.481 105.760 102.646
  94 447.037 66.0791 75.6734
  95 401.067 9.52337 24.9030
  96 371.302 3.89047 7.62101
  97 360.280 3.27217 0.611269
  98 366.002 4.39690 -6.55866
  99 399.917 8.79903 -19.6833
  100 475.894 31.9202 -65.8015
  101 71.0227 107.186 -85.3477
  102 14.8529 17.3647 -23.7335
  103 7.09355 -5.02761 -8.40351
  104 2.84043 -16.5007 -1.11749
  105 0.744090 -11.8948 2.55493
  106 0.983138 -12.0930 3.21974
  107 0.0273427 -4.50405 3.21272
  108 -5.62821 -0.278798 2.51862
  109 -9.53196 0.825250 2.48247
  110 -10.5187 1.63224 0.756791
  111 -10.9472 1.40139 -0.958107
  112 -3.46252 1.43789 -3.08633
  113 7.63278 0.964778 -5.40583
  114 17.3405 0.0296864 -5.41867
  115 29.1577 0.449841 -5.01414
  116 39.1870 0.493560 -4.76421
  117 54.1279 -0.0945012 -5.08136
  118 61.6005 0.0407994 -3.56561
  119 70.3389 -0.0400274 -3.25429
  120 77.6376 -0.174988 -2.66730
  121 83.2789 -0.0933381 -2.17556
  122 88.2749 -0.0109388 -1.93715
  123 91.6217 0.134251 -1.67940
  124 96.4270 -0.154170 -1.53146
  125 98.0288 -0.0151728 -0.781672
  126 100.269 -0.0246063 -0.615549
  127 102.040 -0.102712 -0.465316
  128 103.330 -0.0730901 -0.371224
  129 104.752 -0.00671094 -0.310403
  130 103.354 0.435442 -0.124957
  131 105.298 0.143546 -0.197102
  132 109.685 -0.145011 0.174689
  133 115.257 -0.476903 -0.0463915
  134 120.682 -0.888512 0.00337529
  135 126.847 -1.22325 0.0346842
  136 133.322 -1.87990 0.0725038
  137 140.148 -2.35207 0.183196
  138 147.223 -2.49113 0.128145
  139 153.363 -2.98414 0.127537
  140 158.692 -2.62553 0.295632
  141 164.773 -2.32836 0.508171
  142 171.656 -1.80911 0.544270
  143 178.127 -1.63436 0.461532
  144 185.018 -0.989835 0.321213
  145 190.785 -0.677543 0.439013
  146 195.344 -0.0959161 0.253414
  147 173.351 -16.2731 -2.22807
  148 173.216 -16.0562 2.29107
  149 181.015 26.0908 -9.45708
  150 193.841 11.4654 20.3054
  151 146.697 -14.0268 -31.5677
  152 147.857 -14.0193 30.5142
  153 141.510 -6.11783 3.47279
  154 141.527 -6.20673 -3.47765
  155 206.198 7.34801 -16.0705
  156 172.883 -6.14484 4.55073
  157 172.812 -5.99096 -4.49222
  158 223.491 50.2888 2.82186
  159 176.435 -0.280475 -19.5797
  160 129.733 -10.3734 -14.0314
  161 129.725 -10.2827 13.8965
  162 176.904 -3.97039 17.7945
  163 167.147 12.1487 11.5411
  164 68.3855 11.2612 -37.6366
  165 76.0553 10.6486 39.6956
  166 218.453 2.26714 3.47106
  167 177.646 -6.75534 -12.6019
  168 236.019 51.9033 -2.36201
  169 159.598 -4.47685 0.378364
  170 159.562 -4.46001 -0.362522
  171 180.318 -2.04401 -2.01387
  172 180.934 -1.81885 1.74858
  173 123.713 -1.87445 -2.15461
  174 123.724 -1.85407 2.14107
  175 194.691 -5.44877 40.0652
  176 161.563 6.63177 -12.4153
  177 105.094 -7.95859 -22.8344
  178 105.413 -7.89902 22.6712
  179 117.787 -4.00849 -7.36393
  180 117.793 -3.96046 7.30201
  181 178.570 -4.62038 10.7034
  182 161.950 -11.1661 0.383921
  183 161.351 -11.0825 -0.106335
  184 185.078 -17.8384 -1.87773
  185 186.005 -16.9928 -0.448570
  186 256.453 60.2430 -7.41173
  187 184.658 29.7981 8.86602
  188 185.414 11.4070 -20.2020
  189 194.179 -2.04357 -46.8126
  190 184.505 -10.3663 -14.5715
  191 186.059 -7.37602 16.9754
  192 154.692 -17.5952 15.0601
  193 154.756 -17.4758 -15.0073
  194 164.577 2.05258 14.9718
  195 74.2768 -1.73098 -27.8356
  196 74.4723 -1.89990 27.6525
  197 290.439 43.7429 6.18468
  198 174.587 -10.3633 8.20291
  199 181.342 -3.23643 -7.06035
  200 142.343 -3.54632 -1.51426
  201 142.342 -3.52583 1.50797
  202 173.271 -2.23467 -13.6662
  203 197.740 29.1086 -16.3919
  204 164.173 14.7049 -2.31941
  205 105.684 -3.88112 10.4731
  206 105.516 -3.89537 -10.5600
  207 184.402 -1.92712 3.95833
  208 178.474 3.36156 20.1056
  209 144.587 -10.6785 -6.41502
  210 143.543 -10.1144 6.60960
  211 211.313 31.3410 15.4464
  212 250.502 33.2729 3.44162
  213 16.0644 12.8460 -9.96877
  214 14.8304 11.8760 8.43451
  215 101.977 28.9194 67.1252
  216 172.802 -11.4609 -6.50817
  217 185.137 -1.85289 -3.58063
  218 162.596 1.37837 -13.7793
  219 112.571 -1.20468 -3.25154
  220 112.603 -1.19072 3.21907
  221 154.915 -7.32324 -0.905585
  222 154.985 -7.36449 0.815339
  223 174.894 -2.33388 11.6704
  224 203.064 -11.7997 3.10426
  225 199.994 41.1899 -4.81319
  226 156.854 -15.2385 -6.69554
  227 199.518 -3.44301 13.6459
  228 169.478 -2.74110 0.847051
  229 169.483 -2.71626 -0.845622
  230 155.640 -15.1640 7.00683
  231 178.891 -11.2965 11.9685
  232 254.409 31.5362 -13.7580
  233 54.9084 32.7383 -48.0276
  234 149.372 5.14629 2.93802
  235 178.879 15.7950 16.8955
  236 191.582 -1.30404 -18.3468
  237 178.631 -6.38732 -16.7538
  238 93.1392 -3.10224 -13.1926
  239 93.4788 -3.05372 13.1424
  240 179.012 -2.10184 -9.11224
  241 170.691 -4.23417 2.51127
  242 170.611 -4.22577 -2.43811
  243 34.4964 3.35395 -17.4742
  244 35.1005 2.94274 17.4209
  245 191.134 -16.6774 -13.5281
  246 189.298 -0.549167 0.591526
  247 189.525 -0.560951 -0.628810
  248 174.500 14.4562 -15.4255
  249 152.556 2.84442 8.95674
  250 327.484 52.4923 35.0653
  251 325.014 37.0152 -22.0951
  252 232.283 50.5080 -0.678496
  253 144.828 -6.90033 42.2339
  254 132.681 -4.38987 -44.2316
  255 151.631 -3.11039 -0.433909
  256 151.615 -3.08797 0.429556
  257 124.725 -3.46566 4.40334
  258 124.730 -3.51543 -4.44804
  259 183.964 -1.89222 5.73347
  260 178.193 -12.6462 -10.0338
  261 112.957 -0.257563 -0.744407
  262 112.978 -0.253448 0.738853
  263 175.935 -7.05059 -7.92431
  264 72.6428 -2.42093 -18.2414
  265 72.9822 -2.42923 18.0990
  266 177.995 -7.66312 13.5667
  267 135.304 -14.3636 25.3552
  268 135.677 -14.6222 -25.2797
  269 151.707 5.71046 -4.16826
  270 130.875 -2.08777 -1.44511
  271 130.882 -2.07230 1.43837
  272 165.877 -0.440343 11.0992
  273 199.117 36.6587 11.4145
  274 104.526 -1.35552 5.58622
  275 104.445 -1.36752 -5.63936
  276 183.216 -15.2367 7.45827
  277 169.610 -18.9702 -16.4595
  278 189.896 -0.801461 1.87407
  279 129.812 -7.86418 -9.51142
  280 129.566 -7.77287 9.46956
  281 236.152 22.9587 59.3596
  282 108.687 -8.73839 30.4270
  283 176.015 24.7810 -1.00727
  284 225.044 24.5578 -10.9433
  285 168.740 -13.0649 3.08375
  286 169.694 -19.4968 14.7310
  287 109.047 -8.58877 -30.7952
  288 19.7953 24.3599 21.7639
  289 175.964 -7.07928 8.06521
  290 232.003 29.9792 8.99981
  291 191.521 -0.713447 -1.62439
  292 171.539 5.96778 -17.7509
  293 170.063 -9.59652 4.69869
  294 166.430 -14.0785 -0.449609
  295 170.843 7.81770 17.0787
  296 182.305 -15.2494 -6.76398
  297 259.141 50.7574 -4.01098
  298 170.015 -9.22000 -4.50342
  299 141.852 39.7866 -82.7225
  300 174.118 -18.4324 -2.33540
  301 172.854 -18.9312 4.34567
  302 125.806 -11.4941 -19.9603
  303 111.959 -0.477634 -1.63408
  304 111.986 -0.469397 1.61895
  305 125.849 -11.5001 19.8427
  306 183.829 -0.286132 -20.3804
  307 199.360 -8.23449 -9.50663
  308 150.532 -9.17023 -3.12650
  309 150.419 -9.19038 3.19027
  310 181.747 -15.6378 26.8363
  311 180.551 -1.39571 6.90427
  312 221.146 0.649768 8.21914
  313 147.255 -5.26632 -1.66053
  314 147.261 -5.24571 1.64821
  315 133.467 -3.57683 -2.81563
  316 133.463 -3.54120 2.80977
  317 150.880 1.96632 -8.66760
  318 196.214 14.3843 -19.7522
  319 306.452 82.2115 -38.1508
  320 179.257 -1.43887 -0.693138
  321 179.143 -1.41823 0.708787
  322 94.7264 -0.0214380 37.9636
  323 132.907 -6.17354 -6.17589
  324 132.635 -6.14841 6.19017
  325 94.7134 -0.233080 -37.8198
  326 186.474 22.0574 -16.5789
  327 210.025 10.3222 15.4053
  328 181.826 -12.9814 -29.9205
  329 166.148 -6.37904 2.27216
  330 165.971 -6.32809 -2.19535
  331 177.831 -3.57461 -3.96118
  332 166.011 -0.332259 -10.3861
  333 187.364 0.850423 20.0470
  334 187.626 -1.23006 -3.97752
  335 110.795 -6.87561 15.2627
  336 110.674 -6.91671 -15.3916
  337 173.696 -0.401721 18.5503
  338 105.015 -0.922435 -3.29065
  339 105.083 -0.913545 3.25688
  340 179.088 -4.01889 6.00236
  341 214.532 44.0094 -8.80737
  342 177.724 -3.60572 4.10037
  343 188.636 23.7669 16.6695
  344 180.738 -3.32664 19.4239
  345 142.126 -2.70380 0.521591
  346 142.130 -2.72235 -0.526253
  347 170.483 -0.624205 -16.4433
  348 227.072 47.8825 6.16310
  349 187.711 34.6041 0.349508
  350 115.219 13.4700 -56.7570
  351 10.9968 5.16963 -7.32235
  352 12.1599 5.58626 7.92350
  353 -0.807360 1.19589 3.67226
  354 -0.0599242 0.593396 -3.81486
  355 336.447 23.3208 8.12668
  356 155.656 -12.7322 -3.65743
  357 179.250 -3.87655 -5.86054
  358 161.150 -2.77605 0.359760
  359 161.131 -2.75143 -0.360416
  360 171.747 18.9757 -8.34486
  361 146.853 -15.0692 12.3665
  362 12.4045 18.3166 -13.2004
  363 147.014 -15.0704 -12.6131
  364 174.085 19.8125 8.88131
  365 178.576 -4.69513 -10.2183
  366 189.793 -10.5338 -12.6778
  367 201.348 42.8315 3.33051
  368 190.295 -11.8163 10.6941
  369 76.3858 -1.97493 12.2407
  370 75.8971 -1.93737 -12.3288
  371 42.6962 1.12245 -16.8179
  372 43.1945 0.940004 16.7390
  373 153.414 0.433185 8.78359
  374 297.738 85.9675 31.8447
  375 184.977 -1.11550 -4.98014
  376 142.873 -12.2150 -9.40497
  377 142.737 -12.1778 9.39075
  378 177.327 -4.04449 -12.7920
  379 203.168 -9.81605 2.85530
  380 155.649 -12.7181 3.78880
  381 223.916 1.19466 -16.6792
  382 123.524 -1.06379 -0.524791
  383 123.538 -1.05410 0.519888
  384 174.071 -0.993315 -8.09372
  385 91.7495 -1.39164 -8.00607
  386 91.8133 -1.43461 7.90217
  387 208.885 26.6493 -17.0417
  388 112.353 8.00170 52.6181
  389 163.014 -8.57365 1.44269
  390 163.178 -8.55635 -1.45211
  391 191.333 32.5186 -10.6173
  392 181.532 -5.34542 -18.4918
  393 182.771 -18.6276 14.1403
  394 151.087 -4.03490 -0.651983
  395 151.066 -4.01257 0.642423
  396 175.317 -13.5079 7.01519
  397 189.550 -0.842136 2.97310
  398 115.924 -4.37181 -9.26954
  399 115.968 -4.36972 9.18239
  400 177.451 5.94669 -19.8070
  401 167.957 -3.56726 1.29547
  402 167.952 -3.57443 -1.27072
  403 173.288 -2.02555 15.1856
  404 160.591 11.6351 3.97139
  405 180.135 -7.56020 16.2515
  406 261.735 55.0553 9.10003
  407 85.5106 -4.62480 -24.4317
  408 85.7588 -4.62743 24.2326
  409 37.9143 20.6117 -28.5745
  410 194.447 -0.488630 0.863977
  411 95.6248 -0.870762 -5.05705
  412 95.7594 -0.852274 5.00939
  413 177.496 -4.58557 12.5587
  414 160.934 -17.5111 7.74643
  415 182.550 -2.15409 2.81511
  416 185.109 9.42306 20.7505
  417 39.8519 21.9465 29.8833
  418 161.190 -17.4191 -7.05942
  419 166.641 -15.5202 -0.661721
  420 52.5433 -1.06023 -15.3097
  421 52.9779 -1.10287 15.1969
  422 127.596 -10.1081 -36.7091
  423 191.659 -2.81515 17.9417
  424 127.065 -10.2737 36.3696
  425 176.850 -9.89278 -10.7863
  426 162.991 10.9273 -8.73576
  427 176.892 -7.58712 10.1956
  428 191.376 -0.773766 -2.04758
  429 5.49288 5.64504 2.12480
  430 37.9151 43.1235 42.5311
  431 169.408 -0.628853 7.76756
  432 140.552 1.84914 3.77843
  433 143.161 2.27350 -5.13772
  434 122.157 -2.11817 -3.10426
  435 122.165 -2.09006 3.08076
  436 174.392 -13.5024 -6.49099
  437 175.815 -3.42008 -17.0467
  438 141.370 2.56002 -1.39627
  439 261.850 62.2397 11.4926
  440 34.9536 11.9109 -21.3508
  441 38.6437 10.9369 22.8842
  442 162.865 -5.78704 1.23399
  443 162.800 -5.76979 -1.18759
  444 217.370 48.4457 -0.730660
  445 137.653 54.4723 84.5468
  446 210.367 -3.06757 -4.44622
  447 118.736 -6.33430 -12.5815
  448 118.787 -6.28802 12.4649
  449 119.151 -2.77228 4.90028
  450 119.133 -2.79410 -4.95017
  451 162.085 3.53387 -14.1652
  452 195.529 -0.211145 -0.583740
  453 157.251 7.13130 7.92353
  454 200.708 24.8235 18.1814
  455 166.903 -12.4082 -2.40114
  456 182.494 -2.04189 -2.73091
  457 192.210 -0.693193 1.88730
  458 194.986 -0.221711 0.334686
  459 195.164 -0.258742 -0.252873
  460 104.074 -0.214156 1.20442
  461 104.024 -0.217204 -1.21867
  462 182.913 -11.5723 13.0228
  463 163.690 6.39989 13.7132
  464 171.665 0.680636 -18.0642
  465 180.194 -3.71824 7.66885
  466 263.707 42.1338 -49.1552
  467 180.468 -9.97265 -14.3745
  468 1.25105 3.33872 1.08561
  469 1.25622 3.37343 -0.194108
  470 141.987 -8.16544 5.15318
  471 141.491 -8.06143 -5.09870
  472 226.557 3.49265 25.9181
  473 62.6636 55.7027 -63.5375
  474 177.809 -0.512387 6.09494
  475 203.146 -11.9052 -14.2926
  476 105.991 -6.22016 17.7165
  477 216.610 38.4442 -12.6323
  478 177.852 -9.58538 12.1204
  479 148.522 -7.18297 -2.33730
  480 148.654 -7.06039 2.32785
  481 153.373 0.790147 -7.76305
  482 105.651 -6.19833 -17.8380
  483 157.516 0.0332597 7.82408
  484 152.193 -17.3818 -22.4654
  485 151.801 -17.4084 22.5315
  486 183.830 -1.17005 5.48736
  487 165.560 15.5764 1.64292
  488 170.483 2.63789 57.4532
  489 249.961 51.2687 -0.323648
  490 172.229 -2.80438 1.39756
  491 172.242 -2.79340 -1.43705
  492 130.811 -2.40296 -1.91149
  493 130.816 -2.38163 1.90269
  494 68.6984 3.32859 31.7294
  495 178.597 -8.56127 -14.0102
  496 161.681 -3.47129 0.386563
  497 161.665 -3.45718 -0.382110
  498 140.457 -14.9411 18.3989
  499 70.0656 4.37470 -32.5533
  500 179.027 -14.5548 -7.39952
  501 2.88572 0.239389 1.76174
  502 154.729 7.90462 0.569811
  503 172.921 -1.88866 -0.470858
  504 172.913 -1.91743 0.462474
  505 140.563 -14.9193 -18.5490
  506 203.386 -10.6022 18.6644
  507 200.674 7.29674 18.6475
  508 185.650 -1.14484 -1.38746
  509 178.477 -14.7643 7.48650
  510 109.188 -0.133041 -0.204494
  511 109.207 -0.131954 0.202370
  512 177.978 -6.79869 -14.8367
  513 171.573 12.6867 15.0565
  514 198.163 4.89801 -18.3999
  515 108.535 -0.200714 -0.674448
  516 108.559 -0.198084 0.669101
  517 350.783 50.6377 -45.5276
  518 178.738 21.3364 13.3097
  519 185.825 -1.04095 1.24028
  520 167.024 -15.8586 1.06066
  521 139.357 -4.69951 2.78481
  522 139.360 -4.73776 -2.77926
  523 195.169 -11.8397 6.50379
  524 187.022 -3.69352 -18.7838
  525 208.882 41.3677 10.3794
  526 173.193 2.96496 18.7172
  527 175.572 -3.27541 2.59580
  528 170.769 -18.1596 -21.4440
  529 176.484 -4.33216 14.5270
  530 347.155 15.8624 -6.39820
  531 193.792 -14.5742 -1.55799
  532 184.493 -1.09971 -0.353668
  533 184.535 -1.17915 0.319940
  534 350.732 23.5563 22.5114
  535 168.696 -0.0756350 15.9183
  536 238.793 39.6569 -5.82797
  537 178.589 -4.78030 -7.50653
  538 78.2683 -0.773470 -5.48271
  539 78.5317 -0.736618 5.42333
  540 119.853 -11.2597 -25.4793
  541 119.937 -11.0697 25.2806
  542 175.479 -3.13257 -2.56762
  543 190.705 7.01763 -20.4189
  544 167.413 -11.4023 3.03704
  545 179.561 20.6209 -13.8344
  546 181.768 -2.04401 7.38988
  547 229.279 11.0497 -0.916442
  548 154.791 -5.32563 -0.413432
  549 154.739 -5.30368 0.404043
  550 168.642 -7.93688 3.59801
  551 250.442 49.0409 -1.82647
  552 177.217 7.75464 19.4527
  553 75.3166 19.4572 47.0652
  554 172.477 -10.3757 38.0553
  555 229.576 10.2080 -41.7005
  556 181.228 14.9959 -18.1466
  557 161.565 -13.9005 -32.9270
  558 174.859 -19.1277 -5.68486
  559 182.922 -18.4615 -8.73375
  560 23.4172 29.8515 -28.3356
  561 183.796 -2.22483 -4.67046
  562 277.651 54.1536 -15.1660
  563 169.573 -7.59986 -3.93413
  564 171.065 -5.50457 3.23942
  565 170.903 -5.37370 -3.12201
  566 115.865 -0.729229 -1.47243
  567 115.885 -0.719709 1.46094
  568 15.5059 1.77065 -9.11950
  569 16.4671 1.85288 9.33873
  570 86.1307 -4.08530 -18.6722
  571 86.8175 -4.10625 18.6338
  572 173.386 -9.35658 -7.02537
  573 176.966 -19.2041 6.21325
  574 181.934 -17.2209 2.23837
  575 148.045 -2.62491 -0.476968
  576 148.034 -2.60420 0.474051
  577 140.906 -14.7362 -28.2079
  578 158.375 -12.9286 34.8972
  579 137.391 -13.8487 28.3837
  580 178.124 -3.93086 -18.3509
  581 109.756 -1.92197 5.57764
  582 109.703 -1.94275 -5.62925
  583 169.135 9.30345 -15.1060
  584 169.549 -0.294712 -7.05106
  585 212.549 46.4895 -4.75996
  586 137.711 -2.13735 -0.499894
  587 137.712 -2.12181 0.497079
  588 181.555 -0.517288 -4.02499
  589 123.800 -4.32280 -6.09287
  590 123.797 -4.30564 6.03436
  591 101.762 4.85891 45.1907
  592 176.709 -8.07993 -10.3168
  593 97.5675 -5.08265 32.4130
  594 173.643 -8.95937 7.15373
  595 183.234 -2.48943 5.13856
  596 181.094 -1.53293 -1.24500
  597 125.082 -1.62889 -1.34160
  598 125.094 -1.61475 1.33316
  599 203.762 40.9290 -9.27920
  600 97.5023 -4.87787 -32.5462
  601 173.077 -7.43933 -5.78688
  602 155.550 -2.86460 -0.191385
  603 155.533 -2.84140 0.190447
  604 295.969 40.0051 -6.96608
  605 101.195 -0.697066 3.09617
  606 101.105 -0.704063 -3.12811
  607 160.028 3.60770 12.9059
  608 232.274 18.9458 -4.53694
  609 108.569 0.910023 -44.8866
  610 54.4904 1.51050 -24.2583
  611 54.9686 1.18120 24.1278
  612 135.809 -8.07999 7.45589
  613 137.291 -8.31782 -7.21597
  614 234.000 47.0522 5.68564
  615 180.310 -1.59351 1.13961
  616 152.657 4.20312 -7.77486
  617 191.782 34.6550 8.39294
  618 191.038 35.9718 -5.57915
  619 157.033 -8.75955 -0.740160
  620 158.270 -8.55385 0.168813
  621 112.983 24.4436 -64.8010
  622 134.073 -4.71134 -4.08384
  623 134.080 -4.65503 4.06657
  624 348.386 71.2099 53.5104
  625 178.001 -5.79314 15.9512
  626 99.8656 -3.65655 -11.9663
  627 280.638 62.6138 40.5459
  628 100.106 -3.63443 11.9147
  629 171.159 -6.59702 -44.6214
  630 118.076 -0.645622 -0.544134
  631 118.094 -0.639923 0.540882
  632 146.834 1.26380 6.77614
  633 65.5263 -1.01821 -10.7632
  634 65.9228 -1.02057 10.6722
  635 154.969 -11.0587 2.69386
  636 162.802 -13.0941 -0.164086
  637 193.251 -0.371594 -1.70303
  638 105.822 -0.197130 0.877314
  639 105.785 -0.200483 -0.887852
  640 145.736 -3.32188 -0.661065
  641 145.727 -3.30111 0.654342
  642 168.605 -18.6503 21.7063
  643 193.194 21.6114 -18.4705
  644 127.261 -6.09536 -7.86951
  645 127.160 -5.99039 7.80735
  646 152.012 -11.0508 -4.03927
  647 241.020 52.7346 0.627826
  648 180.824 -17.4503 -1.21470
  649 156.172 -3.72287 -0.122364
  650 156.147 -3.70201 0.123329
  651 216.288 23.5466 14.7366
  652 180.999 -2.53636 -8.03569
  653 158.483 -0.224482 -6.37939
  654 72.4198 -2.46360 -23.4209
  655 72.6590 -2.53803 23.2175
  656 151.672 -13.2021 -6.81783
  657 228.425 50.7857 0.179661
  658 176.096 23.8970 -5.99452
  659 115.334 -1.12794 -2.74246
  660 115.357 -1.11190 2.71743
  661 164.953 -4.61301 -1.17400
  662 164.986 -4.62065 1.21224
  663 311.325 40.7735 17.8778
  664 196.654 -0.470902 0.481235
  665 189.246 -0.692493 2.89323
  666 188.427 -0.715396 -3.36194
  667 178.513 -16.5812 3.79748
  668 129.603 -1.57837 -0.671042
  669 129.612 -1.56620 0.667451
  670 189.973 30.5927 12.8796
  671 245.270 54.7064 -2.23087
  672 132.661 -10.0329 -11.1573
  673 132.611 -9.92983 11.0945
  674 167.251 -17.2593 -2.65154
  675 175.796 10.4405 -18.2895
  676 210.555 0.478585 8.96641
  677 137.808 -2.63009 -1.27938
  678 137.809 -2.61147 1.27288
  679 119.224 -10.5361 -23.0109
  680 176.791 -17.0700 -2.12864
  681 146.387 -16.2526 20.2567
  682 69.4329 22.0991 -45.3713
  683 136.224 -12.7417 15.6130
  684 164.184 0.0414045 5.91733
  685 119.327 -10.4139 22.8460
  686 172.972 -7.58928 5.85812
  687 136.284 -12.6914 -15.7671
  688 138.059 1.73197 1.41706
  689 106.621 -2.98777 8.46948
  690 106.523 -2.99252 -8.53564
  691 146.491 -16.6757 -20.4893
  692 181.661 -11.9195 -12.6022
  693 166.393 -2.24091 -0.294919
  694 166.419 -2.26664 0.296179
  695 185.790 -11.7726 12.5659
  696 168.587 -17.6285 3.30327
  697 205.221 18.8142 18.2218
  698 184.812 -3.41556 19.2684
  699 177.826 -6.32175 11.8817
  700 168.854 13.8511 -11.4573
  701 204.307 34.4849 14.3717
  702 176.141 -2.40917 -11.3576
  703 175.943 -5.75718 6.33430
  704 180.934 28.4389 3.24558
  705 178.833 -2.97995 9.97284
  706 55.7050 37.7318 47.4676
  707 166.590 -19.1393 -12.1670
  708 192.919 3.54395 19.6741
  709 195.082 -6.00207 -14.3886
  710 195.561 -0.200341 0.965284
  711 177.798 -6.03701 -9.45090
  712 166.808 -19.2920 10.9769
  713 327.381 28.9696 -4.87067
  714 96.9355 -0.450453 3.24443
  715 96.8141 -0.455587 -3.27812
  716 180.661 -3.17871 -4.52484
  717 196.788 -0.147410 -0.934329
  718 151.372 -13.4129 6.85623
  719 182.461 -6.73920 17.5715
  720 280.297 65.6177 -18.3434
  721 172.935 -12.5223 6.13674
  722 192.291 -12.6088 -7.95368
  723 176.016 -5.59732 -6.23551
  724 196.842 -0.276804 -0.326549
  725 177.711 0.00219357 19.8359
  726 7.96001 6.41472 9.61085
  727 202.499 -7.99679 -28.4153
  728 219.795 12.8164 9.85917
  729 182.680 -18.6154 7.66243
  730 128.287 -3.19243 3.35981
  731 128.292 -3.23867 -3.37899
  732 173.027 83.8625 -88.8341
  733 185.888 -12.2395 -11.6905
  734 137.491 0.641950 -2.70773
  735 161.854 0.858293 12.6237
  736 179.037 -8.90903 14.2545
  737 171.616 -14.4621 3.50525
  738 179.157 -16.2695 -23.3150
  739 170.516 -13.4933 -3.78681
  740 202.445 -9.70192 -3.53957
  741 186.321 -1.41350 2.66845
  742 165.433 -9.95528 2.21611
  743 303.843 60.8041 -32.0087
  744 176.874 -4.64033 5.06796
  745 174.169 2.83317 -19.2337
  746 149.589 -1.73457 50.3064
  747 186.944 15.0916 19.7594
  748 160.755 -12.7175 1.02966
  749 123.196 -9.84872 -16.7564
  750 123.199 -9.81842 16.6092
  751 170.149 19.1282 -2.67719
  752 173.688 -1.99444 17.2473
  753 175.794 -4.15597 -14.8148
  754 165.626 -10.1547 -2.27569
  755 160.024 -14.4119 3.43575
  756 182.367 30.2237 -3.68937
  757 171.398 -14.8327 -2.82664
  758 171.799 -10.8551 5.92861
  759 174.385 -2.11985 0.971908
  760 174.501 -2.05786 -0.967098
  761 234.678 51.8648 1.85931
  762 192.362 -16.3129 -4.59481
  763 178.350 -5.38881 9.39389
  764 186.429 -1.40535 -2.44256
  765 187.573 1.27612 -20.2343
  766 214.473 11.1216 -12.6952
  767 102.159 -0.123962 -1.50080
  768 102.225 -0.122361 1.48396
  769 1.39500 -3.51777 -2.51992
  770 182.011 -0.182866 3.73328
  771 165.818 -0.309668 -14.0064
  772 171.700 -1.60271 12.4312
  773 158.422 18.9337 74.2909
  774 195.566 40.4926 -0.449034
  775 138.492 -10.0689 8.56927
  776 22.8310 0.570605 -9.08761
  777 23.5691 0.424911 9.18758
  778 170.063 -1.21770 -13.9869
  779 138.894 -10.1734 -8.56370
  780 185.310 -1.55048 2.06120
  781 92.5161 -4.04778 15.9484
  782 91.6929 -4.03497 -15.9644
  783 176.871 -4.50108 -4.93944
  784 110.862 -2.92108 -7.35385
  785 110.916 -2.90058 7.28212
  786 184.384 -1.65370 -5.59874
  787 139.279 -3.80758 -2.21816
  788 139.279 -3.78065 2.21843
  789 201.508 -1.28611 -14.4909
  790 180.553 -1.86856 -19.9786
  791 89.5010 -0.608426 -4.15758
  792 89.6859 -0.602816 4.10581
  793 3.60077 2.28874 -5.37182
  794 4.44211 2.41168 5.66145
  795 144.415 0.667873 -4.92747
  796 165.095 -18.5568 -8.86610
  797 -1.94319 -1.35968 3.31112
  798 -1.68875 -1.57581 -3.26932
  799 171.964 -3.34967 2.04631
  800 186.751 -14.5162 -7.12334
  801 192.025 28.5541 -15.0633
  802 186.160 -1.38562 -1.95492
  803 405.139 80.6253 -76.1011
  804 171.929 -3.33685 -2.02095
  805 259.829 49.8807 3.68773
  806 183.634 5.36007 -20.7970
  807 203.481 15.3255 -18.5997
  808 32.2407 -0.384221 -8.44737
  809 32.9011 -0.435483 8.43048
  810 112.594 -1.71148 4.32137
  811 112.556 -1.72648 -4.36432
  812 106.881 -0.285005 0.801367
  813 106.853 -0.287897 -0.808719
  814 205.380 34.6699 -14.2878
  815 119.375 -0.809529 -1.16470
  816 119.392 -0.799970 1.15703
  817 174.237 -1.75234 -17.9895
  818 255.158 24.8279 19.8712
  819 155.716 3.40086 -10.8395
  820 52.3514 -0.487203 9.10919
  821 51.8644 -0.491543 -9.18598
  822 205.363 4.96782 52.9192
  823 180.455 -3.20579 4.67036
  824 159.574 10.5193 -4.51951
  825 72.0988 -0.136049 6.24446
  826 71.6988 -0.101442 -6.29439
  827 109.461 -0.611647 -2.10376
  828 109.498 -0.602841 2.08181
  829 19.3891 17.3829 14.5438
  830 166.893 3.93519 16.1842
  831 186.243 27.4614 -12.8392
  832 201.107 23.3565 -18.3576
  833 130.695 -5.07581 -5.43568
  834 130.611 -5.03460 5.42475
  835 207.976 44.5736 6.56659
  836 180.338 -1.36562 -0.274755
  837 180.344 -1.35494 0.306353
  838 177.823 -5.26820 -11.9369
  839 148.261 -9.99197 4.72343
  840 164.042 -18.4455 8.93562
  841 193.815 -15.8822 14.0485
  842 146.784 -4.31100 -1.16323
  843 146.779 -4.29233 1.15289
  844 167.771 15.5213 7.34353
  845 157.251 2.08678 -11.7239
  846 43.7691 49.8509 49.4022
  847 160.542 -14.2973 -3.03400
  848 161.018 -7.20496 0.869360
  849 161.106 -7.21582 -0.876873
  850 177.169 -2.58543 18.9675
  851 176.059 -11.5331 -9.18460
  852 156.738 -10.4536 -1.47455
  853 365.355 11.8432 -18.3395
  854 148.868 -14.1954 9.64959
  855 148.758 -14.3847 -9.81720
  856 177.097 -2.08439 9.67524
  857 268.724 68.9913 -13.8741
  858 139.408 -12.8064 -12.3044
  859 154.592 -17.4684 11.4688
  860 139.358 -12.6477 12.1877
  861 151.331 -6.14764 -1.26797
  862 151.322 -6.12387 1.25587
  863 21.6606 9.47650 12.6845
  864 190.431 14.2505 -20.0858
  865 144.965 -5.74121 -2.31334
  866 144.989 -5.68037 2.32269
  867 143.011 -2.39982 -0.274357
  868 143.006 -2.38169 0.272090
  869 158.017 -3.10098 0.141571
  870 157.997 -3.07845 -0.142218
  871 127.166 -2.59290 -2.92057
  872 127.172 -2.56257 2.90613
  873 145.583 -7.77414 -3.60736
  874 145.598 -7.71664 3.62253
  875 3.35255 -1.93038 -1.22518
  876 221.227 41.5066 11.1463
  877 190.220 -6.62070 -16.4096
  878 154.481 -17.2179 -11.6032
  879 167.092 -5.33163 2.03073
  880 167.015 -5.27287 -1.98063
  881 182.103 0.257101 20.4005
  882 199.222 -14.2206 -7.15361
  883 176.764 11.9773 -64.2818
  884 78.6148 -1.16902 31.4581
  885 -3.54674 1.83626 -1.93878
  886 -3.13599 2.06895 2.17634
  887 21.4909 10.0805 -12.9394
  888 178.355 -5.04106 7.47458
  889 188.241 -1.13522 -3.17258
  890 169.026 -16.1969 27.0071
  891 78.4223 -1.07698 -31.5916
  892 188.384 -15.3504 5.32623
  893 210.841 -6.50354 23.0137
  894 149.990 0.588133 5.23011
  895 173.171 16.4719 12.5461
  896 92.7481 -5.27558 23.2399
  897 92.3786 -5.31881 -23.4055
  898 111.397 -5.44338 -12.9952
  899 118.162 -5.66846 -40.2486
  900 188.106 -4.34780 18.2542
  901 259.982 60.4817 7.58020
  902 188.631 7.28928 20.4824
  903 178.335 -3.74638 -10.8573
  904 120.712 -5.07975 41.2585
  905 228.114 41.9157 -8.65674
  906 21.8717 18.7987 -18.0201
  907 163.711 -0.347254 -5.64450
  908 111.514 -5.39669 12.8702
  909 136.690 -3.08834 1.97235
  910 136.689 -3.11137 -1.97795
  911 176.325 -11.4725 9.46283
  912 183.780 -1.03570 0.816099
  913 134.643 1.30974 -50.1733
  914 194.085 -0.380722 1.50667
  915 192.460 -0.306952 -1.90106
  916 140.939 1.18313 -4.52017
  917 185.442 -0.733904 -3.32082
  918 137.273 -6.55583 -4.92490
  919 137.365 -6.45388 4.93838
  920 -4.73541 1.62594 -2.75465
  921 -6.43125 0.979762 2.87488
  922 183.782 -0.953851 -0.820909
  923 59.0301 -1.30640 21.2006
  924 58.6484 -1.17233 -21.3291
  925 195.306 28.5919 15.9528
  926 356.593 6.41812 5.71693
  927 183.533 20.4649 16.5714
  928 209.770 -7.52073 5.50175
  929 181.285 -10.0404 14.4213
  930 226.003 47.4838 -6.57372
  931 137.724 0.530950 3.40386
  932 174.547 -4.00222 -3.16723
  933 180.719 9.72116 -20.0355
  934 220.199 6.25032 -5.15848
  935 169.885 -10.4797 -4.78174
  936 84.4575 -0.504002 -4.66626
  937 84.5562 -0.486338 4.59680
  938 179.491 -4.13336 -8.61905
  939 5.63092 7.26624 1.09429
  940 172.250 -17.8487 -0.866017
  941 147.240 4.25496 -0.467408
  942 224.261 49.5679 -4.37315
  943 34.6557 25.8550 -30.3608
  944 171.717 -1.27412 -11.1406
  945 117.491 -2.06279 -4.01380
  946 117.510 -2.03760 3.97580
  947 0.921514 -5.03134 3.87257
  948 115.759 -8.74796 -18.6586
  949 175.394 -10.0953 -8.88811
  950 106.397 0.226644 -0.327389
  951 106.418 0.227909 0.324783
  952 176.259 21.4171 -10.0774
  953 191.129 -0.457593 -0.306096
  954 191.128 -0.466404 0.396618
  955 115.804 -8.72121 18.5223
  956 177.199 -0.214126 -4.42989
  957 204.910 1.46537 14.0575
  958 181.635 -2.44938 3.63932
  959 27.8762 7.33796 -16.2210
  960 188.659 -1.04872 2.88488
  961 169.617 1.33248 17.3716
  962 178.925 24.8533 8.96788
  963 179.474 2.08580 -20.5292
  964 122.459 -6.71946 -11.0705
  965 194.541 -6.83340 13.9236
  966 122.536 -6.69061 10.9496
  967 5.32814 5.93366 -0.113785
  968 20.1821 3.66593 11.8670
  969 98.9949 -1.83374 7.68207
  970 98.8684 -1.83663 -7.73088
  971 174.667 -4.08448 3.32274
  972 186.917 32.6690 4.99974
  973 94.8272 8.84246 -47.3607
  974 156.422 -9.83209 1.22913
  975 146.783 -15.4254 -14.8016
  976 214.836 41.2987 11.3322
  977 165.002 -2.83858 0.409981
  978 164.997 -2.82118 -0.410635
  979 181.281 -3.25472 -6.25582
  980 166.140 14.2997 -6.77796
  981 386.866 113.034 76.3501
  982 33.4572 2.00449 -15.8164
  983 34.0301 1.66908 15.8566
  984 2.48407 -3.88568 0.497295
  985 166.752 9.18893 13.9115
  986 146.724 -15.5158 14.6844
  987 182.520 -8.57567 -16.2934
  988 198.689 16.2674 19.9779
  989 191.809 -15.4830 -17.5450
  990 280.762 59.2087 18.9373
  991 161.853 -2.55241 -0.0166116
  992 161.831 -2.52904 0.0169668
  993 190.071 -7.68892 15.6098
  994 12.8753 19.9203 21.7075
  995 83.2908 -1.81964 11.0366
  996 83.0135 -1.79661 -11.1649
  997 100.227 -5.03443 15.0400
  998 99.8703 -4.96050 -15.1040
  999 113.181 -4.80247 10.7387
  1000 123.712 -1.05222 -0.536197
  1001 123.726 -1.04397 0.533679
  1002 318.778 99.1742 -62.4539
  1003 286.084 71.5934 28.4294
  1004 113.089 -4.82918 -10.8377
  1005 195.834 -0.860870 17.1776
  1006 174.017 18.0635 -12.0986
  1007 122.914 -10.5092 33.3327
  1008 158.676 -18.7330 -17.5312
  1009 181.499 -1.44139 -6.54414
  1010 80.8430 5.74300 38.4293
  1011 103.824 -7.95497 26.6451
  1012 158.982 8.07616 -8.68913
  1013 183.386 -3.59350 -19.4609
  1014 239.187 92.6702 101.893
  1015 149.677 4.50174 6.16431
  1016 205.800 44.6781 -0.785793
  1017 152.064 5.83245 -57.0981
  1018 153.703 -16.2594 -9.82964
  1019 197.026 -0.147218 -0.766706
  1020 187.352 17.2386 -19.2549
  1021 107.639 -0.753546 2.72541
  1022 107.590 -0.761329 -2.75408
  1023 3.84825 1.04440 -5.17834
  1024 122.475 -5.74130 -9.20845
  1025 103.703 -8.05905 -26.8596
  1026 122.370 -5.72595 9.09739
  1027 179.155 -5.41440 17.9926
  1028 160.539 -9.96364 0.266447
  1029 168.091 3.05582 -16.8074
  1030 172.894 21.6233 3.52882
  1031 237.905 13.6824 6.79228
  1032 177.740 -13.4667 9.11460
  1033 111.012 -8.99021 -20.4206
  1034 166.543 5.84353 -15.7000
  1035 124.039 -10.3623 -33.5255
  1036 239.851 52.4507 -0.664318
  1037 161.548 10.5459 7.90404
  1038 206.605 -1.26846 -11.0892
  1039 154.668 -16.2609 8.97054
  1040 177.546 -5.57568 13.9876
  1041 176.532 -9.27350 10.3137
  1042 175.568 -8.78139 8.99740
  1043 217.415 27.4975 -15.0898
  1044 174.953 -2.79285 14.0642
  1045 158.388 -18.7858 17.2358
  1046 169.089 -6.86672 3.25615
  1047 111.079 -9.00492 20.2947
  1048 158.451 -11.7516 -1.55684
  1049 91.0674 -4.38735 -28.5078
  1050 130.951 -13.6516 22.4981
  1051 178.399 -1.16737 -7.55833
  1052 173.418 -1.94489 -15.9225
  1053 150.045 -11.9821 -5.84053
  1054 91.2270 -4.52159 28.2695
  1055 160.954 0.357578 -10.9751
  1056 119.318 -8.07122 -14.3925
  1057 218.638 46.8207 7.26566
  1058 47.5782 8.13000 -26.7800
  1059 381.323 26.9866 37.1302
  1060 86.7070 6.67725 -40.2918
  1061 175.580 -14.5223 -5.92688
  1062 119.345 -7.99899 14.2649
  1063 159.123 1.62558 12.2411
  1064 87.8669 -1.85025 9.13080
  1065 87.8148 -1.89664 -9.22955
  1066 177.448 -4.90514 -16.6573
  1067 190.002 -0.845266 1.22862
  1068 185.586 -0.377418 3.36442
  1069 182.965 6.10171 20.7279
  1070 170.758 -1.28592 14.9227
  1071 133.124 14.0482 61.8187
  1072 198.379 -0.106883 0.384516
  1073 183.854 24.9961 13.1975
  1074 154.572 2.17534 10.5225
  1075 188.167 -0.673088 3.24627
  1076 118.567 -1.35836 -2.22314
  1077 118.584 -1.34250 2.20646
  1078 74.8138 -2.17924 -15.2116
  1079 75.1301 -2.25727 15.0975
  1080 155.058 7.65031 4.40743
  1081 238.942 12.1065 -15.7422
  1082 219.485 -0.742314 -31.7263
  1083 172.604 -0.139250 -4.57413
  1084 131.016 -13.7558 -22.6761
  1085 150.358 -11.3944 5.16059
  1086 173.666 -0.385798 4.77673
  1087 182.620 -13.1947 -10.6592
  1088 111.403 -0.298453 1.34311
  1089 111.379 -0.303463 -1.35264
  1090 175.240 -14.9386 5.92531
  1091 166.388 -3.32333 0.751890
  1092 166.361 -3.32577 -0.739665
  1093 161.794 -16.3475 5.33533
  1094 210.096 -6.87080 -0.857815
  1095 91.8945 -0.177355 -2.58555
  1096 92.0537 -0.171168 2.55567
  1097 142.148 -8.87775 -38.4076
  1098 150.496 -3.60310 0.563276
  1099 150.513 -3.62556 -0.570328
  1100 91.5037 48.4074 67.8789
  1101 210.296 17.1615 -16.7911
  1102 29.9535 14.8766 -19.9307
  1103 181.763 -2.59102 -3.52057
  1104 47.3722 16.5680 -30.6830
  1105 99.1387 -6.34576 -19.4298
  1106 198.535 -0.156939 0.225696
  1107 198.627 -0.143501 -0.169036
  1108 178.302 -10.1306 -12.4163
  1109 157.944 -17.6708 -24.3650
  1110 47.5969 6.91999 25.5196
  1111 193.822 19.2293 18.8618
  1112 176.454 -1.64447 -0.333223
  1113 176.471 -1.64660 0.351072
  1114 193.606 -12.5908 29.4409
  1115 198.175 39.9506 7.32243
  1116 115.961 -2.91188 -5.77793
  1117 115.987 -2.89682 5.73161
  1118 88.7930 10.3187 47.7754
  1119 167.698 0.821620 -16.2848
  1120 51.8617 16.9693 33.0607
  1121 218.332 -3.97730 -8.78435
  1122 212.575 47.4080 2.29309
  1123 145.570 -11.6521 7.27432
  1124 132.273 0.644674 -0.662921
  1125 186.365 -1.55400 4.21814
  1126 193.362 -0.193607 1.65283
  1127 39.9388 0.0892971 -7.62267
  1128 40.5472 0.0680283 7.56730
  1129 149.452 2.41363 -7.77907
  1130 155.481 -4.57730 -0.227560
  1131 155.442 -4.55280 0.224950
  1132 16.0735 23.2313 -23.0432
  1133 25.8510 52.9360 -47.1754
  1134 157.560 -6.16888 -0.0252090
  1135 157.627 -6.17177 0.0178083
  1136 163.046 -3.87774 0.833942
  1137 163.023 -3.86754 -0.818396
  1138 41.9931 26.9487 33.1238
  1139 127.055 -1.64835 -1.04377
  1140 127.066 -1.63557 1.03777
  1141 160.628 12.0737 -0.188916
  1142 209.560 24.8389 -71.5258
  1143 197.404 34.1851 -12.5353
  1144 180.361 -6.88214 -17.0907
  1145 177.724 -8.81081 -12.5306
  1146 145.678 -11.7647 -7.40270
  1147 145.084 0.440111 4.80251
  1148 164.492 10.1952 -11.6206
  1149 162.075 8.65107 11.0820
  1150 168.975 -6.66155 -3.20128
  1151 160.964 -9.75860 -0.381683
  1152 145.814 -9.55537 -5.38116
  1153 174.124 -1.00464 8.90874
  1154 312.610 31.6549 4.44063
  1155 175.417 -3.71388 16.2391
  1156 175.645 11.5347 17.5676
  1157 162.567 -16.0553 -3.78279
  1158 19.0272 3.37674 -11.4315
  1159 165.621 -7.64298 -2.45179
  1160 107.194 -0.201356 -0.0594401
  1161 107.212 -0.200591 0.0585565
  1162 202.900 -5.37072 9.63114
  1163 193.406 -16.2511 5.74701
  1164 278.631 50.1943 11.8625
  1165 63.5407 -0.156234 -6.39134
  1166 63.9599 -0.141968 6.33901
  1167 147.095 -3.00029 -0.518619
  1168 147.085 -2.97949 0.513600
  1169 166.192 -14.6968 0.376150
  1170 133.525 0.561226 2.16611
  1171 170.278 -12.1198 4.64009
  1172 9.16776 10.9063 -4.83194
  1173 29.6764 15.0668 19.5079
  1174 113.201 -6.03187 37.1508
  1175 196.504 37.6682 -8.93825
  1176 188.898 -0.492652 -2.56013
  1177 199.422 -0.286324 0.165097
  1178 199.639 -0.404111 -0.111695
  1179 111.972 -0.316973 -0.210969
  1180 111.992 -0.314595 0.209006
  1181 181.051 11.5983 20.0150
  1182 270.450 46.6139 -0.983435
  1183 186.327 30.9585 -8.97424
  1184 139.706 -10.1634 38.1567
  1185 112.595 -5.78121 -37.0846
  1186 124.624 -8.51328 -12.8485
  1187 174.731 -4.78702 4.18052
  1188 244.827 53.6891 0.414574
  1189 124.626 -8.45875 12.7377
  1190 178.790 -2.99666 3.16765
  1191 157.595 5.77317 10.5602
  1192 174.783 5.39835 19.1715
  1193 251.155 56.2464 4.81361
  1194 147.400 -3.88821 0.984620
  1195 147.410 -3.90954 -0.993831
  1196 181.018 -3.28961 6.48985
  1197 104.599 -1.19213 4.29329
  1198 104.524 -1.20466 -4.33681
  1199 177.170 -2.27754 -1.48944
  1200 72.2774 42.7757 -65.4121
  1201 153.337 -8.58143 -40.8360
  1202 143.182 -4.57103 -1.99005
  1203 143.193 -4.54768 1.99034
  1204 190.877 -0.788291 1.08978
  1205 179.948 -2.22029 2.54228
  1206 9.40277 11.4575 8.20523
  1207 196.731 -0.178771 0.889122
  1208 22.6212 28.1089 27.8860
  1209 175.563 -2.49311 -1.89813
  1210 -0.279154 -4.38157 -3.82429
  1211 123.071 -11.9947 -28.7041
  1212 122.704 -11.6989 28.4041
  1213 196.730 -0.308870 -0.975447
  1214 166.706 -8.78502 -2.86611
  1215 190.708 -0.707153 -1.13435
  1216 150.829 -4.92019 -0.814603
  1217 150.809 -4.89891 0.800799
  1218 177.051 -2.25893 1.40668
  1219 165.499 -7.49593 2.42603
  1220 158.978 -5.09995 -0.411013
  1221 159.039 -5.11724 0.432448
  1222 190.575 -0.729691 -0.931769
  1223 163.713 -17.1586 -27.5504
  1224 186.210 -1.00900 -0.970807
  1225 176.348 -2.56847 2.01961
  1226 120.576 -1.41430 -1.62363
  1227 120.592 -1.39996 1.61219
  1228 135.624 -2.05699 -0.779226
  1229 135.627 -2.04137 0.774300
  1230 223.019 34.6443 12.9246
  1231 187.198 -14.3079 8.27703
  1232 127.814 -0.506779 47.2920
  1233 99.7284 -0.199532 1.64568
  1234 99.6425 -0.201536 -1.66411
  1235 176.666 -3.22141 12.2712
  1236 169.393 -2.45236 0.486148
  1237 169.403 -2.44278 -0.485819
  1238 193.215 37.8693 4.15253
  1239 178.232 -18.6082 21.4847
  1240 100.298 -1.49808 6.06965
  1241 100.194 -1.51022 -6.11946
  1242 169.070 -4.04111 1.74536
  1243 169.033 -4.06767 -1.70317
  1244 174.641 -4.72303 -4.04012
  1245 158.713 0.0195829 5.68896
  1246 279.412 69.3561 -21.9566
  1247 177.703 -6.43478 -11.0555
  1248 29.2440 7.23564 16.7093
  1249 183.712 -9.72745 15.3027
  1250 145.126 3.07579 -4.25029
  1251 10.5237 8.11982 5.70188
  1252 244.192 26.3877 -0.0946227
  1253 179.234 -8.10343 -15.3261
  1254 145.864 1.99366 6.50403
  1255 99.8612 -6.35395 19.3838
  1256 182.387 -14.0607 9.62383
  1257 267.444 49.4632 13.4644
  1258 59.9497 9.09262 32.6083
  1259 183.503 -2.06995 -5.57522
  1260 359.691 3.96489 -3.68196
  1261 372.256 5.64350 16.5099
  1262 398.416 13.8065 -39.0518
  1263 177.329 -5.47749 -13.5882
  1264 177.484 -8.04033 11.7563
  1265 180.472 -12.7895 11.2124
  1266 -5.34113 0.557083 3.43169
  1267 -4.87871 0.427953 -3.71384
  1268 175.897 -19.3798 -9.42144
  1269 180.461 -18.1787 -14.6288
  1270 134.568 0.813453 -2.68025
  1271 175.228 -19.7445 14.6762
  1272 186.967 -8.81062 -15.5662
  1273 3.20216 5.36070 0.190152
  1274 150.941 -2.75051 0.437537
  1275 150.954 -2.77230 -0.438706
  1276 186.306 -1.38134 3.83793
  1277 178.792 -2.93949 -2.98885
  1278 167.958 -18.3480 -4.57976
  1279 152.698 -8.34615 1.93297
  1280 151.899 -8.23355 -2.17646
  1281 180.159 -3.72173 8.76033
  1282 184.555 -6.72774 -17.6598
  1283 10.9338 8.46739 -5.45994
</Section>

newXOutput 25

<Section columns = "stress_xx | stress_yy | stress_xy">
  1 209.253 0.00537178 0.433228
  2 209.271 0.00768946 -0.434836
  3 109.854 -0.0570626 -0.157172
  4 -1.41074 -1.40162 -2.02681
  5 385.767 146.567 120.470
  6 382.052 152.200 -121.112
  7 -1.63647 -1.33794 2.14835
  8 109.836 -0.0575226 0.156666
  9 210.826 -0.327462 0.139874
  10 210.328 -0.527748 -0.0864187
  11 209.754 -0.330590 0.518277
  12 209.186 -0.474944 0.177895
  13 207.976 -0.392159 0.818205
  14 206.888 -0.401183 0.617194
  15 204.394 -0.357040 1.16464
  16 200.911 -0.218014 1.70775
  17 197.787 -0.248809 1.88406
  18 193.221 -0.378116 2.25913
  19 186.971 -0.00251786 3.31489
  20 181.194 -0.279688 3.13005
  21 174.718 -0.381351 4.38231
  22 165.351 0.273389 3.79185
  23 158.647 0.389482 4.46489
  24 149.910 0.670581 3.47740
  25 143.900 0.669083 3.49801
  26 135.184 0.969672 1.77825
  27 133.365 1.53238 1.90087
  28 132.278 1.23714 -0.559201
  29 133.785 0.683899 -1.23925
  30 136.550 0.687988 -1.51655
  31 143.073 0.886018 -3.03498
  32 149.407 0.698716 -3.85609
  33 158.769 0.129535 -4.58370
  34 166.272 -0.106276 -4.20000
  35 174.325 -0.306112 -4.14933
  36 181.645 -0.216584 -2.94314
  37 187.990 -0.218589 -2.53333
  38 193.261 -0.366986 -2.14142
  39 198.016 -0.252050 -1.51384
  40 201.029 -0.288967 -1.61614
  41 203.937 -0.373937 -1.18601
  42 206.724 -0.450334 -0.543502
  43 208.166 -0.356695 -0.622809
  44 208.965 -0.200943 -0.398723
  45 208.490 -0.0822432 -0.362504
  46 210.567 -0.538020 0.0510912
  47 210.903 -0.343491 -0.144448
  48 203.552 -0.0725601 -0.267219
  49 198.700 -0.733653 -0.467153
  50 192.816 -1.10586 -0.325841
  51 185.669 -1.69731 -0.440894
  52 178.931 -1.87762 -0.556550
  53 171.765 -2.41148 -0.525149
  54 165.445 -2.71811 -0.305302
  55 159.905 -3.08994 -0.131535
  56 153.523 -2.57727 -0.132622
  57 146.169 -2.43377 -0.190348
  58 139.074 -1.94422 -0.0753903
  59 132.344 -1.26345 -0.0364283
  60 125.935 -0.917075 -0.00408596
  61 120.294 -0.491932 0.0477279
  62 114.500 -0.148610 -0.182062
  63 109.937 0.150330 0.204893
  64 107.916 0.454199 0.129362
  65 109.372 -0.00548356 0.321113
  66 107.897 -0.0743383 0.383044
  67 106.564 -0.104962 0.479168
  68 104.734 -0.0241828 0.633915
  69 102.422 -0.0145037 0.805226
  70 100.772 -0.158373 1.58012
  71 95.8110 0.142033 1.73104
  72 92.3580 -0.0176112 1.99773
  73 87.2131 -0.101034 2.26184
  74 81.2670 -0.165246 2.75858
  75 73.8426 -0.0432184 3.34922
  76 64.7875 0.0377648 3.68076
  77 57.0641 -0.0957906 5.25288
  78 41.6320 0.500462 4.93042
  79 31.2349 0.433125 5.21903
  80 18.8816 -0.0737268 5.75116
  81 8.72776 0.996086 5.92862
  82 -2.77996 1.46263 3.45871
  83 -11.0167 1.47926 1.10613
  84 -10.4094 1.39792 -0.718732
  85 -9.62746 1.14880 -2.94949
  86 -5.62868 -0.414273 -2.75567
  87 -0.720581 -5.40425 -3.02807
  88 0.480782 -10.0250 -3.84320
  89 1.41340 -16.1194 -2.28616
  90 3.18461 -17.0084 -0.184460
  91 6.80353 -5.89613 8.52463
  92 20.6511 28.4096 30.2709
  93 125.474 110.437 106.988
  94 465.426 68.8260 78.7526
  95 417.632 9.91668 25.9051
  96 386.703 4.05342 7.92763
  97 375.251 3.41047 0.635035
  98 381.200 4.58105 -6.82398
  99 416.444 9.16499 -20.4760
  100 495.378 33.2446 -68.4530
  101 73.9884 111.968 -88.9800
  102 15.4903 18.2904 -24.7929
  103 7.40471 -5.15025 -8.80027
  104 2.96632 -17.1597 -1.18509
  105 0.779448 -12.3859 2.65366
  106 1.02787 -12.6076 3.35418
  107 0.0294111 -4.69566 3.34986
  108 -5.86915 -0.289025 2.62514
  109 -9.93700 0.861804 2.58564
  110 -10.9522 1.70353 0.781330
  111 -11.3843 1.46131 -1.00712
  112 -3.56063 1.49928 -3.22704
  113 8.02775 1.00521 -5.64483
  114 18.1650 0.0300815 -5.65597
  115 30.4995 0.468685 -5.23228
  116 40.9637 0.514312 -4.97133
  117 56.5451 -0.0979376 -5.30109
  118 64.3420 0.0427173 -3.71960
  119 73.4546 -0.0413876 -3.39439
  120 81.0658 -0.181904 -2.78210
  121 86.9487 -0.0968544 -2.26944
  122 92.1593 -0.0110784 -2.02054
  123 95.6500 0.140080 -1.75234
  124 100.659 -0.159815 -1.59822
  125 102.333 -0.0154440 -0.816443
  126 104.669 -0.0250618 -0.643184
  127 106.517 -0.106402 -0.486556
  128 107.863 -0.0755689 -0.388234
  129 109.347 -0.00657443 -0.324460
  130 107.895 0.453500 -0.130946
  131 109.918 0.150010 -0.205866
  132 114.480 -0.149875 0.181467
  133 120.275 -0.495089 -0.0489791
  134 125.918 -0.924116 0.00260687
  135 132.331 -1.27327 0.0349876
  136 139.068 -1.95834 0.0739930
  137 146.171 -2.45151 0.189268
  138 153.532 -2.59766 0.131618
  139 159.921 -3.11246 0.131159
  140 165.465 -2.74046 0.306083
  141 171.792 -2.43181 0.527388
  142 178.952 -1.89184 0.564659
  143 185.682 -1.70999 0.479287
  144 192.847 -1.03792 0.333316
  145 198.841 -0.711285 0.457082
  146 203.579 -0.103844 0.263425
  147 180.724 -16.9657 -2.27457
  148 180.582 -16.7396 2.34020
  149 188.756 27.2026 -9.83576
  150 202.087 11.9510 21.1059
  151 152.943 -14.6278 -32.9435
  152 154.154 -14.6196 31.8458
  153 147.583 -6.37576 3.63866
  154 147.600 -6.46826 -3.64364
  155 214.940 7.66171 -16.6795
  156 180.236 -6.40948 4.71224
  157 180.162 -6.24922 -4.65172
  158 232.998 52.4090 2.91820
  159 183.964 -0.292715 -20.3629
  160 135.307 -10.8122 -14.6483
  161 135.299 -10.7179 14.5080
  162 184.446 -4.14125 18.5009
  163 174.314 12.6714 12.0088
  164 71.3470 11.7370 -39.2784
  165 79.3391 11.0994 41.4256
  166 227.678 2.37214 3.54010
  167 185.206 -7.04541 -13.0914
  168 246.028 54.1008 -2.39918
  169 166.409 -4.66928 0.377619
  170 166.371 -4.65183 -0.361181
  171 187.963 -2.13680 -2.08422
  172 188.604 -1.90224 1.80933
  173 129.067 -1.95159 -2.25289
  174 129.079 -1.93040 2.23885
  175 202.900 -5.66527 41.8138
  176 168.502 6.91955 -12.9190
  177 109.632 -8.29876 -23.8239
  178 109.964 -8.23670 23.6543
  179 122.886 -4.17605 -7.68761
  180 122.892 -4.12610 7.62328
  181 186.167 -4.81997 11.1195
  182 168.855 -11.6403 0.365457
  183 168.232 -11.5532 -0.0768357
  184 192.926 -18.5979 -2.01318
  185 193.894 -17.7164 -0.410725
  186 267.297 62.7945 -7.79162
  187 192.551 31.0652 9.22014
  188 193.318 11.8921 -21.0073
  189 202.358 -2.11249 -48.8446
  190 192.347 -10.8095 -15.1313
  191 193.968 -7.69261 17.6358
  192 161.287 -18.3439 15.7352
  193 161.352 -18.2192 -15.6804
  194 171.634 2.14233 15.5771
  195 77.5068 -1.80996 -29.0455
  196 77.7103 -1.98575 28.8549
  197 302.666 45.5736 6.44951
  198 182.014 -10.8058 8.50592
  199 189.045 -3.37802 -7.33069
  200 148.453 -3.69610 -1.58996
  201 148.452 -3.67484 1.58343
  202 180.668 -2.33083 -14.2107
  203 206.163 30.3444 -17.0355
  204 171.223 15.3380 -2.41313
  205 110.275 -4.04402 10.9281
  206 110.100 -4.05878 -11.0184
  207 192.218 -2.01401 4.10567
  208 186.090 3.50452 20.9112
  209 150.779 -11.1298 -6.71314
  210 149.693 -10.5417 6.91482
  211 220.289 32.6715 16.0341
  212 261.050 34.7191 3.68808
  213 16.7821 13.4070 -10.4297
  214 15.4942 12.3945 8.82615
  215 106.326 30.1641 70.0179
  216 180.155 -11.9497 -6.73969
  217 192.982 -1.93636 -3.71371
  218 169.574 1.43964 -14.3366
  219 117.468 -1.25364 -3.39522
  220 117.503 -1.23912 3.36149
  221 161.534 -7.63406 -0.968195
  222 161.608 -7.67722 0.874193
  223 182.355 -2.43446 12.1335
  224 211.650 -12.2971 3.30159
  225 208.527 42.9335 -4.99958
  226 163.545 -15.8850 -7.01493
  227 207.977 -3.59069 14.1561
  228 176.687 -2.86250 0.872539
  229 176.692 -2.83666 -0.871072
  230 162.282 -15.8074 7.33863
  231 186.499 -11.7793 12.4236
  232 265.096 32.9186 -14.4419
  233 57.2833 34.1512 -50.1251
  234 155.821 5.37262 3.05833
  235 186.524 16.4686 17.5743
  236 199.723 -1.36152 -19.0621
  237 186.239 -6.66130 -17.4137
  238 97.1989 -3.23315 -13.7622
  239 97.5526 -3.18264 13.7102
  240 186.632 -2.19384 -9.46980
  241 177.952 -4.41823 2.59562
  242 177.868 -4.40959 -2.51960
  243 36.0276 3.49491 -18.2460
  244 36.6562 3.06632 18.1902
  245 199.221 -17.3851 -14.1569
  246 197.297 -0.578040 0.611538
  247 197.533 -0.590375 -0.650645
  248 181.966 15.0748 -16.0471
  249 159.133 2.97084 9.32159
  250 341.199 54.6883 36.5405
  251 338.615 38.5632 -23.0176
  252 242.151 52.6350 -0.689045
  253 150.988 -7.19729 44.0638
  254 138.335 -4.58287 -46.1454
  255 158.119 -3.24381 -0.460483
  256 158.102 -3.22054 0.455939
  257 130.115 -3.61023 4.60152
  258 130.120 -3.66200 -4.64797
  259 191.772 -1.97653 5.95339
  260 185.770 -13.1860 -10.4073
  261 117.881 -0.266871 -0.778047
  262 117.903 -0.262596 0.772284
  263 183.417 -7.35363 -8.22164
  264 75.8230 -2.52503 -19.0313
  265 76.1763 -2.53366 18.8832
  266 185.571 -7.99168 14.0945
  267 141.090 -14.9776 26.4621
  268 141.478 -15.2472 -26.3833
  269 158.250 5.96093 -4.33807
  270 136.521 -2.17458 -1.51135
  271 136.529 -2.15851 1.50435
  272 172.985 -0.458086 11.5457
  273 207.606 38.2122 11.8609
  274 109.083 -1.41124 5.82930
  275 108.998 -1.42372 -5.88451
  276 190.997 -15.8867 7.71772
  277 176.812 -19.7784 -17.2022
  278 197.925 -0.840510 1.94227
  279 135.398 -8.19543 -9.93320
  280 135.143 -8.10041 9.88973
  281 246.025 24.0017 61.9294
  282 113.361 -9.11556 31.7475
  283 183.552 25.8391 -1.04743
  284 234.564 25.6106 -11.3225
  285 175.924 -13.6207 3.17217
  286 176.903 -20.3271 15.4006
  287 113.735 -8.95977 -32.1307
  288 20.6659 25.4335 22.7406
  289 183.447 -7.38340 8.36804
  290 241.809 31.2623 9.29306
  291 199.613 -0.748317 -1.68353
  292 178.879 6.22444 -18.4664
  293 177.302 -10.0060 4.85987
  294 173.519 -14.6769 -0.427852
  295 178.156 8.15319 17.7682
  296 190.048 -15.8995 -6.99526
  297 270.106 52.8882 -4.19958
  298 177.253 -9.61364 -4.65756
  299 147.830 41.5086 -86.2622
  300 181.517 -19.2168 -2.48311
  301 180.201 -19.7370 4.57754
  302 131.209 -11.9830 -20.8303
  303 116.838 -0.496329 -1.70725
  304 116.866 -0.487767 1.69154
  305 131.254 -11.9894 20.7080
  306 191.658 -0.299641 -21.1891
  307 207.806 -8.58455 -9.84263
  308 156.970 -9.55817 -3.28505
  309 156.853 -9.57921 3.35174
  310 189.438 -16.2999 28.0234
  311 188.234 -1.45740 7.17491
  312 230.470 0.695231 8.64368
  313 153.563 -5.48920 -1.74797
  314 153.570 -5.46784 1.73515
  315 139.215 -3.72663 -2.94635
  316 139.211 -3.68960 2.94029
  317 157.390 2.05390 -9.02044
  318 204.559 14.9953 -20.5282
  319 319.334 85.6876 -39.8098
  320 186.857 -1.50636 -0.716545
  321 186.739 -1.48482 0.732836
  322 98.8044 -0.0295208 39.6112
  323 138.626 -6.43304 -6.45527
  324 138.343 -6.40703 6.47027
  325 98.7905 -0.250662 -39.4611
  326 194.432 22.9960 -17.2398
  327 218.924 10.7624 15.9833
  328 189.517 -13.5303 -31.2384
  329 173.226 -6.65248 2.34129
  330 173.042 -6.59954 -2.26140
  331 185.382 -3.73161 -4.10454
  332 173.123 -0.345706 -10.8036
  333 195.337 0.884141 20.8386
  334 195.576 -1.28606 -4.12894
  335 115.586 -7.16646 15.9262
  336 115.460 -7.20919 -16.0602
  337 181.115 -0.418638 19.2941
  338 109.600 -0.959870 -3.43496
  339 109.670 -0.950629 3.39987
  340 186.695 -4.19414 6.22731
  341 223.659 45.8722 -9.13414
  342 185.271 -3.76389 4.24916
  343 196.682 24.7766 17.3327
  344 188.437 -3.47020 20.1942
  345 148.229 -2.81830 0.549340
  346 148.232 -2.83756 -0.554186
  347 177.773 -0.650304 -17.1033
  348 236.714 49.9082 6.36900
  349 195.733 36.0739 0.363375
  350 120.134 14.0408 -59.2058
  351 11.5055 5.39189 -7.65852
  352 12.7177 5.82676 8.28519
  353 -0.831590 1.25289 3.81968
  354 -0.0541873 0.625663 -3.96888
  355 350.490 24.2948 8.46080
  356 162.302 -13.2719 -3.84559
  357 186.863 -4.04593 -6.07999
  358 168.022 -2.89755 0.368534
  359 168.002 -2.87197 -0.369231
  360 179.106 19.7882 -8.68156
  361 153.130 -15.7088 12.9222
  362 12.9562 19.1378 -13.8061
  363 153.297 -15.7099 -13.1788
  364 181.539 20.6600 9.23963
  365 186.173 -4.89808 -10.6144
  366 197.849 -10.9839 -13.1531
  367 209.938 44.6438 3.45904
  368 198.369 -12.3210 11.0853
  369 79.7376 -2.05844 12.7698
  370 79.2288 -2.01926 -12.8612
  371 44.5936 1.16860 -17.5526
  372 45.1119 0.978585 17.4705
  373 160.026 0.455274 9.14039
  374 310.244 89.6259 33.2783
  375 192.829 -1.16584 -5.17315
  376 148.991 -12.7317 -9.83078
  377 148.850 -12.6932 9.81600
  378 184.880 -4.21902 -13.2950
  379 211.762 -10.2319 2.90875
  380 162.295 -13.2572 3.98262
  381 233.343 1.26455 -17.4601
  382 128.874 -1.10692 -0.550509
  383 128.889 -1.09686 0.545425
  384 181.502 -1.03671 -8.41545
  385 95.7635 -1.44956 -8.35135
  386 95.8299 -1.49439 8.24326
  387 217.756 27.7819 -17.6956
  388 117.152 8.34019 54.8932
  389 169.964 -8.93863 1.47286
  390 170.134 -8.92069 -1.48259
  391 199.501 33.8996 -11.0367
  392 189.261 -5.57496 -19.2212
  393 190.516 -19.4194 14.7912
  394 157.552 -4.20691 -0.693519
  395 157.530 -4.18374 0.683557
  396 182.774 -14.0835 7.26392
  397 197.575 -0.880992 3.08549
  398 120.942 -4.55477 -9.67446
  399 120.988 -4.55268 9.58388
  400 185.028 6.20077 -20.6018
  401 175.106 -3.72316 1.33383
  402 175.100 -3.73070 -1.30814
  403 180.687 -2.11299 15.7916
  404 167.495 12.1382 4.13322
  405 187.802 -7.88444 16.8875
  406 272.807 57.3706 9.51831
  407 89.2229 -4.82459 -25.4910
  408 89.4815 -4.82727 25.2838
  409 39.5739 21.4999 -29.8400
  410 202.652 -0.513560 0.894726
  411 99.8100 -0.906102 -5.27562
  412 99.9502 -0.886866 5.22609
  413 185.055 -4.78314 13.0512
  414 167.791 -18.2553 8.11439
  415 190.288 -2.25118 2.91649
  416 193.000 9.82315 21.5785
  417 41.5915 22.8922 31.2026
  418 168.058 -18.1591 -7.39817
  419 173.736 -16.1798 -0.732232
  420 54.8691 -1.10692 -15.9754
  421 55.3212 -1.15130 15.8581
  422 133.048 -10.5448 -38.3015
  423 199.802 -2.93745 18.6393
  424 132.497 -10.7170 37.9480
  425 184.374 -10.3157 -11.1959
  426 169.991 11.3996 -9.09008
  427 184.417 -7.91276 10.5849
  428 199.466 -0.810720 -2.12308
  429 5.74051 5.90985 2.24290
  430 39.5614 45.0240 44.4022
  431 176.656 -0.655451 8.07819
  432 146.647 1.93299 3.93317
  433 149.360 2.37561 -5.34755
  434 127.446 -2.20544 -3.24411
  435 127.455 -2.17622 3.21971
  436 181.810 -14.0776 -6.71834
  437 183.314 -3.56729 -17.7246
  438 147.497 2.67531 -1.45327
  439 272.916 64.8756 12.0466
  440 36.4928 12.4206 -22.2991
  441 40.3400 11.4046 23.8972
  442 169.809 -6.03490 1.26275
  443 169.741 -6.01707 -1.21450
  444 226.626 50.4883 -0.756263
  445 143.425 56.8680 88.1657
  446 219.262 -3.19220 -4.56190
  447 123.861 -6.60139 -13.1307
  448 123.916 -6.55329 13.0095
  449 124.312 -2.88734 5.11783
  450 124.293 -2.91001 -5.16966
  451 169.044 3.68855 -14.7393
  452 203.775 -0.223730 -0.604080
  453 164.017 7.44205 8.24623
  454 209.245 25.8766 18.8924
  455 174.012 -12.9360 -2.46342
  456 190.228 -2.13436 -2.82944
  457 200.333 -0.726735 1.95682
  458 203.208 -0.235215 0.346302
  459 203.393 -0.273877 -0.261351
  460 108.630 -0.222233 1.25793
  461 108.578 -0.225402 -1.27272
  462 190.688 -12.0669 13.5182
  463 170.715 6.67717 14.2692
  464 179.004 0.710318 -18.7900
  465 187.851 -3.88037 7.96232
  466 274.719 44.0032 -51.3240
  467 188.144 -10.3992 -14.9299
  468 1.32841 3.48464 1.14719
  469 1.33279 3.52184 -0.217680
  470 148.076 -8.51004 5.39421
  471 147.560 -8.40139 -5.33676
  472 236.083 3.67402 27.0883
  473 65.3337 58.1430 -66.2852
  474 185.386 -0.535741 6.33578
  475 211.723 -12.4044 -14.9614
  476 110.577 -6.48396 18.4844
  477 225.810 40.0759 -13.1022
  478 185.418 -9.99551 12.5852
  479 154.881 -7.48671 -2.45800
  480 155.018 -7.35911 2.44822
  481 159.983 0.825610 -8.07806
  482 110.223 -6.46108 -18.6107
  483 164.292 0.0365253 8.14062
  484 158.676 -18.1234 -23.4554
  485 158.268 -18.1512 23.5251
  486 191.638 -1.22234 5.70052
  487 172.667 16.2465 1.70981
  488 177.682 2.76339 59.9293
  489 260.555 53.4219 -0.337122
  490 179.549 -2.92877 1.44293
  491 179.563 -2.91734 -1.48407
  492 136.453 -2.50292 -2.00049
  493 136.459 -2.48076 1.99137
  494 71.6801 3.46517 33.1145
  495 186.197 -8.92793 -14.5542
  496 168.576 -3.62192 0.391089
  497 168.558 -3.60729 -0.386492
  498 146.465 -15.5769 19.2092
  499 73.1048 4.55526 -33.9734
  500 186.637 -15.1755 -7.66019
  501 3.01832 0.270241 1.81899
  502 161.395 8.24931 0.593406
  503 180.267 -1.97481 -0.485702
  504 180.260 -2.00474 0.476966
  505 146.574 -15.5539 -19.3655
  506 211.972 -11.0435 19.5166
  507 209.192 7.60544 19.3695
  508 193.507 -1.19928 -1.43604
  509 186.063 -15.3936 7.75102
  510 113.962 -0.137482 -0.214140
  511 113.983 -0.136351 0.211937
  512 185.555 -7.09020 -15.4179
  513 178.919 13.2302 15.6645
  514 206.576 5.10530 -19.1132
  515 113.280 -0.208110 -0.704563
  516 113.306 -0.205377 0.699013
  517 365.418 52.7516 -47.4180
  518 186.381 22.2460 13.8448
  519 193.689 -1.09123 1.28351
  520 174.135 -16.5327 1.14834
  521 145.343 -4.89737 2.91819
  522 145.346 -4.93712 -2.91235
  523 203.439 -12.3442 6.71532
  524 194.975 -3.85319 -19.5204
  525 217.775 43.1183 10.7756
  526 180.596 3.09226 19.4699
  527 183.029 -3.41977 2.68585
  528 178.015 -18.9334 -22.3984
  529 184.005 -4.51880 15.1006
  530 361.615 16.5258 -6.66262
  531 202.002 -15.1938 -1.56261
  532 192.301 -1.15259 -0.364970
  533 192.345 -1.23534 0.329801
  534 365.343 24.5362 23.4378
  535 175.916 -0.0779766 16.5585
  536 248.884 41.3555 -5.98273
  537 186.179 -4.98748 -7.79122
  538 81.7158 -0.805741 -5.71880
  539 81.9898 -0.767336 5.65704
  540 125.000 -11.7415 -26.5863
  541 125.088 -11.5434 26.3794
  542 182.932 -3.27101 -2.65688
  543 198.819 7.31481 -21.2254
  544 174.543 -11.8876 3.12662
  545 187.237 21.5006 -14.3895
  546 189.493 -2.13444 7.67677
  547 238.947 11.5365 -1.03954
  548 161.406 -5.55249 -0.450045
  549 161.352 -5.52977 0.440229
  550 175.822 -8.27611 3.71718
  551 261.010 51.1393 -1.99895
  552 184.787 8.08550 20.2345
  553 78.5579 20.2904 49.1120
  554 179.778 -10.8137 39.7131
  555 239.205 10.6812 -43.5299
  556 188.966 15.6354 -18.8738
  557 168.422 -14.4937 -34.3647
  558 182.286 -19.9420 -5.97495
  559 190.676 -19.2472 -9.15647
  560 24.4392 31.1791 -29.5943
  561 191.590 -2.32437 -4.84571
  562 289.365 56.4302 -15.8354
  563 176.792 -7.92534 -4.06784
  564 178.342 -5.74198 3.34974
  565 178.174 -5.60573 -3.22773
  566 120.903 -0.758129 -1.53896
  567 120.925 -0.748235 1.52703
  568 16.2281 1.84520 -9.52461
  569 17.2289 1.93106 9.75320
  570 89.8820 -4.25957 -19.4803
  571 90.5974 -4.28147 19.4407
  572 180.763 -9.75672 -7.28198
  573 184.479 -20.0218 6.52671
  574 189.657 -17.9546 2.27852
  575 154.387 -2.73728 -0.501197
  576 154.376 -2.71578 0.498156
  577 146.919 -15.3670 -29.4385
  578 165.101 -13.4807 36.4179
  579 143.259 -14.4419 29.6212
  580 185.716 -4.09988 -19.0793
  581 114.530 -2.00130 5.82198
  582 114.475 -2.02291 -5.87559
  583 176.381 9.70389 -15.7168
  584 176.802 -0.307432 -7.33295
  585 221.602 48.4528 -4.93772
  586 143.635 -2.22706 -0.523629
  587 143.636 -2.21094 0.520704
  588 189.280 -0.540371 -4.18322
  589 129.148 -4.50341 -6.36403
  590 129.145 -4.48561 6.30319
  591 106.126 5.05981 47.1487
  592 184.227 -8.42625 -10.7102
  593 101.772 -5.30529 33.8201
  594 181.031 -9.34256 7.41605
  595 191.007 -2.59993 5.33227
  596 188.769 -1.60428 -1.28784
  597 130.493 -1.69584 -1.40365
  598 130.506 -1.68115 1.39490
  599 212.446 42.6616 -9.63657
  600 101.704 -5.09215 -33.9586
  601 180.440 -7.75856 -5.99611
  602 162.196 -2.98854 -0.203558
  603 162.178 -2.96444 0.202571
  604 308.414 41.6790 -7.26314
  605 105.620 -0.725467 3.23091
  606 105.526 -0.732740 -3.26409
  607 166.904 3.76551 13.4298
  608 242.073 19.7687 -4.63891
  609 113.219 0.941483 -46.8299
  610 56.8776 1.57051 -25.3188
  611 57.3756 1.22764 25.1827
  612 141.643 -8.42050 7.79242
  613 143.186 -8.66837 -7.54301
  614 243.914 49.0496 5.85268
  615 187.954 -1.66743 1.17824
  616 159.238 4.38851 -8.09146
  617 199.971 36.1257 8.72475
  618 199.198 37.4980 -5.79978
  619 163.738 -9.13133 -0.799560
  620 165.026 -8.91728 0.204337
  621 117.790 25.4917 -67.5927
  622 139.843 -4.90884 -4.27129
  623 139.851 -4.85029 4.25338
  624 362.945 74.1903 55.7568
  625 185.583 -6.04194 16.5790
  626 104.210 -3.81028 -12.4841
  627 292.370 65.3563 42.3916
  628 104.460 -3.78732 12.4306
  629 178.401 -6.87328 -46.5562
  630 123.207 -0.670901 -0.568652
  631 123.226 -0.664983 0.565278
  632 153.181 1.32093 7.05236
  633 68.4186 -1.06133 -11.2278
  634 68.8312 -1.06380 11.1332
  635 161.588 -11.5274 2.83891
  636 169.741 -13.6501 -0.208533
  637 201.419 -0.389716 -1.76685
  638 110.453 -0.204593 0.916887
  639 110.414 -0.208080 -0.927829
  640 151.984 -3.46303 -0.698293
  641 151.975 -3.44148 0.691299
  642 175.765 -19.4449 22.6706
  643 201.423 22.5297 -19.2010
  644 132.747 -6.35136 -8.21889
  645 132.641 -6.24208 8.15422
  646 158.510 -11.5184 -4.23960
  647 251.243 54.9585 0.695968
  648 188.502 -18.1935 -1.21268
  649 162.843 -3.88306 -0.140323
  650 162.817 -3.86142 0.141294
  651 225.454 24.5496 15.2836
  652 188.693 -2.64789 -8.34750
  653 165.298 -0.232722 -6.63712
  654 75.5801 -2.57159 -24.4371
  655 75.8291 -2.64903 24.2254
  656 158.152 -13.7614 -7.13814
  657 238.137 52.9232 0.183301
  658 183.635 24.9174 -6.23554
  659 120.347 -1.17364 -2.86469
  660 120.371 -1.15697 2.83869
  661 171.980 -4.81221 -1.20421
  662 172.015 -4.82006 1.24393
  663 324.385 42.4777 18.6296
  664 204.943 -0.493776 0.498244
  665 197.262 -0.724536 3.00338
  666 196.413 -0.747990 -3.49131
  667 186.097 -17.2875 3.90608
  668 135.198 -1.64363 -0.702048
  669 135.208 -1.63100 0.698320
  670 198.081 31.8916 13.3908
  671 255.664 57.0148 -2.37350
  672 138.360 -10.4566 -11.6521
  673 138.308 -10.3494 11.5869
  674 174.370 -17.9930 -2.80747
  675 183.310 10.8869 -19.0255
  676 219.462 0.501639 9.27212
  677 143.735 -2.74058 -1.34139
  678 143.736 -2.72125 1.33464
  679 124.350 -10.9857 -24.0105
  680 184.304 -17.7969 -2.16800
  681 152.635 -16.9455 21.1494
  682 72.4266 23.0435 -47.3465
  683 142.062 -13.2826 16.3018
  684 171.227 0.0433271 6.15519
  685 124.458 -10.8584 23.8389
  686 180.331 -7.91467 6.06995
  687 142.123 -13.2301 -16.4621
  688 144.053 1.81031 1.47506
  689 111.256 -3.11244 8.83795
  690 111.155 -3.11731 -8.90667
  691 152.743 -17.3865 -21.3919
  692 189.384 -12.4288 -13.0810
  693 173.477 -2.34111 -0.302898
  694 173.505 -2.36787 0.304197
  695 193.681 -12.2759 13.0393
  696 175.761 -18.3782 3.48788
  697 213.934 19.6129 18.9248
  698 192.676 -3.56347 20.0281
  699 185.393 -6.59373 12.3427
  700 176.091 14.4461 -11.9206
  701 213.003 35.9466 14.9284
  702 183.650 -2.51325 -11.8069
  703 183.423 -6.00566 6.56897
  704 188.674 29.6502 3.37583
  705 186.444 -3.10939 10.3632
  706 58.1080 39.3663 49.5392
  707 173.673 -19.9540 -12.7265
  708 201.119 3.69238 20.4456
  709 203.359 -6.25872 -14.9332
  710 203.813 -0.211745 1.00032
  711 185.359 -6.29726 -9.81280
  712 173.901 -20.1131 11.4857
  713 341.069 30.1816 -5.07352
  714 101.181 -0.468628 3.38541
  715 101.054 -0.473960 -3.42041
  716 188.328 -3.31871 -4.69221
  717 205.088 -0.156127 -0.968546
  718 157.841 -13.9813 7.17823
  719 190.225 -7.02856 18.2606
  720 292.064 68.4369 -19.2314
  721 180.294 -13.0559 6.35147
  722 200.445 -13.1462 -8.22825
  723 183.499 -5.83918 -6.46640
  724 205.137 -0.291669 -0.337402
  725 185.293 0.00116110 20.6285
  726 8.31139 6.74444 10.0554
  727 211.037 -8.32378 -29.6791
  728 229.090 13.3683 10.1956
  729 190.426 -19.4072 8.04058
  730 133.823 -3.32553 3.51327
  731 133.828 -3.37362 -3.53317
  732 180.226 87.5424 -92.6367
  733 193.783 -12.7622 -12.1272
  734 143.461 0.673620 -2.81860
  735 168.802 0.896877 13.1341
  736 186.655 -9.29060 14.8073
  737 178.918 -15.0775 3.60821
  738 186.745 -16.9616 -24.3514
  739 177.773 -14.0676 -3.90351
  740 211.011 -10.1124 -3.62245
  741 194.211 -1.47871 2.76593
  742 172.482 -10.3790 2.27514
  743 316.620 63.3573 -33.3740
  744 184.389 -4.84197 5.25362
  745 181.611 2.95487 -20.0065
  746 155.936 -1.80542 52.4811
  747 194.914 15.7327 20.5472
  748 167.611 -13.2574 1.10948
  749 128.497 -10.2663 -17.4873
  750 128.500 -10.2348 17.3343
  751 177.443 19.9483 -2.78505
  752 181.104 -2.08047 17.9362
  753 183.289 -4.33458 -15.4011
  754 172.683 -10.5870 -2.33693
  755 166.848 -15.0235 3.61846
  756 190.166 31.5099 -3.83621
  757 178.692 -15.4639 -2.90087
  758 179.110 -11.3181 6.13789
  759 181.791 -2.21578 1.00370
  760 181.912 -2.15122 -0.998651
  761 244.642 54.0501 1.90317
  762 200.506 -17.0060 -4.84884
  763 185.934 -5.62140 9.75443
  764 194.321 -1.47039 -2.53113
  765 195.555 1.32862 -21.0335
  766 223.552 11.5995 -13.1556
  767 106.632 -0.128210 -1.56675
  768 106.702 -0.126545 1.54926
  769 1.46009 -3.65382 -2.61585
  770 189.754 -0.192094 3.87973
  771 172.923 -0.321102 -14.5705
  772 179.036 -1.67145 12.9275
  773 165.105 19.7664 77.4775
  774 203.915 42.2078 -0.466783
  775 144.433 -10.4941 8.95620
  776 23.8798 0.593804 -9.48736
  777 24.6478 0.441954 9.59158
  778 177.335 -1.26950 -14.5473
  779 144.851 -10.6028 -8.95056
  780 193.156 -1.62201 2.13490
  781 96.5427 -4.21967 16.6380
  782 95.6851 -4.20625 -16.6543
  783 184.386 -4.69690 -5.12024
  784 115.676 -3.04254 -7.67473
  785 115.733 -3.02124 7.60019
  786 192.209 -1.72800 -5.81380
  787 145.263 -3.96764 -2.32479
  788 145.264 -3.93968 2.32511
  789 210.051 -1.34064 -15.0355
  790 188.247 -1.94951 -20.7730
  791 93.4292 -0.633527 -4.33712
  792 93.6217 -0.627683 4.28328
  793 3.79974 2.38700 -5.61520
  794 4.67558 2.51537 5.91746
  795 150.666 0.697979 -5.12809
  796 172.121 -19.3461 -9.28443
  797 -2.02369 -1.41524 3.45037
  798 -1.75946 -1.64164 -3.40788
  799 179.275 -3.49695 2.11485
  800 194.677 -15.1352 -7.36657
  801 200.215 29.7669 -15.6595
  802 194.040 -1.45000 -2.02500
  803 421.900 84.0125 -79.2504
  804 179.239 -3.48367 -2.08857
  805 270.824 51.9740 3.86107
  806 191.460 5.58746 -21.6259
  807 212.121 15.9771 -19.3199
  808 33.7032 -0.401432 -8.81643
  809 34.3902 -0.454838 8.79888
  810 117.488 -1.78208 4.51179
  811 117.449 -1.79767 -4.55641
  812 111.558 -0.296000 0.837070
  813 111.529 -0.299008 -0.844703
  814 214.120 36.1404 -14.8393
  815 124.557 -0.841837 -1.21756
  816 124.575 -0.831909 1.20961
  817 181.676 -1.82736 -18.7087
  818 265.861 25.9336 20.8096
  819 162.419 3.55095 -11.2802
  820 54.6815 -0.508095 9.50433
  821 54.1750 -0.512629 -9.58421
  822 213.995 5.20635 55.2090
  823 188.114 -3.34694 4.84311
  824 166.436 10.9749 -4.70306
  825 75.2807 -0.141093 6.51363
  826 74.8645 -0.105012 -6.56553
  827 114.235 -0.635959 -2.19719
  828 114.274 -0.626804 2.17440
  829 20.2461 18.1452 15.2044
  830 174.044 4.10579 16.8384
  831 194.197 28.6294 -13.3510
  832 209.660 24.3489 -19.0751
  833 136.326 -5.28857 -5.68096
  834 136.239 -5.24579 5.66972
  835 216.838 46.4577 6.81622
  836 187.980 -1.43008 -0.283811
  837 187.987 -1.41892 0.316686
  838 185.392 -5.49548 -12.4024
  839 154.605 -10.4147 4.95035
  840 171.025 -19.2301 9.35587
  841 202.012 -16.5540 14.7016
  842 153.073 -4.49370 -1.22712
  843 153.069 -4.47436 1.21636
  844 174.967 16.1882 7.64124
  845 164.015 2.17944 -12.1997
  846 45.6500 52.0880 51.5595
  847 167.387 -14.9039 -3.19992
  848 167.887 -7.51204 0.879344
  849 167.978 -7.52354 -0.887239
  850 184.724 -2.69701 19.7230
  851 183.549 -12.0254 -9.52565
  852 163.430 -10.8967 -1.56776
  853 380.536 12.3345 -19.0884
  854 155.231 -14.7972 10.0897
  855 155.116 -14.9944 -10.2643
  856 184.644 -2.17475 10.0573
  857 280.064 71.9232 -14.5435
  858 145.381 -13.3488 -12.8527
  859 161.187 -18.2108 11.9912
  860 145.329 -13.1837 12.7312
  861 157.804 -6.40834 -1.34178
  862 157.796 -6.38370 1.32917
  863 22.6252 9.88507 13.2583
  864 198.542 14.8559 -20.8823
  865 151.179 -5.98380 -2.42965
  866 151.204 -5.92052 2.43941
  867 149.150 -2.50168 -0.288469
  868 149.145 -2.48286 0.286112
  869 164.763 -3.23563 0.138609
  870 164.742 -3.21222 -0.139305
  871 132.659 -2.70050 -3.05323
  872 132.665 -2.66898 3.03824
  873 151.820 -8.10224 -3.78234
  874 151.836 -8.04252 3.79828
  875 3.50462 -1.97961 -1.30098
  876 230.617 43.2677 11.5506
  877 198.299 -6.90464 -17.0426
  878 161.070 -17.9494 -12.1311
  879 174.207 -5.56127 2.09276
  880 174.127 -5.50016 -2.04071
  881 189.862 0.266354 21.2123
  882 207.645 -14.8217 -7.51995
  883 184.216 12.5116 -67.0477
  884 82.0205 -1.22508 32.8267
  885 -3.66837 1.91564 -2.03384
  886 -3.24107 2.15857 2.28141
  887 22.4493 10.5150 -13.5252
  888 185.935 -5.25937 7.75745
  889 196.211 -1.18787 -3.29137
  890 176.197 -16.8871 28.1957
  891 81.8199 -1.12950 -32.9656
  892 196.374 -16.0050 5.49255
  893 219.727 -6.76377 24.0521
  894 156.467 0.614376 5.44269
  895 180.586 17.1769 13.0527
  896 96.7686 -5.50210 24.2461
  897 96.3835 -5.54716 -24.4183
  898 116.219 -5.67276 -13.5600
  899 123.217 -5.91690 -41.9930
  900 196.103 -4.53547 18.9679
  901 270.951 63.0639 7.99622
  902 196.662 7.59750 21.2946
  903 185.926 -3.90862 -11.2824
  904 125.873 -5.30234 43.0462
  905 237.783 43.6985 -8.94791
  906 22.8377 19.6189 -18.8337
  907 170.735 -0.361235 -5.87139
  908 116.341 -5.62418 13.4300
  909 142.570 -3.21807 2.06622
  910 142.569 -3.24199 -2.07202
  911 183.825 -11.9623 9.81533
  912 191.561 -1.08609 0.843832
  913 140.372 1.36190 -52.3401
  914 202.286 -0.399090 1.56282
  915 200.602 -0.322071 -1.97310
  916 147.049 1.23630 -4.70479
  917 193.316 -0.766052 -3.45047
  918 143.171 -6.83170 -5.15205
  919 143.267 -6.72563 5.16623
  920 -4.92745 1.69837 -2.86490
  921 -6.69705 1.02345 2.99193
  922 191.563 -1.00071 -0.849149
  923 61.6201 -1.36528 22.1244
  924 61.2229 -1.22570 -22.2582
  925 203.629 29.8050 16.5816
  926 371.420 6.68612 5.94822
  927 191.370 21.3358 17.2347
  928 218.629 -7.83196 5.80394
  929 188.995 -10.4700 14.9777
  930 235.601 49.4937 -6.79561
  931 143.705 0.556687 3.54307
  932 181.964 -4.17726 -3.27796
  933 188.431 10.1355 -20.8383
  934 229.501 6.52690 -5.29682
  935 177.117 -10.9265 -4.94449
  936 88.1701 -0.524667 -4.86712
  937 88.2726 -0.506271 4.79485
  938 187.121 -4.31294 -8.95043
  939 5.88811 7.59161 1.16454
  940 179.574 -18.6081 -0.950175
  941 153.603 4.44364 -0.486426
  942 233.795 51.6610 -4.52037
  943 36.1703 26.9809 -31.7071
  944 179.054 -1.32878 -11.5853
  945 122.588 -2.14785 -4.19192
  946 122.608 -2.12167 4.15245
  947 0.966428 -5.23921 4.03045
  948 120.749 -9.11928 -19.4689
  949 182.856 -10.5268 -9.21941
  950 111.059 0.236662 -0.342232
  951 111.081 0.237973 0.339528
  952 183.802 22.3320 -10.4828
  953 199.199 -0.482211 -0.317429
  954 199.198 -0.491342 0.411536
  955 120.797 -9.09153 19.3271
  956 184.755 -0.224652 -4.60529
  957 213.593 1.52766 14.5813
  958 189.339 -2.55866 3.77240
  959 29.1162 7.65101 -16.9442
  960 196.645 -1.09760 2.99241
  961 176.875 1.39103 18.0716
  962 186.579 25.9130 9.32847
  963 187.129 2.17425 -21.3498
  964 127.742 -7.00247 -11.5560
  965 202.795 -7.12653 14.4487
  966 127.822 -6.97253 11.4303
  967 5.57368 6.20019 -0.140792
  968 21.0948 3.82170 12.3971
  969 103.313 -1.91001 8.01482
  970 103.181 -1.91296 -8.06549
  971 182.090 -4.26281 3.43960
  972 194.905 34.0573 5.19886
  973 98.8963 9.21414 -49.4136
  974 163.102 -10.2491 1.31081
  975 153.053 -16.0808 -15.4613
  976 223.970 43.0476 11.7565
  977 172.031 -2.96323 0.418448
  978 172.025 -2.94515 -0.419152
  979 188.977 -3.39749 -6.49284
  980 173.269 14.9152 -7.05254
  981 402.888 117.804 79.5692
  982 34.9519 2.08793 -16.5125
  983 35.5479 1.73840 16.5543
  984 2.59521 -4.02102 0.537529
  985 173.902 9.58521 14.4752
  986 152.992 -16.1752 15.3393
  987 190.284 -8.94286 -16.9281
  988 207.135 16.9570 20.7609
  989 199.920 -16.1382 -18.3450
  990 292.605 61.6993 19.7699
  991 168.753 -2.66461 -0.0203647
  992 168.731 -2.64032 0.0207238
  993 198.143 -8.01867 16.2094
  994 13.4359 20.8618 22.6804
  995 86.9397 -1.89623 11.5128
  996 86.6510 -1.87222 -11.6462
  997 104.579 -5.24728 15.6914
  998 104.207 -5.17009 -15.7579
  999 118.081 -5.00446 11.2072
  1000 129.070 -1.09476 -0.560055
  1001 129.085 -1.08619 0.557442
  1002 332.051 103.427 -65.1764
  1003 298.142 74.6151 29.6820
  1004 117.986 -5.03220 -11.3101
  1005 204.147 -0.899860 17.8396
  1006 181.467 18.8362 -12.5861
  1007 128.178 -10.9622 34.7794
  1008 165.431 -19.5309 -18.3141
  1009 189.218 -1.50496 -6.80031
  1010 84.3327 5.98156 40.1014
  1011 108.302 -8.29692 27.8012
  1012 165.819 8.42688 -9.04241
  1013 191.192 -3.74859 -20.2295
  1014 249.077 96.7536 106.228
  1015 156.139 4.69979 6.41610
  1016 214.576 46.5667 -0.815917
  1017 158.505 6.08622 -59.5597
  1018 160.262 -16.9495 -10.2808
  1019 205.333 -0.156529 -0.794573
  1020 195.341 17.9718 -20.0220
  1021 112.336 -0.783809 2.84536
  1022 112.285 -0.791898 -2.87514
  1023 4.02104 1.14316 -5.43037
  1024 127.762 -5.98257 -9.61343
  1025 108.175 -8.40540 -28.0242
  1026 127.653 -5.96670 9.49796
  1027 186.786 -5.64706 18.7034
  1028 167.387 -10.3869 0.245861
  1029 175.289 3.18824 -17.4857
  1030 180.301 22.5481 3.67121
  1031 247.917 14.2929 7.17041
  1032 185.298 -14.0411 9.44920
  1033 115.801 -9.37290 -21.3070
  1034 173.681 6.09622 -16.3352
  1035 129.347 -10.8092 -34.9797
  1036 250.032 54.6571 -0.707886
  1037 168.489 11.0018 8.22546
  1038 215.352 -1.31997 -11.4870
  1039 161.268 -16.9513 9.38639
  1040 185.107 -5.81556 14.5361
  1041 184.042 -9.67018 10.7049
  1042 183.037 -9.15722 9.33552
  1043 226.632 28.6684 -15.6525
  1044 182.416 -2.91333 14.6228
  1045 165.131 -19.5860 18.0060
  1046 176.287 -7.16120 3.36414
  1047 115.871 -9.38835 21.1763
  1048 165.212 -12.2497 -1.65623
  1049 95.0062 -4.57888 -29.7440
  1050 136.562 -14.2339 23.4803
  1051 185.997 -1.21909 -7.85631
  1052 180.822 -2.02855 -16.5583
  1053 156.460 -12.4893 -6.11743
  1054 95.1726 -4.71862 29.4960
  1055 167.866 0.374489 -11.4187
  1056 124.464 -8.41242 -15.0206
  1057 227.938 48.7985 7.53186
  1058 49.6614 8.47388 -27.9568
  1059 397.142 28.1040 38.6496
  1060 90.4425 6.95461 -42.0419
  1061 183.047 -15.1410 -6.12838
  1062 124.492 -8.33728 14.8880
  1063 165.962 1.69819 12.7376
  1064 91.7130 -1.92813 9.52511
  1065 91.6588 -1.97644 -9.62783
  1066 185.010 -5.11574 -17.3164
  1067 198.033 -0.886215 1.27188
  1068 193.466 -0.395274 3.49533
  1069 190.765 6.36011 21.5552
  1070 178.058 -1.34091 15.5205
  1071 138.779 14.6516 64.4806
  1072 206.738 -0.113492 0.397817
  1073 191.709 26.0598 13.7254
  1074 161.230 2.27204 10.9505
  1075 196.146 -0.703641 3.37181
  1076 123.712 -1.41352 -2.32298
  1077 123.731 -1.39704 2.30566
  1078 78.0931 -2.27215 -15.8692
  1079 78.4223 -2.35352 15.7507
  1080 161.737 7.98369 4.58716
  1081 248.985 12.6500 -16.4921
  1082 228.714 -0.749568 -33.1338
  1083 179.980 -0.145848 -4.75630
  1084 136.629 -14.3426 -23.6657
  1085 156.787 -11.8768 5.40862
  1086 181.083 -0.402829 4.96682
  1087 190.380 -13.7581 -11.0546
  1088 116.263 -0.309546 1.40253
  1089 116.238 -0.314753 -1.41243
  1090 182.692 -15.5750 6.12667
  1091 173.473 -3.46871 0.771054
  1092 173.444 -3.47130 -0.758378
  1093 168.689 -17.0418 5.60083
  1094 218.971 -7.15736 -0.965251
  1095 95.9287 -0.184517 -2.69743
  1096 96.0944 -0.178081 2.66637
  1097 148.201 -9.26090 -40.0738
  1098 156.937 -3.75701 0.598375
  1099 156.954 -3.78032 -0.605726
  1100 95.3994 50.5044 70.8045
  1101 219.214 17.8927 -17.4291
  1102 31.2736 15.5184 -20.8223
  1103 189.471 -2.70630 -3.64912
  1104 49.4391 17.2757 -32.0328
  1105 103.435 -6.61591 -20.2713
  1106 206.895 -0.166338 0.234135
  1107 206.990 -0.152334 -0.175228
  1108 185.888 -10.5639 -12.8920
  1109 164.661 -18.4248 -25.4385
  1110 49.6815 7.21272 26.6410
  1111 202.076 20.0455 19.6071
  1112 183.942 -1.72067 -0.344402
  1113 183.959 -1.72285 0.362953
  1114 201.780 -13.1165 30.7429
  1115 206.630 41.6425 7.60871
  1116 120.990 -3.03296 -6.03258
  1117 121.017 -3.01734 5.98448
  1118 92.6091 10.7543 49.8478
  1119 174.879 0.858127 -16.9410
  1120 54.1181 17.6954 34.5115
  1121 227.538 -4.13407 -9.22956
  1122 221.631 49.4081 2.37916
  1123 151.801 -12.1450 7.61022
  1124 138.034 0.675411 -0.690067
  1125 194.265 -1.62362 4.37822
  1126 201.539 -0.204089 1.71516
  1127 41.7394 0.0924817 -7.95382
  1128 42.3724 0.0703487 7.89622
  1129 155.904 2.52163 -8.09622
  1130 162.124 -4.77284 -0.253705
  1131 162.083 -4.74743 0.250953
  1132 16.7741 24.3433 -24.0790
  1133 26.9636 55.3600 -49.2431
  1134 164.288 -6.43177 -0.00397738
  1135 164.357 -6.43463 -0.00380403
  1136 169.996 -4.04556 0.853915
  1137 169.971 -4.03501 -0.837790
  1138 43.8207 28.1153 34.5845
  1139 132.547 -1.71631 -1.09198
  1140 132.559 -1.70305 1.08576
  1141 167.533 12.5956 -0.196338
  1142 218.341 25.9544 -74.5986
  1143 205.821 35.6355 -13.0259
  1144 188.039 -7.17717 -17.7620
  1145 185.287 -9.18816 -13.0139
  1146 151.913 -12.2622 -7.74417
  1147 151.363 0.460682 4.99830
  1148 171.551 10.6353 -12.0918
  1149 169.036 9.02539 11.5323
  1150 176.168 -6.94750 -3.30723
  1151 167.830 -10.1734 -0.366220
  1152 152.058 -9.95892 -5.63401
  1153 181.557 -1.04838 9.26286
  1154 325.717 32.9773 4.62505
  1155 182.899 -3.87355 16.8843
  1156 183.154 12.0274 18.2750
  1157 169.494 -16.7369 -3.98313
  1158 19.8918 3.51988 -11.9429
  1159 172.678 -7.96956 -2.52539
  1160 111.889 -0.208710 -0.0624196
  1161 111.908 -0.207913 0.0615039
  1162 211.492 -5.59909 9.96973
  1163 201.594 -16.9406 6.05060
  1164 290.389 52.2986 12.3805
  1165 66.3586 -0.162052 -6.66716
  1166 66.7946 -0.147177 6.61276
  1167 153.398 -3.12816 -0.547424
  1168 153.388 -3.10656 0.542197
  1169 173.271 -15.3213 0.351108
  1170 139.337 0.587536 2.25501
  1171 177.527 -12.6360 4.79416
  1172 9.57897 11.3950 -5.07074
  1173 30.9828 15.7175 20.3798
  1174 118.054 -6.29577 38.7611
  1175 204.888 39.2649 -9.28854
  1176 196.905 -0.514904 -2.65930
  1177 207.817 -0.299882 0.170700
  1178 208.043 -0.422552 -0.115203
  1179 116.858 -0.328649 -0.220768
  1180 116.879 -0.326178 0.218732
  1181 188.778 12.0919 20.8173
  1182 281.873 48.5647 -1.02486
  1183 194.289 32.2745 -9.33145
  1184 145.659 -10.6011 39.8122
  1185 117.422 -6.03491 -38.6918
  1186 129.991 -8.87270 -13.4120
  1187 182.158 -4.99478 4.33014
  1188 255.189 55.9714 0.509252
  1189 129.994 -8.81603 13.2968
  1190 186.378 -3.12945 3.28081
  1191 164.375 6.02498 10.9899
  1192 182.252 5.62948 19.9427
  1193 261.789 58.6206 5.07389
  1194 153.715 -4.05335 1.03830
  1195 153.726 -4.07547 -1.04789
  1196 188.705 -3.43406 6.73607
  1197 109.163 -1.24107 4.48110
  1198 109.085 -1.25410 -4.52631
  1199 184.689 -2.38014 -1.53956
  1200 75.3757 44.6213 -68.2418
  1201 159.849 -8.94844 -42.6086
  1202 149.325 -4.76390 -2.08937
  1203 149.337 -4.73967 2.08970
  1204 198.940 -0.826446 1.12898
  1205 187.580 -2.32048 2.63270
  1206 9.82101 11.9832 8.59181
  1207 205.032 -0.188150 0.921670
  1208 23.6109 29.3628 29.1306
  1209 183.019 -2.60475 -1.96267
  1210 -0.288416 -4.56424 -3.98434
  1211 128.345 -12.5093 -29.9510
  1212 127.964 -12.2010 29.6386
  1213 205.031 -0.323553 -1.01147
  1214 173.807 -9.15975 -2.95427
  1215 198.766 -0.741961 -1.17445
  1216 157.283 -5.12930 -0.866096
  1217 157.262 -5.10725 0.851719
  1218 184.565 -2.36080 1.45373
  1219 172.550 -7.81612 2.49887
  1220 165.763 -5.31848 -0.408785
  1221 165.826 -5.33638 0.431040
  1222 198.626 -0.765577 -0.964487
  1223 170.664 -17.8903 -28.7607
  1224 194.087 -1.05787 -1.00419
  1225 183.835 -2.68323 2.08908
  1226 125.804 -1.47182 -1.69765
  1227 125.821 -1.45691 1.68578
  1228 141.463 -2.14314 -0.817211
  1229 141.466 -2.12694 0.812096
  1230 232.471 36.1177 13.3949
  1231 195.142 -14.9185 8.56881
  1232 133.264 -0.532249 49.3377
  1233 104.099 -0.206968 1.71780
  1234 104.009 -0.209053 -1.73695
  1235 184.195 -3.36049 12.7556
  1236 176.597 -2.56176 0.499378
  1237 176.608 -2.55181 -0.499040
  1238 201.465 39.4749 4.31635
  1239 185.785 -19.3990 22.4440
  1240 104.676 -1.56013 6.33313
  1241 104.568 -1.57275 -6.38487
  1242 176.264 -4.21690 1.80016
  1243 176.226 -4.24467 -1.75632
  1244 182.064 -4.92825 -4.18424
  1245 165.539 0.0209554 5.91859
  1246 291.198 72.2845 -22.9348
  1247 185.263 -6.71150 -11.4825
  1248 30.5416 7.54466 17.4530
  1249 191.522 -10.1439 15.8937
  1250 151.404 3.21303 -4.42381
  1251 11.0040 8.47295 5.97106
  1252 254.477 27.5337 -0.195632
  1253 186.862 -8.45050 -15.9240
  1254 152.173 2.08335 6.76982
  1255 104.188 -6.62455 20.2238
  1256 190.136 -14.6607 9.97601
  1257 278.687 51.6135 14.1511
  1258 62.5550 9.47736 34.0356
  1259 191.289 -2.16254 -5.78730
  1260 374.639 4.13194 -3.83220
  1261 387.700 5.87551 17.1797
  1262 414.906 14.3674 -40.6442
  1263 184.881 -5.71327 -14.1208
  1264 185.036 -8.38504 12.2088
  1265 188.144 -13.3357 11.6331
  1266 -5.56682 0.582911 3.57492
  1267 -5.08414 0.448561 -3.86970
  1268 183.364 -20.2050 -9.87004
  1269 188.111 -18.9520 -15.3006
  1270 140.422 0.850695 -2.79001
  1271 182.665 -20.5845 15.3467
  1272 194.912 -9.18772 -16.1659
  1273 3.35818 5.59753 0.216986
  1274 157.400 -2.86884 0.457862
  1275 157.414 -2.89148 -0.459084
  1276 194.201 -1.44463 3.98209
  1277 186.380 -3.06992 -3.09513
  1278 175.104 -19.1282 -4.81841
  1279 159.226 -8.69966 2.04037
  1280 158.394 -8.58210 -2.29329
  1281 187.819 -3.88364 9.09914
  1282 192.404 -7.01639 -18.3505
  1283 11.4322 8.83555 -5.72062
</Section>

newXOutput 26

<Section columns = "stress_xx | stress_yy | stress_xy">
  1 217.679 0.00342744 0.449505
  2 217.697 0.00588533 -0.451160
  3 114.475 -0.0586861 -0.163065
  4 -1.46913 -1.45940 -2.11075
  5 400.885 152.603 125.313
  6 397.031 158.455 -125.946
  7 -1.70428 -1.39287 2.23763
  8 114.456 -0.0591633 0.162544
  9 219.310 -0.341654 0.144790
  10 218.795 -0.550152 -0.0907398
  11 218.202 -0.345599 0.536931
  12 217.616 -0.495555 0.182909
  13 216.365 -0.409529 0.847579
  14 215.240 -0.418720 0.638495
  15 212.659 -0.372536 1.20689
  16 209.050 -0.228858 1.77008
  17 205.814 -0.260292 1.95359
  18 201.081 -0.394094 2.34336
  19 194.598 -0.00379539 3.43965
  20 188.607 -0.291480 3.24883
  21 181.886 -0.396622 4.54992
  22 172.165 0.284185 3.93789
  23 165.205 0.405864 4.63769
  24 156.132 0.698137 3.61276
  25 149.890 0.698089 3.63455
  26 140.838 1.01022 1.84792
  27 138.948 1.59621 1.97557
  28 137.818 1.28949 -0.581265
  29 139.383 0.714284 -1.28773
  30 142.256 0.717480 -1.57603
  31 149.031 0.923198 -3.15363
  32 155.609 0.728081 -4.00609
  33 165.330 0.136085 -4.76147
  34 173.120 -0.109939 -4.36168
  35 181.478 -0.318247 -4.30797
  36 189.074 -0.225783 -3.05500
  37 195.655 -0.228249 -2.62883
  38 201.121 -0.382624 -2.22142
  39 206.050 -0.263269 -1.56937
  40 209.171 -0.302357 -1.67499
  41 212.184 -0.390352 -1.22898
  42 215.069 -0.469769 -0.562045
  43 216.561 -0.372376 -0.644806
  44 217.386 -0.210679 -0.412336
  45 216.891 -0.0877611 -0.374936
  46 219.042 -0.560573 0.0540316
  47 219.390 -0.358254 -0.149517
  48 211.766 -0.0795024 -0.277302
  49 206.731 -0.768632 -0.485545
  50 200.625 -1.15709 -0.337536
  51 193.207 -1.77281 -0.456999
  52 186.212 -1.96013 -0.576376
  53 178.770 -2.51432 -0.544056
  54 172.207 -2.83225 -0.315538
  55 166.453 -3.21729 -0.135024
  56 159.824 -2.68290 -0.135970
  57 152.186 -2.53233 -0.196310
  58 144.817 -2.02187 -0.0767979
  59 137.826 -1.31285 -0.0366867
  60 131.170 -0.952177 -0.00329703
  61 125.313 -0.509797 0.0503162
  62 119.298 -0.153313 -0.188793
  63 114.561 0.156822 0.213636
  64 112.461 0.472209 0.135338
  65 113.971 -0.00527217 0.335091
  66 112.435 -0.0767140 0.399930
  67 111.046 -0.108535 0.500214
  68 109.140 -0.0245559 0.661274
  69 106.733 -0.0147087 0.839639
  70 105.012 -0.163879 1.64622
  71 99.8490 0.147933 1.80318
  72 96.2537 -0.0179838 2.08019
  73 90.8969 -0.104688 2.35541
  74 84.7069 -0.171439 2.87243
  75 76.9777 -0.0446053 3.48745
  76 67.5509 0.0394972 3.83318
  77 59.5062 -0.0990801 5.47065
  78 43.4401 0.520627 5.13595
  79 32.6107 0.450502 5.43670
  80 19.7391 -0.0776472 5.99256
  81 9.15459 1.03605 6.17963
  82 -2.84352 1.52244 3.60948
  83 -11.4371 1.54004 1.15969
  84 -10.8193 1.45658 -0.740264
  85 -10.0193 1.19758 -3.06729
  86 -5.85921 -0.429842 -2.86770
  87 -0.748756 -5.62555 -3.15172
  88 0.502674 -10.4325 -3.99769
  89 1.47412 -16.7619 -2.37122
  90 3.31941 -17.6623 -0.175927
  91 7.08878 -6.04219 8.90299
  92 21.5016 29.7318 31.5528
  93 130.447 115.119 111.321
  94 483.732 71.5629 81.8150
  95 434.128 10.3083 26.9008
  96 402.044 4.21587 8.23232
  97 390.166 3.54845 0.658584
  98 396.341 4.76465 -7.08776
  99 432.903 9.52964 -21.2637
  100 514.766 34.5640 -71.0880
  101 76.9442 116.759 -92.6056
  102 16.1270 19.2298 -25.8544
  103 7.71609 -5.26510 -9.19954
  104 3.09240 -17.8139 -1.25424
  105 0.815050 -12.8748 2.75138
  106 1.07276 -13.1213 3.48815
  107 0.0315510 -4.88694 3.48679
  108 -6.10978 -0.299099 2.73141
  109 -10.3413 0.898412 2.68842
  110 -11.3839 1.77484 0.805187
  111 -11.8183 1.52115 -1.05673
  112 -3.65447 1.56057 -3.36827
  113 8.42784 1.04551 -5.88415
  114 18.9952 0.0304073 -5.89341
  115 31.8472 0.487473 -5.45041
  116 42.7463 0.535007 -5.17845
  117 58.9674 -0.101318 -5.52071
  118 67.0884 0.0446480 -3.87350
  119 76.5748 -0.0427160 -3.53435
  120 84.4981 -0.188764 -2.89680
  121 90.6222 -0.100326 -2.36325
  122 96.0471 -0.0111905 -2.10387
  123 99.6815 0.145908 -1.82527
  124 104.894 -0.165375 -1.66500
  125 106.640 -0.0156840 -0.851270
  126 109.073 -0.0254683 -0.670883
  127 110.997 -0.110030 -0.507871
  128 112.400 -0.0779919 -0.405308
  129 113.944 -0.00640356 -0.338558
  130 112.440 0.471489 -0.136978
  131 114.540 0.156492 -0.214645
  132 119.277 -0.154624 0.188180
  133 125.293 -0.513071 -0.0516104
  134 131.152 -0.959474 0.00176776
  135 137.813 -1.32302 0.0351978
  136 144.810 -2.03651 0.0753531
  137 152.187 -2.55070 0.195192
  138 159.833 -2.70403 0.134929
  139 166.469 -3.24065 0.134631
  140 172.227 -2.85543 0.316347
  141 178.798 -2.53541 0.546381
  142 186.233 -1.97487 0.584793
  143 193.221 -1.78596 0.496861
  144 200.658 -1.08639 0.345273
  145 206.879 -0.745351 0.475069
  146 211.794 -0.112061 0.273356
  147 188.083 -17.6572 -2.31712
  148 187.936 -17.4217 2.38537
  149 196.486 28.3125 -10.2118
  150 210.318 12.4355 21.8999
  151 159.179 -15.2281 -34.3196
  152 160.440 -15.2191 33.1777
  153 153.649 -6.63304 3.80566
  154 153.667 -6.72910 -3.81077
  155 223.663 7.97499 -17.2813
  156 187.576 -6.67390 4.87091
  157 187.499 -6.50729 -4.80842
  158 242.487 54.5238 3.01246
  159 191.482 -0.304942 -21.1407
  160 140.876 -11.2501 -15.2657
  161 140.868 -11.1521 15.1199
  162 191.976 -4.31194 19.2019
  163 181.474 13.1937 12.4738
  164 74.3073 12.2117 -40.9205
  165 82.6210 11.5492 43.1559
  166 236.882 2.47770 3.60269
  167 192.754 -7.33517 -13.5763
  168 256.017 56.2936 -2.43123
  169 173.208 -4.86150 0.375538
  170 173.169 -4.84347 -0.358512
  171 195.594 -2.22988 -2.15324
  172 196.258 -1.98595 1.86889
  173 134.419 -2.02837 -2.35153
  174 134.431 -2.00639 2.33698
  175 211.087 -5.88010 43.5629
  176 175.434 7.20729 -13.4199
  177 114.167 -8.63845 -24.8132
  178 114.513 -8.57392 24.6372
  179 127.982 -4.34307 -8.01152
  180 127.990 -4.29120 7.94482
  181 193.751 -5.01944 11.5316
  182 175.750 -12.1135 0.344249
  183 175.102 -12.0230 -0.0446750
  184 200.759 -19.3562 -2.15287
  185 201.768 -18.4388 -0.368365
  186 278.117 65.3405 -8.17595
  187 200.432 32.3300 9.57174
  188 201.209 12.3763 -21.8067
  189 210.516 -2.17979 -50.8763
  190 200.174 -11.2521 -15.6853
  191 201.863 -8.00883 18.2899
  192 167.871 -19.0913 16.4118
  193 167.937 -18.9614 -16.3550
  194 178.683 2.23213 16.1786
  195 80.7368 -1.88923 -30.2553
  196 80.9482 -2.07186 30.0574
  197 314.861 47.3986 6.71399
  198 189.429 -11.2478 8.80471
  199 196.733 -3.51966 -7.59816
  200 154.556 -3.84552 -1.66642
  201 154.555 -3.82350 1.65966
  202 188.055 -2.42690 -14.7512
  203 214.571 31.5778 -17.6736
  204 178.265 15.9707 -2.50628
  205 114.865 -4.20644 11.3830
  206 114.683 -4.22172 -11.4766
  207 200.019 -2.10114 4.25108
  208 193.695 3.64725 21.7113
  209 156.964 -11.5801 -7.01273
  210 155.836 -10.9680 7.22141
  211 229.247 33.9994 16.6152
  212 271.570 36.1652 3.94210
  213 17.5014 13.9681 -10.8928
  214 16.1595 12.9133 9.21980
  215 110.668 31.4077 72.9084
  216 187.496 -12.4376 -6.96716
  217 200.810 -2.02005 -3.84503
  218 176.544 1.50102 -14.8906
  219 122.366 -1.30232 -3.53905
  220 122.402 -1.28726 3.50408
  221 168.144 -7.94426 -1.03261
  222 168.220 -7.98933 0.934862
  223 189.804 -2.53495 12.5931
  224 220.216 -12.7933 3.50382
  225 217.046 44.6733 -5.18416
  226 170.226 -16.5301 -7.33651
  227 216.418 -3.73817 14.6598
  228 183.883 -2.98404 0.897147
  229 183.888 -2.95721 -0.895644
  230 168.914 -16.4495 7.67254
  231 194.094 -12.2615 12.8736
  232 275.752 34.3019 -15.1325
  233 59.6571 35.5633 -52.2232
  234 162.266 5.59916 3.17804
  235 194.157 17.1411 18.2488
  236 207.849 -1.41904 -19.7708
  237 193.833 -6.93495 -18.0683
  238 101.259 -3.36372 -14.3314
  239 101.627 -3.31125 14.2776
  240 194.238 -2.28587 -9.82431
  241 185.199 -4.60226 2.67804
  242 185.112 -4.59338 -2.59917
  243 37.5613 3.63549 -19.0188
  244 38.2143 3.18954 18.9604
  245 207.290 -18.0914 -14.7888
  246 205.278 -0.607293 0.631110
  247 205.522 -0.620183 -0.672054
  248 189.422 15.6926 -16.6649
  249 165.705 3.09748 9.68448
  250 354.872 56.8773 38.0116
  251 352.173 40.1063 -23.9369
  252 252.001 54.7564 -0.698114
  253 157.137 -7.49400 45.8931
  254 143.980 -4.77603 -48.0583
  255 164.597 -3.37708 -0.487651
  256 164.580 -3.35296 0.482916
  257 135.501 -3.75431 4.80020
  258 135.507 -3.80805 -4.84840
  259 199.564 -2.06099 6.17101
  260 193.334 -13.7248 -10.7757
  261 122.806 -0.276027 -0.811782
  262 122.829 -0.271594 0.805812
  263 190.886 -7.65638 -8.51526
  264 79.0049 -2.62903 -19.8208
  265 79.3719 -2.63799 19.6670
  266 193.133 -8.31985 14.6173
  267 146.868 -15.5907 27.5693
  268 147.271 -15.8713 -27.4870
  269 164.789 6.21157 -4.50697
  270 142.163 -2.26106 -1.57784
  271 142.172 -2.24441 1.57059
  272 180.084 -0.475715 11.9892
  273 216.082 39.7625 12.3032
  274 113.640 -1.46671 6.07237
  275 113.551 -1.47964 -6.12963
  276 198.763 -16.5357 7.97205
  277 184.001 -20.5852 -17.9470
  278 205.936 -0.879879 2.00945
  279 140.979 -8.52581 -10.3556
  280 140.715 -8.42710 10.3105
  281 255.867 25.0483 64.4981
  282 118.031 -9.49250 33.0677
  283 191.079 26.8956 -1.08731
  284 244.063 26.6622 -11.6941
  285 183.096 -14.1754 3.25701
  286 184.097 -21.1560 16.0724
  287 118.418 -9.33057 -33.4657
  288 21.5373 26.5083 23.7196
  289 190.917 -7.68720 8.66712
  290 251.592 32.5438 9.57859
  291 207.686 -0.783480 -1.74177
  292 186.208 6.48088 -19.1775
  293 184.529 -10.4149 5.01768
  294 180.595 -15.2742 -0.402863
  295 185.459 8.48834 18.4534
  296 197.777 -16.5487 -7.22159
  297 281.046 55.0129 -4.38926
  298 184.478 -10.0067 -4.80843
  299 153.792 43.2298 -89.7972
  300 188.902 -19.9998 -2.63445
  301 187.534 -20.5413 4.81277
  302 136.607 -12.4710 -21.7004
  303 121.718 -0.514857 -1.78057
  304 121.747 -0.505973 1.76429
  305 136.654 -12.4779 21.5734
  306 199.473 -0.313211 -21.9916
  307 216.234 -8.93394 -10.1725
  308 163.400 -9.94523 -3.44535
  309 163.279 -9.96717 3.51496
  310 197.113 -16.9605 29.2121
  311 195.902 -1.51916 7.44323
  312 239.771 0.742119 9.07348
  313 159.863 -5.71158 -1.83658
  314 159.870 -5.68949 1.82328
  315 144.958 -3.87597 -3.07769
  316 144.955 -3.83754 3.07144
  317 163.895 2.14165 -9.37135
  318 212.889 15.6051 -21.2976
  319 332.181 89.1556 -41.4685
  320 194.442 -1.57421 -0.739430
  321 194.319 -1.55178 0.756359
  322 102.879 -0.0381779 41.2585
  323 144.339 -6.69182 -6.73546
  324 144.045 -6.66495 6.75119
  325 102.864 -0.268843 -41.1021
  326 202.377 23.9329 -17.8960
  327 227.804 11.2020 16.5540
  328 197.191 -14.0780 -32.5576
  329 180.291 -6.92559 2.40810
  330 180.100 -6.87067 -2.32516
  331 192.918 -3.88871 -4.24566
  332 180.227 -0.359073 -11.2184
  333 203.295 0.917626 21.6238
  334 203.509 -1.34224 -4.27867
  335 120.374 -7.45664 16.5897
  336 120.243 -7.50099 -16.7287
  337 188.524 -0.435498 20.0329
  338 114.185 -0.997089 -3.57934
  339 114.259 -0.987500 3.54295
  340 194.287 -4.36942 6.44944
  341 232.769 47.7308 -9.45647
  342 192.804 -3.92215 4.39565
  343 204.717 25.7844 17.9910
  344 196.124 -3.61365 20.9587
  345 154.324 -2.93255 0.577478
  346 154.328 -2.95250 -0.582508
  347 185.053 -0.676311 -17.7590
  348 246.337 51.9294 6.57001
  349 203.744 37.5408 0.377133
  350 125.040 14.6104 -61.6529
  351 12.0166 5.61395 -7.99611
  352 13.2778 6.06706 8.64826
  353 -0.854934 1.31031 3.96612
  354 -0.0477715 0.658455 -4.12193
  355 364.485 25.2655 8.79339
  356 168.937 -13.8104 -4.03602
  357 194.461 -4.21536 -6.29667
  358 174.884 -3.01911 0.376773
  359 174.863 -2.99256 -0.377515
  360 186.455 20.5997 -9.01617
  361 159.398 -16.3472 13.4792
  362 13.5089 19.9609 -14.4144
  363 159.571 -16.3480 -13.7459
  364 188.984 21.5063 9.59573
  365 193.756 -5.10092 -11.0067
  366 205.890 -11.4332 -13.6225
  367 218.515 46.4520 3.58626
  368 206.428 -12.8250 11.4706
  369 83.0917 -2.14175 13.2986
  370 82.5630 -2.10096 -13.3934
  371 46.4942 1.21453 -18.2877
  372 47.0324 1.01698 18.2023
  373 166.632 0.477624 9.49517
  374 322.714 93.2777 34.7155
  375 200.666 -1.21634 -5.36431
  376 155.102 -13.2472 -10.2579
  377 154.956 -13.2074 10.2425
  378 192.420 -4.39344 -13.7938
  379 220.338 -10.6468 2.95664
  380 168.930 -13.7952 4.17871
  381 242.744 1.33592 -18.2453
  382 134.222 -1.14979 -0.576448
  383 134.238 -1.13936 0.571186
  384 188.921 -1.08012 -8.73479
  385 99.7794 -1.50726 -8.69637
  386 99.8483 -1.55395 8.58412
  387 226.610 28.9123 -18.3425
  388 121.944 8.67792 57.1671
  389 176.902 -9.30297 1.50048
  390 177.080 -9.28440 -1.51053
  391 207.657 35.2779 -11.4527
  392 196.976 -5.80424 -19.9447
  393 198.245 -20.2097 15.4449
  394 164.008 -4.37862 -0.736075
  395 163.986 -4.35464 0.725711
  396 190.217 -14.6581 7.50821
  397 205.582 -0.920019 3.19656
  398 125.958 -4.73715 -10.0795
  399 126.006 -4.73507 9.98550
  400 192.594 6.45449 -21.3913
  401 182.242 -3.87911 1.37080
  402 182.236 -3.88703 -1.34419
  403 188.075 -2.20036 16.3932
  404 174.392 12.6411 4.29418
  405 195.455 -8.20829 17.5178
  406 283.853 59.6795 9.93829
  407 92.9346 -5.02427 -26.5500
  408 93.2035 -5.02700 26.3348
  409 41.2344 22.3875 -31.1074
  410 210.836 -0.538772 0.924947
  411 103.997 -0.941239 -5.49405
  412 104.143 -0.921258 5.44267
  413 192.600 -4.98055 13.5395
  414 174.637 -18.9981 8.48477
  415 198.010 -2.34852 3.01623
  416 200.878 10.2225 22.4005
  417 43.3316 23.8373 32.5234
  418 174.913 -18.8977 -7.73939
  419 180.820 -16.8381 -0.806010
  420 57.1981 -1.15365 -16.6411
  421 57.6676 -1.19976 16.5192
  422 138.492 -10.9813 -39.8935
  423 207.929 -3.05972 19.3303
  424 137.920 -11.1599 39.5262
  425 191.884 -10.7380 -11.6008
  426 176.983 11.8717 -9.44235
  427 191.929 -8.23804 10.9699
  428 207.538 -0.847928 -2.19753
  429 5.98884 6.17623 2.36307
  430 41.2072 46.9266 46.2749
  431 183.895 -0.681989 8.38666
  432 152.740 2.01712 4.08714
  433 155.557 2.47798 -5.55629
  434 132.732 -2.29232 -3.38432
  435 132.742 -2.26199 3.35903
  436 189.215 -14.6519 -6.94138
  437 190.800 -3.71438 -18.3975
  438 153.622 2.79092 -1.50996
  439 283.956 67.5059 12.6047
  440 38.0335 12.9295 -23.2491
  441 42.0376 11.8717 24.9116
  442 176.741 -6.28245 1.28956
  443 176.670 -6.26405 -1.23950
  444 235.865 52.5257 -0.781382
  445 149.180 59.2657 91.7799
  446 228.137 -3.31609 -4.67147
  447 128.984 -6.86781 -13.6801
  448 129.041 -6.81788 13.5543
  449 129.472 -3.00196 5.33570
  450 129.452 -3.02547 -5.38946
  451 175.995 3.84332 -15.3100
  452 212.000 -0.236577 -0.624031
  453 170.778 7.75285 8.56716
  454 217.767 26.9276 19.5970
  455 181.109 -13.4629 -2.52241
  456 197.947 -2.22711 -2.92640
  457 208.437 -0.760538 2.02538
  458 211.410 -0.249014 0.357692
  459 211.601 -0.289310 -0.269635
  460 113.188 -0.230211 1.31151
  461 113.134 -0.233499 -1.32685
  462 198.447 -12.5609 14.0079
  463 177.732 6.95437 14.8220
  464 186.333 0.740020 -19.5110
  465 195.493 -4.04253 8.25264
  466 285.695 45.8756 -53.4951
  467 195.806 -10.8252 -15.4797
  468 1.40763 3.63063 1.20993
  469 1.41115 3.67039 -0.242480
  470 154.158 -8.85379 5.63654
  471 153.621 -8.74050 -5.57608
  472 245.583 3.85779 28.2618
  473 67.9993 60.5847 -69.0315
  474 192.951 -0.559179 6.57472
  475 220.280 -12.9021 -15.6339
  476 115.162 -6.74721 19.2521
  477 234.992 41.7044 -13.5659
  478 192.971 -10.4051 13.0451
  479 161.231 -7.78974 -2.58017
  480 161.374 -7.65715 2.57008
  481 166.588 0.861163 -8.39126
  482 114.794 -6.72328 -19.3830
  483 171.062 0.0399366 8.45526
  484 165.149 -18.8639 -24.4463
  485 164.724 -18.8928 24.5197
  486 199.431 -1.27474 5.91168
  487 179.766 16.9161 1.77634
  488 184.864 2.88978 62.4036
  489 271.127 55.5691 -0.350548
  490 186.856 -3.05333 1.48711
  491 186.870 -3.04146 -1.52989
  492 142.092 -2.60251 -2.08993
  493 142.098 -2.57953 2.08049
  494 74.6613 3.60109 34.4999
  495 193.784 -9.29413 -15.0930
  496 175.459 -3.77251 0.394663
  497 175.441 -3.75736 -0.389926
  498 152.464 -16.2115 20.0202
  499 76.1433 4.73504 -35.3938
  500 194.232 -15.7951 -7.91603
  501 3.15150 0.302755 1.87466
  502 168.056 8.59407 0.616906
  503 187.600 -2.06126 -0.500110
  504 187.592 -2.09234 0.491023
  505 152.577 -16.1875 -20.1828
  506 220.537 -11.4832 20.3719
  507 217.692 7.91349 20.0844
  508 201.346 -1.25407 -1.48372
  509 193.635 -16.0219 8.01073
  510 118.738 -0.141815 -0.223842
  511 118.760 -0.140642 0.221562
  512 193.120 -7.38136 -15.9940
  513 186.256 13.7730 16.2688
  514 214.973 5.31217 -19.8195
  515 118.027 -0.215399 -0.734735
  516 118.054 -0.212563 0.728984
  517 380.004 54.8585 -49.3011
  518 194.014 23.1542 14.3765
  519 201.535 -1.14189 1.32591
  520 181.234 -17.2056 1.23928
  521 151.324 -5.09469 3.05250
  522 151.327 -5.13593 -3.04639
  523 211.692 -12.8478 6.92123
  524 202.913 -4.01275 -20.2506
  525 226.652 44.8651 11.1674
  526 187.989 3.21943 20.2178
  527 190.472 -3.56426 2.77412
  528 185.246 -19.7059 -23.3546
  529 191.514 -4.70529 15.6696
  530 376.023 17.1872 -6.92595
  531 210.193 -15.8123 -1.56226
  532 200.092 -1.20585 -0.375956
  533 200.137 -1.29191 0.339348
  534 379.902 25.5127 24.3599
  535 183.126 -0.0802352 17.1945
  536 258.950 43.0520 -6.12974
  537 193.755 -5.19459 -8.07264
  538 85.1667 -0.837900 -5.95469
  539 85.4513 -0.797946 5.89055
  540 130.142 -12.2226 -27.6932
  541 130.234 -12.0165 27.4781
  542 190.370 -3.40961 -2.74440
  543 206.919 7.61139 -22.0254
  544 181.661 -12.3720 3.21287
  545 194.903 22.3790 -14.9409
  546 197.204 -2.22499 7.96095
  547 248.592 12.0238 -1.16918
  548 168.011 -5.77896 -0.488103
  549 167.955 -5.75547 0.477858
  550 182.990 -8.61484 3.83345
  551 271.553 53.2349 -2.17871
  552 192.345 8.41587 21.0111
  553 81.7963 21.1226 51.1589
  554 187.063 -11.2507 41.3711
  555 248.805 11.1568 -45.3605
  556 196.693 16.2738 -19.5961
  557 175.265 -15.0859 -35.8028
  558 189.699 -20.7549 -6.26841
  559 198.414 -20.0315 -9.58255
  560 25.4614 32.5090 -30.8549
  561 199.369 -2.42412 -5.01879
  562 301.050 58.7005 -16.5054
  563 183.998 -8.25040 -4.19863
  564 185.607 -5.97922 3.45767
  565 185.431 -5.83762 -3.33111
  566 125.942 -0.786802 -1.60567
  567 125.965 -0.776539 1.59331
  568 16.9543 1.91955 -9.93041
  569 17.9943 2.00903 10.1683
  570 93.6337 -4.43356 -20.2879
  571 94.3775 -4.45641 20.2472
  572 188.128 -10.1563 -7.53475
  573 191.978 -20.8380 6.84355
  574 197.364 -18.6871 2.31416
  575 160.721 -2.84951 -0.525695
  576 160.710 -2.82722 0.522530
  577 152.922 -15.9969 -30.6693
  578 171.814 -14.0319 37.9389
  579 149.118 -15.0344 30.8588
  580 193.296 -4.26873 -19.8022
  581 119.304 -2.08029 6.06644
  582 119.246 -2.10272 -6.12203
  583 183.617 10.1040 -16.3238
  584 184.046 -0.320144 -7.61288
  585 230.639 50.4115 -5.11316
  586 149.553 -2.31651 -0.547518
  587 149.555 -2.29980 0.544483
  588 196.991 -0.563499 -4.34013
  589 134.493 -4.68341 -6.63564
  590 134.490 -4.66500 6.57250
  591 110.485 5.25987 49.1062
  592 191.731 -8.77216 -11.0993
  593 105.973 -5.52805 35.2271
  594 188.405 -9.72522 7.67454
  595 198.765 -2.71060 5.52365
  596 196.428 -1.67599 -1.32981
  597 135.902 -1.76247 -1.46599
  598 135.916 -1.74725 1.45692
  599 221.115 44.3905 -9.99029
  600 105.902 -5.30659 -35.3707
  601 187.790 -8.07743 -6.20203
  602 168.833 -3.11242 -0.216027
  603 168.814 -3.08742 0.214991
  604 320.825 43.3477 -7.55970
  605 110.047 -0.753714 3.36563
  606 109.950 -0.761261 -3.40005
  607 173.774 3.92339 13.9507
  608 251.848 20.5915 -4.73339
  609 117.862 0.972292 -48.7725
  610 59.2662 1.63006 -26.3797
  611 59.7838 1.27368 26.2380
  612 147.472 -8.76013 8.12989
  613 149.075 -9.01801 -7.87105
  614 253.807 51.0432 6.01341
  615 195.582 -1.74170 1.21603
  616 165.814 4.57410 -8.40634
  617 208.147 37.5935 9.05392
  618 207.346 39.0212 -6.01865
  619 170.433 -9.50235 -0.861077
  620 171.772 -9.28001 0.242054
  621 122.588 26.5386 -70.3821
  622 145.609 -5.10575 -4.45949
  623 145.617 -5.04495 4.44096
  624 377.456 77.1614 57.9965
  625 193.152 -6.29048 17.2016
  626 108.555 -3.96359 -13.0017
  627 304.064 68.1003 44.2435
  628 108.815 -3.93978 12.9462
  629 185.626 -7.14868 -48.4904
  630 128.337 -0.695954 -0.593233
  631 128.357 -0.689821 0.589738
  632 159.526 1.37824 7.32710
  633 71.3144 -1.10435 -11.6921
  634 71.7428 -1.10694 11.5940
  635 168.198 -11.9951 2.98614
  636 176.669 -14.2049 -0.255896
  637 209.569 -0.407990 -1.82987
  638 115.086 -0.211968 0.956567
  639 115.046 -0.215586 -0.967907
  640 158.224 -3.60391 -0.736176
  641 158.216 -3.58159 0.728912
  642 182.910 -20.2382 23.6365
  643 209.639 23.4463 -19.9258
  644 138.228 -6.60662 -8.56879
  645 138.119 -6.49305 8.50164
  646 164.998 -11.9850 -4.44184
  647 261.444 57.1768 0.767291
  648 196.165 -18.9355 -1.20635
  649 169.505 -4.04310 -0.159261
  650 169.477 -4.02069 0.160236
  651 234.600 25.5509 15.8232
  652 196.372 -2.75951 -8.65636
  653 172.107 -0.240839 -6.89329
  654 78.7413 -2.67964 -25.4530
  655 78.9999 -2.76007 25.2332
  656 164.623 -14.3195 -7.46030
  657 247.831 55.0551 0.186611
  658 191.164 25.9364 -6.47499
  659 125.359 -1.21908 -2.98714
  660 125.384 -1.20178 2.96019
  661 178.996 -5.01128 -1.23279
  662 179.032 -5.01933 1.27399
  663 337.408 44.1764 19.3793
  664 213.211 -0.516831 0.514950
  665 205.262 -0.756728 3.11231
  666 204.382 -0.780698 -3.61937
  667 193.667 -17.9927 4.01022
  668 140.790 -1.70861 -0.733191
  669 140.801 -1.69552 0.729328
  670 206.178 33.1880 13.8982
  671 266.036 59.3175 -2.51967
  672 144.052 -10.8793 -12.1476
  673 144.000 -10.7679 12.0800
  674 181.477 -18.7252 -2.96659
  675 190.813 11.3327 -19.7568
  676 228.349 0.524919 9.57118
  677 149.656 -2.85074 -1.40389
  678 149.658 -2.83072 1.39690
  679 129.471 -11.4345 -25.0099
  680 191.803 -18.5225 -2.20316
  681 158.874 -17.6372 22.0430
  682 75.4181 23.9866 -49.3218
  683 147.892 -13.8225 16.9913
  684 178.262 0.0452593 6.39151
  685 129.584 -11.3022 24.8318
  686 187.677 -8.23967 6.27841
  687 147.956 -13.7677 -17.1579
  688 150.046 1.88890 1.53277
  689 115.891 -3.23668 9.20640
  690 115.786 -3.24168 -9.27765
  691 158.984 -18.0961 -22.2953
  692 197.092 -12.9372 -13.5543
  693 180.549 -2.44150 -0.310502
  694 180.577 -2.46928 0.311838
  695 201.558 -12.7784 13.5069
  696 182.921 -19.1266 3.67569
  697 222.630 20.4102 19.6207
  698 200.526 -3.71131 20.7816
  699 192.947 -6.86547 12.7993
  700 183.320 15.0406 -12.3812
  701 221.684 37.4052 15.4797
  702 191.147 -2.61727 -12.2527
  703 190.889 -6.25398 6.80045
  704 196.404 30.8595 3.50521
  705 194.042 -3.23881 10.7501
  706 60.5092 41.0002 51.6112
  707 180.743 -20.7674 -13.2883
  708 209.305 3.84040 21.2103
  709 211.619 -6.51498 -15.4714
  710 212.044 -0.223356 1.03481
  711 192.907 -6.55732 -10.1708
  712 180.982 -20.9329 11.9970
  713 354.714 31.3899 -5.27564
  714 105.429 -0.486689 3.52636
  715 105.297 -0.492218 -3.56266
  716 195.979 -3.45885 -4.85729
  717 213.368 -0.165022 -1.00227
  718 164.300 -14.5484 7.50206
  719 197.974 -7.31759 18.9436
  720 303.797 71.2534 -20.1264
  721 187.639 -13.5886 6.56211
  722 208.582 -13.6827 -8.49721
  723 190.967 -6.08089 -6.69413
  724 213.412 -0.306749 -0.347998
  725 192.862 5.64409e-05 21.4155
  726 8.66319 7.07826 10.5021
  727 219.553 -8.64908 -30.9452
  728 238.363 13.9199 10.5248
  729 198.156 -20.1976 8.42225
  730 139.357 -3.45816 3.66727
  731 139.361 -3.50808 -3.68790
  732 187.399 91.2247 -96.4340
  733 201.663 -13.2841 -12.5583
  734 149.431 0.705593 -2.92893
  735 175.743 0.935566 13.6415
  736 194.260 -9.67169 15.3549
  737 186.207 -15.6917 3.70730
  738 194.315 -17.6525 -25.3894
  739 185.018 -14.6409 -4.01644
  740 219.559 -10.5220 -3.69973
  741 202.084 -1.54420 2.86197
  742 179.519 -10.8019 2.33126
  743 329.361 65.9032 -34.7371
  744 191.890 -5.04359 5.43657
  745 189.042 3.07647 -20.7743
  746 162.271 -1.87588 54.6548
  747 202.871 16.3727 21.3292
  748 174.456 -13.7963 1.19203
  749 133.793 -10.6830 -18.2184
  750 133.797 -10.6504 18.0595
  751 184.729 20.7674 -2.89224
  752 188.509 -2.16642 18.6203
  753 190.772 -4.51300 -15.9828
  754 179.728 -11.0186 -2.39522
  755 173.660 -15.6339 3.80377
  756 197.955 32.7938 -3.98197
  757 185.972 -16.0941 -2.97129
  758 186.408 -11.7804 6.34337
  759 189.183 -2.31199 1.03467
  760 189.308 -2.24487 -1.02939
  761 254.587 56.2299 1.94413
  762 208.632 -17.6977 -5.10714
  763 193.504 -5.85383 10.1112
  764 202.196 -1.53573 -2.61834
  765 203.522 1.38091 -21.8263
  766 232.612 12.0769 -13.6087
  767 111.108 -0.132367 -1.63275
  768 111.181 -0.130639 1.61461
  769 1.52555 -3.78849 -2.71068
  770 197.483 -0.201423 4.02494
  771 180.020 -0.332369 -15.1310
  772 186.362 -1.74011 13.4204
  773 171.771 20.5998 80.6605
  774 212.253 43.9194 -0.484392
  775 150.368 -10.9183 9.34422
  776 24.9331 0.616876 -9.88746
  777 25.7309 0.458883 9.99594
  778 184.598 -1.32119 -15.1039
  779 150.802 -11.0312 -9.33852
  780 200.985 -1.69386 2.20736
  781 100.569 -4.39123 17.3272
  782 99.6775 -4.37720 -17.3438
  783 191.887 -4.89270 -5.29838
  784 120.489 -3.16354 -7.99567
  785 120.548 -3.14146 7.91835
  786 200.018 -1.80249 -6.02664
  787 151.242 -4.12724 -2.43220
  788 151.243 -4.09826 2.43256
  789 218.575 -1.39501 -15.5734
  790 195.928 -2.03041 -21.5616
  791 97.3601 -0.658518 -4.51654
  792 97.5602 -0.652441 4.46066
  793 4.00215 2.48516 -5.85938
  794 4.91232 2.61897 6.17426
  795 156.915 0.728170 -5.32761
  796 179.133 -20.1339 -9.70533
  797 -2.10387 -1.47052 3.58923
  798 -1.82994 -1.70726 -3.54615
  799 186.572 -3.64433 2.18179
  800 202.587 -15.7532 -7.60455
  801 208.392 30.9775 -16.2510
  802 201.901 -1.51468 -2.09391
  803 438.593 87.3903 -82.3868
  804 186.534 -3.63060 -2.15462
  805 281.793 54.0613 4.03539
  806 199.273 5.81442 -22.4488
  807 220.744 16.6275 -20.0331
  808 35.1705 -0.418681 -9.18561
  809 35.8840 -0.474224 9.16742
  810 122.383 -1.85238 4.70239
  811 122.342 -1.86854 -4.74866
  812 116.238 -0.306884 0.872835
  813 116.207 -0.310007 -0.880746
  814 222.844 37.6081 -15.3852
  815 129.737 -0.873912 -1.27060
  816 129.756 -0.863618 1.26236
  817 189.104 -1.90228 -19.4229
  818 276.533 27.0414 21.7537
  819 169.117 3.70122 -11.7184
  820 57.0159 -0.528959 9.89937
  821 56.4900 -0.533689 -9.98231
  822 222.602 5.44671 57.4977
  823 195.758 -3.48821 5.01350
  824 173.292 11.4303 -4.88558
  825 78.4662 -0.146066 6.78259
  826 78.0340 -0.108513 -6.83644
  827 119.011 -0.660087 -2.29076
  828 119.051 -0.650586 2.26713
  829 21.1043 18.9081 15.8672
  830 181.187 4.27635 17.4888
  831 202.139 29.7954 -13.8591
  832 218.198 25.3396 -19.7861
  833 141.952 -5.50070 -5.92691
  834 141.861 -5.45635 5.91538
  835 225.685 48.3375 7.06300
  836 195.607 -1.49492 -0.292644
  837 195.614 -1.48328 0.326787
  838 192.948 -5.72261 -12.8636
  839 160.942 -10.8364 5.17894
  840 177.995 -20.0132 9.77858
  841 210.191 -17.2243 15.3581
  842 159.355 -4.67601 -1.29203
  843 159.351 -4.65601 1.28086
  844 182.154 16.8544 7.93721
  845 170.774 2.27226 -12.6727
  846 47.5289 54.3305 53.7173
  847 174.221 -15.5094 -3.36849
  848 174.744 -7.81860 0.887161
  849 174.839 -7.83077 -0.895444
  850 192.268 -2.80851 20.4730
  851 191.025 -12.5171 -9.86210
  852 170.112 -11.3389 -1.66323
  853 395.661 12.8239 -19.8335
  854 161.585 -15.3979 10.5314
  855 161.465 -15.6028 -10.7130
  856 192.179 -2.26509 10.4362
  857 291.376 74.8497 -15.2179
  858 151.346 -13.8901 -13.4020
  859 167.770 -18.9517 12.5155
  860 151.293 -13.7184 13.2757
  861 164.269 -6.66849 -1.41704
  862 164.260 -6.64300 1.40392
  863 23.5916 10.2933 13.8339
  864 206.638 15.4603 -21.6725
  865 157.386 -6.22581 -2.54717
  866 157.412 -6.16012 2.55735
  867 155.281 -2.60332 -0.302748
  868 155.276 -2.58382 0.300301
  869 171.499 -3.37024 0.134940
  870 171.477 -3.34597 -0.135688
  871 138.148 -2.80769 -3.18631
  872 138.156 -2.77498 3.17079
  873 158.049 -8.42953 -3.95871
  874 158.067 -8.36761 3.97543
  875 3.65719 -2.02602 -1.37861
  876 239.989 45.0253 11.9485
  877 206.362 -7.18823 -17.6692
  878 167.648 -18.6796 -12.6608
  879 181.310 -5.79070 2.15273
  880 181.227 -5.72727 -2.09875
  881 197.608 0.275475 22.0181
  882 216.050 -15.4214 -7.89064
  883 191.647 13.0470 -69.8112
  884 85.4251 -1.28157 34.1954
  885 -3.78735 1.99499 -2.12977
  886 -3.34361 2.24817 2.38732
  887 23.4096 10.9492 -14.1130
  888 193.501 -5.47759 8.03702
  889 204.163 -1.24077 -3.40867
  890 183.352 -17.5760 29.3853
  891 85.2164 -1.18249 -34.3396
  892 204.348 -16.6585 5.65373
  893 228.590 -7.02216 25.0934
  894 162.939 0.640673 5.65409
  895 187.990 17.8810 13.5562
  896 100.788 -5.72838 25.2520
  897 100.387 -5.77526 -25.4307
  898 121.039 -5.90153 -14.1247
  899 128.266 -6.16550 -43.7369
  900 204.085 -4.72301 19.6752
  901 281.893 65.6423 8.41892
  902 204.679 7.90506 22.1005
  903 193.504 -4.07079 -11.7037
  904 131.028 -5.52505 44.8333
  905 247.432 45.4781 -9.23236
  906 23.8047 20.4394 -19.6496
  907 177.750 -0.375128 -6.09681
  908 121.167 -5.85109 13.9897
  909 148.445 -3.34743 2.16070
  910 148.444 -3.37221 -2.16670
  911 191.312 -12.4513 10.1632
  912 199.325 -1.13689 0.870964
  913 146.090 1.41368 -54.5057
  914 210.467 -0.417598 1.61824
  915 208.725 -0.337326 -2.04433
  916 153.158 1.28961 -4.88846
  917 201.176 -0.798217 -3.57897
  918 149.064 -7.10681 -5.38019
  919 149.164 -6.99665 5.39509
  920 -5.11837 1.77094 -2.97438
  921 -6.96172 1.06723 3.10833
  922 199.327 -1.04797 -0.876812
  923 64.2117 -1.42432 23.0484
  924 63.7992 -1.27925 -23.1873
  925 211.938 31.0158 17.2052
  926 386.194 6.95324 6.17815
  927 199.195 22.2053 17.8935
  928 227.468 -8.14189 6.11107
  929 196.691 -10.8990 15.5286
  930 245.180 51.4992 -7.01247
  931 149.686 0.582639 3.68157
  932 189.367 -4.35235 -3.38659
  933 196.132 10.5493 -21.6356
  934 238.781 6.80392 -5.42839
  935 184.337 -11.3726 -5.10370
  936 91.8857 -0.545231 -5.06780
  937 91.9920 -0.526105 4.99273
  938 194.736 -4.49250 -9.27841
  939 6.14629 7.91774 1.23662
  940 186.885 -19.3661 -1.03798
  941 159.964 4.63261 -0.505340
  942 243.311 53.7491 -4.66421
  943 37.6854 28.1070 -33.0554
  944 186.380 -1.38339 -12.0269
  945 127.684 -2.23254 -4.37030
  946 127.705 -2.20537 4.32937
  947 1.01174 -5.44618 4.18747
  948 125.736 -9.48987 -20.2789
  949 190.304 -10.9577 -9.54635
  950 115.724 0.246692 -0.357119
  951 115.747 0.248049 0.354318
  952 191.336 23.2457 -10.8855
  953 207.250 -0.507189 -0.328607
  954 207.248 -0.516635 0.426272
  955 125.786 -9.46112 20.1317
  956 192.298 -0.235275 -4.77932
  957 222.257 1.58988 15.0983
  958 197.027 -2.66816 3.90352
  959 30.3584 7.96356 -17.6689
  960 204.613 -1.14672 3.09854
  961 184.124 1.44963 18.7670
  962 194.223 26.9709 9.68672
  963 194.771 2.26253 -22.1648
  964 133.020 -7.28472 -12.0418
  965 211.032 -7.41930 14.9675
  966 133.104 -7.25372 11.9113
  967 5.82034 6.46741 -0.169587
  968 22.0102 3.97718 12.9284
  969 107.631 -1.98600 8.34744
  970 107.494 -1.98901 -8.39995
  971 189.498 -4.44117 3.55430
  972 202.882 35.4431 5.39653
  973 102.961 9.58479 -51.4660
  974 169.772 -10.6652 1.39469
  975 159.314 -16.7350 -16.1223
  976 233.086 44.7928 12.1754
  977 179.047 -3.08796 0.426188
  978 179.041 -3.06921 -0.426946
  979 196.659 -3.54034 -6.72713
  980 180.391 15.5302 -7.32551
  981 418.846 122.563 82.7799
  982 36.4497 2.17107 -17.2093
  983 37.0688 1.80746 17.2526
  984 2.70660 -4.15363 0.579273
  985 181.043 9.98122 15.0355
  986 159.252 -16.8333 15.9955
  987 198.034 -9.30957 -17.5569
  988 215.566 17.6452 21.5371
  989 208.013 -16.7918 -19.1479
  990 304.418 64.1833 20.6030
  991 175.643 -2.77689 -0.0243519
  992 175.620 -2.75168 0.0247140
  993 206.199 -8.34803 16.8027
  994 13.9965 21.8093 23.6557
  995 90.5906 -1.97261 11.9887
  996 90.2906 -1.94762 -12.1270
  997 108.931 -5.45964 16.3426
  998 108.544 -5.37918 -16.4114
  999 122.980 -5.20590 11.6759
  1000 134.426 -1.13704 -0.583952
  1001 134.441 -1.12816 0.581244
  1002 345.278 107.674 -67.8989
  1003 310.169 77.6295 30.9357
  1004 122.880 -5.23465 -11.7827
  1005 212.445 -0.938937 18.4950
  1006 188.906 19.6078 -13.0706
  1007 133.434 -11.4148 36.2259
  1008 172.173 -20.3276 -19.0985
  1009 196.922 -1.56859 -7.05425
  1010 87.8202 6.21923 41.7735
  1011 112.776 -8.63854 28.9569
  1012 172.649 8.77755 -9.39373
  1013 198.985 -3.90357 -20.9920
  1014 258.927 100.841 110.555
  1015 162.596 4.89802 6.66659
  1016 223.338 48.4509 -0.845723
  1017 164.932 6.34001 -62.0194
  1018 166.812 -17.6382 -10.7339
  1019 213.618 -0.166064 -0.822015
  1020 203.316 18.7036 -20.7837
  1021 117.034 -0.813870 2.96541
  1022 116.981 -0.822264 -2.99629
  1023 4.19427 1.24625 -5.68456
  1024 133.045 -6.22316 -10.0187
  1025 112.644 -8.75141 -29.1886
  1026 132.933 -6.20677 9.89889
  1027 194.405 -5.87947 19.4085
  1028 174.225 -10.8094 0.222766
  1029 182.479 3.32062 -18.1598
  1030 187.699 23.4718 3.81271
  1031 257.902 14.9048 7.55501
  1032 192.842 -14.6145 9.77894
  1033 120.587 -9.75492 -22.1933
  1034 180.811 6.34880 -16.9667
  1035 134.649 -11.2559 -36.4336
  1036 260.192 56.8576 -0.752597
  1037 175.423 11.4575 8.54509
  1038 224.081 -1.37114 -11.8782
  1039 167.858 -17.6404 9.80424
  1040 192.655 -6.05522 15.0798
  1041 191.539 -10.0663 11.0916
  1042 190.492 -9.53255 9.66946
  1043 235.830 29.8374 -16.2079
  1044 189.867 -3.03373 15.1773
  1045 171.863 -20.3849 18.7777
  1046 183.472 -7.45535 3.46950
  1047 120.660 -9.77111 22.0577
  1048 171.963 -12.7467 -1.75808
  1049 98.9433 -4.77047 -30.9799
  1050 142.167 -14.8154 24.4628
  1051 193.583 -1.27088 -8.15186
  1052 188.215 -2.11212 -17.1897
  1053 162.867 -12.9955 -6.39610
  1054 99.1164 -4.91567 30.7223
  1055 174.771 0.391511 -11.8596
  1056 129.606 -8.75283 -15.6489
  1057 237.220 50.7716 7.79414
  1058 51.7457 8.81697 -29.1345
  1059 412.900 29.2169 40.1614
  1060 94.1751 7.23092 -43.7919
  1061 190.500 -15.7587 -6.32544
  1062 129.636 -8.67480 15.5113
  1063 172.795 1.77095 13.2312
  1064 95.5608 -2.00580 9.91917
  1065 95.5047 -2.05602 -10.0258
  1066 192.559 -5.32611 -17.9703
  1067 206.045 -0.927483 1.31435
  1068 201.331 -0.413244 3.62504
  1069 198.552 6.61797 22.3766
  1070 185.348 -1.39582 16.1141
  1071 144.423 15.2543 67.1403
  1072 215.075 -0.120252 0.410853
  1073 199.552 27.1217 14.2497
  1074 167.883 2.36891 11.3762
  1075 204.108 -0.734294 3.49614
  1076 128.857 -1.46837 -2.42304
  1077 128.876 -1.45127 2.40509
  1078 81.3745 -2.36490 -16.5264
  1079 81.7164 -2.44961 16.4035
  1080 168.410 8.31713 4.76593
  1081 259.000 13.1949 -17.2471
  1082 237.917 -0.754777 -34.5435
  1083 187.345 -0.152490 -4.93715
  1084 142.235 -14.9283 -24.6555
  1085 163.206 -12.3582 5.65848
  1086 188.490 -0.419881 5.15551
  1087 198.125 -14.3206 -11.4447
  1088 121.124 -0.320489 1.46203
  1089 121.098 -0.325891 -1.47228
  1090 190.131 -16.2103 6.32359
  1091 180.545 -3.61414 0.789167
  1092 180.515 -3.61688 -0.776048
  1093 175.572 -17.7347 5.86895
  1094 227.825 -7.44290 -1.07821
  1095 99.9657 -0.191635 -2.80924
  1096 100.138 -0.184951 2.77703
  1097 154.242 -9.64381 -41.7395
  1098 163.369 -3.91069 0.634293
  1099 163.388 -3.93483 -0.641944
  1100 99.2883 52.6008 73.7279
  1101 228.113 18.6229 -18.0598
  1102 32.5950 16.1598 -21.7160
  1103 197.163 -2.82177 -3.77576
  1104 51.5065 17.9824 -33.3838
  1105 107.731 -6.88558 -21.1123
  1106 215.234 -0.175934 0.242468
  1107 215.332 -0.161364 -0.181329
  1108 193.460 -10.9966 -13.3627
  1109 171.365 -19.1777 -26.5130
  1110 51.7672 7.50478 27.7633
  1111 210.315 20.8602 20.3464
  1112 191.414 -1.79722 -0.355325
  1113 191.433 -1.79945 0.374571
  1114 209.934 -13.6404 32.0466
  1115 215.072 43.3308 7.89243
  1116 126.017 -3.15359 -6.28746
  1117 126.045 -3.13741 6.23759
  1118 96.4216 11.1889 51.9197
  1119 182.050 0.894704 -17.5931
  1120 56.3745 18.4206 35.9634
  1121 236.721 -4.28950 -9.67971
  1122 230.672 51.4033 2.46414
  1123 158.024 -12.6368 7.94763
  1124 143.795 0.706367 -0.717077
  1125 202.149 -1.69339 4.53648
  1126 209.697 -0.214731 1.77675
  1127 43.5452 0.0956125 -8.28494
  1128 44.2024 0.0726200 8.22511
  1129 162.352 2.62987 -8.41167
  1130 168.757 -4.96807 -0.281109
  1131 168.715 -4.94178 0.278213
  1132 17.4747 25.4634 -25.1174
  1133 28.0750 57.7937 -51.3118
  1134 171.005 -6.69422 0.0189882
  1135 171.077 -6.69703 -0.0271552
  1136 176.934 -4.21330 0.872622
  1137 176.909 -4.20241 -0.855926
  1138 45.6483 29.2814 36.0467
  1139 138.036 -1.78397 -1.14040
  1140 138.049 -1.77022 1.13396
  1141 174.431 13.1172 -0.203699
  1142 227.096 27.0727 -77.6682
  1143 214.223 37.0831 -13.5121
  1144 195.703 -7.47185 -18.4275
  1145 192.836 -9.56504 -13.4923
  1146 158.139 -12.7585 -8.08714
  1147 157.640 0.481368 5.19304
  1148 178.602 11.0750 -12.5602
  1149 175.990 9.39956 11.9799
  1150 183.349 -7.23313 -3.41058
  1151 174.685 -10.5874 -0.348259
  1152 158.294 -10.3615 -5.88831
  1153 188.978 -1.09213 9.61435
  1154 338.785 34.2955 4.80878
  1155 190.370 -4.03307 17.5246
  1156 190.653 12.5194 18.9778
  1157 176.409 -17.4172 -4.18625
  1158 20.7595 3.66272 -12.4553
  1159 179.722 -8.29566 -2.59642
  1160 116.587 -0.215951 -0.0654294
  1161 116.608 -0.215124 0.0644819
  1162 220.065 -5.82701 10.3020
  1163 209.763 -17.6288 6.35841
  1164 302.118 54.3966 12.8985
  1165 69.1808 -0.167790 -6.94279
  1166 69.6335 -0.152306 6.88635
  1167 159.694 -3.25581 -0.576711
  1168 159.684 -3.23343 0.571278
  1169 180.337 -15.9446 0.322825
  1170 145.149 0.614000 2.34349
  1171 184.763 -13.1513 4.94448
  1172 9.99119 11.8849 -5.31185
  1173 32.2905 16.3678 21.2536
  1174 122.902 -6.55980 40.3710
  1175 213.260 40.8582 -9.63578
  1176 204.896 -0.537219 -2.75753
  1177 216.191 -0.313522 0.176182
  1178 216.424 -0.441056 -0.118607
  1179 121.745 -0.340156 -0.230613
  1180 121.767 -0.337594 0.228505
  1181 196.493 12.5847 21.6143
  1182 293.269 50.5094 -1.06618
  1183 202.240 33.5880 -9.68603
  1184 151.603 -11.0386 41.4673
  1185 122.244 -6.28879 -40.2986
  1186 135.353 -9.23125 -13.9758
  1187 189.571 -5.20249 4.47726
  1188 265.528 58.2495 0.609913
  1189 135.357 -9.17245 13.8562
  1190 193.951 -3.26243 3.39207
  1191 171.149 6.27685 11.4173
  1192 189.711 5.86033 20.7089
  1193 272.400 60.9891 5.33810
  1194 160.023 -4.21815 1.09282
  1195 160.034 -4.24106 -1.10278
  1196 196.377 -3.57861 6.97947
  1197 113.727 -1.28977 4.66897
  1198 113.646 -1.30329 -4.71586
  1199 192.193 -2.48300 -1.58854
  1200 78.4703 46.4656 -71.0702
  1201 166.348 -9.31496 -44.3809
  1202 155.461 -4.95628 -2.18968
  1203 155.473 -4.93119 2.19004
  1204 206.984 -0.864896 1.16754
  1205 195.198 -2.42093 2.72155
  1206 10.2400 12.5112 8.98079
  1207 213.313 -0.197653 0.953744
  1208 24.6009 30.6192 30.3776
  1209 190.460 -2.71663 -2.02581
  1210 -0.297444 -4.74627 -4.14389
  1211 133.613 -13.0234 -31.1978
  1212 133.218 -12.7026 30.8730
  1213 213.311 -0.338332 -1.04699
  1214 180.896 -9.53388 -3.03959
  1215 206.804 -0.777078 -1.21384
  1216 163.728 -5.33801 -0.918833
  1217 163.707 -5.31521 0.903885
  1218 192.064 -2.46294 1.49969
  1219 179.590 -8.13583 2.56915
  1220 172.537 -5.53673 -0.404997
  1221 172.603 -5.55522 0.428062
  1222 206.657 -0.801780 -0.996602
  1223 177.602 -18.6209 -29.9720
  1224 201.947 -1.10711 -1.03688
  1225 191.308 -2.79820 2.15712
  1226 131.031 -1.52901 -1.77193
  1227 131.049 -1.51355 1.75963
  1228 147.297 -2.22902 -0.855509
  1229 147.301 -2.21223 0.850208
  1230 241.904 37.5886 13.8579
  1231 203.070 -15.5282 8.85520
  1232 138.705 -0.557987 51.3825
  1233 108.472 -0.214306 1.78995
  1234 108.379 -0.216470 -1.80981
  1235 191.711 -3.49947 13.2361
  1236 183.789 -2.67135 0.511995
  1237 183.800 -2.66103 -0.511649
  1238 209.703 41.0773 4.47883
  1239 193.323 -20.1883 23.4053
  1240 109.055 -1.62194 6.59655
  1241 108.942 -1.63501 -6.65020
  1242 183.446 -4.39267 1.85331
  1243 183.406 -4.42166 -1.80785
  1244 189.473 -5.13344 -4.32589
  1245 172.358 0.0223696 6.14681
  1246 302.955 75.2059 -23.9146
  1247 192.811 -6.98796 -11.9054
  1248 31.8413 7.85323 18.1980
  1249 199.318 -10.5598 16.4788
  1250 157.679 3.35055 -4.59641
  1251 11.4862 8.82607 6.24196
  1252 264.736 28.6796 -0.304236
  1253 194.477 -8.79711 -16.5166
  1254 158.478 2.17328 7.03424
  1255 108.514 -6.89468 21.0635
  1256 197.870 -15.2597 10.3230
  1257 289.899 53.7639 14.8456
  1258 65.1601 9.86124 35.4636
  1259 199.060 -2.25533 -5.99701
  1260 389.531 4.29856 -3.98166
  1261 403.085 6.10646 17.8458
  1262 431.330 14.9251 -42.2282
  1263 192.420 -5.94885 -14.6488
  1264 192.574 -8.72935 12.6567
  1265 195.801 -13.8811 12.0485
  1266 -5.79196 0.608870 3.71765
  1267 -5.28901 0.469332 -4.02510
  1268 190.816 -21.0287 -10.3217
  1269 195.744 -19.7240 -15.9752
  1270 146.275 0.888089 -2.89923
  1271 190.086 -21.4229 16.0198
  1272 202.842 -9.56430 -16.7594
  1273 3.51557 5.83466 0.245327
  1274 163.851 -2.98706 0.478285
  1275 163.865 -3.01054 -0.479562
  1276 202.079 -1.50818 4.12448
  1277 193.952 -3.20055 -3.19956
  1278 182.238 -19.9069 -5.06015
  1279 165.745 -9.05240 2.14957
  1280 164.881 -8.92989 -2.41185
  1281 195.464 -4.04554 9.43464
  1282 200.239 -7.30470 -19.0351
  1283 11.9325 9.20370 -5.98317
</Section>

newXOutput 27

<Section columns = "stress_xx | stress_yy | stress_xy">
  1 226.082 0.00132390 0.465650
  2 226.100 0.00392519 -0.467350
  3 119.100 -0.0602518 -0.168910
  4 -1.52749 -1.51714 -2.19466
  5 415.931 158.633 130.141
  6 411.938 164.702 -130.764
  7 -1.77206 -1.44775 2.32689
  8 119.079 -0.0607460 0.168373
  9 227.771 -0.355884 0.149639
  10 227.239 -0.572584 -0.0951124
  11 226.628 -0.360698 0.555366
  12 226.023 -0.516225 0.187746
  13 224.732 -0.426974 0.876603
  14 223.571 -0.436317 0.659469
  15 220.904 -0.388076 1.24867
  16 217.170 -0.239834 1.83174
  17 213.823 -0.271858 2.02245
  18 208.925 -0.410088 2.42685
  19 202.213 -0.00516252 3.56341
  20 196.009 -0.303281 3.36673
  21 189.045 -0.411845 4.71639
  22 178.973 0.294937 4.08301
  23 171.757 0.422258 4.80947
  24 162.352 0.725663 3.74739
  25 155.879 0.727181 3.77037
  26 146.493 1.05078 1.91725
  27 144.532 1.66003 2.04993
  28 143.360 1.34191 -0.603233
  29 144.983 0.744817 -1.33597
  30 147.962 0.747036 -1.63521
  31 154.988 0.960399 -3.27169
  32 161.810 0.757467 -4.15527
  33 171.887 0.142722 -4.93822
  34 179.961 -0.113543 -4.52235
  35 188.622 -0.330336 -4.46551
  36 196.492 -0.234995 -3.16604
  37 203.307 -0.237951 -2.72358
  38 208.966 -0.398287 -2.30072
  39 214.068 -0.274541 -1.62435
  40 217.295 -0.315849 -1.73320
  41 220.411 -0.406827 -1.27146
  42 223.394 -0.489252 -0.580284
  43 224.935 -0.388116 -0.666511
  44 225.786 -0.220515 -0.425728
  45 225.270 -0.0934325 -0.387170
  46 227.494 -0.583133 0.0570304
  47 227.854 -0.373049 -0.154516
  48 219.958 -0.0867319 -0.287307
  49 214.744 -0.803930 -0.503854
  50 208.417 -1.20870 -0.349090
  51 200.730 -1.84866 -0.472934
  52 193.479 -2.04294 -0.595951
  53 185.764 -2.61732 -0.562740
  54 178.958 -2.94644 -0.325587
  55 172.992 -3.34452 -0.138364
  56 166.117 -2.78837 -0.139156
  57 158.196 -2.63065 -0.202124
  58 150.554 -2.09927 -0.0780766
  59 143.306 -1.36199 -0.0368518
  60 136.405 -0.987038 -0.00243722
  61 130.333 -0.527460 0.0529485
  62 124.097 -0.157901 -0.195460
  63 119.188 0.163332 0.222394
  64 117.011 0.490149 0.141356
  65 118.572 -0.00502695 0.349111
  66 116.976 -0.0790345 0.416883
  67 115.531 -0.112046 0.521336
  68 113.550 -0.0248804 0.688699
  69 111.046 -0.0148829 0.874112
  70 109.255 -0.169301 1.71233
  71 103.890 0.153833 1.87530
  72 100.153 -0.0183281 2.16259
  73 94.5843 -0.108299 2.44892
  74 88.1507 -0.177578 2.98618
  75 80.1170 -0.0459589 3.62556
  76 70.3191 0.0412431 3.98551
  77 61.9532 -0.102314 5.68833
  78 45.2539 0.540740 5.34148
  79 33.9923 0.467828 5.65437
  80 20.6021 -0.0816302 6.23409
  81 9.58633 1.07589 6.43095
  82 -2.90300 1.58216 3.76076
  83 -11.8544 1.60075 1.21384
  84 -11.2273 1.51528 -0.761138
  85 -10.4104 1.24642 -3.18469
  86 -6.08942 -0.445280 -2.97952
  87 -0.776786 -5.84655 -3.27517
  88 0.524712 -10.8392 -4.15175
  89 1.53498 -17.4022 -2.45549
  90 3.45437 -18.3119 -0.166130
  91 7.37416 -6.18050 9.28311
  92 22.3512 31.0647 32.8361
  93 135.401 119.808 115.643
  94 501.954 74.2898 84.8608
  95 450.555 10.6984 27.8902
  96 417.326 4.37784 8.53508
  97 405.026 3.68611 0.681916
  98 411.425 4.94770 -7.35001
  99 449.293 9.89299 -22.0466
  100 534.060 35.8785 -73.7066
  101 79.8901 121.559 -96.2244
  102 16.7630 20.1828 -26.9179
  103 8.02768 -5.37219 -9.60130
  104 3.21868 -18.4634 -1.32492
  105 0.850896 -13.3615 2.84809
  106 1.11781 -13.6340 3.62168
  107 0.0337623 -5.07786 3.62352
  108 -6.35010 -0.309019 2.83744
  109 -10.7448 0.935075 2.79082
  110 -11.8135 1.84618 0.828364
  111 -12.2491 1.58090 -1.10694
  112 -3.74406 1.62178 -3.51002
  113 8.83302 1.08570 -6.12378
  114 19.8311 0.0306645 -6.13096
  115 33.2008 0.506206 -5.66854
  116 44.5346 0.555648 -5.38554
  117 61.3946 -0.104642 -5.74021
  118 69.8397 0.0465915 -4.02731
  119 79.6993 -0.0440125 -3.67420
  120 87.9343 -0.195567 -3.01140
  121 94.2994 -0.103754 -2.45700
  122 99.9384 -0.0112753 -2.18711
  123 103.716 0.151735 -1.89818
  124 109.132 -0.170850 -1.73178
  125 110.950 -0.0158928 -0.886152
  126 113.480 -0.0258258 -0.698645
  127 115.480 -0.113596 -0.529261
  128 116.939 -0.0803592 -0.422447
  129 118.543 -0.00619849 -0.352697
  130 116.988 0.489409 -0.143051
  131 119.166 0.162992 -0.223437
  132 124.075 -0.159259 0.194830
  133 130.311 -0.530849 -0.0542851
  134 136.386 -0.994588 0.000858592
  135 143.292 -1.37252 0.0353155
  136 150.547 -2.11441 0.0765851
  137 158.198 -2.64967 0.200970
  138 166.127 -2.81024 0.138078
  139 173.008 -3.36871 0.137956
  140 178.980 -2.97043 0.326425
  141 185.793 -2.63916 0.565150
  142 193.502 -2.05820 0.604672
  143 200.745 -1.86227 0.514255
  144 208.452 -1.13524 0.357085
  145 214.897 -0.779739 0.492973
  146 219.988 -0.120562 0.283208
  147 195.429 -18.3474 -2.35574
  148 195.275 -18.1026 2.42660
  149 204.206 29.4207 -10.5853
  150 218.534 12.9190 22.6874
  151 165.403 -15.8277 -35.6958
  152 166.715 -15.8179 34.5099
  153 159.708 -6.88965 3.97380
  154 159.727 -6.98927 -3.97902
  155 232.367 8.28786 -17.8761
  156 194.902 -6.93809 5.02677
  157 194.822 -6.76516 -4.96233
  158 251.959 56.6332 3.10466
  159 198.988 -0.317154 -21.9131
  160 146.439 -11.6870 -15.8835
  161 146.432 -11.5854 15.7324
  162 199.494 -4.48247 19.8977
  163 188.625 13.7155 12.9360
  164 77.2666 12.6852 -42.5630
  165 85.9008 11.9980 44.8864
  166 246.063 2.58383 3.65887
  167 200.288 -7.62462 -14.0567
  168 265.985 58.4816 -2.45819
  169 179.997 -5.05353 0.372135
  170 179.956 -5.03492 -0.354528
  171 203.208 -2.32325 -2.22093
  172 203.896 -2.06998 1.92727
  173 139.768 -2.10479 -2.45051
  174 139.782 -2.08202 2.43546
  175 219.254 -6.09328 45.3124
  176 182.359 7.49498 -13.9179
  177 118.699 -8.97766 -25.8021
  178 119.059 -8.91065 25.6197
  179 133.077 -4.50954 -8.33567
  180 133.085 -4.45578 8.26660
  181 201.321 -5.21879 11.9399
  182 182.633 -12.5859 0.320318
  183 181.961 -12.4918 -0.00987336
  184 208.575 -20.1130 -2.29676
  185 209.625 -19.1599 -0.321521
  186 288.911 67.8810 -8.56470
  187 208.302 33.5924 9.92086
  188 209.088 12.8596 -22.6004
  189 218.652 -2.24546 -52.9075
  190 207.986 -11.6941 -16.2335
  191 209.743 -8.32470 18.9380
  192 174.443 -19.8374 17.0900
  193 174.512 -19.7021 -17.0311
  194 185.724 2.32197 16.7765
  195 83.9666 -1.96879 -31.4650
  196 84.1860 -2.15822 31.2597
  197 327.024 49.2178 6.97810
  198 196.830 -11.6890 9.09930
  199 204.406 -3.66136 -7.86278
  200 160.652 -3.99457 -1.74364
  201 160.652 -3.97180 1.73664
  202 195.430 -2.52288 -15.2878
  203 222.964 32.8088 -18.3063
  204 185.300 16.6028 -2.59887
  205 119.454 -4.36838 11.8378
  206 119.265 -4.38417 -11.9348
  207 207.803 -2.18849 4.39458
  208 201.287 3.78975 22.5060
  209 163.140 -12.0292 -7.31378
  210 161.971 -11.3933 7.52934
  211 238.188 35.3248 17.1896
  212 282.063 37.6113 4.20362
  213 18.2222 14.5294 -11.3581
  214 16.8264 13.4322 9.61543
  215 115.003 32.6504 75.7967
  216 194.823 -12.9247 -7.19061
  217 208.621 -2.10396 -3.97460
  218 183.506 1.56252 -15.4412
  219 127.264 -1.35072 -3.68305
  220 127.302 -1.33512 3.64685
  221 174.743 -8.25383 -1.09881
  222 174.823 -8.30083 0.997333
  223 197.242 -2.63537 13.0491
  224 228.762 -13.2882 3.71092
  225 225.552 46.4093 -5.36693
  226 176.895 -17.1740 -7.66027
  227 224.842 -3.88545 15.1570
  228 191.065 -3.10574 0.920882
  229 191.071 -3.07792 -0.919345
  230 175.535 -17.0903 8.00854
  231 201.674 -12.7429 13.3184
  232 286.378 35.6861 -15.8297
  233 62.0297 36.9745 -54.3220
  234 168.708 5.82589 3.29715
  235 201.779 17.8126 18.9187
  236 215.960 -1.47658 -20.4730
  237 201.415 -7.20827 -18.7174
  238 105.320 -3.49397 -14.9002
  239 105.702 -3.43954 14.8447
  240 201.831 -2.37795 -10.1758
  241 192.434 -4.78626 2.75853
  242 192.343 -4.77716 -2.67685
  243 39.0975 3.77567 -19.7926
  244 39.7746 3.31241 19.7315
  245 215.341 -18.7963 -15.4240
  246 213.240 -0.636923 0.650244
  247 213.492 -0.650370 -0.693041
  248 196.867 16.3096 -17.2787
  249 172.272 3.22435 10.0454
  250 368.503 59.0594 39.4787
  251 365.688 41.6445 -24.8531
  252 261.832 56.8723 -0.705713
  253 163.275 -7.79045 47.7218
  254 149.616 -4.96935 -49.9704
  255 171.067 -3.51018 -0.515410
  256 171.049 -3.48522 0.510483
  257 140.885 -3.89789 4.99938
  258 140.890 -3.95360 -5.04930
  259 207.341 -2.14560 6.38634
  260 200.884 -14.2629 -11.1392
  261 127.731 -0.285031 -0.845610
  262 127.755 -0.280442 0.839436
  263 198.341 -7.95883 -8.80520
  264 82.1883 -2.73292 -20.6100
  265 82.5690 -2.74221 20.4506
  266 200.682 -8.64762 15.1352
  267 152.638 -16.2030 28.6768
  268 153.055 -16.4945 -28.5911
  269 171.323 6.46239 -4.67495
  270 147.802 -2.34722 -1.64458
  271 147.811 -2.32999 1.63708
  272 187.174 -0.493230 12.4300
  273 224.543 41.3096 12.7416
  274 118.198 -1.52191 6.31542
  275 118.106 -1.53531 -6.37471
  276 206.513 -17.1836 8.22130
  277 191.176 -21.3907 -18.6939
  278 213.929 -0.919566 2.07560
  279 146.556 -8.85532 -10.7785
  280 146.281 -8.75295 10.7319
  281 265.676 26.0985 67.0657
  282 122.696 -9.86920 34.3877
  283 198.597 27.9505 -1.12689
  284 253.540 27.7126 -12.0581
  285 190.255 -14.7291 3.33829
  286 191.278 -21.9834 16.7464
  287 123.097 -9.70116 -34.8005
  288 22.4093 27.5842 24.7010
  289 198.374 -7.99069 8.96247
  290 261.352 33.8238 9.85645
  291 215.740 -0.818934 -1.79913
  292 193.528 6.73710 -19.8841
  293 191.743 -10.8232 5.17213
  294 187.659 -15.8704 -0.374666
  295 192.753 8.82314 19.1345
  296 205.491 -17.1967 -7.44300
  297 291.962 57.1316 -4.58001
  298 191.690 -10.3991 -4.95607
  299 159.738 44.9505 -93.3274
  300 196.273 -20.7814 -2.78938
  301 194.854 -21.3443 5.05133
  302 141.998 -12.9582 -22.5706
  303 126.598 -0.533218 -1.85404
  304 126.629 -0.524015 1.83720
  305 142.048 -12.9654 22.4389
  306 207.275 -0.326837 -22.7880
  307 224.644 -9.28265 -10.4963
  308 169.820 -10.3314 -3.60739
  309 169.695 -10.3542 3.67994
  310 204.771 -17.6198 30.4023
  311 203.557 -1.58100 7.70924
  312 249.049 0.790429 9.50851
  313 166.156 -5.93346 -1.92636
  314 166.163 -5.91064 1.91257
  315 150.697 -4.02485 -3.20966
  316 150.693 -3.98504 3.20322
  317 170.395 2.22956 -9.72034
  318 221.204 16.2138 -22.0604
  319 344.991 92.6157 -43.1269
  320 202.010 -1.64243 -0.761797
  321 201.884 -1.61910 0.779362
  322 106.950 -0.0474067 42.9054
  323 150.047 -6.94988 -7.01646
  324 149.743 -6.92215 7.03292
  325 106.934 -0.287619 -42.7428
  326 210.311 24.8682 -18.5474
  327 236.666 11.6410 17.1174
  328 204.848 -14.6243 -33.8780
  329 187.345 -7.19837 2.47261
  330 187.146 -7.14149 -2.38664
  331 200.440 -4.04592 -4.38453
  332 187.322 -0.372358 -11.6305
  333 211.239 0.950883 22.4027
  334 211.425 -1.39861 -4.42673
  335 125.160 -7.74617 17.2531
  336 125.024 -7.79211 -17.3972
  337 195.921 -0.452300 20.7667
  338 118.772 -1.03409 -3.72380
  339 118.849 -1.02416 3.68613
  340 201.865 -4.54472 6.66877
  341 241.862 49.5854 -9.77438
  342 200.322 -4.08050 4.53985
  343 212.738 26.7903 18.6444
  344 203.797 -3.75699 21.7173
  345 160.414 -3.04653 0.606003
  346 160.418 -3.06718 -0.611215
  347 192.323 -0.702226 -18.4103
  348 255.941 53.9461 6.76615
  349 211.744 39.0050 0.390784
  350 129.938 15.1788 -64.0983
  351 12.5302 5.83580 -8.33514
  352 13.8403 6.30717 9.01270
  353 -0.877395 1.36813 4.11155
  354 -0.0406785 0.691772 -4.27402
  355 378.434 26.2330 9.12445
  356 175.563 -14.3477 -4.22869
  357 202.045 -4.38484 -6.51061
  358 181.734 -3.14070 0.384484
  359 181.713 -3.11320 -0.385271
  360 193.795 21.4101 -9.34870
  361 165.658 -16.9842 14.0376
  362 14.0627 20.7860 -15.0251
  363 165.836 -16.9849 -14.3142
  364 196.419 22.3516 9.94960
  365 201.325 -5.30365 -11.3952
  366 213.914 -11.8819 -14.0859
  367 227.078 48.2562 3.71220
  368 214.470 -13.3282 11.8501
  369 86.4480 -2.22486 13.8271
  370 85.8995 -2.18247 -13.9252
  371 48.3980 1.26026 -19.0229
  372 48.9560 1.05520 18.9343
  373 173.234 0.500234 9.84795
  374 335.149 96.9232 36.1561
  375 208.487 -1.26697 -5.55364
  376 161.204 -13.7615 -10.6863
  377 161.053 -13.7204 10.6703
  378 199.947 -4.56774 -14.2885
  379 228.893 -11.0607 2.99898
  380 175.556 -14.3321 4.37703
  381 252.120 1.40878 -19.0348
  382 139.567 -1.19241 -0.602607
  383 139.584 -1.18162 0.597169
  384 196.329 -1.12355 -9.05176
  385 103.797 -1.56475 -9.04113
  386 103.868 -1.61329 8.92474
  387 235.447 30.0407 -18.9826
  388 126.729 9.01490 59.4399
  389 183.830 -9.66666 1.52559
  390 184.014 -9.64748 -1.53594
  391 215.800 36.6536 -11.8654
  392 204.678 -6.03326 -20.6624
  393 205.957 -20.9985 16.1014
  394 170.455 -4.55005 -0.779641
  395 170.432 -4.52526 0.768876
  396 197.646 -15.2317 7.74810
  397 213.572 -0.959217 3.30633
  398 130.972 -4.91895 -10.4846
  399 131.022 -4.91689 10.3872
  400 200.149 6.70787 -22.1755
  401 189.366 -4.03509 1.40638
  402 189.359 -4.04339 -1.37885
  403 195.452 -2.28768 16.9906
  404 181.283 13.1438 4.45427
  405 203.095 -8.53176 18.1426
  406 294.874 61.9822 10.3600
  407 96.6456 -5.22383 -27.6086
  408 96.9249 -5.22661 27.3855
  409 42.8958 23.2744 -32.3766
  410 219.001 -0.564262 0.954645
  411 108.186 -0.976172 -5.71236
  412 108.338 -0.955452 5.65915
  413 200.133 -5.17780 14.0235
  414 181.471 -19.7396 8.85755
  415 205.715 -2.44611 3.11435
  416 208.743 10.6211 23.2166
  417 45.0721 24.7817 33.8458
  418 181.757 -19.6349 -8.08307
  419 187.891 -17.4951 -0.883031
  420 59.5304 -1.20043 -17.3068
  421 60.0170 -1.24826 17.1804
  422 143.928 -11.4175 -41.4851
  423 216.040 -3.18194 20.0149
  424 143.336 -11.6025 41.1040
  425 199.381 -11.1598 -12.0011
  426 183.968 12.3435 -9.79259
  427 199.427 -8.56296 11.3506
  428 215.590 -0.885386 -2.27093
  429 6.23788 6.44418 2.48532
  430 42.8528 48.8311 48.1491
  431 191.124 -0.708467 8.69300
  432 158.831 2.10153 4.24034
  433 161.752 2.58062 -5.76394
  434 138.017 -2.37881 -3.52489
  435 138.027 -2.34739 3.49872
  436 196.607 -15.2251 -7.16013
  437 198.275 -3.86133 -19.0655
  438 159.746 2.90685 -1.56635
  439 294.971 70.1305 13.1669
  440 39.5757 13.4378 -24.2006
  441 43.7364 12.3381 25.9274
  442 183.661 -6.52967 1.31446
  443 183.588 -6.51071 -1.26259
  444 245.089 54.5580 -0.806020
  445 154.918 61.6656 95.3892
  446 236.992 -3.43923 -4.77494
  447 134.103 -7.13354 -14.2295
  448 134.163 -7.08182 14.0992
  449 134.629 -3.11614 5.55388
  450 134.608 -3.14047 -5.60956
  451 182.938 3.99818 -15.8773
  452 220.205 -0.249682 -0.643596
  453 177.533 8.06370 8.88636
  454 226.273 27.9766 20.2953
  455 188.194 -13.9888 -2.57812
  456 205.650 -2.32013 -3.02179
  457 216.522 -0.794599 2.09296
  458 219.591 -0.263106 0.368857
  459 219.789 -0.305036 -0.277727
  460 117.749 -0.238091 1.36517
  461 117.692 -0.241498 -1.38105
  462 206.192 -13.0541 14.4921
  463 184.742 7.23150 15.3716
  464 193.652 0.769740 -20.2273
  465 203.121 -4.20471 8.53985
  466 296.634 47.7510 -55.6684
  467 203.455 -11.2506 -16.0241
  468 1.48872 3.77667 1.27384
  469 1.49128 3.81908 -0.268505
  470 160.232 -9.19670 5.88015
  471 159.676 -9.07875 -5.81665
  472 255.057 4.04396 29.4386
  473 70.6604 63.0277 -71.7763
  474 200.504 -0.582701 6.81176
  475 228.816 -13.3984 -16.3102
  476 119.745 -7.00991 20.0195
  477 244.157 43.3297 -14.0233
  478 200.510 -10.8141 13.5001
  479 167.572 -8.09208 -2.70381
  480 167.721 -7.95452 2.69340
  481 173.188 0.896804 -8.70266
  482 119.362 -6.98492 -20.1550
  483 177.826 0.0434930 8.76802
  484 171.611 -19.6032 -25.4382
  485 171.170 -19.6332 25.5153
  486 207.209 -1.32725 6.12086
  487 186.857 17.5850 1.84251
  488 192.029 3.01705 64.8759
  489 281.677 57.7102 -0.363929
  490 194.149 -3.17807 1.53009
  491 194.163 -3.16576 -1.57452
  492 147.726 -2.70173 -2.17982
  493 147.733 -2.67794 2.17006
  494 77.6420 3.73636 35.8857
  495 201.357 -9.65985 -15.6267
  496 182.331 -3.92305 0.397292
  497 182.312 -3.90739 -0.392419
  498 158.456 -16.8451 20.8320
  499 79.1810 4.91404 -36.8146
  500 201.813 -16.4137 -8.16710
  501 3.28526 0.336925 1.92877
  502 174.711 8.93891 0.640309
  503 194.918 -2.14800 -0.514085
  504 194.910 -2.18023 0.504648
  505 158.571 -16.8198 -21.0008
  506 229.081 -11.9214 21.2304
  507 226.176 8.22091 20.7924
  508 209.168 -1.30921 -1.53049
  509 201.193 -16.6492 8.26566
  510 123.516 -0.146041 -0.233602
  511 123.540 -0.144826 0.231245
  512 200.671 -7.67217 -16.5652
  513 193.583 14.3151 16.8694
  514 223.354 5.51862 -20.5191
  515 122.776 -0.222582 -0.764963
  516 122.805 -0.219645 0.759014
  517 394.540 56.9584 -51.1772
  518 201.635 24.0610 14.9046
  519 209.364 -1.19292 1.36749
  520 188.321 -17.8771 1.33345
  521 157.298 -5.29148 3.18774
  522 157.301 -5.33420 -3.18135
  523 219.927 -13.3506 7.12155
  524 210.836 -4.17220 -20.9744
  525 235.514 46.6080 11.5548
  526 195.370 3.34648 20.9608
  527 197.901 -3.70889 2.86063
  528 192.463 -20.4771 -24.3124
  529 199.011 -4.89163 16.2340
  530 390.381 17.8465 -7.18819
  531 218.367 -16.4295 -1.55697
  532 207.866 -1.25949 -0.386630
  533 207.913 -1.34884 0.348585
  534 394.410 26.4856 25.2780
  535 190.327 -0.0824105 17.8264
  536 268.993 44.7466 -6.26906
  537 201.316 -5.40163 -8.35081
  538 88.6209 -0.869947 -6.19037
  539 88.9161 -0.828448 6.12388
  540 135.278 -12.7031 -28.7999
  541 135.374 -12.4889 28.5768
  542 197.795 -3.54837 -2.83019
  543 215.005 7.90736 -22.8190
  544 188.767 -12.8555 3.29582
  545 202.558 23.2560 -15.4885
  546 204.900 -2.31565 8.24245
  547 258.212 12.5117 -1.30531
  548 174.607 -6.00504 -0.527594
  549 174.549 -5.98080 0.516918
  550 190.146 -8.95308 3.94681
  551 282.069 55.3279 -2.36568
  552 199.892 8.74574 21.7827
  553 85.0318 21.9538 53.2056
  554 194.332 -11.6866 43.0292
  555 258.377 11.6348 -47.1922
  556 204.408 16.9113 -20.3134
  557 182.095 -15.6772 -37.2413
  558 197.098 -21.5664 -6.56520
  559 206.136 -20.8144 -10.0120
  560 26.4838 33.8412 -32.1177
  561 207.131 -2.52407 -5.18971
  562 312.706 60.9646 -17.1762
  563 191.191 -8.57504 -4.32653
  564 192.858 -6.21629 3.56324
  565 192.676 -6.06936 -3.43217
  566 130.980 -0.815249 -1.67256
  567 131.004 -0.804620 1.65977
  568 17.6843 1.99371 -10.3369
  569 18.7635 2.08682 10.5841
  570 97.3857 -4.60727 -21.0953
  571 98.1578 -4.63109 21.0534
  572 195.479 -10.5554 -7.78371
  573 199.462 -21.6528 7.16377
  574 205.057 -19.4184 2.34533
  575 167.048 -2.96157 -0.550457
  576 167.036 -2.93850 0.547169
  577 158.916 -16.6261 -31.9004
  578 178.514 -14.5824 39.4600
  579 154.968 -15.6262 32.0966
  580 200.863 -4.43740 -20.5196
  581 124.077 -2.15894 6.31100
  582 124.017 -2.18219 -6.36856
  583 190.844 10.5038 -16.9272
  584 191.280 -0.332848 -7.89086
  585 239.661 52.3654 -5.28631
  586 155.466 -2.40569 -0.571557
  587 155.468 -2.38840 0.568413
  588 204.687 -0.586674 -4.49574
  589 139.834 -4.86282 -6.90770
  590 139.832 -4.84380 6.84227
  591 114.839 5.45910 51.0630
  592 199.222 -9.11765 -11.4841
  593 110.171 -5.75093 36.6338
  594 195.767 -10.1074 7.92923
  595 206.508 -2.82144 5.71273
  596 204.070 -1.74804 -1.37090
  597 141.309 -1.82880 -1.52860
  598 141.323 -1.81303 1.51922
  599 229.770 46.1156 -10.3404
  600 110.097 -5.52121 -36.7826
  601 195.127 -8.39595 -6.40465
  602 175.459 -3.23622 -0.228791
  603 175.440 -3.21034 0.227705
  604 333.201 45.0112 -7.85578
  605 114.476 -0.781807 3.50035
  606 114.374 -0.789626 -3.53598
  607 180.636 4.08135 14.4686
  608 261.599 21.4144 -4.82043
  609 122.499 1.00245 -50.7143
  610 61.6561 1.68916 -27.4410
  611 62.1932 1.31933 27.2937
  612 153.294 -9.09889 8.46828
  613 154.957 -9.36675 -8.20009
  614 263.679 53.0329 6.16788
  615 203.194 -1.81631 1.25297
  616 172.385 4.75991 -8.71950
  617 216.312 39.0584 9.38046
  618 215.481 40.5413 -6.23578
  619 177.118 -9.87264 -0.924692
  620 178.507 -9.64204 0.281946
  621 127.378 27.5843 -73.1693
  622 151.369 -5.30205 -4.64842
  623 151.377 -5.23904 4.62928
  624 391.920 80.1233 60.2297
  625 200.707 -6.53875 17.8190
  626 112.899 -4.11647 -13.5190
  627 315.721 70.8459 46.1014
  628 113.169 -4.09182 13.4616
  629 192.835 -7.42321 -50.4241
  630 133.467 -0.720783 -0.617877
  631 133.487 -0.714436 0.614262
  632 165.867 1.43572 7.60037
  633 74.2134 -1.14728 -12.1562
  634 74.6577 -1.14997 12.0545
  635 174.797 -12.4618 3.13551
  636 183.586 -14.7587 -0.306151
  637 217.699 -0.426414 -1.89211
  638 119.722 -0.219253 0.996350
  639 119.679 -0.223003 -1.00809
  640 164.458 -3.74451 -0.774708
  641 164.449 -3.72142 0.767175
  642 190.041 -21.0302 24.6039
  643 217.841 24.3612 -20.6448
  644 143.705 -6.86115 -8.91921
  645 143.592 -6.74331 8.84959
  646 171.477 -12.4506 -4.64598
  647 271.625 59.3896 0.841768
  648 203.812 -19.6762 -1.19574
  649 176.156 -4.20299 -0.179169
  650 176.128 -4.17982 0.180145
  651 243.727 26.5507 16.3555
  652 204.038 -2.87122 -8.96228
  653 178.909 -0.248836 -7.14789
  654 81.9033 -2.78775 -26.4688
  655 82.1715 -2.87116 26.2408
  656 171.084 -14.8765 -7.78428
  657 257.507 57.1812 0.189593
  658 198.684 26.9538 -6.71288
  659 130.370 -1.26425 -3.10980
  660 130.397 -1.24632 3.08190
  661 186.000 -5.21021 -1.25977
  662 186.037 -5.21846 1.30242
  663 350.392 45.8697 20.1269
  664 221.458 -0.540066 0.531356
  665 213.244 -0.789069 3.22003
  666 212.334 -0.813519 -3.74612
  667 201.223 -18.6966 4.10994
  668 146.379 -1.77331 -0.764471
  669 146.390 -1.75977 0.760475
  670 214.261 34.4818 14.4016
  671 276.385 61.6146 -2.66937
  672 149.739 -11.3009 -12.6439
  673 149.685 -11.1855 12.5738
  674 188.571 -19.4561 -3.12885
  675 198.306 11.7779 -20.4834
  676 237.216 0.548429 9.86363
  677 155.572 -2.96059 -1.46688
  678 155.573 -2.93988 1.45964
  679 134.588 -11.8827 -26.0092
  680 199.287 -19.2468 -2.23418
  681 165.103 -18.3278 22.9374
  682 78.4074 24.9284 -51.2973
  683 153.716 -14.3613 17.6815
  684 185.288 0.0472011 6.62629
  685 134.706 -11.7454 25.8245
  686 195.009 -8.56429 6.48354
  687 153.781 -14.3042 -17.8543
  688 156.037 1.96773 1.59019
  689 120.526 -3.36050 9.57482
  690 120.416 -3.36561 -9.64859
  691 165.216 -18.8046 -23.1997
  692 204.786 -13.4449 -14.0221
  693 187.608 -2.54209 -0.317733
  694 187.638 -2.57088 0.319105
  695 209.419 -13.2802 13.9689
  696 190.069 -19.8736 3.86669
  697 231.310 21.2059 20.3096
  698 208.362 -3.85907 21.5289
  699 200.487 -7.13696 13.2515
  700 190.540 15.6344 -12.8389
  701 230.349 38.8608 16.0255
  702 198.631 -2.72124 -12.6950
  703 198.342 -6.50213 7.02876
  704 204.123 32.0667 3.63373
  705 201.626 -3.36822 11.1336
  706 62.9088 42.6335 53.6838
  707 187.799 -21.5793 -13.8525
  708 217.475 3.98801 21.9684
  709 219.863 -6.77085 -16.0032
  710 220.256 -0.235172 1.06877
  711 200.440 -6.81718 -10.5250
  712 188.049 -21.7512 12.5108
  713 368.315 32.5944 -5.47706
  714 109.678 -0.504636 3.66728
  715 109.542 -0.510360 -3.70487
  716 203.615 -3.59910 -5.02009
  717 221.627 -0.174093 -1.03549
  718 170.750 -15.1144 7.82773
  719 205.710 -7.60630 19.6208
  720 315.496 74.0671 -21.0282
  721 194.971 -14.1204 6.76869
  722 216.702 -14.2183 -8.76056
  723 198.422 -6.32247 -6.91874
  724 221.665 -0.322042 -0.358338
  725 200.419 -0.00111801 22.1970
  726 9.01539 7.41616 10.9509
  727 228.048 -8.97270 -32.2133
  728 247.615 14.4711 10.8467
  729 205.870 -20.9865 8.80743
  730 144.886 -3.59032 3.82183
  731 144.891 -3.64207 -3.84316
  732 194.547 94.9093 -100.226
  733 209.528 -13.8052 -12.9837
  734 155.399 0.737867 -3.03870
  735 182.676 0.974357 14.1458
  736 201.851 -10.0523 15.8973
  737 193.483 -16.3049 3.80253
  738 201.870 -18.3422 -26.4292
  739 192.250 -15.2131 -4.12565
  740 228.087 -10.9306 -3.77144
  741 209.939 -1.60997 2.95658
  742 186.545 -11.2240 2.38447
  743 342.068 68.4419 -36.0979
  744 199.377 -5.24517 5.61683
  745 196.463 3.19796 -21.5371
  746 168.594 -1.94596 56.8273
  747 210.815 17.0115 22.1057
  748 181.289 -14.3340 1.27730
  749 139.084 -11.0988 -18.9496
  750 139.089 -11.0651 18.7849
  751 192.007 21.5856 -2.99874
  752 195.903 -2.25231 19.2995
  753 198.243 -4.69125 -16.5600
  754 186.762 -11.4495 -2.45059
  755 180.462 -16.2431 3.99165
  756 205.733 34.0754 -4.12665
  757 193.239 -16.7231 -3.03790
  758 193.694 -12.2419 6.54506
  759 196.560 -2.40846 1.06485
  760 196.689 -2.33881 -1.05932
  761 264.512 58.4041 1.98221
  762 216.741 -18.3881 -5.36967
  763 201.060 -6.08612 10.4643
  764 210.054 -1.60136 -2.70419
  765 211.475 1.43300 -22.6127
  766 241.652 12.5540 -14.0546
  767 115.586 -0.136433 -1.69879
  768 115.662 -0.134642 1.68001
  769 1.59137 -3.92179 -2.80440
  770 205.199 -0.210852 4.16891
  771 187.107 -0.343469 -15.6880
  772 193.678 -1.80870 13.9098
  773 178.421 21.4340 83.8399
  774 220.578 45.6273 -0.501864
  775 156.296 -11.3415 9.73330
  776 25.9909 0.639820 -10.2879
  777 26.8184 0.475700 10.4006
  778 191.849 -1.37279 -15.6567
  779 156.745 -11.4586 -9.72757
  780 208.797 -1.76602 2.27859
  781 104.596 -4.56244 18.0161
  782 103.670 -4.54780 -18.0328
  783 199.373 -5.08849 -5.47389
  784 125.301 -3.28410 -8.31665
  785 125.363 -3.26124 8.23657
  786 207.812 -1.87715 -6.23728
  787 157.214 -4.28640 -2.54039
  788 157.216 -4.25640 2.54080
  789 227.082 -1.44922 -16.1046
  790 203.596 -2.11127 -22.3443
  791 101.294 -0.683399 -4.69584
  792 101.501 -0.677090 4.63793
  793 4.20798 2.58323 -6.10434
  794 5.15232 2.72247 6.43184
  795 163.161 0.758447 -5.52604
  796 186.134 -20.9204 -10.1288
  797 -2.18372 -1.52551 3.72771
  798 -1.90021 -1.77266 -3.68412
  799 193.856 -3.79183 2.24715
  800 210.482 -16.3701 -7.83731
  801 216.555 32.1857 -16.8378
  802 209.746 -1.57967 -2.16168
  803 455.219 90.7585 -85.5104
  804 193.817 -3.77764 -2.21911
  805 292.738 56.1425 4.21069
  806 207.073 6.04095 -23.2657
  807 229.350 17.2767 -20.7393
  808 36.6427 -0.435966 -9.55491
  809 37.3825 -0.493640 9.53608
  810 127.277 -1.92236 4.89316
  811 127.234 -1.93910 -4.94106
  812 120.920 -0.317656 0.908661
  813 120.887 -0.320893 -0.916846
  814 231.553 39.0728 -15.9256
  815 134.917 -0.905754 -1.32379
  816 134.937 -0.895097 1.31527
  817 196.520 -1.97709 -20.1321
  818 287.174 28.1513 22.7035
  819 175.809 3.85166 -12.1542
  820 59.3545 -0.549797 10.2943
  821 58.8093 -0.554721 -10.3803
  822 231.186 5.68891 59.7854
  823 203.387 -3.62960 5.18153
  824 180.141 11.8856 -5.06706
  825 81.6554 -0.150966 7.05135
  826 81.2072 -0.111944 -7.10713
  827 123.787 -0.684032 -2.38447
  828 123.829 -0.674187 2.36001
  829 21.9635 19.6714 16.5322
  830 188.321 4.44687 18.1352
  831 210.069 30.9592 -14.3635
  832 226.720 26.3284 -20.4908
  833 147.573 -5.71217 -6.17352
  834 147.480 -5.66629 6.16170
  835 234.517 50.2130 7.30694
  836 203.217 -1.56014 -0.301254
  837 203.225 -1.54802 0.336659
  838 200.490 -5.94958 -13.3206
  839 167.269 -11.2572 5.40918
  840 184.953 -20.7950 10.2037
  841 218.351 -17.8930 16.0178
  842 165.630 -4.85793 -1.35796
  843 165.625 -4.83727 1.34638
  844 189.333 17.5199 8.23147
  845 177.526 2.36524 -13.1431
  846 49.4058 56.5784 55.8756
  847 181.044 -16.1136 -3.53969
  848 181.590 -8.12465 0.892829
  849 181.689 -8.13749 -0.901504
  850 199.800 -2.91992 21.2175
  851 198.487 -13.0080 -10.1940
  852 176.784 -11.7801 -1.76094
  853 410.729 13.3115 -20.5747
  854 167.930 -15.9972 10.9746
  855 167.804 -16.2099 -11.1632
  856 199.701 -2.35540 10.8121
  857 302.660 77.7707 -15.8974
  858 157.304 -14.4302 -13.9523
  859 174.344 -19.6913 13.0416
  860 157.249 -14.2521 13.8212
  861 170.725 -6.92809 -1.49373
  862 170.716 -6.90177 1.48011
  863 24.5598 10.7013 14.4113
  864 214.721 16.0635 -22.4567
  865 163.585 -6.46725 -2.66589
  866 163.613 -6.39916 2.67648
  867 161.406 -2.70476 -0.317194
  868 161.401 -2.68457 0.314658
  869 178.224 -3.50482 0.130571
  870 178.201 -3.47969 -0.131371
  871 143.635 -2.91446 -3.31981
  872 143.643 -2.88057 3.30376
  873 164.271 -8.75601 -4.13647
  874 164.289 -8.69192 4.15397
  875 3.81027 -2.06962 -1.45806
  876 249.342 46.7794 12.3401
  877 214.410 -7.47147 -18.2895
  878 174.216 -19.4084 -13.1922
  879 188.400 -6.01994 2.21067
  880 188.314 -5.95420 -2.15479
  881 205.342 0.284468 22.8180
  882 224.435 -16.0197 -8.26563
  883 199.060 13.5836 -72.5723
  884 88.8286 -1.33847 35.5640
  885 -3.90368 2.07430 -2.22658
  886 -3.44361 2.33774 2.49408
  887 24.3718 11.3831 -14.7026
  888 201.053 -5.69572 8.31330
  889 212.099 -1.29392 -3.52449
  890 190.494 -18.2639 30.5760
  891 88.6118 -1.23592 -35.7136
  892 212.306 -17.3110 5.80978
  893 237.431 -7.27871 26.1377
  894 169.408 0.667022 5.86430
  895 195.385 18.5842 14.0565
  896 104.806 -5.95441 26.2574
  897 104.390 -6.00312 -26.4426
  898 125.858 -6.12971 -14.6892
  899 133.308 -6.41424 -45.4802
  900 212.052 -4.91040 20.3763
  901 292.808 68.2169 8.84826
  902 212.682 8.21194 22.9002
  903 201.068 -4.23289 -12.1213
  904 136.174 -5.74790 46.6198
  905 257.061 47.2546 -9.51013
  906 24.7730 21.2601 -20.4680
  907 184.758 -0.388933 -6.32076
  908 125.990 -6.07741 14.5494
  909 154.315 -3.47641 2.25580
  910 154.314 -3.50206 -2.26199
  911 198.785 -12.9395 10.5064
  912 207.073 -1.18810 0.897501
  913 151.798 1.46509 -56.6700
  914 218.630 -0.436245 1.67294
  915 216.830 -0.352718 -2.11473
  916 159.265 1.34306 -5.07116
  917 209.019 -0.830399 -3.70631
  918 154.950 -7.38118 -5.60930
  919 155.054 -7.26696 5.62493
  920 -5.30816 1.84366 -3.08307
  921 -7.22525 1.11109 3.22408
  922 207.074 -1.09564 -0.903901
  923 66.8052 -1.48352 23.9724
  924 66.3774 -1.33300 -24.1165
  925 220.234 32.2242 17.8237
  926 400.913 7.21947 6.40673
  927 207.009 23.0733 18.5477
  928 236.285 -8.45052 6.42311
  929 204.373 -11.3275 16.0739
  930 254.740 53.5004 -7.22432
  931 155.666 0.608802 3.81937
  932 196.757 -4.52751 -3.49314
  933 203.820 10.9623 -22.4274
  934 248.040 7.08138 -5.55322
  935 191.545 -11.8179 -5.25940
  936 95.6043 -0.565693 -5.26830
  937 95.7143 -0.545841 5.19044
  938 202.338 -4.67203 -9.60300
  939 6.40547 8.24462 1.31054
  940 194.182 -20.1227 -1.12941
  941 166.320 4.82188 -0.524150
  942 252.810 55.8322 -4.80469
  943 39.2011 29.2331 -34.4057
  944 193.696 -1.43792 -12.4654
  945 132.778 -2.31686 -4.54893
  946 132.800 -2.28871 4.50655
  947 1.05744 -5.65227 4.34363
  948 130.720 -9.85972 -21.0888
  949 197.739 -11.3880 -9.86899
  950 120.391 0.256736 -0.372051
  951 120.416 0.258138 0.369155
  952 198.859 24.1581 -11.2856
  953 215.281 -0.532524 -0.339633
  954 215.280 -0.542279 0.440828
  955 130.772 -9.82999 20.9363
  956 199.828 -0.245993 -4.95201
  957 230.903 1.65203 15.6083
  958 204.700 -2.77785 4.03269
  959 31.6027 8.27563 -18.3950
  960 212.564 -1.19610 3.20329
  961 191.363 1.50829 19.4581
  962 201.857 28.0272 10.0426
  963 202.402 2.35066 -22.9740
  964 138.295 -7.56624 -12.5278
  965 219.252 -7.71172 15.4799
  966 138.383 -7.53418 12.3926
  967 6.06812 6.73531 -0.200165
  968 22.9285 4.13236 13.4607
  969 111.950 -2.06171 8.67992
  970 111.808 -2.06476 -8.73424
  971 196.893 -4.61957 3.66688
  972 210.848 36.8262 5.59273
  973 107.021 9.95441 -53.5178
  974 176.431 -11.0805 1.48075
  975 165.566 -17.3879 -16.7844
  976 242.186 46.5343 12.5889
  977 186.051 -3.21275 0.433209
  978 186.045 -3.19334 -0.434022
  979 204.325 -3.68329 -6.95869
  980 187.504 16.1447 -7.59687
  981 434.741 127.310 85.9824
  982 37.9507 2.25391 -17.9068
  983 38.5926 1.87627 17.9515
  984 2.81825 -4.28352 0.622520
  985 188.176 10.3770 15.5925
  986 165.503 -17.4903 16.6528
  987 205.769 -9.67579 -18.1799
  988 223.981 18.3320 22.3066
  989 216.087 -17.4440 -19.9537
  990 316.202 66.6605 21.4368
  991 182.522 -2.88923 -0.0285713
  992 182.497 -2.86312 0.0289353
  993 214.239 -8.67698 17.3898
  994 14.5572 22.7629 24.6332
  995 94.2434 -2.04879 12.4643
  996 93.9322 -2.02281 -12.6075
  997 113.281 -5.67150 16.9935
  998 112.880 -5.58778 -17.0647
  999 127.876 -5.40678 12.1446
  1000 139.779 -1.17906 -0.607888
  1001 139.796 -1.16988 0.605086
  1002 358.457 111.917 -70.6215
  1003 322.165 80.6366 32.1905
  1004 127.773 -5.43654 -12.2552
  1005 220.725 -0.978097 19.1436
  1006 196.336 20.3785 -13.5520
  1007 138.684 -11.8671 37.6720
  1008 178.904 -21.1228 -19.8845
  1009 204.612 -1.63229 -7.30598
  1010 91.3055 6.45600 43.4456
  1011 117.247 -8.97982 30.1124
  1012 179.473 9.12819 -9.74308
  1013 206.763 -4.05842 -21.7484
  1014 268.736 104.932 114.874
  1015 169.050 5.09645 6.91578
  1016 232.086 50.3308 -0.875212
  1017 171.345 6.59383 -64.4774
  1018 173.351 -18.3255 -11.1887
  1019 221.883 -0.175821 -0.849038
  1020 211.278 19.4341 -21.5397
  1021 121.733 -0.843731 3.08555
  1022 121.677 -0.852426 -3.11752
  1023 4.36793 1.35366 -5.94091
  1024 138.325 -6.46307 -10.4243
  1025 117.110 -9.09708 -30.3526
  1026 138.209 -6.44617 10.3001
  1027 202.011 -6.11165 20.1080
  1028 181.052 -11.2310 0.197183
  1029 189.659 3.45298 -18.8297
  1030 195.088 24.3942 3.95333
  1031 267.861 15.5179 7.94605
  1032 200.372 -15.1871 10.1038
  1033 125.370 -10.1363 -23.0793
  1034 187.932 6.60127 -17.5945
  1035 139.943 -11.7023 -37.8871
  1036 270.332 59.0520 -0.798442
  1037 182.351 11.9129 8.86295
  1038 232.791 -1.42198 -12.2628
  1039 174.437 -18.3280 10.2241
  1040 200.189 -6.29466 15.6188
  1041 199.022 -10.4619 11.4737
  1042 197.934 -9.90738 9.99926
  1043 245.008 31.0045 -16.7559
  1044 197.307 -3.15404 15.7275
  1045 178.583 -21.1824 19.5511
  1046 190.645 -7.74914 3.57226
  1047 125.446 -10.1532 22.9390
  1048 178.703 -13.2427 -1.86239
  1049 102.878 -4.96211 -32.2154
  1050 147.764 -15.3959 25.4455
  1051 201.156 -1.32274 -8.44501
  1052 195.597 -2.19562 -17.8165
  1053 169.264 -13.5005 -6.67653
  1054 103.058 -5.11275 31.9484
  1055 181.669 0.408643 -12.2978
  1056 134.745 -9.09244 -16.2774
  1057 246.486 52.7400 8.05250
  1058 53.8311 9.15928 -30.3132
  1059 428.598 30.3254 41.6658
  1060 97.9048 7.50619 -45.5417
  1061 197.939 -16.3753 -6.51812
  1062 134.776 -9.01155 16.1347
  1063 179.621 1.84387 13.7220
  1064 99.4105 -2.08326 10.3130
  1065 99.3524 -2.13539 -10.4236
  1066 200.095 -5.53625 -18.6190
  1067 214.038 -0.969069 1.35603
  1068 209.181 -0.431326 3.75355
  1069 206.326 6.87530 23.1921
  1070 192.627 -1.45065 16.7037
  1071 150.056 15.8565 69.7979
  1072 223.391 -0.127160 0.423629
  1073 207.384 28.1818 14.7703
  1074 174.530 2.46595 11.7994
  1075 212.053 -0.765046 3.61925
  1076 134.001 -1.52291 -2.52334
  1077 134.021 -1.50519 2.50477
  1078 84.6578 -2.45750 -17.1833
  1079 85.0124 -2.54555 17.0561
  1080 175.079 8.65062 4.94374
  1081 268.987 13.7412 -18.0071
  1082 247.095 -0.757946 -35.9553
  1083 194.699 -0.159176 -5.11668
  1084 147.835 -15.5132 -25.6456
  1085 169.617 -12.8386 5.91015
  1086 195.886 -0.436952 5.34281
  1087 205.856 -14.8823 -11.8294
  1088 125.986 -0.331280 1.52160
  1089 125.958 -0.336876 -1.53220
  1090 197.557 -16.8446 6.51612
  1091 187.605 -3.75961 0.806239
  1092 187.574 -3.76251 -0.792682
  1093 182.443 -18.4263 6.13965
  1094 236.658 -7.72742 -1.19665
  1095 104.005 -0.198708 -2.92100
  1096 104.184 -0.191778 2.88764
  1097 160.273 -10.0265 -43.4048
  1098 169.794 -4.06413 0.671023
  1099 169.812 -4.08910 -0.678972
  1100 103.170 54.6966 76.6490
  1101 236.994 19.3518 -18.6833
  1102 33.9179 16.8008 -22.6116
  1103 204.840 -2.93743 -3.90050
  1104 53.5743 18.6880 -34.7359
  1105 112.025 -7.15477 -21.9531
  1106 223.550 -0.185724 0.250695
  1107 223.651 -0.170591 -0.187341
  1108 201.018 -11.4287 -13.8283
  1109 178.058 -19.9294 -27.5886
  1110 53.8540 7.79618 28.8864
  1111 218.540 21.6734 21.0797
  1112 198.872 -1.87412 -0.365992
  1113 198.891 -1.87640 0.385929
  1114 218.069 -14.1625 33.3519
  1115 223.501 45.0154 8.17361
  1116 131.043 -3.27378 -6.54257
  1117 131.073 -3.25705 6.49096
  1118 100.230 11.6224 53.9912
  1119 189.212 0.931352 -18.2411
  1120 58.6309 19.1448 37.4162
  1121 245.880 -4.44358 -10.1348
  1122 239.698 53.3935 2.54804
  1123 164.239 -13.1274 8.28652
  1124 149.556 0.737541 -0.743952
  1125 210.017 -1.76332 4.69292
  1126 217.836 -0.225533 1.83761
  1127 45.3561 0.0986897 -8.61600
  1128 46.0374 0.0748426 8.55397
  1129 168.796 2.73836 -8.72544
  1130 175.381 -5.16302 -0.309762
  1131 175.338 -5.13584 0.306719
  1132 18.1754 26.5917 -26.1584
  1133 29.1855 60.2370 -53.3816
  1134 177.712 -6.95622 0.0436733
  1135 177.786 -6.95897 -0.0522308
  1136 183.861 -4.38096 0.890075
  1137 183.835 -4.36973 -0.872816
  1138 47.4759 30.4471 37.5106
  1139 143.522 -1.85133 -1.18904
  1140 143.536 -1.83710 1.18237
  1141 181.323 13.6386 -0.210998
  1142 235.823 28.1940 -80.7347
  1143 222.612 38.5277 -13.9941
  1144 203.353 -7.76616 -19.0874
  1145 200.371 -9.94143 -13.9660
  1146 164.358 -13.2537 -8.43160
  1147 163.914 0.502168 5.38674
  1148 185.646 11.5145 -13.0260
  1149 182.937 9.77358 12.4251
  1150 190.517 -7.51845 -3.51136
  1151 181.529 -11.0006 -0.327819
  1152 164.523 -10.7631 -6.14404
  1153 196.388 -1.13588 9.96322
  1154 351.814 35.6093 4.99180
  1155 197.829 -4.19242 18.1601
  1156 198.142 13.0108 19.6761
  1157 183.312 -18.0961 -4.39216
  1158 21.6302 3.80527 -12.9689
  1159 186.755 -8.62129 -2.66489
  1160 121.288 -0.223082 -0.0684690
  1161 121.309 -0.222224 0.0674903
  1162 228.620 -6.05447 10.6280
  1163 217.915 -18.3156 6.67041
  1164 313.818 56.4884 13.4166
  1165 72.0072 -0.173447 -7.21824
  1166 72.4766 -0.157356 7.15977
  1167 165.982 -3.38323 -0.606475
  1168 165.971 -3.36008 0.600837
  1169 187.391 -16.5667 0.291326
  1170 150.961 0.640617 2.43154
  1171 191.986 -13.6657 5.09109
  1172 10.4044 12.3759 -5.55528
  1173 33.5994 17.0177 22.1293
  1174 127.744 -6.82395 41.9804
  1175 221.618 42.4483 -9.97999
  1176 212.870 -0.559598 -2.85481
  1177 224.542 -0.327245 0.181544
  1178 224.783 -0.459624 -0.121909
  1179 126.633 -0.351495 -0.240505
  1180 126.656 -0.348842 0.238326
  1181 204.197 13.0766 22.4059
  1182 304.638 52.4480 -1.10740
  1183 210.178 34.8992 -10.0380
  1184 157.537 -11.4756 43.1220
  1185 127.060 -6.54285 -41.9049
  1186 140.712 -9.58893 -14.5399
  1187 196.970 -5.41015 4.62188
  1188 275.843 60.5235 0.716512
  1189 140.716 -9.52802 14.4160
  1190 201.509 -3.39559 3.50142
  1191 177.916 6.52879 11.8423
  1192 197.159 6.09090 21.4702
  1193 282.987 63.3518 5.60622
  1194 166.322 -4.38263 1.14817
  1195 166.334 -4.40632 -1.15851
  1196 204.034 -3.72325 7.22007
  1197 118.293 -1.33824 4.85691
  1198 118.208 -1.35225 -4.90546
  1199 199.682 -2.58612 -1.63639
  1200 81.5611 48.3088 -73.8972
  1201 172.834 -9.68097 -46.1529
  1202 161.590 -5.14818 -2.29095
  1203 161.603 -5.12223 2.29136
  1204 215.010 -0.903637 1.20547
  1205 202.799 -2.52165 2.80884
  1206 10.6597 13.0413 9.37215
  1207 221.573 -0.207278 0.985351
  1208 25.5914 31.8780 31.6271
  1209 197.886 -2.82874 -2.08757
  1210 -0.306237 -4.92766 -4.30293
  1211 138.875 -13.5368 -32.4444
  1212 138.465 -13.2036 32.1072
  1213 221.571 -0.353206 -1.08203
  1214 187.974 -9.90741 -3.12208
  1215 214.824 -0.812501 -1.25251
  1216 170.164 -5.54632 -0.972803
  1217 170.143 -5.52277 0.957285
  1218 199.548 -2.56535 1.54457
  1219 186.618 -8.45506 2.63691
  1220 179.302 -5.75471 -0.399661
  1221 179.370 -5.77377 0.423526
  1222 214.670 -0.838295 -1.02812
  1223 184.526 -19.3503 -31.1841
  1224 209.790 -1.15673 -1.06890
  1225 198.765 -2.91340 2.22375
  1226 136.257 -1.58589 -1.84646
  1227 136.276 -1.56988 1.83374
  1228 153.125 -2.31464 -0.894119
  1229 153.130 -2.29726 0.888633
  1230 251.317 39.0568 14.3138
  1231 210.982 -16.1369 9.13625
  1232 144.137 -0.583993 53.4263
  1233 112.848 -0.221544 1.86214
  1234 112.751 -0.223787 -1.88270
  1235 199.215 -3.63837 13.7128
  1236 190.968 -2.78114 0.524003
  1237 190.979 -2.77046 -0.523650
  1238 217.929 42.6763 4.63998
  1239 200.844 -20.9761 24.3684
  1240 113.435 -1.68349 6.85990
  1241 113.318 -1.69703 -6.91544
  1242 190.614 -4.56843 1.90483
  1243 190.573 -4.59863 -1.85776
  1244 196.868 -5.33860 -4.46510
  1245 179.171 0.0238254 6.37362
  1246 314.682 78.1202 -24.8961
  1247 200.344 -7.26415 -12.3240
  1248 33.1431 8.16134 18.9444
  1249 207.099 -10.9752 17.0580
  1250 163.952 3.48835 -4.76812
  1251 11.9701 9.17920 6.51456
  1252 274.968 29.8255 -0.420380
  1253 202.078 -9.14329 -17.1038
  1254 164.780 2.26345 7.29730
  1255 112.838 -7.16434 21.9029
  1256 205.589 -15.8578 10.6647
  1257 301.080 55.9143 15.5479
  1258 67.7650 10.2443 36.8923
  1259 206.816 -2.34832 -6.20436
  1260 404.369 4.46475 -4.13036
  1261 418.411 6.33635 18.5081
  1262 447.687 15.4798 -43.8040
  1263 199.945 -6.18423 -15.1722
  1264 200.098 -9.07324 13.1000
  1265 203.445 -14.4256 12.4587
  1266 -6.01658 0.634958 3.85990
  1267 -5.49335 0.490265 -4.18005
  1268 198.254 -21.8510 -10.7764
  1269 203.361 -20.4945 -16.6526
  1270 152.129 0.925634 -3.00791
  1271 197.492 -22.2599 16.6954
  1272 210.756 -9.94037 -17.3469
  1273 3.67431 6.07210 0.275169
  1274 170.294 -3.10516 0.498805
  1275 170.308 -3.12947 -0.500136
  1276 209.941 -1.57196 4.26511
  1277 201.509 -3.33136 -3.30217
  1278 189.358 -20.6842 -5.30496
  1279 172.255 -9.40437 2.26057
  1280 171.358 -9.27690 -2.53210
  1281 203.095 -4.20744 9.76686
  1282 208.060 -7.59266 -19.7137
  1283 12.4346 9.57185 -6.24759
</Section>

newXOutput 28

<Section columns = "stress_xx | stress_yy | stress_xy">
  1 234.463 -0.000937303 0.481663
  2 234.481 0.00181055 -0.483408
  3 123.727 -0.0617600 -0.174705
  4 -1.58582 -1.57482 -2.27853
  5 430.904 164.656 134.956
  6 426.773 170.942 -135.565
  7 -1.83981 -1.50256 2.41612
  8 123.706 -0.0622711 0.174153
  9 236.210 -0.370151 0.154421
  10 235.660 -0.595042 -0.0995359
  11 235.031 -0.375884 0.573585
  12 234.409 -0.536953 0.192409
  13 233.079 -0.444492 0.905279
  14 231.882 -0.453973 0.680119
  15 229.129 -0.403661 1.28999
  16 225.273 -0.250940 1.89276
  17 221.816 -0.283507 2.09064
  18 216.755 -0.426099 2.50960
  19 209.815 -0.00661877 3.68616
  20 203.400 -0.315092 3.48376
  21 196.195 -0.427021 4.88173
  22 185.775 0.305643 4.22722
  23 178.306 0.438664 4.98025
  24 168.570 0.753160 3.88129
  25 161.867 0.756361 3.90549
  26 152.149 1.09135 1.98623
  27 150.118 1.72386 2.12393
  28 148.903 1.39439 -0.625107
  29 150.584 0.775495 -1.38396
  30 153.670 0.776655 -1.69411
  31 160.945 0.997621 -3.38914
  32 168.008 0.786872 -4.30363
  33 178.438 0.149449 -5.11395
  34 186.796 -0.117089 -4.68201
  35 195.757 -0.342378 -4.62198
  36 203.899 -0.244221 -3.27627
  37 210.947 -0.247695 -2.81757
  38 216.796 -0.413975 -2.37933
  39 222.068 -0.285867 -1.67876
  40 225.401 -0.329440 -1.79077
  41 228.619 -0.423363 -1.31347
  42 231.698 -0.508783 -0.598223
  43 233.288 -0.403914 -0.687925
  44 234.164 -0.230449 -0.438901
  45 233.627 -0.0992558 -0.399208
  46 235.924 -0.605699 0.0600869
  47 236.294 -0.387874 -0.159445
  48 228.130 -0.0942460 -0.297232
  49 222.738 -0.839543 -0.522081
  50 216.192 -1.26067 -0.360504
  51 208.238 -1.92484 -0.488701
  52 200.732 -2.12605 -0.615277
  53 192.746 -2.72048 -0.581203
  54 185.699 -3.06066 -0.335453
  55 179.521 -3.47162 -0.141558
  56 172.403 -2.89370 -0.142182
  57 164.201 -2.72874 -0.207792
  58 156.288 -2.17639 -0.0792276
  59 148.782 -1.41089 -0.0369246
  60 141.638 -1.02166 -0.00150720
  61 135.352 -0.544921 0.0556244
  62 128.898 -0.162376 -0.202064
  63 123.817 0.169859 0.231166
  64 121.563 0.508020 0.147416
  65 123.176 -0.00474805 0.363173
  66 121.520 -0.0812999 0.433901
  67 120.019 -0.115497 0.542535
  68 117.962 -0.0251565 0.716190
  69 115.363 -0.0150263 0.908642
  70 113.500 -0.174639 1.77845
  71 107.935 0.159731 1.94741
  72 104.055 -0.0186443 2.24491
  73 98.2753 -0.111867 2.54236
  74 91.5984 -0.183662 3.09984
  75 83.2606 -0.0472793 3.76356
  76 73.0921 0.0430025 4.13775
  77 64.4050 -0.105491 5.90590
  78 47.0732 0.560801 5.54699
  79 35.3795 0.485105 5.87205
  80 21.4705 -0.0856752 6.47574
  81 10.0230 1.11561 6.68257
  82 -2.95840 1.64179 3.91255
  83 -12.2688 1.66140 1.26856
  84 -11.6334 1.57401 -0.781356
  85 -10.8007 1.29533 -3.30170
  86 -6.31931 -0.460585 -3.09112
  87 -0.804673 -6.06724 -3.39842
  88 0.546893 -11.2451 -4.30536
  89 1.59598 -18.0401 -2.53896
  90 3.58948 -18.9572 -0.155074
  91 7.65965 -6.31109 9.66498
  92 23.1999 32.4081 34.1208
  93 140.335 124.502 119.955
  94 520.095 77.0067 87.8899
  95 466.913 11.0868 28.8734
  96 432.550 4.53931 8.83593
  97 419.831 3.82345 0.705033
  98 426.453 5.13019 -7.61075
  99 465.616 10.2550 -22.8246
  100 553.259 37.1880 -76.3090
  101 82.8261 126.368 -99.8363
  102 17.3983 21.1494 -27.9835
  103 8.33948 -5.47153 -10.0055
  104 3.34514 -19.1081 -1.39714
  105 0.886985 -13.8462 2.94380
  106 1.16301 -14.1459 3.75475
  107 0.0360448 -5.26845 3.76003
  108 -6.59012 -0.318785 2.94322
  109 -11.1475 0.971791 2.89282
  110 -12.2413 1.91754 0.850863
  111 -12.6767 1.64058 -1.15774
  112 -3.82940 1.68289 -3.65230
  113 9.24329 1.12577 -6.36371
  114 20.6726 0.0308536 -6.36865
  115 34.5602 0.524883 -5.88666
  116 46.3287 0.576232 -5.59261
  117 63.8269 -0.107910 -5.95959
  118 72.5959 0.0485480 -4.18101
  119 82.8283 -0.0452771 -3.81391
  120 91.3745 -0.202313 -3.12589
  121 97.9802 -0.107138 -2.55068
  122 103.833 -0.0113328 -2.27028
  123 107.754 0.157563 -1.97107
  124 113.373 -0.176242 -1.79856
  125 115.263 -0.0160705 -0.921088
  126 117.889 -0.0261347 -0.726469
  127 119.966 -0.117101 -0.550723
  128 121.482 -0.0826712 -0.439649
  129 123.146 -0.00595937 -0.366876
  130 121.539 0.507261 -0.149165
  131 123.795 0.169509 -0.232243
  132 128.875 -0.163779 0.201415
  133 135.329 -0.548425 -0.0570026
  134 141.618 -1.02946 -0.000120001
  135 148.768 -1.42176 0.0353416
  136 156.280 -2.19204 0.0776902
  137 164.202 -2.74839 0.206602
  138 172.413 -2.91629 0.141067
  139 179.539 -3.49663 0.141134
  140 185.721 -3.08548 0.336319
  141 192.776 -2.74306 0.583697
  142 200.756 -2.14183 0.624300
  143 208.253 -1.93891 0.531471
  144 216.228 -1.18445 0.368754
  145 222.897 -0.814444 0.510796
  146 228.161 -0.129345 0.292982
  147 202.762 -19.0364 -2.39045
  148 202.602 -18.7824 2.46391
  149 211.914 30.5270 -10.9563
  150 226.736 13.4016 23.4685
  151 171.617 -16.4265 -37.0722
  152 172.980 -16.4159 35.8424
  153 165.761 -7.14561 4.14305
  154 165.780 -7.24875 -4.14838
  155 241.054 8.60031 -18.4638
  156 202.215 -7.20206 5.17982
  157 202.132 -7.02282 -5.11349
  158 261.413 58.7374 3.19481
  159 206.482 -0.329349 -22.6801
  160 151.996 -12.1229 -16.5018
  161 151.989 -12.0177 16.3454
  162 206.999 -4.65284 20.5881
  163 195.768 14.2369 13.3955
  164 80.2247 13.1577 -44.2059
  165 89.1787 12.4458 46.6171
  166 255.222 2.69053 3.70869
  167 207.808 -7.91376 -14.5325
  168 275.932 60.6650 -2.48008
  169 186.776 -5.24536 0.367418
  170 186.733 -5.22618 -0.349239
  171 210.807 -2.41691 -2.28730
  172 211.519 -2.15433 1.98448
  173 145.116 -2.18086 -2.54982
  174 145.130 -2.15732 2.53428
  175 227.400 -6.30480 47.0622
  176 189.277 7.78263 -14.4131
  177 123.229 -9.31638 -26.7907
  178 123.602 -9.24691 26.6020
  179 138.169 -4.67547 -8.66004
  180 138.178 -4.61982 8.58864
  181 208.878 -5.41802 12.3443
  182 189.505 -13.0573 0.293685
  183 188.810 -12.9598 0.0275486
  184 216.375 -20.8686 -2.44482
  185 217.466 -19.8798 -0.270224
  186 299.681 70.4162 -8.95782
  187 216.161 34.8526 10.2675
  188 216.954 13.3421 -23.3883
  189 226.768 -2.30952 -54.9384
  190 215.784 -12.1355 -16.7759
  191 217.608 -8.64019 19.5799
  192 181.006 -20.5822 17.7697
  193 181.075 -20.4416 -17.7088
  194 192.756 2.41186 17.3708
  195 87.1963 -2.04865 -32.6746
  196 87.4236 -2.24483 32.4620
  197 339.154 51.0315 7.24184
  198 204.218 -12.1296 9.38973
  199 212.065 -3.80311 -8.12456
  200 166.742 -4.14326 -1.82159
  201 166.742 -4.11975 1.81436
  202 202.794 -2.61878 -15.8205
  203 231.343 34.0375 -18.9335
  204 192.328 17.2344 -2.69089
  205 124.042 -4.52985 12.2925
  206 123.846 -4.54613 -12.3928
  207 215.571 -2.27607 4.53618
  208 208.868 3.93200 23.2953
  209 169.309 -12.4774 -7.61627
  210 168.099 -11.8176 7.83861
  211 247.112 36.6477 17.7575
  212 292.528 39.0575 4.47259
  213 18.9445 15.0909 -11.8256
  214 17.4947 13.9513 10.0131
  215 119.331 33.8920 78.6828
  216 202.137 -13.4111 -7.41008
  217 216.417 -2.18807 -4.10243
  218 190.460 1.62412 -15.9886
  219 132.162 -1.39885 -3.82719
  220 132.201 -1.38271 3.78977
  221 181.334 -8.56278 -1.16678
  222 181.416 -8.61171 1.06159
  223 204.668 -2.73572 13.5017
  224 237.288 -13.7817 3.92286
  225 234.045 48.1415 -5.54790
  226 183.555 -17.8165 -7.98617
  227 233.248 -4.03251 15.6476
  228 198.235 -3.22758 0.943751
  229 198.241 -3.19878 -0.942182
  230 182.146 -17.7298 8.34660
  231 209.241 -13.2237 13.7582
  232 296.974 37.0713 -16.5334
  233 64.4012 38.3848 -56.4214
  234 175.145 6.05283 3.41566
  235 209.390 18.4831 19.5843
  236 224.055 -1.53414 -21.1688
  237 208.983 -7.48128 -19.3611
  238 109.381 -3.62390 -15.4687
  239 109.777 -3.56751 15.4114
  240 209.411 -2.47007 -10.5243
  241 199.655 -4.97024 2.83712
  242 199.561 -4.96092 -2.75265
  243 40.6361 3.91547 -20.5673
  244 41.3373 3.43492 20.5035
  245 223.374 -19.4997 -16.0622
  246 221.184 -0.666926 0.668945
  247 221.444 -0.680933 -0.713609
  248 204.303 16.9258 -17.8887
  249 178.835 3.35143 10.4043
  250 382.091 61.2346 40.9417
  251 379.161 43.1778 -25.7663
  252 271.645 58.9827 -0.711854
  253 169.401 -8.08664 49.5499
  254 155.242 -5.16284 -51.8817
  255 177.528 -3.64311 -0.543752
  256 177.509 -3.61732 0.538633
  257 146.266 -4.04098 5.19904
  258 146.271 -4.09864 -5.25067
  259 215.103 -2.23036 6.59940
  260 208.420 -14.8001 -11.4979
  261 132.657 -0.293885 -0.879529
  262 132.682 -0.289141 0.873153
  263 205.783 -8.26098 -9.09149
  264 85.3734 -2.83672 -21.3989
  265 85.7676 -2.84634 21.2339
  266 208.218 -8.97501 15.6484
  267 158.401 -16.8144 29.7845
  268 158.831 -17.1169 -29.6954
  269 177.853 6.71337 -4.84202
  270 153.436 -2.43306 -1.71157
  271 153.446 -2.41525 1.70382
  272 194.256 -0.510632 12.8678
  273 232.991 42.8534 13.1761
  274 122.757 -1.57686 6.55845
  275 122.661 -1.59071 -6.61976
  276 214.249 -17.8305 8.46549
  277 198.337 -22.1948 -19.4428
  278 221.903 -0.959568 2.14074
  279 152.127 -9.18397 -11.2021
  280 151.843 -9.07795 11.1539
  281 275.455 27.1522 69.6321
  282 127.357 -10.2457 35.7074
  283 206.105 29.0039 -1.16619
  284 262.996 28.7619 -12.4146
  285 197.402 -15.2819 3.41605
  286 198.445 -22.8095 17.4227
  287 127.772 -10.0715 -36.1348
  288 23.2822 28.6612 25.6848
  289 205.817 -8.29386 9.25411
  290 271.090 35.1022 10.1267
  291 223.776 -0.854676 -1.85562
  292 200.838 6.99311 -20.5862
  293 198.945 -11.2308 5.32325
  294 194.712 -16.4655 -0.343284
  295 200.037 9.15759 19.8113
  296 213.190 -17.8437 -7.65952
  297 302.853 59.2441 -4.77182
  298 198.889 -10.7910 -5.10048
  299 165.670 46.6704 -96.8529
  300 203.630 -21.5617 -2.94788
  301 202.159 -22.1458 5.29321
  302 147.385 -13.4445 -23.4408
  303 131.478 -0.551414 -1.92767
  304 131.511 -0.541894 1.91026
  305 147.437 -13.4521 23.3046
  306 215.063 -0.340518 -23.5784
  307 233.036 -9.63067 -10.8141
  308 176.232 -10.7167 -3.77114
  309 176.103 -10.7404 3.84664
  310 212.412 -18.2775 31.5940
  311 211.198 -1.64292 7.97295
  312 258.303 0.840161 9.94872
  313 172.440 -6.15483 -2.01729
  314 172.449 -6.13130 2.00302
  315 156.431 -4.17325 -3.34224
  316 156.427 -4.13207 3.33562
  317 176.891 2.31764 -10.0674
  318 229.503 16.8214 -22.8167
  319 357.765 96.0679 -44.7850
  320 209.564 -1.71102 -0.783651
  321 209.433 -1.68678 0.801848
  322 111.017 -0.0572048 44.5521
  323 155.749 -7.20721 -7.29826
  324 155.435 -7.17865 7.31545
  325 111.001 -0.306989 -44.3831
  326 218.231 25.8018 -19.1940
  327 245.508 12.0793 17.6737
  328 212.487 -15.1694 -35.1996
  329 194.386 -7.47081 2.53485
  330 194.181 -7.41199 -2.44587
  331 207.947 -4.20323 -4.52120
  332 194.409 -0.385563 -12.0399
  333 219.169 0.983917 23.1754
  334 219.324 -1.45517 -4.57313
  335 129.944 -8.03503 17.9164
  336 129.802 -8.08257 -18.0655
  337 203.308 -0.469043 21.4955
  338 123.360 -1.07088 -3.86833
  339 123.440 -1.06061 3.82938
  340 209.429 -4.72004 6.88532
  341 250.939 51.4360 -10.0879
  342 207.825 -4.23894 4.68178
  343 220.747 27.7944 19.2929
  344 211.458 -3.90021 22.4701
  345 166.497 -3.16026 0.634911
  346 166.500 -3.18159 -0.640304
  347 199.582 -0.728048 -19.0573
  348 265.526 55.9583 6.95747
  349 219.732 40.4663 0.404327
  350 134.829 15.7461 -66.5422
  351 13.0462 6.05745 -8.67559
  352 14.4051 6.54708 9.37851
  353 -0.898975 1.42636 4.25600
  354 -0.0329103 0.725613 -4.42515
  355 392.336 27.1974 9.45399
  356 182.179 -14.8840 -4.42358
  357 209.614 -4.55436 -6.72182
  358 188.574 -3.26233 0.391671
  359 188.551 -3.23388 -0.392503
  360 201.126 22.2196 -9.67916
  361 171.908 -17.6200 14.5973
  362 14.6173 21.6130 -15.6384
  363 172.092 -17.6204 -14.8839
  364 203.844 23.1957 10.3013
  365 208.881 -5.50627 -11.7800
  366 221.923 -12.3300 -14.5434
  367 235.627 50.0564 3.83686
  368 222.496 -13.8306 12.2239
  369 89.8066 -2.30778 14.3553
  370 89.2384 -2.26378 -14.4567
  371 50.3051 1.30578 -19.7585
  372 50.8827 1.09324 19.6666
  373 179.831 0.523103 10.1987
  374 347.549 100.562 37.6003
  375 216.292 -1.31774 -5.74115
  376 167.299 -14.2747 -11.1159
  377 167.143 -14.2324 11.0994
  378 207.461 -4.74191 -14.7790
  379 237.430 -11.4738 3.03583
  380 182.171 -14.8679 4.57757
  381 261.472 1.48311 -19.8286
  382 144.911 -1.23477 -0.628983
  383 144.928 -1.22363 0.623372
  384 203.725 -1.16699 -9.36636
  385 107.816 -1.62203 -9.38562
  386 107.890 -1.67243 9.26513
  387 244.267 31.1671 -19.6159
  388 131.506 9.35113 61.7116
  389 190.745 -10.0297 1.54820
  390 190.936 -10.0099 -1.55884
  391 223.930 38.0267 -12.2747
  392 212.367 -6.26203 -21.3742
  393 213.653 -21.7858 16.7607
  394 176.894 -4.72118 -0.824209
  395 176.871 -4.69559 0.813044
  396 205.062 -15.8044 7.98362
  397 221.545 -0.998584 3.41480
  398 135.984 -5.10018 -10.8898
  399 136.036 -5.09814 10.7891
  400 207.692 6.96091 -22.9544
  401 196.476 -4.19111 1.44059
  402 196.470 -4.19980 -1.41216
  403 202.818 -2.37493 17.5836
  404 188.167 13.6462 4.61350
  405 210.722 -8.85484 18.7619
  406 305.870 64.2787 10.7833
  407 100.356 -5.42328 -28.6670
  408 100.646 -5.42610 28.4360
  409 44.5579 24.1607 -33.6476
  410 227.145 -0.590027 0.983825
  411 112.377 -1.01090 -5.93053
  412 112.534 -0.989448 5.87550
  413 207.653 -5.37489 14.5034
  414 188.293 -20.4796 9.23271
  415 213.405 -2.54395 3.21086
  416 216.594 11.0189 24.0268
  417 46.8131 25.7253 35.1697
  418 188.590 -20.3707 -8.42918
  419 194.950 -18.1510 -0.963271
  420 61.8658 -1.24724 -17.9725
  421 62.3696 -1.29679 17.8416
  422 149.356 -11.8535 -43.0764
  423 224.136 -3.30411 20.6929
  424 148.744 -12.0448 42.6815
  425 206.864 -11.5809 -12.3967
  426 190.946 12.8151 -10.1408
  427 206.911 -8.88752 11.7272
  428 223.625 -0.923093 -2.34330
  429 6.48762 6.71367 2.60964
  430 44.4979 50.7376 50.0249
  431 198.343 -0.734886 8.99722
  432 164.921 2.18621 4.39277
  433 167.944 2.68351 -5.97050
  434 143.299 -2.46491 -3.66581
  435 143.310 -2.43240 3.63877
  436 203.986 -15.7974 -7.37462
  437 205.737 -4.00814 -19.7284
  438 165.867 3.02310 -1.62245
  439 305.959 72.7495 13.7332
  440 41.1194 13.9454 -25.1536
  441 45.4364 12.8039 26.9447
  442 190.571 -6.77657 1.33745
  443 190.495 -6.75707 -1.28378
  444 254.296 56.5853 -0.830181
  445 160.639 64.0676 98.9937
  446 245.827 -3.56162 -4.87238
  447 139.220 -7.39860 -14.7791
  448 139.281 -7.34510 14.6443
  449 139.785 -3.22988 5.77238
  450 139.763 -3.25503 -5.82995
  451 189.874 4.15312 -16.4414
  452 228.390 -0.263043 -0.662779
  453 184.282 8.37461 9.20381
  454 234.764 29.0235 20.9873
  455 195.268 -14.5137 -2.63059
  456 213.336 -2.41342 -3.11564
  457 224.589 -0.828916 2.15960
  458 227.752 -0.277487 0.379799
  459 227.956 -0.321054 -0.285628
  460 122.312 -0.245872 1.41891
  461 122.252 -0.249398 -1.43533
  462 213.923 -13.5466 14.9708
  463 191.744 7.50855 15.9180
  464 200.960 0.799481 -20.9388
  465 210.735 -4.36691 8.82397
  466 307.538 49.6293 -57.8438
  467 211.090 -11.6754 -16.5630
  468 1.57166 3.92278 1.33890
  469 1.57318 3.96790 -0.295750
  470 166.300 -9.53875 6.12504
  471 165.724 -9.41615 -6.05844
  472 264.505 4.23253 30.6187
  473 73.3169 65.4721 -74.5198
  474 208.044 -0.606307 7.04691
  475 237.331 -13.8931 -16.9900
  476 124.325 -7.27207 20.7866
  477 253.303 44.9519 -14.4745
  478 208.035 -11.2226 13.9503
  479 173.906 -8.39371 -2.82889
  480 174.060 -8.25121 2.81817
  481 179.783 0.932535 -9.01228
  482 123.928 -7.24601 -20.9267
  483 184.584 0.0471937 9.07891
  484 178.061 -20.3414 -26.4311
  485 177.605 -20.3725 26.5119
  486 214.973 -1.37987 6.32807
  487 193.940 18.2534 1.90831
  488 199.177 3.14521 67.3464
  489 292.204 59.8452 -0.377262
  490 201.428 -3.30297 1.57191
  491 201.443 -3.29022 -1.61797
  492 153.356 -2.80058 -2.27014
  493 153.364 -2.77599 2.26007
  494 80.6221 3.87098 37.2719
  495 208.917 -10.0251 -16.1554
  496 189.192 -4.07354 0.398984
  497 189.172 -4.05738 -0.393980
  498 164.439 -17.4775 21.6445
  499 82.2180 5.09226 -38.2356
  500 209.380 -17.0313 -8.41341
  501 3.41959 0.372746 1.98131
  502 181.361 9.28382 0.663617
  503 202.223 -2.23503 -0.527631
  504 202.215 -2.26841 0.517845
  505 164.558 -17.4511 -21.8195
  506 237.605 -12.3579 22.0920
  507 234.643 8.52768 21.4934
  508 216.973 -1.36470 -1.57637
  509 208.737 -17.2754 8.51584
  510 128.296 -0.150161 -0.243417
  511 128.320 -0.148904 0.240985
  512 208.209 -7.96264 -17.1313
  513 200.901 14.8566 17.4662
  514 231.718 5.72467 -21.2118
  515 127.527 -0.229660 -0.795246
  516 127.557 -0.226621 0.789101
  517 409.027 59.0513 -53.0460
  518 209.246 24.9663 15.4293
  519 217.176 -1.24433 1.40825
  520 195.395 -18.5475 1.43082
  521 163.266 -5.48775 3.32391
  522 163.269 -5.53193 -3.31723
  523 228.145 -13.8525 7.31631
  524 218.745 -4.33154 -21.6920
  525 244.360 48.3471 11.9380
  526 202.742 3.47342 21.6990
  527 205.315 -3.85364 2.94540
  528 199.665 -21.2470 -25.2718
  529 206.495 -5.07782 16.7939
  530 404.688 18.5037 -7.44935
  531 226.524 -17.0457 -1.54678
  532 215.622 -1.31351 -0.396995
  533 215.671 -1.40613 0.357515
  534 408.867 27.4550 26.1919
  535 197.519 -0.0845019 18.4542
  536 279.013 46.4391 -6.40073
  537 208.863 -5.60860 -8.62576
  538 92.0784 -0.901884 -6.42585
  539 92.3841 -0.858843 6.35702
  540 140.409 -13.1829 -29.9065
  541 140.510 -12.9608 29.6753
  542 205.205 -3.68727 -2.91426
  543 223.076 8.20273 -23.6062
  544 195.861 -13.3382 3.37549
  545 210.202 24.1317 -16.0326
  546 212.582 -2.40643 8.52127
  547 267.808 13.0002 -1.44790
  548 181.193 -6.23073 -0.568504
  549 181.133 -6.20575 0.557397
  550 197.289 -9.29084 4.05731
  551 292.559 57.4182 -2.55980
  552 207.427 9.07514 22.5492
  553 88.2644 22.7839 55.2523
  554 201.585 -12.1214 44.6875
  555 267.920 12.1152 -49.0250
  556 212.112 17.5477 -21.0259
  557 188.911 -16.2676 -38.6802
  558 204.482 -22.3764 -6.86530
  559 213.841 -21.5959 -10.4447
  560 27.5064 35.1758 -33.3824
  561 214.878 -2.62423 -5.35849
  562 324.333 63.2225 -17.8475
  563 198.372 -8.89926 -4.45155
  564 200.096 -6.45318 3.66646
  565 199.907 -6.30094 -3.53092
  566 136.018 -0.843472 -1.73963
  567 136.044 -0.832479 1.72643
  568 18.4181 2.06767 -10.7440
  569 19.5363 2.16442 11.0006
  570 101.138 -4.78071 -21.9022
  571 101.938 -4.80548 21.8592
  572 202.817 -10.9538 -8.02889
  573 206.932 -22.4661 7.48732
  574 212.734 -20.1484 2.37206
  575 173.366 -3.07348 -0.575483
  576 173.354 -3.04964 0.572071
  577 164.901 -17.2544 -33.1317
  578 185.201 -15.1320 40.9813
  579 160.810 -16.2172 33.3346
  580 208.418 -4.60589 -21.2316
  581 128.851 -2.23725 6.55567
  582 128.789 -2.26131 -6.61518
  583 198.063 10.9033 -17.5270
  584 198.504 -0.345545 -8.16690
  585 248.667 54.3148 -5.45718
  586 161.374 -2.49460 -0.595745
  587 161.376 -2.47674 0.592493
  588 212.370 -0.609893 -4.65004
  589 145.173 -5.04163 -7.18019
  590 145.170 -5.02201 7.11249
  591 119.188 5.65751 53.0191
  592 206.699 -9.46272 -11.8646
  593 114.366 -5.97394 38.0402
  594 203.115 -10.4890 8.18015
  595 214.235 -2.93244 5.89953
  596 211.697 -1.82044 -1.41114
  597 146.712 -1.89480 -1.59149
  598 146.728 -1.87851 1.58181
  599 238.410 47.8369 -10.6868
  600 114.289 -5.73598 -38.1941
  601 202.450 -8.71410 -6.60400
  602 182.076 -3.35996 -0.241847
  603 182.056 -3.33320 0.240710
  604 345.544 46.6694 -8.15135
  605 118.906 -0.809747 3.63505
  606 118.801 -0.817836 -3.67190
  607 187.492 4.23939 14.9836
  608 271.326 22.2372 -4.90007
  609 127.131 1.03197 -52.6554
  610 64.0473 1.74781 -28.5028
  611 64.6039 1.36459 28.3499
  612 159.111 -9.43677 8.80757
  613 160.833 -9.71459 -8.53011
  614 273.529 55.0188 6.31613
  615 210.790 -1.89126 1.28908
  616 178.951 4.94592 -9.03096
  617 224.463 40.5205 9.70438
  618 223.605 42.0584 -6.45119
  619 183.793 -10.2422 -0.990389
  620 185.232 -10.0034 0.323996
  621 132.159 28.6288 -75.9543
  622 157.124 -5.49776 -4.83809
  623 157.133 -5.43254 4.81834
  624 406.337 83.0758 62.4562
  625 208.250 -6.78675 18.4313
  626 117.243 -4.26892 -14.0360
  627 327.340 73.5929 47.9653
  628 117.524 -4.24345 13.9768
  629 200.027 -7.69688 -52.3573
  630 138.595 -0.745389 -0.642582
  631 138.617 -0.738830 0.638849
  632 172.205 1.49338 7.87218
  633 77.1158 -1.19011 -12.6199
  634 77.5757 -1.19291 12.5146
  635 181.387 -12.9275 3.28702
  636 190.491 -15.3113 -0.359277
  637 225.811 -0.444986 -1.95356
  638 124.359 -0.226451 1.03624
  639 124.315 -0.230331 -1.04836
  640 170.684 -3.88484 -0.813882
  641 170.675 -3.86099 0.806082
  642 197.158 -21.8209 25.5729
  643 226.029 25.2744 -21.3581
  644 149.178 -7.11496 -9.27013
  645 149.062 -6.99287 9.19806
  646 177.947 -12.9151 -4.85199
  647 281.785 61.5969 0.919373
  648 211.445 -20.4156 -1.18087
  649 182.798 -4.36272 -0.200038
  650 182.769 -4.33880 0.201013
  651 252.835 27.5488 16.8804
  652 211.689 -2.98302 -9.26529
  653 185.705 -0.256711 -7.40094
  654 85.0660 -2.89592 -27.4842
  655 85.3437 -2.98229 27.2481
  656 177.536 -15.4322 -8.11007
  657 267.164 59.3018 0.192250
  658 206.194 27.9697 -6.94922
  659 135.381 -1.30915 -3.23266
  660 135.410 -1.29060 3.20384
  661 192.992 -5.40902 -1.28515
  662 193.030 -5.41744 1.32925
  663 363.337 47.5575 20.8724
  664 229.685 -0.563479 0.547465
  665 221.209 -0.821557 3.32655
  666 220.269 -0.846452 -3.87158
  667 208.764 -19.3994 4.20528
  668 151.964 -1.83775 -0.795885
  669 151.976 -1.82376 0.791757
  670 222.333 35.7732 14.9012
  671 286.713 63.9062 -2.82255
  672 155.421 -11.7216 -13.1408
  673 155.365 -11.6021 13.0684
  674 195.652 -20.1856 -3.29425
  675 205.788 12.2225 -21.2053
  676 246.063 0.572174 10.1495
  677 161.482 -3.07012 -1.53035
  678 161.484 -3.04872 1.52287
  679 139.700 -12.3302 -27.0084
  680 206.758 -19.9699 -2.26106
  681 171.322 -19.0173 23.8327
  682 81.3945 25.8688 -53.2728
  683 159.532 -14.8990 18.3725
  684 192.307 0.0491522 6.85955
  685 139.822 -12.1878 26.8171
  686 202.328 -8.88851 6.68536
  687 159.599 -14.8396 -18.5513
  688 162.027 2.04679 1.64732
  689 125.161 -3.48389 9.94321
  690 125.047 -3.48912 -10.0195
  691 171.439 -19.5120 -24.1048
  692 212.466 -13.9519 -14.4846
  693 194.655 -2.64287 -0.324594
  694 194.686 -2.67267 0.326001
  695 217.266 -13.7813 14.4251
  696 197.204 -20.6192 4.06085
  697 239.972 22.0002 20.9915
  698 216.184 -4.00675 22.2700
  699 208.014 -7.40820 13.6995
  700 197.752 16.2277 -13.2939
  701 238.999 40.3134 16.5661
  702 206.103 -2.82514 -13.1338
  703 205.780 -6.75011 7.25392
  704 211.832 33.2720 3.76138
  705 209.197 -3.49760 11.5138
  706 65.3066 44.2664 55.7568
  707 194.843 -22.3898 -14.4190
  708 225.630 4.13520 22.7200
  709 228.090 -7.02633 -16.5287
  710 228.447 -0.247190 1.10220
  711 207.960 -7.07684 -10.8755
  712 195.103 -22.5680 13.0269
  713 381.872 33.7951 -5.67776
  714 113.930 -0.522469 3.80818
  715 113.788 -0.528386 -3.84705
  716 211.236 -3.73948 -5.18064
  717 229.865 -0.183338 -1.06824
  718 177.190 -15.6791 8.15520
  719 213.432 -7.89469 20.2921
  720 327.161 76.8782 -21.9369
  721 202.290 -14.6513 6.97122
  722 224.806 -14.7530 -9.01836
  723 205.863 -6.56390 -7.14024
  724 229.897 -0.337547 -0.368426
  725 207.964 -0.00235989 22.9730
  726 9.36800 7.75814 11.4018
  727 236.522 -9.29462 -33.4836
  728 256.846 15.0219 11.1614
  729 213.568 -21.7739 9.19607
  730 150.412 -3.72203 3.97693
  731 150.417 -3.77559 -3.99896
  732 201.668 98.5963 -104.013
  733 217.377 -14.3256 -13.4035
  734 161.366 0.770441 -3.14792
  735 189.602 1.01325 14.6470
  736 209.429 -10.4324 16.4344
  737 200.746 -16.9170 3.89393
  738 209.408 -19.0306 -27.4706
  739 199.470 -15.7844 -4.23114
  740 236.596 -11.3382 -3.83763
  741 217.778 -1.67602 3.04977
  742 193.558 -11.6454 2.43482
  743 354.739 70.9734 -37.4564
  744 206.850 -5.44673 5.79442
  745 203.872 3.31935 -22.2948
  746 174.903 -2.01567 58.9988
  747 218.746 17.6491 22.8765
  748 188.112 -14.8707 1.36526
  749 144.371 -11.5137 -19.6809
  750 144.376 -11.4789 19.5104
  751 199.275 22.4028 -3.10456
  752 203.286 -2.33812 19.9739
  753 205.702 -4.86931 -17.1326
  754 193.783 -11.8796 -2.50305
  755 187.253 -16.8511 4.18209
  756 213.501 35.3548 -4.27026
  757 200.493 -17.3510 -3.10075
  758 200.967 -12.7026 6.74299
  759 203.923 -2.50521 1.09422
  760 204.057 -2.43303 -1.08845
  761 274.417 60.5727 2.01742
  762 224.832 -19.0772 -5.63640
  763 208.603 -6.31825 10.8136
  764 217.895 -1.66729 -2.78869
  765 219.414 1.48488 -23.3928
  766 250.672 13.0306 -14.4934
  767 120.067 -0.140408 -1.76487
  768 120.145 -0.138555 1.74546
  769 1.65755 -4.05372 -2.89702
  770 212.900 -0.220382 4.31165
  771 194.186 -0.354403 -16.2414
  772 200.983 -1.87720 14.3957
  773 185.054 22.2690 87.0156
  774 228.890 47.3316 -0.519198
  775 162.217 -11.7636 10.1234
  776 27.0532 0.662639 -10.6887
  777 27.9101 0.492405 10.8057
  778 199.091 -1.42430 -16.2058
  779 162.682 -11.8849 -10.1177
  780 216.592 -1.83848 2.34861
  781 108.623 -4.73332 18.7046
  782 107.663 -4.71805 -18.7215
  783 206.845 -5.28427 -5.64678
  784 130.112 -3.40421 -8.63767
  785 130.177 -3.38058 8.55486
  786 215.590 -1.95199 -6.44573
  787 163.181 -4.44510 -2.64934
  788 163.183 -4.41410 2.64979
  789 235.572 -1.50327 -16.6291
  790 211.251 -2.19208 -23.1211
  791 105.230 -0.708171 -4.87503
  792 105.445 -0.701629 4.81509
  793 4.41723 2.68118 -6.35008
  794 5.39557 2.82588 6.69022
  795 169.404 0.788810 -5.72339
  796 193.122 -21.7054 -10.5547
  797 -2.26324 -1.58020 3.86581
  798 -1.97025 -1.83784 -3.82180
  799 201.126 -3.93942 2.31095
  800 218.360 -16.9860 -8.06490
  801 224.706 33.3917 -17.4200
  802 217.573 -1.64497 -2.22830
  803 471.776 94.1172 -88.6213
  804 201.086 -3.92479 -2.28205
  805 303.659 58.2176 4.38694
  806 214.861 6.26706 -24.0767
  807 237.939 17.9249 -21.4385
  808 38.1197 -0.453288 -9.92433
  809 38.8856 -0.513085 9.90487
  810 132.171 -1.99204 5.08409
  811 132.126 -2.00935 -5.13361
  812 125.603 -0.328318 0.944545
  813 125.569 -0.331668 -0.953003
  814 240.246 40.5346 -16.4605
  815 140.095 -0.937363 -1.37715
  816 140.117 -0.926348 1.36835
  817 203.925 -2.05179 -20.8364
  818 297.784 29.2634 23.6589
  819 182.495 4.00229 -12.5876
  820 61.6973 -0.570607 10.6891
  821 61.1330 -0.575727 -10.7781
  822 239.746 5.93293 62.0720
  823 211.001 -3.77111 5.34723
  824 186.983 12.3407 -5.24751
  825 84.8480 -0.155795 7.31988
  826 84.3840 -0.115306 -7.37758
  827 128.564 -0.707795 -2.47831
  828 128.609 -0.697610 2.45303
  829 22.8238 20.4352 17.1994
  830 195.446 4.61736 18.7777
  831 217.988 32.1210 -14.8643
  832 235.226 27.3154 -21.1891
  833 153.190 -5.92301 -6.42078
  834 153.094 -5.87560 6.40869
  835 243.334 52.0842 7.54807
  836 210.812 -1.62574 -0.309644
  837 210.820 -1.61313 0.346303
  838 208.019 -6.17639 -13.7735
  839 173.589 -11.6771 5.64105
  840 191.899 -21.5753 10.6313
  841 226.493 -18.5602 16.6807
  842 171.896 -5.03946 -1.42490
  843 171.892 -5.01815 1.41291
  844 196.504 18.1848 8.52400
  845 184.272 2.45837 -13.6108
  846 51.2807 58.8318 58.0344
  847 187.856 -16.7165 -3.71350
  848 188.426 -8.43019 0.896365
  849 188.528 -8.44370 -0.905437
  850 207.319 -3.03124 21.9566
  851 205.936 -13.4981 -10.5214
  852 183.446 -12.2204 -1.86088
  853 425.742 13.7972 -21.3122
  854 174.266 -16.5954 11.4194
  855 174.135 -16.8157 -11.6150
  856 207.210 -2.44568 11.1850
  857 313.917 80.6862 -16.5819
  858 163.255 -14.9691 -14.5036
  859 180.906 -20.4294 13.5694
  860 163.199 -14.7846 14.3678
  861 177.172 -7.18715 -1.57185
  862 177.163 -7.16000 1.55772
  863 25.5299 11.1091 14.9904
  864 222.790 16.6656 -23.2349
  865 169.777 -6.70811 -2.78580
  866 169.806 -6.63763 2.79680
  867 167.525 -2.80598 -0.331805
  868 167.520 -2.78512 0.329179
  869 184.939 -3.63935 0.125507
  870 184.916 -3.61338 -0.126362
  871 149.118 -3.02082 -3.45372
  872 149.127 -2.98575 3.43715
  873 170.485 -9.08168 -4.31560
  874 170.504 -9.01544 4.33389
  875 3.96386 -2.11042 -1.53932
  876 258.676 48.5301 12.7254
  877 222.443 -7.75436 -18.9035
  878 180.773 -20.1358 -13.7255
  879 195.479 -6.24898 2.26660
  880 195.390 -6.18095 -2.20883
  881 213.062 0.293337 23.6119
  882 232.800 -16.6166 -8.64490
  883 206.454 14.1212 -75.3309
  884 92.2308 -1.39578 36.9327
  885 -4.01738 2.15357 -2.32425
  886 -3.54107 2.42729 2.60168
  887 25.3359 11.8166 -15.2940
  888 208.591 -5.91376 8.58633
  889 220.017 -1.34731 -3.63884
  890 197.620 -18.9506 31.7677
  891 92.0060 -1.28981 -37.0876
  892 220.247 -17.9624 5.96075
  893 246.249 -7.53343 27.1848
  894 175.872 0.693425 6.07333
  895 202.771 19.2865 14.5538
  896 108.823 -6.18021 27.2624
  897 108.392 -6.23073 -27.4541
  898 130.674 -6.35730 -15.2538
  899 138.343 -6.66313 -47.2230
  900 220.004 -5.09764 21.0711
  901 303.696 70.7877 9.28417
  902 220.671 8.51816 23.6937
  903 208.619 -4.39494 -12.5353
  904 141.314 -5.97087 48.4057
  905 266.670 49.0279 -9.78128
  906 25.7424 22.0810 -21.2886
  907 191.758 -0.402649 -6.54326
  908 130.811 -6.30315 15.1091
  909 160.179 -3.60502 2.35150
  910 160.178 -3.63152 -2.35788
  911 206.245 -13.4270 10.8451
  912 214.803 -1.23970 0.923448
  913 157.496 1.51612 -58.8330
  914 226.773 -0.455029 1.72693
  915 224.917 -0.368245 -2.18432
  916 165.370 1.39664 -5.25292
  917 216.848 -0.862597 -3.83252
  918 160.831 -7.65480 -5.83939
  919 160.939 -7.53654 5.85575
  920 -5.49682 1.91651 -3.19100
  921 -7.48767 1.15505 3.33919
  922 214.804 -1.14371 -0.930424
  923 69.4004 -1.54287 24.8966
  924 68.9575 -1.38693 -25.0458
  925 228.515 33.4302 18.4371
  926 415.578 7.48484 6.63397
  927 214.810 23.9397 19.1973
  928 245.081 -8.75785 6.74002
  929 212.041 -11.7554 16.6136
  930 264.282 55.4972 -7.43121
  931 161.644 0.635178 3.95646
  932 204.132 -4.70272 -3.59761
  933 211.497 11.3748 -23.2139
  934 257.276 7.35928 -5.67137
  935 198.740 -12.2625 -5.41160
  936 99.3258 -0.586054 -5.46862
  937 99.4396 -0.565478 5.38799
  938 209.925 -4.85153 -9.92423
  939 6.66564 8.57226 1.38628
  940 201.466 -20.8780 -1.22444
  941 172.673 5.01143 -0.542858
  942 262.291 57.9104 -4.94185
  943 40.7173 30.3593 -35.7581
  944 201.001 -1.49240 -12.9008
  945 137.871 -2.40081 -4.72782
  946 137.895 -2.37168 4.68400
  947 1.10353 -5.85748 4.49895
  948 135.700 -10.2288 -21.8985
  949 205.161 -11.8177 -10.1873
  950 125.061 0.266793 -0.387026
  951 125.086 0.268239 0.384036
  952 206.372 25.0691 -11.6832
  953 223.293 -0.558210 -0.350508
  954 223.292 -0.568270 0.455206
  955 135.754 -10.1981 21.7407
  956 207.347 -0.256807 -5.12335
  957 239.530 1.71413 16.1116
  958 212.357 -2.88774 4.15993
  959 32.8493 8.58721 -19.1225
  960 220.498 -1.24572 3.30667
  961 198.592 1.56701 20.1448
  962 209.480 29.0817 10.3962
  963 210.020 2.43863 -23.7776
  964 143.567 -7.84701 -13.0142
  965 227.456 -8.00377 15.9861
  966 143.657 -7.81391 12.8741
  967 6.31702 7.00390 -0.232519
  968 23.8495 4.28726 13.9942
  969 116.270 -2.13714 9.01226
  970 116.123 -2.14024 -9.06838
  971 204.273 -4.79801 3.77733
  972 218.803 38.2068 5.78750
  973 111.077 10.3230 -55.5689
  974 183.081 -11.4950 1.56897
  975 171.809 -18.0396 -17.4478
  976 251.269 48.2721 12.9970
  977 193.044 -3.33762 0.439516
  978 193.037 -3.31755 -0.440387
  979 211.977 -3.82631 -7.18755
  980 194.609 16.7587 -7.86664
  981 450.572 132.045 89.1764
  982 39.4549 2.33646 -18.6049
  983 40.1195 1.94481 18.6511
  984 2.93014 -4.41069 0.667266
  985 195.300 10.7725 16.1463
  986 171.744 -18.1460 17.3114
  987 213.491 -10.0415 -18.7972
  988 232.380 19.0174 23.0693
  989 224.143 -18.0947 -20.7624
  990 327.956 69.1310 22.2710
  991 189.389 -3.00165 -0.0330207
  992 189.364 -2.97464 0.0333858
  993 222.264 -9.00553 17.9707
  994 15.1178 23.7224 25.6130
  995 97.8983 -2.12475 12.9395
  996 97.5759 -2.09780 -13.0877
  997 117.631 -5.88288 17.6442
  998 117.215 -5.79588 -17.7177
  999 132.771 -5.60711 12.6134
  1000 145.131 -1.22082 -0.631862
  1001 145.149 -1.21133 0.628966
  1002 371.590 116.155 -73.3440
  1003 334.130 83.6364 33.4462
  1004 132.663 -5.63786 -12.7278
  1005 228.990 -1.01733 19.7856
  1006 203.756 21.1481 -14.0303
  1007 143.927 -12.3191 39.1178
  1008 185.622 -21.9168 -20.6720
  1009 212.288 -1.69606 -7.55550
  1010 94.7886 6.69187 45.1177
  1011 121.715 -9.32078 31.2676
  1012 186.290 9.47879 -10.0905
  1013 214.528 -4.21315 -22.4986
  1014 278.506 109.027 119.184
  1015 175.499 5.29505 7.16366
  1016 240.819 52.2064 -0.904387
  1017 177.744 6.84769 -66.9336
  1018 179.879 -19.0115 -11.6454
  1019 230.127 -0.185797 -0.875645
  1020 219.227 20.1633 -22.2903
  1021 126.433 -0.873392 3.20578
  1022 126.375 -0.882387 -3.23883
  1023 4.54204 1.46537 -6.19941
  1024 143.602 -6.70231 -10.8302
  1025 121.572 -9.44242 -31.5163
  1026 143.482 -6.68491 10.7017
  1027 209.604 -6.34357 20.8020
  1028 187.868 -11.6518 0.169131
  1029 196.830 3.58532 -19.4955
  1030 202.468 25.3153 4.09306
  1031 277.793 16.1323 8.34346
  1032 207.888 -15.7587 10.4239
  1033 130.150 -10.5169 -23.9652
  1034 195.045 6.85364 -18.2184
  1035 145.231 -12.1483 -39.3403
  1036 280.451 61.2406 -0.845412
  1037 189.271 12.3681 9.17903
  1038 241.482 -1.47247 -12.6408
  1039 181.006 -19.0144 10.6458
  1040 207.711 -6.53387 16.1532
  1041 206.492 -10.8569 11.8515
  1042 205.363 -10.2817 10.3249
  1043 254.168 32.1696 -17.2966
  1044 204.734 -3.27426 16.2737
  1045 185.292 -21.9785 20.3259
  1046 197.805 -8.04259 3.67244
  1047 130.229 -10.5346 23.8201
  1048 185.433 -13.7376 -1.96912
  1049 106.812 -5.15380 -33.4505
  1050 153.355 -15.9755 26.4284
  1051 208.716 -1.37468 -8.73577
  1052 202.967 -2.27903 -18.4389
  1053 175.652 -14.0044 -6.95870
  1054 106.998 -5.30986 33.1741
  1055 188.559 0.425886 -12.7334
  1056 139.880 -9.43127 -16.9059
  1057 255.735 54.7039 8.30698
  1058 55.9176 9.50081 -31.4928
  1059 444.236 31.4295 43.1626
  1060 101.631 7.78041 -47.2912
  1061 205.365 -16.9909 -6.70643
  1062 139.912 -9.34753 16.7582
  1063 186.441 1.91695 14.2099
  1064 103.262 -2.16050 10.7065
  1065 103.202 -2.21453 -10.8210
  1066 207.619 -5.74615 -19.2627
  1067 222.013 -1.01097 1.39694
  1068 217.016 -0.449520 3.88088
  1069 214.087 7.13210 24.0018
  1070 199.897 -1.50540 17.2893
  1071 155.678 16.4581 72.4532
  1072 231.686 -0.134216 0.436146
  1073 215.204 29.2400 15.2873
  1074 181.171 2.56315 12.2204
  1075 219.983 -0.795895 3.74116
  1076 139.143 -1.57714 -2.62386
  1077 139.164 -1.55880 2.60467
  1078 87.9430 -2.54994 -17.8399
  1079 88.3102 -2.64132 17.7083
  1080 181.741 8.98417 5.12061
  1081 278.947 14.2889 -18.7721
  1082 256.247 -0.759079 -37.3692
  1083 202.042 -0.165905 -5.29491
  1084 153.427 -16.0971 -26.6358
  1085 176.019 -13.3179 6.16361
  1086 203.271 -0.454043 5.52874
  1087 213.573 -15.4431 -12.2088
  1088 130.849 -0.341922 1.58123
  1089 130.820 -0.347710 -1.59219
  1090 204.968 -17.4778 6.70427
  1091 194.653 -3.90513 0.822278
  1092 194.621 -3.90818 -0.808291
  1093 189.303 -19.1166 6.41293
  1094 245.469 -8.01092 -1.32054
  1095 108.048 -0.205737 -3.03270
  1096 108.233 -0.198562 2.99819
  1097 166.294 -10.4089 -45.0698
  1098 176.209 -4.21733 0.708557
  1099 176.229 -4.24311 -0.716806
  1100 107.045 56.7917 79.5679
  1101 245.857 20.0797 -19.2996
  1102 35.2421 17.4413 -23.5092
  1103 212.500 -3.05327 -4.02336
  1104 55.6426 19.3925 -36.0893
  1105 116.318 -7.42350 -22.7935
  1106 231.846 -0.195707 0.258817
  1107 231.949 -0.180011 -0.193265
  1108 208.563 -11.8601 -14.2890
  1109 184.738 -20.6800 -28.6652
  1110 55.9420 8.08693 30.0105
  1111 226.751 22.4850 21.8072
  1112 206.315 -1.95136 -0.376408
  1113 206.335 -1.95369 0.397028
  1114 226.184 -14.6829 34.6589
  1115 231.916 46.6965 8.45226
  1116 136.067 -3.39352 -6.79791
  1117 136.098 -3.37624 6.74456
  1118 104.035 12.0549 56.0621
  1119 196.365 0.968069 -18.8850
  1120 60.8873 19.8681 38.8701
  1121 255.017 -4.59633 -10.5947
  1122 248.709 55.3789 2.63087
  1123 170.446 -13.6170 8.62689
  1124 155.317 0.768932 -0.770693
  1125 217.868 -1.83340 4.84758
  1126 225.957 -0.236494 1.89774
  1127 47.1721 0.101714 -8.94702
  1128 47.8773 0.0770170 8.88279
  1129 175.236 2.84709 -9.03753
  1130 181.995 -5.35766 -0.339653
  1131 181.950 -5.32961 0.336460
  1132 18.8762 27.7280 -27.2020
  1133 30.2948 62.6899 -55.4524
  1134 184.409 -7.21777 0.0700635
  1135 184.486 -7.22046 -0.0790164
  1136 190.777 -4.54852 0.906283
  1137 190.749 -4.53698 -0.888469
  1138 49.3036 31.6124 38.9760
  1139 149.006 -1.91839 -1.23788
  1140 149.020 -1.90368 1.23100
  1141 188.208 14.1598 -0.218237
  1142 244.525 29.3181 -83.7980
  1143 230.988 39.9695 -14.4718
  1144 210.991 -8.06011 -19.7416
  1145 207.893 -10.3173 -14.4348
  1146 170.568 -13.7478 -8.77753
  1147 170.185 0.523083 5.57940
  1148 192.682 11.9537 -13.4890
  1149 189.877 10.1474 12.8677
  1150 197.672 -7.80345 -3.60958
  1151 188.362 -11.4130 -0.304919
  1152 170.743 -11.1637 -6.40120
  1153 203.787 -1.17963 10.3095
  1154 364.805 36.9189 5.17413
  1155 205.275 -4.35161 18.7908
  1156 205.620 13.5014 20.3699
  1157 190.204 -18.7737 -4.60081
  1158 22.5038 3.94752 -13.4836
  1159 193.776 -8.94643 -2.73082
  1160 125.991 -0.230101 -0.0715382
  1161 126.013 -0.229213 0.0705287
  1162 237.156 -6.28147 10.9476
  1163 226.049 -19.0011 6.98657
  1164 325.489 58.5740 13.9348
  1165 74.8379 -0.179024 -7.49350
  1166 75.3237 -0.162327 7.43301
  1167 172.262 -3.51044 -0.636713
  1168 172.252 -3.48651 0.630869
  1169 194.433 -17.1876 0.256635
  1170 156.773 0.667387 2.51916
  1171 199.197 -14.1792 5.23401
  1172 10.8187 12.8681 -5.80100
  1173 34.9096 17.6673 23.0068
  1174 132.580 -7.08822 43.5893
  1175 229.963 44.0350 -10.3212
  1176 220.827 -0.582041 -2.95116
  1177 232.871 -0.341048 0.186786
  1178 233.120 -0.478254 -0.125109
  1179 131.522 -0.362667 -0.250442
  1180 131.546 -0.359925 0.248194
  1181 211.888 13.5677 23.1921
  1182 315.980 54.3806 -1.14851
  1183 218.106 36.2079 -10.3874
  1184 163.460 -11.9124 44.7763
  1185 131.871 -6.79708 -43.5107
  1186 146.066 -9.94573 -15.1043
  1187 204.355 -5.61775 4.76403
  1188 286.136 62.7934 0.829001
  1189 146.070 -9.88274 14.9761
  1190 209.052 -3.52891 3.60890
  1191 184.678 6.78079 12.2649
  1192 204.596 6.32121 22.2266
  1193 293.551 65.7089 5.87821
  1194 172.615 -4.54678 1.20435
  1195 172.626 -4.57123 -1.21505
  1196 211.676 -3.86800 7.45789
  1197 122.859 -1.38648 5.04490
  1198 122.771 -1.40097 -5.09510
  1199 207.155 -2.68949 -1.68313
  1200 84.6481 50.1508 -76.7228
  1201 179.308 -10.0465 -47.9246
  1202 167.712 -5.33960 -2.39319
  1203 167.726 -5.31281 2.39364
  1204 223.016 -0.942665 1.24278
  1205 210.386 -2.62263 2.89460
  1206 11.0802 13.5737 9.76588
  1207 229.814 -0.217024 1.01649
  1208 26.5823 33.1394 32.8791
  1209 205.298 -2.94109 -2.14795
  1210 -0.314798 -5.10841 -4.46147
  1211 144.130 -14.0497 -33.6908
  1212 143.706 -13.7041 33.3414
  1213 229.811 -0.368173 -1.11658
  1214 195.039 -10.2803 -3.20176
  1215 222.825 -0.848227 -1.29049
  1216 176.592 -5.75423 -1.02800
  1217 176.570 -5.72995 1.01191
  1218 207.017 -2.66802 1.58836
  1219 193.633 -8.77381 2.70215
  1220 186.055 -5.97241 -0.392789
  1221 186.126 -5.99204 0.417447
  1222 222.664 -0.875119 -1.05904
  1223 191.436 -20.0785 -32.3971
  1224 217.614 -1.20672 -1.10025
  1225 206.209 -3.02881 2.28897
  1226 141.481 -1.64245 -1.92124
  1227 141.501 -1.62589 1.90810
  1228 158.949 -2.39997 -0.933036
  1229 158.954 -2.38203 0.927367
  1230 260.711 40.5224 14.7624
  1231 218.878 -16.7446 9.41199
  1232 149.560 -0.610263 55.4692
  1233 117.226 -0.228684 1.93435
  1234 117.125 -0.231005 -1.95561
  1235 206.706 -3.77718 14.1856
  1236 198.134 -2.89112 0.535409
  1237 198.145 -2.88008 -0.535049
  1238 226.143 44.2720 4.79981
  1239 208.350 -21.7625 25.3335
  1240 117.816 -1.74480 7.12318
  1241 117.695 -1.75879 -7.18059
  1242 197.770 -4.74417 1.95473
  1243 197.727 -4.77559 -1.90607
  1244 204.249 -5.54372 -4.60188
  1245 185.978 0.0253225 6.59903
  1246 326.380 81.0276 -25.8792
  1247 207.865 -7.54008 -12.7385
  1248 34.4469 8.46900 19.6922
  1249 214.867 -11.3900 17.6315
  1250 170.221 3.62642 -4.93892
  1251 12.4559 9.53232 6.78887
  1252 285.174 30.9714 -0.544009
  1253 209.666 -9.48901 -17.6856
  1254 171.079 2.35387 7.55900
  1255 117.160 -7.43354 22.7420
  1256 213.294 -16.4549 11.0013
  1257 312.231 58.0646 16.2578
  1258 70.3697 10.6264 38.3218
  1259 214.556 -2.44150 -6.40938
  1260 419.152 4.63052 -4.27829
  1261 433.678 6.56520 19.1667
  1262 463.980 16.0314 -45.3715
  1263 207.458 -6.41939 -15.6911
  1264 207.609 -9.41673 13.5387
  1265 211.074 -14.9693 12.8637
  1266 -6.24066 0.661177 4.00166
  1267 -5.69713 0.511360 -4.33453
  1268 205.677 -22.6718 -11.2340
  1269 210.963 -21.2637 -17.3326
  1270 157.982 0.963328 -3.11604
  1271 204.883 -23.0954 17.3735
  1272 218.656 -10.3159 -17.9284
  1273 3.83440 6.30983 0.306508
  1274 176.728 -3.22314 0.519421
  1275 176.743 -3.24826 -0.520807
  1276 217.786 -1.63600 4.40399
  1277 209.051 -3.46236 -3.40297
  1278 196.466 -21.4601 -5.55281
  1279 178.756 -9.75558 2.37334
  1280 177.826 -9.62315 -2.65405
  1281 210.712 -4.36932 10.0958
  1282 215.867 -7.88029 -20.3862
  1283 12.9386 9.93999 -6.51387
</Section>

newXOutput 29

<Section columns = "stress_xx | stress_yy | stress_xy">
  1 242.822 -0.00335464 0.497546
  2 242.840 -0.000457086 -0.499333
  3 128.357 -0.0632111 -0.180451
  4 -1.64412 -1.63246 -2.36235
  5 445.806 170.674 139.757
  6 441.538 177.174 -140.350
  7 -1.90752 -1.55730 2.50534
  8 128.335 -0.0637389 0.179885
  9 244.625 -0.384455 0.159137
  10 244.059 -0.617526 -0.104010
  11 243.413 -0.391158 0.591587
  12 242.772 -0.557737 0.196900
  13 241.404 -0.462083 0.933610
  14 240.172 -0.471687 0.700449
  15 237.335 -0.419291 1.33085
  16 233.357 -0.262175 1.95312
  17 229.793 -0.295238 2.15817
  18 224.570 -0.442126 2.59162
  19 217.404 -0.00816369 3.80792
  20 210.781 -0.326911 3.59991
  21 203.336 -0.442150 5.04594
  22 192.570 0.316304 4.37053
  23 184.849 0.455081 5.15001
  24 174.785 0.780628 4.01446
  25 167.854 0.785628 4.03990
  26 157.806 1.13193 2.05487
  27 155.705 1.78769 2.19759
  28 154.448 1.44693 -0.646885
  29 156.187 0.806319 -1.43171
  30 159.378 0.806339 -1.75272
  31 166.900 1.03486 -3.50599
  32 174.203 0.816297 -4.45118
  33 184.985 0.156263 -5.28869
  34 193.623 -0.120577 -4.84066
  35 202.883 -0.354374 -4.77738
  36 211.294 -0.253459 -3.38570
  37 218.573 -0.257480 -2.91081
  38 224.611 -0.429689 -2.45726
  39 230.052 -0.297247 -1.73262
  40 233.490 -0.343130 -1.84773
  41 236.808 -0.439959 -1.35501
  42 239.981 -0.528361 -0.615864
  43 241.620 -0.419769 -0.709051
  44 242.520 -0.240481 -0.451855
  45 241.963 -0.105230 -0.411052
  46 244.331 -0.628271 0.0632005
  47 244.712 -0.402729 -0.164305
  48 236.282 -0.102042 -0.307080
  49 230.712 -0.875469 -0.540224
  50 223.950 -1.31301 -0.371780
  51 215.730 -2.00135 -0.504301
  52 207.972 -2.20946 -0.634355
  53 199.716 -2.82378 -0.599446
  54 192.430 -3.17493 -0.345136
  55 186.042 -3.59859 -0.144607
  56 178.681 -2.99886 -0.145048
  57 170.199 -2.82659 -0.213316
  58 162.017 -2.25325 -0.0802520
  59 154.256 -1.45952 -0.0369057
  60 146.869 -1.05604 -0.000507581
  61 140.371 -0.562182 0.0583433
  62 133.701 -0.166738 -0.208603
  63 128.450 0.176404 0.239951
  64 126.119 0.525823 0.153518
  65 127.782 -0.00443565 0.377276
  66 126.067 -0.0835106 0.450984
  67 124.510 -0.118886 0.563810
  68 122.377 -0.0253844 0.743745
  69 119.683 -0.0151391 0.943229
  70 117.748 -0.179894 1.84458
  71 111.982 0.165628 2.01951
  72 107.961 -0.0189323 2.32717
  73 101.970 -0.115391 2.63574
  74 95.0500 -0.189692 3.21340
  75 86.4085 -0.0485664 3.90144
  76 75.8697 0.0447755 4.28990
  77 66.8616 -0.108612 6.12337
  78 48.8980 0.580811 5.75250
  79 36.7724 0.502333 6.08972
  80 22.3444 -0.0897816 6.71751
  81 10.4645 1.15522 6.93448
  82 -3.00975 1.70134 4.06486
  83 -12.6801 1.72199 1.32387
  84 -12.0377 1.63277 -0.800919
  85 -11.1904 1.34431 -3.41830
  86 -6.54889 -0.475759 -3.20249
  87 -0.832414 -6.28762 -3.52147
  88 0.569219 -11.6502 -4.45853
  89 1.65712 -18.6757 -2.62163
  90 3.72476 -19.5983 -0.142761
  91 7.94526 -6.43397 10.0486
  92 24.0478 33.7619 35.4069
  93 145.250 129.201 124.257
  94 538.153 79.7136 90.9026
  95 483.203 11.4736 29.8504
  96 447.715 4.70029 9.13489
  97 434.581 3.96048 0.727937
  98 441.424 5.31214 -7.86997
  99 481.872 10.6158 -23.5978
  100 572.365 38.4926 -78.8953
  101 85.7522 131.185 -103.441
  102 18.0328 22.1295 -29.0511
  103 8.65148 -5.56315 -10.4123
  104 3.47179 -19.7481 -1.47089
  105 0.923318 -14.3287 3.03851
  106 1.20838 -14.6568 3.88736
  107 0.0383982 -5.45869 3.89633
  108 -6.82982 -0.328398 3.04877
  109 -11.5495 1.00856 2.99444
  110 -12.6671 1.98893 0.872685
  111 -13.1012 1.70017 -1.20914
  112 -3.91051 1.74392 -3.79509
  113 9.65861 1.16572 -6.60395
  114 21.5198 0.0309752 -6.60645
  115 35.9256 0.543507 -6.10478
  116 48.1285 0.596762 -5.79967
  117 66.2640 -0.111122 -6.17886
  118 75.3570 0.0505176 -4.33462
  119 85.9616 -0.0465098 -3.95350
  120 94.8186 -0.209003 -3.24028
  121 101.665 -0.110478 -2.64429
  122 107.731 -0.0113632 -2.35338
  123 111.796 0.163390 -2.04395
  124 117.616 -0.181550 -1.86534
  125 119.580 -0.0162173 -0.956077
  126 122.301 -0.0263953 -0.754354
  127 124.455 -0.120545 -0.572259
  128 126.027 -0.0849281 -0.456914
  129 127.751 -0.00568637 -0.381095
  130 126.093 0.525044 -0.155321
  131 128.426 0.176044 -0.241062
  132 133.677 -0.168186 0.207938
  133 140.347 -0.565799 -0.0597625
  134 146.848 -1.06408 -0.00116739
  135 154.241 -1.47074 0.0352769
  136 162.009 -2.26939 0.0786693
  137 170.200 -2.84687 0.212091
  138 178.691 -3.02219 0.143897
  139 186.060 -3.62441 0.144166
  140 192.453 -3.20055 0.346029
  141 199.747 -2.84710 0.602024
  142 207.997 -2.22574 0.643678
  143 215.746 -2.01588 0.548510
  144 223.987 -1.23404 0.380281
  145 230.877 -0.849462 0.528538
  146 236.314 -0.138408 0.302678
  147 210.081 -19.7242 -2.42130
  148 209.915 -19.4609 2.49734
  149 219.612 31.6315 -11.3246
  150 234.922 13.8831 24.2431
  151 177.820 -17.0246 -38.4487
  152 179.234 -17.0132 37.1752
  153 171.807 -7.40091 4.31341
  154 171.826 -7.50756 -4.31884
  155 249.723 8.91237 -19.0446
  156 209.515 -7.46581 5.33009
  157 209.429 -7.28029 -5.26191
  158 270.850 60.8363 3.28292
  159 213.965 -0.341526 -23.4418
  160 157.548 -12.5578 -17.1206
  161 157.542 -12.4490 16.9589
  162 214.492 -4.82305 21.2733
  163 202.902 14.7578 13.8524
  164 83.1817 13.6290 -45.8490
  165 92.4544 12.8926 48.3481
  166 264.359 2.79780 3.75217
  167 215.316 -8.20259 -15.0038
  168 285.859 62.8436 -2.49696
  169 193.543 -5.43699 0.361401
  170 193.500 -5.41725 -0.342655
  171 218.390 -2.51084 -2.35237
  172 219.125 -2.23898 2.04054
  173 150.460 -2.25659 -2.64947
  174 150.475 -2.23226 2.63344
  175 235.526 -6.51468 48.8125
  176 196.188 8.07023 -14.9054
  177 127.755 -9.65462 -27.7789
  178 128.142 -9.58270 27.5840
  179 143.260 -4.84086 -8.98462
  180 143.268 -4.78333 8.91091
  181 216.421 -5.61713 12.7449
  182 196.366 -13.5279 0.264370
  183 195.647 -13.4268 0.0675704
  184 224.159 -21.6229 -2.59702
  185 225.291 -20.5984 -0.214502
  186 310.426 72.9459 -9.35526
  187 224.009 36.1105 10.6116
  188 224.807 13.8238 -24.1705
  189 234.862 -2.37196 -56.9688
  190 223.568 -12.5763 -17.3125
  191 225.459 -8.95532 20.2158
  192 187.557 -21.3256 18.4509
  193 187.628 -21.1797 -18.3880
  194 199.780 2.50180 17.9615
  195 90.4259 -2.12879 -33.8840
  196 90.6610 -2.33170 33.6642
  197 351.251 52.8394 7.50522
  198 211.592 -12.5696 9.67603
  199 219.708 -3.94492 -8.38353
  200 172.826 -4.29158 -1.90028
  201 172.825 -4.26734 1.89282
  202 210.146 -2.71458 -16.3493
  203 239.708 35.2638 -19.5553
  204 199.348 17.8656 -2.78235
  205 128.630 -4.69085 12.7471
  206 128.427 -4.70762 -12.8507
  207 223.323 -2.36388 4.67589
  208 216.437 4.07403 24.0792
  209 175.470 -12.9244 -7.92019
  210 174.219 -12.2408 8.14920
  211 256.019 37.9680 18.3188
  212 302.966 40.5036 4.74896
  213 19.6684 15.6526 -12.2953
  214 18.1645 14.4705 10.4127
  215 123.652 35.1326 81.5667
  216 209.438 -13.8966 -7.62558
  217 224.195 -2.27240 -4.22855
  218 197.406 1.68584 -16.5326
  219 137.059 -1.44671 -3.97149
  220 137.100 -1.43003 3.93286
  221 187.914 -8.87111 -1.23651
  222 188.000 -8.92198 1.12761
  223 212.082 -2.83598 13.9509
  224 245.796 -14.2740 4.13961
  225 242.524 49.8699 -5.72709
  226 190.203 -18.4578 -8.31421
  227 241.637 -4.17936 16.1318
  228 205.392 -3.34957 0.965761
  229 205.398 -3.31979 -0.964162
  230 188.747 -18.3680 8.68670
  231 216.794 -13.7037 14.1929
  232 307.541 38.4574 -17.2436
  233 66.7714 39.7942 -58.5213
  234 181.578 6.27997 3.53358
  235 216.990 19.1525 20.2455
  236 232.135 -1.59172 -21.8581
  237 216.539 -7.75396 -19.9995
  238 113.443 -3.75350 -16.0368
  239 113.853 -3.69517 15.9778
  240 216.977 -2.56223 -10.8698
  241 206.864 -5.15419 2.91382
  242 206.766 -5.14466 -2.82658
  243 42.1771 4.05487 -21.3429
  244 42.9022 3.55709 21.2765
  245 231.389 -20.2017 -16.7035
  246 229.109 -0.697299 0.687216
  247 229.377 -0.711868 -0.733763
  248 211.729 17.5412 -18.4947
  249 185.392 3.47872 10.7614
  250 395.638 63.4030 42.4007
  251 392.591 44.7062 -26.6764
  252 281.438 61.0876 -0.716548
  253 175.517 -8.38257 51.3774
  254 160.859 -5.35648 -53.7920
  255 183.981 -3.77588 -0.572673
  256 183.961 -3.74927 0.567362
  257 151.644 -4.18357 5.39919
  258 151.648 -4.24318 -5.45250
  259 222.849 -2.31527 6.81021
  260 215.942 -15.3365 -11.8516
  261 137.583 -0.302589 -0.913539
  262 137.610 -0.297692 0.906963
  263 213.211 -8.56282 -9.37414
  264 88.5599 -2.94042 -22.1874
  265 88.9676 -2.95035 22.0169
  266 215.741 -9.30201 16.1566
  267 164.155 -17.4250 30.8924
  268 164.600 -17.7384 -30.8000
  269 184.378 6.96453 -5.00818
  270 159.067 -2.51857 -1.77881
  271 159.077 -2.50020 1.77081
  272 201.328 -0.527920 13.3028
  273 241.425 44.3940 13.6067
  274 127.316 -1.63155 6.80145
  275 127.216 -1.64585 -6.86476
  276 221.969 -18.4764 8.70467
  277 205.484 -22.9976 -20.1938
  278 229.859 -0.999881 2.20487
  279 157.693 -9.51175 -11.6262
  280 157.401 -9.40212 11.5765
  281 285.202 28.2096 72.1975
  282 132.013 -10.6219 37.0269
  283 213.603 30.0557 -1.20521
  284 272.430 29.8101 -12.7635
  285 204.537 -15.8336 3.49030
  286 205.598 -23.6341 18.1011
  287 132.442 -10.4417 -37.4688
  288 24.1557 29.7393 26.6709
  289 213.246 -8.59672 9.54207
  290 280.804 36.3790 10.3893
  291 231.793 -0.890703 -1.91123
  292 208.138 7.24891 -21.2839
  293 206.133 -11.6377 5.47106
  294 201.752 -17.0594 -0.308742
  295 207.312 9.49170 20.4839
  296 220.874 -18.4897 -7.87118
  297 313.720 61.3507 -4.96468
  298 206.076 -11.1822 -5.24171
  299 171.586 48.3898 -100.374
  300 210.973 -22.3405 -3.10993
  301 209.451 -22.9459 5.53838
  302 152.765 -13.9299 -24.3112
  303 136.359 -0.569445 -2.00144
  304 136.394 -0.559611 1.98348
  305 152.820 -13.9379 24.1703
  306 222.838 -0.354248 -24.3626
  307 241.410 -9.97802 -11.1258
  308 182.635 -11.1011 -3.93660
  309 182.502 -11.1258 4.01505
  310 220.036 -18.9339 32.7872
  311 218.825 -1.70490 8.23438
  312 267.534 0.891313 10.3941
  313 178.717 -6.37571 -2.10937
  314 178.726 -6.35147 2.09462
  315 162.160 -4.32120 -3.47543
  316 162.157 -4.27866 3.46863
  317 183.383 2.40589 -10.4126
  318 237.788 17.4279 -23.5665
  319 370.504 99.5122 -46.4428
  320 217.101 -1.77996 -0.804997
  321 216.966 -1.75482 0.823823
  322 115.081 -0.0675697 46.1983
  323 161.447 -7.46383 -7.58085
  324 161.122 -7.43444 7.59878
  325 115.064 -0.326948 -46.0231
  326 226.140 26.7339 -19.8360
  327 254.332 12.5171 18.2228
  328 220.109 -15.7133 -36.5225
  329 201.416 -7.74291 2.59483
  330 201.203 -7.68217 -2.50286
  331 215.439 -4.36063 -4.65566
  332 201.486 -0.398687 -12.4466
  333 227.085 1.01673 23.9417
  334 227.207 -1.51192 -4.71790
  335 134.726 -8.32324 18.5796
  336 134.578 -8.37235 -18.7336
  337 210.684 -0.485726 22.2195
  338 127.949 -1.10746 -4.01293
  339 128.032 -1.09684 3.97272
  340 216.978 -4.89538 7.09911
  341 260.000 53.2825 -10.3971
  342 215.314 -4.39747 4.82147
  343 228.743 28.7966 19.9366
  344 219.105 -4.04332 23.2171
  345 172.573 -3.27373 0.664199
  346 172.577 -3.29573 -0.669771
  347 206.832 -0.753776 -19.7000
  348 275.093 57.9660 7.14399
  349 227.709 41.9249 0.417762
  350 139.712 16.3121 -68.9843
  351 13.5647 6.27889 -9.01745
  352 14.9722 6.78680 9.74569
  353 -0.919677 1.48499 4.39945
  354 -0.0244687 0.759974 -4.57532
  355 406.191 28.1586 9.78201
  356 188.785 -15.4191 -4.62068
  357 217.168 -4.72393 -6.93033
  358 195.402 -3.38400 0.398337
  359 195.379 -3.35461 -0.399217
  360 208.448 23.0281 -10.0076
  361 178.150 -18.2546 15.1584
  362 15.1730 22.4420 -16.2542
  363 178.339 -18.2547 -15.4548
  364 211.260 24.0387 10.6507
  365 216.423 -5.70878 -12.1610
  366 229.916 -12.7773 -14.9950
  367 244.163 51.8526 3.96024
  368 230.506 -14.3323 12.5919
  369 93.1674 -2.39050 14.8832
  370 92.5795 -2.34489 -14.9879
  371 52.2153 1.35108 -20.4942
  372 52.8124 1.13110 20.3991
  373 186.422 0.546229 10.5475
  374 359.913 104.195 39.0478
  375 224.083 -1.36865 -5.92686
  376 173.386 -14.7867 -11.5467
  377 173.225 -14.7431 11.5297
  378 214.962 -4.91597 -15.2653
  379 245.947 -11.8859 3.06720
  380 188.777 -15.4025 4.78031
  381 270.799 1.55893 -20.6267
  382 150.252 -1.27689 -0.655575
  383 150.271 -1.26539 0.649792
  384 211.111 -1.21044 -9.67862
  385 111.837 -1.67910 -9.72985
  386 111.914 -1.73136 9.60528
  387 253.070 32.2914 -20.2424
  388 136.277 9.68660 63.9821
  389 197.650 -10.3921 1.56832
  390 197.847 -10.3717 -1.57926
  391 232.048 39.3971 -12.6807
  392 220.042 -6.49053 -22.0802
  393 221.333 -22.5717 17.4227
  394 183.325 -4.89201 -0.869769
  395 183.300 -4.86565 0.858205
  396 212.465 -16.3762 8.21480
  397 229.500 -1.03812 3.52198
  398 140.994 -5.28083 -11.2951
  399 141.048 -5.27883 11.1911
  400 215.223 7.21361 -23.7281
  401 203.575 -4.34717 1.47344
  402 203.568 -4.35624 -1.44411
  403 210.172 -2.46212 18.1725
  404 195.044 14.1484 4.77187
  405 218.335 -9.17754 19.3757
  406 316.841 66.5689 11.2082
  407 104.066 -5.62262 -29.7250
  408 104.365 -5.62546 29.4862
  409 46.2208 25.0463 -34.9204
  410 235.270 -0.616066 1.01249
  411 116.570 -1.04543 -6.14857
  412 116.732 -1.02325 6.09174
  413 215.160 -5.57183 14.9791
  414 195.105 -21.2183 9.61023
  415 221.079 -2.64203 3.30577
  416 224.433 11.4161 24.8313
  417 48.5545 26.6683 36.4951
  418 195.411 -21.1051 -8.77770
  419 201.996 -18.8055 -1.04671
  420 64.2044 -1.29409 -18.6381
  421 64.7252 -1.34534 18.5027
  422 154.776 -12.2893 -44.6672
  423 232.217 -3.42622 21.3646
  424 154.145 -12.4869 44.2586
  425 214.335 -12.0014 -12.7878
  426 197.917 13.2865 -10.4870
  427 214.382 -9.21172 12.0996
  428 231.640 -0.961046 -2.41465
  429 6.73806 6.98472 2.73601
  430 46.1427 52.6460 51.9023
  431 205.552 -0.761245 9.29932
  432 171.008 2.27117 4.54445
  433 174.134 2.78666 -6.17599
  434 148.580 -2.55063 -3.80708
  435 148.591 -2.51703 3.77917
  436 211.351 -16.3688 -7.58489
  437 213.188 -4.15482 -20.3865
  438 171.986 3.13966 -1.67825
  439 316.922 75.3629 14.3035
  440 42.6646 14.4524 -26.1083
  441 47.1376 13.2691 27.9632
  442 197.469 -7.02315 1.35854
  443 197.391 -7.00312 -1.30310
  444 263.488 58.6074 -0.853868
  445 166.343 66.4718 102.593
  446 254.641 -3.68326 -4.96380
  447 144.333 -7.66299 -15.3288
  448 144.397 -7.60771 15.1895
  449 144.939 -3.34318 5.99118
  450 144.916 -3.36914 -6.05063
  451 196.803 4.30815 -17.0021
  452 236.554 -0.276658 -0.681582
  453 191.024 8.68556 9.51953
  454 243.240 30.0684 21.6731
  455 202.329 -15.0377 -2.67982
  456 221.006 -2.50697 -3.20796
  457 232.637 -0.863485 2.22528
  458 235.892 -0.292154 0.390521
  459 236.102 -0.337359 -0.293340
  460 126.876 -0.253556 1.47273
  461 126.815 -0.257199 -1.48967
  462 221.639 -14.0384 15.4440
  463 198.738 7.78552 16.4612
  464 208.258 0.829244 -21.6457
  465 218.334 -4.52914 9.10502
  466 318.405 51.5106 -60.0212
  467 218.711 -12.0996 -17.0965
  468 1.65644 4.06894 1.40512
  469 1.65685 4.11687 -0.324211
  470 172.361 -9.87997 6.37119
  471 171.765 -9.75270 -6.30144
  472 273.927 4.42348 31.8020
  473 75.9689 67.9179 -77.2618
  474 215.572 -0.629995 7.28020
  475 245.826 -14.3863 -17.6735
  476 128.904 -7.53369 21.5535
  477 262.432 46.5710 -14.9196
  478 215.547 -11.6305 14.3957
  479 180.231 -8.69465 -2.95541
  480 180.391 -8.54723 2.94438
  481 186.373 0.968355 -9.32012
  482 128.493 -7.50656 -21.6981
  483 191.335 0.0510380 9.38793
  484 184.501 -21.0784 -27.4249
  485 184.028 -21.1106 27.5096
  486 222.721 -1.43259 6.53333
  487 201.016 18.9212 1.97375
  488 206.308 3.27426 69.8150
  489 302.708 61.9742 -0.390550
  490 208.694 -3.42803 1.61255
  491 208.709 -3.41484 -1.66024
  492 158.983 -2.89907 -2.36090
  493 158.991 -2.87367 2.35052
  494 83.6015 4.00495 38.6584
  495 216.463 -10.3899 -16.6789
  496 196.042 -4.22398 0.399748
  497 196.022 -4.20733 -0.394617
  498 170.414 -18.1087 22.4578
  499 85.2542 5.26971 -39.6570
  500 216.932 -17.6479 -8.65500
  501 3.55449 0.410215 2.03229
  502 188.006 9.62881 0.686829
  503 209.514 -2.32235 -0.540751
  504 209.505 -2.35686 0.530617
  505 170.536 -18.0812 -22.6389
  506 246.108 -12.7928 22.9566
  507 243.093 8.83384 22.1875
  508 224.761 -1.42053 -1.62136
  509 216.267 -17.9006 8.76132
  510 133.077 -0.154176 -0.253287
  511 133.103 -0.152877 0.250781
  512 215.734 -8.25276 -17.6924
  513 208.209 15.3975 18.0594
  514 240.065 5.93031 -21.8978
  515 132.279 -0.236632 -0.825584
  516 132.310 -0.233493 0.819244
  517 423.465 61.1373 -54.9078
  518 216.847 25.8702 15.9506
  519 224.970 -1.29611 1.44820
  520 202.457 -19.2165 1.53138
  521 169.229 -5.68348 3.46098
  522 169.231 -5.72912 -3.45403
  523 236.346 -14.3536 7.50556
  524 226.640 -4.49076 -22.4033
  525 253.191 50.0824 12.3168
  526 210.102 3.60024 22.4324
  527 212.715 -3.99852 3.02843
  528 206.853 -22.0156 -26.2329
  529 213.967 -5.26386 17.3493
  530 418.945 19.1589 -7.70943
  531 234.663 -17.6606 -1.53170
  532 223.361 -1.36789 -0.407053
  533 223.413 -1.46378 0.366140
  534 423.273 28.4210 27.1017
  535 204.700 -0.0865091 19.0780
  536 289.009 48.1297 -6.52482
  537 216.396 -5.81550 -8.89751
  538 95.5392 -0.933709 -6.66112
  539 95.8553 -0.889131 6.58996
  540 145.535 -13.6621 -31.0130
  541 145.640 -13.4320 30.7737
  542 212.601 -3.82633 -2.99664
  543 231.132 8.49751 -24.3870
  544 202.943 -13.8201 3.45190
  545 217.835 25.0060 -16.5729
  546 220.250 -2.49733 8.79745
  547 277.380 13.4892 -1.59689
  548 187.770 -6.45602 -0.610823
  549 187.708 -6.43031 0.599281
  550 204.420 -9.62811 4.16496
  551 303.024 59.5059 -2.76103
  552 214.952 9.40404 23.3107
  553 91.4942 23.6130 57.2989
  554 208.822 -12.5552 46.3459
  555 277.435 12.5979 -50.8589
  556 219.804 18.1832 -21.7336
  557 195.714 -16.8572 -40.1195
  558 211.852 -23.1851 -7.16869
  559 221.531 -22.3761 -10.8807
  560 28.5293 36.5127 -34.6492
  561 222.608 -2.72459 -5.52514
  562 335.931 65.4742 -18.5195
  563 205.540 -9.22307 -4.57371
  564 207.321 -6.68989 3.76735
  565 207.126 -6.53237 -3.62738
  566 141.056 -0.871472 -1.80688
  567 141.082 -0.860119 1.79326
  568 19.1557 2.14144 -11.1518
  569 20.3128 2.24182 11.4177
  570 104.891 -4.95387 -22.7088
  571 105.719 -4.97960 22.6647
  572 210.142 -11.3518 -8.27031
  573 214.387 -23.2781 7.81419
  574 220.397 -20.8772 2.39438
  575 179.677 -3.18523 -0.600769
  576 179.665 -3.16063 0.597234
  577 170.876 -17.8819 -34.3632
  578 191.875 -15.6808 42.5027
  579 166.643 -16.8076 34.5728
  580 215.960 -4.77422 -21.9381
  581 133.624 -2.31522 6.80044
  582 133.559 -2.34008 -6.86188
  583 205.272 11.3024 -18.1231
  584 205.718 -0.358235 -8.44102
  585 257.658 56.2595 -5.62578
  586 167.276 -2.58324 -0.620080
  587 167.278 -2.56482 0.616721
  588 220.040 -0.633157 -4.80304
  589 150.508 -5.21986 -7.45313
  590 150.506 -5.19965 7.38317
  591 123.532 5.85508 54.9746
  592 214.163 -9.80737 -12.2409
  593 118.558 -6.19706 39.4464
  594 210.450 -10.8700 8.42732
  595 221.946 -3.04361 6.08405
  596 219.307 -1.89319 -1.45052
  597 152.114 -1.96050 -1.65465
  598 152.130 -1.94368 1.64466
  599 247.036 49.5545 -11.0297
  600 118.477 -5.95093 -39.6054
  601 209.761 -9.03190 -6.80010
  602 188.684 -3.48362 -0.255191
  603 188.663 -3.45599 0.254003
  604 357.853 48.3225 -8.44643
  605 123.338 -0.837534 3.76974
  606 123.229 -0.845890 -3.80779
  607 194.341 4.39750 15.4957
  608 281.028 23.0601 -4.97237
  609 131.756 1.06085 -54.5957
  610 66.4399 1.80600 -29.5649
  611 67.0159 1.40946 29.4064
  612 164.921 -9.77379 9.14777
  613 166.703 -10.0615 -8.86109
  614 283.359 57.0009 6.45821
  615 218.370 -1.96654 1.32437
  616 185.512 5.13214 -9.34071
  617 232.603 41.9796 10.0257
  618 231.716 43.5725 -6.66488
  619 190.458 -10.6110 -1.05815
  620 191.947 -10.3640 0.368185
  621 136.931 29.6722 -78.7371
  622 162.874 -5.69288 -5.02848
  623 162.884 -5.62547 5.00814
  624 420.707 86.0192 64.6762
  625 215.780 -7.03448 19.0385
  626 121.587 -4.42095 -14.5528
  627 338.921 76.3415 49.8352
  628 121.878 -4.39466 14.4917
  629 207.204 -7.96968 -54.2900
  630 143.724 -0.769772 -0.667348
  631 143.746 -0.763003 0.663498
  632 178.539 1.55121 8.14252
  633 80.0214 -1.23284 -13.0833
  634 80.4969 -1.23575 12.9746
  635 187.967 -13.3922 3.44063
  636 197.385 -15.8629 -0.415252
  637 233.904 -0.463706 -2.01423
  638 128.998 -0.233561 1.07622
  639 128.952 -0.237570 -1.08874
  640 176.902 -4.02489 -0.853693
  641 176.893 -4.00028 0.845627
  642 204.262 -22.6102 26.5434
  643 234.203 26.1860 -22.0658
  644 154.647 -7.36803 -9.62156
  645 154.527 -7.24171 9.54705
  646 184.408 -13.3786 -5.05986
  647 291.924 63.7987 1.00008
  648 219.063 -21.1537 -1.16177
  649 189.430 -4.52230 -0.221861
  650 189.400 -4.49763 0.222831
  651 261.923 28.5453 17.3980
  652 219.325 -3.09490 -9.56540
  653 192.494 -0.264466 -7.65245
  654 88.2295 -3.00415 -28.4995
  655 88.5166 -3.09346 28.2553
  656 183.978 -15.9867 -8.43765
  657 276.804 61.4167 0.194584
  658 213.694 28.9842 -7.18402
  659 140.392 -1.35378 -3.35574
  660 140.421 -1.33462 3.32598
  661 199.972 -5.60768 -1.30895
  662 200.012 -5.61628 1.35448
  663 376.245 49.2399 21.6159
  664 237.890 -0.587068 0.563279
  665 229.157 -0.854190 3.43187
  666 228.188 -0.879496 -3.99575
  667 216.291 -20.1010 4.29625
  668 157.546 -1.90190 -0.827433
  669 157.558 -1.88747 0.823174
  670 230.392 37.0621 15.3970
  671 297.019 66.1921 -2.97920
  672 161.096 -12.1412 -13.6385
  673 161.039 -12.0177 13.5636
  674 202.722 -20.9138 -3.46276
  675 213.260 12.6665 -21.9225
  676 254.890 0.596157 10.4289
  677 167.386 -3.17933 -1.59428
  678 167.389 -3.15726 1.58657
  679 144.806 -12.7770 -28.0073
  680 214.214 -20.6918 -2.28385
  681 177.532 -19.7056 24.7289
  682 84.3794 26.8078 -55.2485
  683 165.342 -15.4357 19.0641
  684 199.318 0.0511126 7.09128
  685 144.934 -12.6296 27.8095
  686 209.634 -9.21235 6.88389
  687 165.410 -15.3740 -19.2490
  688 168.016 2.12611 1.70416
  689 129.795 -3.60686 10.3116
  690 129.677 -3.61219 -10.3903
  691 177.652 -20.2181 -25.0108
  692 220.132 -14.4581 -14.9417
  693 201.690 -2.74384 -0.331090
  694 201.722 -2.77463 0.332530
  695 225.097 -14.2817 14.8757
  696 204.327 -21.3635 4.25814
  697 248.617 22.7929 21.6664
  698 223.992 -4.15434 23.0051
  699 215.527 -7.67919 14.1431
  700 204.955 16.8204 -13.7461
  701 247.634 41.7630 17.1012
  702 213.562 -2.92898 -13.5691
  703 213.205 -6.99793 7.47596
  704 219.531 34.4752 3.88817
  705 216.755 -3.62696 11.8906
  706 67.7027 45.8987 57.8302
  707 201.873 -23.1990 -14.9878
  708 233.770 4.28200 23.4649
  709 236.301 -7.28143 -17.0479
  710 236.618 -0.259410 1.13511
  711 215.466 -7.33631 -11.2221
  712 202.144 -23.3835 13.5455
  713 395.386 34.9921 -5.87775
  714 118.184 -0.540190 3.94904
  715 118.037 -0.546298 -3.98918
  716 218.842 -3.87998 -5.33894
  717 238.084 -0.192757 -1.10049
  718 183.621 -16.2427 8.48446
  719 221.140 -8.18276 20.9576
  720 338.793 79.6865 -22.8523
  721 209.597 -15.1813 7.16975
  722 232.893 -15.2868 -9.27064
  723 213.290 -6.80519 -7.35866
  724 238.109 -0.353262 -0.378264
  725 215.498 -0.00366683 23.7435
  726 9.72100 8.10417 11.8548
  727 244.974 -9.61486 -34.7560
  728 266.056 15.5723 11.4690
  729 221.251 -22.5600 9.58816
  730 155.935 -3.85327 4.13255
  731 155.939 -3.90863 -4.15529
  732 208.764 102.286 -107.794
  733 225.212 -14.8451 -13.8178
  734 167.332 0.803314 -3.25660
  735 196.520 1.05225 15.1452
  736 216.993 -10.8120 16.9663
  737 207.996 -17.5281 3.98153
  738 216.930 -19.7177 -28.5138
  739 206.676 -16.3547 -4.33295
  740 245.086 -11.7449 -3.89833
  741 225.600 -1.74235 3.14156
  742 200.560 -12.0661 2.48231
  743 367.376 73.4976 -38.8126
  744 214.308 -5.64824 5.96935
  745 211.271 3.44064 -23.0476
  746 181.200 -2.08499 61.1691
  747 226.664 18.2855 23.6417
  748 194.924 -15.4064 1.45589
  749 149.653 -11.9278 -20.4123
  750 149.659 -11.8919 20.2360
  751 206.536 23.2192 -3.20972
  752 210.657 -2.42387 20.6435
  753 213.148 -5.04719 -17.7008
  754 200.793 -12.3090 -2.55263
  755 194.033 -17.4579 4.37506
  756 221.258 36.6319 -4.41280
  757 207.735 -17.9778 -3.15986
  758 208.227 -13.1627 6.93720
  759 211.272 -2.60222 1.12280
  760 211.410 -2.52752 -1.11678
  761 284.303 62.7358 2.04981
  762 232.906 -19.7649 -5.90730
  763 216.132 -6.55022 11.1592
  764 225.719 -1.73351 -2.87185
  765 227.339 1.53657 -24.1666
  766 259.672 13.5069 -14.9250
  767 124.549 -0.144293 -1.83099
  768 124.630 -0.142379 1.81095
  769 1.72408 -4.18428 -2.98854
  770 220.588 -0.230011 4.45317
  771 201.256 -0.365171 -16.7913
  772 208.277 -1.94562 14.8782
  773 191.670 23.1048 90.1877
  774 237.189 49.0322 -0.536396
  775 168.131 -12.1848 10.5146
  776 28.1200 0.685332 -11.0899
  777 29.0061 0.508999 11.2111
  778 206.323 -1.47570 -16.7511
  779 168.612 -12.3101 -10.5089
  780 224.370 -1.91124 2.41742
  781 112.650 -4.90386 19.3928
  782 111.656 -4.88797 -19.4098
  783 214.303 -5.48003 -5.81708
  784 134.923 -3.52387 -8.95873
  785 134.990 -3.49948 8.87321
  786 223.353 -2.02701 -6.65200
  787 169.142 -4.60336 -2.75904
  788 169.144 -4.57136 2.75955
  789 244.043 -1.55716 -17.1469
  790 218.893 -2.27283 -23.8922
  791 109.169 -0.732833 -5.05409
  792 109.391 -0.726061 4.99215
  793 4.62988 2.77904 -6.59661
  794 5.64206 2.92919 6.94937
  795 175.644 0.819258 -5.91965
  796 200.097 -22.4890 -10.9831
  797 -2.34245 -1.63461 4.00352
  798 -2.04007 -1.90281 -3.95918
  799 208.383 -4.08711 2.37320
  800 226.223 -17.6010 -8.28733
  801 232.844 34.5954 -17.9976
  802 225.383 -1.71057 -2.29380
  803 488.267 97.4665 -91.7196
  804 208.341 -4.07205 -2.34345
  805 314.554 60.2869 4.56414
  806 222.635 6.49274 -24.8818
  807 246.512 18.5719 -22.1308
  808 39.6015 -0.470645 -10.2939
  809 40.3933 -0.532559 10.2738
  810 137.064 -2.06142 5.27518
  811 137.017 -2.07929 -5.32631
  812 130.289 -0.338869 0.980489
  813 130.252 -0.342332 -0.989215
  814 248.923 41.9934 -16.9900
  815 145.273 -0.968741 -1.43067
  816 145.295 -0.957371 1.42160
  817 211.319 -2.12638 -21.5357
  818 308.362 30.3775 24.6200
  819 189.175 4.15309 -13.0185
  820 64.0442 -0.591389 11.0839
  821 63.4609 -0.596706 -11.1759
  822 248.283 6.17877 64.3576
  823 218.599 -3.91274 5.51062
  824 193.819 12.7957 -5.42694
  825 88.0442 -0.160553 7.58821
  826 87.5645 -0.118599 -7.64781
  827 133.342 -0.731376 -2.57229
  828 133.388 -0.720853 2.54620
  829 23.6852 21.1996 17.8689
  830 202.563 4.78781 19.4163
  831 225.895 33.2807 -15.3614
  832 243.718 28.3006 -21.8811
  833 158.803 -6.13321 -6.66868
  834 158.703 -6.08430 6.65633
  835 252.137 53.9510 7.78639
  836 218.390 -1.69170 -0.317815
  837 218.400 -1.67860 0.355721
  838 215.534 -6.40304 -14.2222
  839 179.900 -12.0959 5.87453
  840 198.833 -22.3542 11.0613
  841 234.616 -19.2259 17.3469
  842 178.155 -5.22059 -1.49283
  843 178.150 -5.19865 1.48045
  844 203.667 18.8491 8.81484
  845 191.012 2.55166 -14.0757
  846 53.1536 61.0905 60.1936
  847 194.656 -17.3183 -3.88990
  848 195.251 -8.73521 0.897786
  849 195.357 -8.74942 -0.907261
  850 214.827 -3.14246 22.6902
  851 213.372 -13.9875 -10.8442
  852 190.098 -12.6597 -1.96303
  853 440.700 14.2810 -22.0460
  854 180.593 -17.1923 11.8656
  855 180.456 -17.4202 -12.0682
  856 214.707 -2.53593 11.5549
  857 325.145 83.5964 -17.2713
  858 169.198 -15.5069 -15.0558
  859 187.459 -21.1662 14.0991
  860 169.141 -15.3160 14.9153
  861 183.610 -7.44567 -1.65137
  862 183.601 -7.41771 1.63673
  863 26.5016 11.5165 15.5713
  864 230.845 17.2667 -24.0070
  865 175.962 -6.94839 -2.90688
  866 175.992 -6.87555 2.91830
  867 173.636 -2.90698 -0.346578
  868 173.631 -2.88547 0.343864
  869 191.644 -3.77385 0.119755
  870 191.620 -3.74703 -0.120665
  871 154.599 -3.12676 -3.58805
  872 154.607 -3.09053 3.57096
  873 176.692 -9.40655 -4.49609
  874 176.712 -9.33818 4.51517
  875 4.11795 -2.14842 -1.62240
  876 267.992 50.2773 13.1045
  877 230.460 -8.03689 -19.5112
  878 187.319 -20.8618 -14.2605
  879 202.545 -6.47783 2.32053
  880 202.453 -6.40751 -2.26089
  881 220.770 0.302084 24.4000
  882 241.147 -17.2121 -9.02843
  883 213.830 14.6600 -78.0870
  884 95.6319 -1.45351 38.3013
  885 -4.12845 2.23280 -2.42279
  886 -3.63602 2.51681 2.71012
  887 26.3019 12.2499 -15.8873
  888 216.114 -6.13171 8.85613
  889 227.917 -1.40095 -3.75174
  890 204.733 -19.6362 32.9605
  891 95.3991 -1.34415 -38.4615
  892 228.172 -18.6128 6.10668
  893 255.044 -7.78632 28.2347
  894 182.332 0.719880 6.28120
  895 210.147 19.9879 15.0480
  896 112.839 -6.40577 28.2669
  897 112.392 -6.45809 -28.4651
  898 135.488 -6.58430 -15.8182
  899 143.371 -6.91217 -48.9652
  900 227.942 -5.28473 21.7596
  901 314.557 73.3547 9.72659
  902 228.647 8.82373 24.4811
  903 216.157 -4.55692 -12.9456
  904 146.447 -6.19397 50.1910
  905 276.258 50.7981 -10.0459
  906 26.7129 22.9021 -22.1117
  907 198.749 -0.416278 -6.76430
  908 135.631 -6.52831 15.6687
  909 166.039 -3.73325 2.44780
  910 166.037 -3.76060 -2.45437
  911 213.691 -13.9138 11.1792
  912 222.517 -1.29169 0.948809
  913 163.184 1.56678 -60.9947
  914 234.898 -0.473948 1.78020
  915 232.985 -0.383905 -2.25310
  916 171.473 1.45036 -5.43373
  917 224.661 -0.894812 -3.95759
  918 166.706 -7.92768 -6.07043
  919 166.818 -7.80541 6.08754
  920 -5.68436 1.98950 -3.29815
  921 -7.74896 1.19909 3.45365
  922 222.517 -1.19218 -0.956383
  923 71.9973 -1.60239 25.8209
  924 71.5393 -1.44104 -25.9752
  925 236.783 34.6339 19.0454
  926 430.190 7.74934 6.85987
  927 222.600 24.8047 19.8425
  928 253.857 -9.06387 7.06178
  929 219.696 -12.1827 17.1479
  930 273.805 57.4897 -7.63317
  931 167.621 0.661764 4.09286
  932 211.493 -4.87798 -3.70003
  933 219.162 11.7866 -23.9950
  934 266.490 7.63762 -5.78288
  935 205.922 -12.7064 -5.56034
  936 103.050 -0.606314 -5.66875
  937 103.168 -0.585017 5.58536
  938 217.498 -5.03101 -10.2421
  939 6.92679 8.90065 1.46384
  940 208.737 -21.6319 -1.32303
  941 179.023 5.20127 -0.561464
  942 271.754 59.9836 -5.07570
  943 42.2341 31.4856 -37.1124
  944 208.296 -1.54682 -13.3330
  945 142.963 -2.48439 -4.90694
  946 142.987 -2.45429 4.86170
  947 1.15002 -6.06180 4.65341
  948 140.676 -10.5972 -22.7081
  949 212.569 -12.2468 -10.5014
  950 129.732 0.276863 -0.402045
  951 129.760 0.278353 0.398962
  952 213.876 25.9789 -12.0781
  953 231.286 -0.584245 -0.361232
  954 231.286 -0.594605 0.469406
  955 140.732 -10.5655 22.5450
  956 214.853 -0.267715 -5.29336
  957 248.140 1.77617 16.6080
  958 219.998 -2.99784 4.28526
  959 34.0980 8.89830 -19.8514
  960 228.414 -1.29558 3.40869
  961 205.812 1.62579 20.8272
  962 217.093 30.1346 10.7475
  963 217.626 2.52645 -24.5756
  964 148.834 -8.12705 -13.5007
  965 235.643 -8.29546 16.4860
  966 148.929 -8.09292 13.3560
  967 6.56702 7.27317 -0.266644
  968 24.7734 4.44186 14.5288
  969 120.591 -2.21230 9.34445
  970 120.439 -2.21543 -9.40235
  971 211.640 -4.97647 3.88567
  972 226.745 39.5848 5.98082
  973 115.128 10.6906 -57.6195
  974 189.721 -11.9085 1.65932
  975 178.043 -18.6900 -18.1123
  976 260.334 50.0062 13.3999
  977 200.024 -3.46256 0.445116
  978 200.018 -3.44184 -0.446046
  979 219.614 -3.96942 -7.41374
  980 201.706 17.3722 -8.13482
  981 466.340 136.769 92.3621
  982 40.9622 2.41872 -19.3036
  983 41.6493 2.01310 19.3513
  984 3.04229 -4.53515 0.713506
  985 202.417 11.1677 16.6968
  986 177.976 -18.8004 17.9712
  987 221.199 -10.4068 -19.4087
  988 240.763 19.7015 23.8254
  989 232.180 -18.7440 -21.5739
  990 339.681 71.5949 23.1058
  991 196.245 -3.11414 -0.0376980
  992 196.219 -3.08624 0.0380634
  993 230.273 -9.33368 18.5454
  994 15.6784 24.6880 26.5949
  995 101.555 -2.20051 13.4143
  996 101.222 -2.17259 -13.5674
  997 121.981 -6.09376 18.2945
  998 121.549 -6.00348 -18.3703
  999 137.664 -5.80689 13.0823
  1000 150.481 -1.26233 -0.655872
  1001 150.499 -1.25254 0.652884
  1002 384.676 120.388 -76.0664
  1003 346.064 86.6288 34.7029
  1004 137.552 -5.83862 -13.2004
  1005 237.238 -1.05664 20.4210
  1006 211.167 21.9167 -14.5057
  1007 149.164 -12.7708 40.5634
  1008 192.329 -22.7094 -21.4610
  1009 219.950 -1.75989 -7.80284
  1010 98.2694 6.92685 46.7898
  1011 126.180 -9.66141 32.4225
  1012 193.101 9.82935 -10.4360
  1013 222.280 -4.36775 -23.2429
  1014 288.235 113.125 123.487
  1015 181.944 5.49383 7.41026
  1016 249.539 54.0777 -0.933250
  1017 184.129 7.10157 -69.3879
  1018 186.398 -19.6961 -12.1038
  1019 238.350 -0.195990 -0.901838
  1020 227.163 20.8913 -23.0353
  1021 131.134 -0.902853 3.32610
  1022 131.074 -0.912145 -3.36022
  1023 4.71658 1.58137 -6.46005
  1024 148.876 -6.94087 -11.2364
  1025 126.032 -9.78741 -32.6797
  1026 148.752 -6.92299 11.1037
  1027 217.184 -6.57525 21.4903
  1028 194.673 -12.0718 0.138630
  1029 203.992 3.71762 -20.1572
  1030 209.839 26.2352 4.23193
  1031 287.698 16.7480 8.74720
  1032 215.391 -16.3295 10.7393
  1033 134.926 -10.8969 -24.8509
  1034 202.149 7.10590 -18.8387
  1035 150.511 -12.5941 -40.7931
  1036 290.551 63.4233 -0.893497
  1037 196.184 12.8231 9.49335
  1038 250.153 -1.52262 -13.0122
  1039 187.566 -19.6994 11.0696
  1040 215.220 -6.77287 16.6830
  1041 213.948 -11.2514 12.2248
  1042 212.778 -10.6555 10.6465
  1043 263.308 33.3328 -17.8301
  1044 212.150 -3.39440 16.8157
  1045 191.988 -22.7733 21.1023
  1046 204.952 -8.33569 3.77005
  1047 135.008 -10.9154 24.7011
  1048 192.153 -14.2315 -2.07826
  1049 110.743 -5.34554 -34.6853
  1050 158.939 -16.5543 27.4115
  1051 216.263 -1.42669 -9.02416
  1052 210.327 -2.36236 -19.0569
  1053 182.031 -14.5072 -7.24258
  1054 110.937 -5.50698 34.3995
  1055 195.442 0.443238 -13.1663
  1056 145.011 -9.76931 -17.5345
  1057 264.967 56.6631 8.55761
  1058 58.0051 9.84157 -32.6734
  1059 459.814 32.5292 44.6521
  1060 105.355 8.05360 -49.0405
  1061 212.777 -17.6054 -6.89040
  1062 145.045 -9.68274 17.3819
  1063 193.253 1.99018 14.6950
  1064 107.115 -2.23754 11.0998
  1065 107.053 -2.29346 -11.2182
  1066 215.130 -5.95583 -19.9012
  1067 229.969 -1.05317 1.43709
  1068 224.835 -0.467825 4.00702
  1069 221.836 7.38839 24.8057
  1070 207.156 -1.56007 17.8709
  1071 161.290 17.0591 75.1063
  1072 239.960 -0.141418 0.448406
  1073 223.014 30.2963 15.8006
  1074 187.807 2.66053 12.6389
  1075 227.895 -0.826840 3.86188
  1076 144.284 -1.63105 -2.72460
  1077 144.307 -1.61211 2.70481
  1078 91.2301 -2.64223 -18.4961
  1079 91.6099 -2.73693 18.3602
  1080 188.399 9.31776 5.29652
  1081 288.879 14.8380 -19.5421
  1082 265.375 -0.758181 -38.7851
  1083 209.375 -0.172677 -5.47184
  1084 159.013 -16.6801 -27.6262
  1085 182.411 -13.7962 6.41885
  1086 210.644 -0.471154 5.71330
  1087 221.274 -16.0031 -12.5830
  1088 135.713 -0.352415 1.64093
  1089 135.682 -0.358393 -1.65224
  1090 212.367 -18.1099 6.88808
  1091 201.689 -4.05069 0.837294
  1092 201.655 -4.05390 -0.822882
  1093 196.152 -19.8055 6.68875
  1094 254.260 -8.29339 -1.44984
  1095 112.093 -0.212722 -3.14435
  1096 112.285 -0.205304 3.10870
  1097 172.304 -10.7911 -46.7343
  1098 182.617 -4.37029 0.746889
  1099 182.636 -4.39688 -0.755436
  1100 110.914 58.8862 82.4845
  1101 254.702 20.8064 -19.9087
  1102 36.5676 18.0814 -24.4088
  1103 220.145 -3.16929 -4.14435
  1104 57.7114 20.0961 -37.4438
  1105 120.609 -7.69174 -23.6335
  1106 240.119 -0.205881 0.266835
  1107 240.226 -0.189624 -0.199101
  1108 216.094 -12.2910 -14.7446
  1109 191.406 -21.4294 -29.7429
  1110 58.0310 8.37701 31.1354
  1111 234.948 23.2950 22.5288
  1112 213.743 -2.02894 -0.386573
  1113 213.764 -2.03131 0.407871
  1114 234.280 -15.2015 35.9674
  1115 240.318 48.3739 8.72840
  1116 141.090 -3.51281 -7.05347
  1117 141.123 -3.49500 6.99841
  1118 107.836 12.4863 58.1325
  1119 203.509 1.00486 -19.5249
  1120 63.1437 20.5904 40.3249
  1121 264.131 -4.74773 -11.0595
  1122 257.705 57.3593 2.71264
  1123 176.645 -14.1054 8.96872
  1124 161.079 0.800538 -0.797300
  1125 225.703 -1.90363 5.00045
  1126 234.060 -0.247611 1.95714
  1127 48.9930 0.104686 -9.27799
  1128 49.7220 0.0791435 9.21158
  1129 181.671 2.95607 -9.34795
  1130 188.600 -5.55200 -0.370770
  1131 188.553 -5.52310 0.367425
  1132 19.5770 28.8725 -28.2482
  1133 31.4031 65.1523 -57.5242
  1134 191.096 -7.47888 0.0981447
  1135 191.175 -7.48148 -0.107498
  1136 197.681 -4.71600 0.921257
  1137 197.653 -4.70414 -0.902895
  1138 51.1312 32.7772 40.4429
  1139 154.486 -1.98514 -1.28693
  1140 154.501 -1.96997 1.27983
  1141 195.087 14.6806 -0.225415
  1142 253.200 30.4450 -86.8581
  1143 239.349 41.4085 -14.9452
  1144 218.615 -8.35369 -20.3903
  1145 215.402 -10.6928 -14.8989
  1146 176.770 -14.2407 -9.12492
  1147 176.453 0.544111 5.77102
  1148 199.710 12.3926 -13.9493
  1149 196.809 10.5212 13.3078
  1150 204.815 -8.08813 -3.70526
  1151 195.184 -11.8246 -0.279579
  1152 176.956 -11.5634 -6.65976
  1153 211.174 -1.22338 10.6532
  1154 377.756 38.2242 5.35576
  1155 212.710 -4.51065 19.4167
  1156 213.087 13.9913 21.0593
  1157 197.085 -19.4500 -4.81220
  1158 23.3804 4.08947 -13.9995
  1159 200.785 -9.27109 -2.79424
  1160 130.696 -0.237011 -0.0746366
  1161 130.720 -0.236092 0.0735968
  1162 245.674 -6.50801 11.2611
  1163 234.164 -19.6851 7.30686
  1164 337.131 60.6534 14.4530
  1165 77.6728 -0.184521 -7.76856
  1166 78.1750 -0.167218 7.70608
  1167 178.535 -3.63741 -0.667420
  1168 178.524 -3.61273 0.661372
  1169 201.463 -17.8074 0.218775
  1170 162.585 0.694309 2.60636
  1171 206.395 -14.6919 5.37326
  1172 11.2339 13.3614 -6.04901
  1173 36.2210 18.3165 23.8861
  1174 137.411 -7.35262 45.1977
  1175 238.295 45.6185 -10.6594
  1176 228.768 -0.604545 -3.04657
  1177 241.179 -0.354932 0.191911
  1178 241.436 -0.496945 -0.128209
  1179 136.412 -0.373673 -0.260426
  1180 136.437 -0.370842 0.258108
  1181 219.568 14.0579 23.9730
  1182 327.295 56.3072 -1.18953
  1183 226.021 37.5143 -10.7341
  1184 169.374 -12.3488 46.4303
  1185 136.676 -7.05149 -45.1160
  1186 151.415 -10.3017 -15.6691
  1187 211.727 -5.82530 4.90373
  1188 296.406 65.0591 0.947336
  1189 151.420 -10.2366 15.5366
  1190 216.579 -3.66241 3.71450
  1191 191.433 7.03285 12.6852
  1192 212.023 6.55124 22.9781
  1193 304.092 68.0603 6.15403
  1194 178.899 -4.71059 1.26134
  1195 178.911 -4.73580 -1.27241
  1196 219.304 -4.01283 7.69296
  1197 127.426 -1.43448 5.23295
  1198 127.335 -1.44946 -5.28478
  1199 214.614 -2.79311 -1.72875
  1200 87.7313 51.9915 -79.5471
  1201 185.769 -10.4115 -49.6959
  1202 173.827 -5.53054 -2.49639
  1203 173.842 -5.50291 2.49688
  1204 231.004 -0.981978 1.27947
  1205 217.957 -2.72387 2.97883
  1206 11.5014 14.1082 10.1620
  1207 238.034 -0.226890 1.04717
  1208 27.5735 34.4032 34.1335
  1209 212.695 -3.05366 -2.20696
  1210 -0.323127 -5.28853 -4.61950
  1211 149.379 -14.5621 -34.9371
  1212 148.941 -14.2040 34.5753
  1213 238.031 -0.383233 -1.15064
  1214 202.092 -10.6527 -3.27866
  1215 230.807 -0.884253 -1.32777
  1216 183.011 -5.96174 -1.08440
  1217 182.989 -5.93673 1.06775
  1218 214.472 -2.77094 1.63109
  1219 200.638 -9.09208 2.76491
  1220 192.799 -6.18983 -0.384396
  1221 192.872 -6.21001 0.409837
  1222 230.639 -0.912250 -1.08938
  1223 198.333 -20.8056 -33.6110
  1224 225.422 -1.25708 -1.13093
  1225 213.637 -3.14444 2.35280
  1226 146.704 -1.69869 -1.99626
  1227 146.725 -1.68158 1.98271
  1228 164.768 -2.48504 -0.972258
  1229 164.773 -2.46653 0.966408
  1230 270.084 41.9855 15.2040
  1231 226.758 -17.3514 9.68245
  1232 154.975 -0.636797 57.5112
  1233 121.607 -0.235726 2.00660
  1234 121.502 -0.238125 -2.02855
  1235 214.184 -3.91590 14.6546
  1236 205.287 -3.00128 0.546217
  1237 205.299 -2.98989 -0.545851
  1238 234.344 45.8645 4.95832
  1239 215.840 -22.5473 26.3005
  1240 122.198 -1.80586 7.38639
  1241 122.072 -1.82030 -7.44565
  1242 204.914 -4.91988 2.00304
  1243 204.869 -4.95254 -1.95279
  1244 211.617 -5.74881 -4.73626
  1245 192.778 0.0268608 6.82304
  1246 338.049 83.9280 -26.8639
  1247 215.372 -7.81575 -13.1489
  1248 35.7527 8.77621 20.4412
  1249 222.619 -11.8043 18.1991
  1250 176.487 3.76478 -5.10882
  1251 12.9434 9.88545 7.06487
  1252 295.353 32.1172 -0.675068
  1253 217.240 -9.83429 -18.2621
  1254 177.374 2.44452 7.81935
  1255 121.482 -7.70227 23.5808
  1256 220.983 -17.0511 11.3327
  1257 323.350 60.2149 16.9754
  1258 72.9741 11.0077 39.7518
  1259 222.280 -2.53486 -6.61208
  1260 433.880 4.79587 -4.42547
  1261 448.887 6.79301 19.8216
  1262 480.206 16.5799 -46.9308
  1263 214.958 -6.65436 -16.2055
  1264 215.106 -9.75981 13.9729
  1265 218.689 -15.5122 13.2635
  1266 -6.46420 0.687525 4.14294
  1267 -5.90037 0.532617 -4.48856
  1268 213.085 -23.4913 -11.6946
  1269 218.548 -22.0315 -18.0155
  1270 163.835 1.00117 -3.22363
  1271 212.260 -23.9293 18.0541
  1272 226.541 -10.6910 -18.5038
  1273 3.99585 6.54786 0.339338
  1274 183.153 -3.34100 0.540133
  1275 183.168 -3.36693 -0.541573
  1276 225.614 -1.70027 4.54114
  1277 216.578 -3.59354 -3.50196
  1278 203.561 -22.2345 -5.80368
  1279 185.247 -10.1060 2.48788
  1280 184.285 -9.96862 -2.77767
  1281 218.315 -4.53120 10.4215
  1282 223.659 -8.16757 -21.0527
  1283 13.4444 10.3081 -6.78202
</Section>

newXOutput 30

<Section columns = "stress_xx | stress_yy | stress_xy">
  1 251.158 -0.00592659 0.513299
  2 251.176 -0.00287625 -0.515128
  3 132.991 -0.0646053 -0.186148
  4 -1.70239 -1.69005 -2.44614
  5 460.636 176.685 144.543
  6 456.233 183.399 -145.118
  7 -1.97521 -1.61198 2.59454
  8 132.967 -0.0651496 0.185569
  9 253.018 -0.398795 0.163787
  10 252.435 -0.640036 -0.108533
  11 251.772 -0.406517 0.609377
  12 251.114 -0.578576 0.201219
  13 249.708 -0.479745 0.961599
  14 248.441 -0.489458 0.720460
  15 245.522 -0.434963 1.37125
  16 241.424 -0.273539 2.01284
  17 237.753 -0.307051 2.22505
  18 232.370 -0.458170 2.67291
  19 224.980 -0.00979680 3.92869
  20 218.150 -0.338739 3.71520
  21 210.468 -0.457232 5.20902
  22 199.359 0.326920 4.51293
  23 191.388 0.471509 5.31878
  24 180.998 0.808066 4.14690
  25 173.841 0.814980 4.17360
  26 163.465 1.17253 2.12317
  27 161.294 1.85151 2.27090
  28 159.995 1.49954 -0.668570
  29 161.791 0.837289 -1.47922
  30 165.087 0.836086 -1.81105
  31 172.855 1.07213 -3.62224
  32 180.397 0.845743 -4.59791
  33 191.528 0.163164 -5.46242
  34 200.445 -0.124007 -4.99831
  35 210.000 -0.366324 -4.93171
  36 218.679 -0.262711 -3.49432
  37 226.186 -0.267306 -3.00331
  38 232.412 -0.445428 -2.53451
  39 238.019 -0.308679 -1.78592
  40 241.560 -0.356919 -1.90406
  41 244.978 -0.456614 -1.39607
  42 248.244 -0.547986 -0.633209
  43 249.930 -0.435682 -0.729891
  44 250.854 -0.250610 -0.464594
  45 250.277 -0.111353 -0.422703
  46 252.715 -0.650848 0.0663704
  47 253.107 -0.417613 -0.169096
  48 244.413 -0.110116 -0.316849
  49 238.668 -0.911703 -0.558286
  50 231.690 -1.36570 -0.382918
  51 223.207 -2.07820 -0.519734
  52 215.199 -2.29315 -0.653187
  53 206.675 -2.92723 -0.617472
  54 199.150 -3.28923 -0.354638
  55 192.554 -3.72543 -0.147512
  56 184.951 -3.10388 -0.147757
  57 176.192 -2.92422 -0.218696
  58 167.741 -2.32984 -0.0811507
  59 159.727 -1.50791 -0.0367960
  60 152.100 -1.09018 0.000560987
  61 145.391 -0.579243 0.0611048
  62 138.505 -0.170987 -0.215079
  63 133.085 0.182966 0.248749
  64 130.678 0.543557 0.159661
  65 132.392 -0.00408989 0.391419
  66 130.617 -0.0856668 0.468130
  67 129.004 -0.122216 0.585158
  68 126.795 -0.0255645 0.771363
  69 124.006 -0.0152214 0.977873
  70 121.999 -0.185066 1.91072
  71 116.033 0.171525 2.09160
  72 111.870 -0.0191924 2.40936
  73 105.668 -0.118872 2.72905
  74 98.5054 -0.195667 3.32686
  75 89.5605 -0.0498203 4.03920
  76 78.6521 0.0465622 4.44197
  77 69.3230 -0.111677 6.34073
  78 50.7284 0.600770 5.95800
  79 38.1710 0.519511 6.30739
  80 23.2237 -0.0939487 6.95940
  81 10.9108 1.19471 7.18669
  82 -3.05705 1.76080 4.21767
  83 -13.0884 1.78250 1.37976
  84 -12.4402 1.69157 -0.819829
  85 -11.5792 1.39336 -3.53451
  86 -6.77816 -0.490802 -3.31365
  87 -0.860012 -6.50770 -3.64432
  88 0.591689 -12.0545 -4.61126
  89 1.71840 -19.3091 -2.70351
  90 3.86020 -20.2351 -0.129196
  91 8.23099 -6.54918 10.4340
  92 24.8947 35.1262 36.6943
  93 150.145 133.906 128.549
  94 556.130 82.4107 93.8988
  95 499.426 11.8588 30.8213
  96 462.822 4.86080 9.43197
  97 449.277 4.09720 0.750630
  98 456.340 5.49354 -8.12770
  99 498.061 10.9753 -24.3662
  100 591.377 39.7923 -81.4656
  101 88.6685 136.011 -107.039
  102 18.6666 23.1230 -30.1207
  103 8.96369 -5.64708 -10.8215
  104 3.59864 -20.3833 -1.54616
  105 0.959893 -14.8091 3.13222
  106 1.25391 -15.1668 4.01953
  107 0.0408224 -5.64858 4.03243
  108 -7.06922 -0.337859 3.15407
  109 -11.9507 1.04538 3.09567
  110 -13.0910 2.06034 0.893833
  111 -13.5225 1.75969 -1.26113
  112 -3.98740 1.80485 -3.93841
  113 10.0790 1.20554 -6.84450
  114 22.3726 0.0310299 -6.84437
  115 37.2968 0.562076 -6.32289
  116 49.9340 0.617238 -6.00670
  117 68.7061 -0.114277 -6.39801
  118 78.1228 0.0525002 -4.48812
  119 89.0992 -0.0477106 -4.09297
  120 98.2665 -0.215636 -3.35456
  121 105.353 -0.113775 -2.73783
  122 111.632 -0.0113665 -2.43639
  123 115.840 0.169216 -2.11680
  124 121.862 -0.186774 -1.93213
  125 123.898 -0.0163334 -0.991119
  126 126.716 -0.0266076 -0.782299
  127 128.946 -0.123928 -0.593866
  128 130.575 -0.0871303 -0.474241
  129 132.359 -0.00537966 -0.395353
  130 130.651 0.542759 -0.161516
  131 133.060 0.182597 -0.249893
  132 138.480 -0.172481 0.214398
  133 145.366 -0.582971 -0.0625644
  134 152.078 -1.09847 -0.00228296
  135 159.711 -1.51946 0.0351223
  136 167.733 -2.34647 0.0795235
  137 176.193 -2.94511 0.217436
  138 184.962 -3.12792 0.146570
  139 192.572 -3.75206 0.147054
  140 199.174 -3.31566 0.355558
  141 206.707 -2.95128 0.620134
  142 215.225 -2.30994 0.662808
  143 223.224 -2.09317 0.565373
  144 231.729 -1.28399 0.391667
  145 238.838 -0.884791 0.546198
  146 244.447 -0.147747 0.312297
  147 217.387 -20.4109 -2.44829
  148 217.215 -20.1382 2.52692
  149 227.299 32.7342 -11.6905
  150 243.094 14.3637 25.0112
  151 184.013 -17.6220 -39.8254
  152 185.477 -17.6097 38.5083
  153 177.846 -7.65556 4.48486
  154 177.866 -7.76570 -4.49039
  155 258.373 9.22402 -19.6184
  156 216.802 -7.72933 5.47761
  157 216.712 -7.53756 -5.40762
  158 280.270 62.9300 3.36900
  159 221.436 -0.353683 -24.1981
  160 163.094 -12.9917 -17.7398
  161 163.088 -12.8794 17.5729
  162 221.973 -4.99309 21.9533
  163 210.028 15.2783 14.3065
  164 86.1376 14.0993 -47.4925
  165 95.7282 13.3384 50.0793
  166 273.475 2.90564 3.78937
  167 222.810 -8.49111 -15.4706
  168 295.766 65.0176 -2.50886
  169 200.301 -5.62841 0.354093
  170 200.256 -5.60813 -0.334789
  171 225.958 -2.60505 -2.41614
  172 226.716 -2.32394 2.09545
  173 155.803 -2.33196 -2.74944
  174 155.819 -2.30687 2.73294
  175 243.631 -6.72290 50.5632
  176 203.091 8.35779 -15.3949
  177 132.279 -9.99238 -28.7668
  178 132.679 -9.91802 28.5656
  179 148.348 -5.00571 -9.30942
  180 148.357 -4.94632 9.23341
  181 223.950 -5.81612 13.1418
  182 203.216 -13.9975 0.232395
  183 202.473 -13.8929 0.110172
  184 231.928 -22.3758 -2.75334
  185 233.101 -21.3157 -0.154386
  186 321.146 75.4702 -9.75699
  187 231.845 37.3661 10.9534
  188 232.647 14.3046 -24.9470
  189 242.935 -2.43278 -58.9988
  190 231.337 -13.0164 -17.8435
  191 233.295 -9.27008 20.8457
  192 194.098 -22.0677 19.1336
  193 194.170 -21.9165 -19.0687
  194 206.796 2.59178 18.5486
  195 93.6553 -2.20922 -35.0934
  196 93.8981 -2.41882 34.8664
  197 363.317 54.6418 7.76823
  198 218.954 -13.0089 9.95822
  199 227.338 -4.08677 -8.63971
  200 178.902 -4.43953 -1.97970
  201 178.902 -4.41458 1.97201
  202 217.488 -2.81030 -16.8743
  203 248.059 36.4878 -20.1717
  204 206.360 18.4962 -2.87325
  205 133.217 -4.85137 13.2016
  206 133.007 -4.86863 -13.3085
  207 231.059 -2.45190 4.81372
  208 223.994 4.21583 24.8577
  209 181.623 -13.3704 -8.22553
  210 180.332 -12.6631 8.46110
  211 264.909 39.2859 18.8736
  212 313.376 41.9498 5.03266
  213 20.3938 16.2145 -12.7671
  214 18.8358 14.9899 10.8142
  215 127.966 36.3722 84.4483
  216 216.726 -14.3814 -7.83716
  217 231.958 -2.35693 -4.35295
  218 204.345 1.74766 -17.0734
  219 141.957 -1.49430 -4.11593
  220 141.999 -1.47708 4.07610
  221 194.486 -9.17882 -1.30798
  222 194.574 -9.23164 1.19540
  223 219.484 -2.93616 14.3966
  224 254.283 -14.7650 4.36112
  225 250.989 51.5946 -5.90451
  226 196.841 -19.0977 -8.64437
  227 250.009 -4.32600 16.6096
  228 212.536 -3.47169 0.986919
  229 212.542 -3.44095 -0.985292
  230 195.337 -19.0049 9.02884
  231 224.334 -14.1831 14.6225
  232 318.077 39.8444 -17.9603
  233 69.1405 41.2028 -60.6218
  234 188.007 6.50731 3.65091
  235 224.579 19.8209 20.9023
  236 240.200 -1.64932 -22.5410
  237 224.081 -8.02632 -20.6327
  238 117.506 -3.88277 -16.6044
  239 117.929 -3.82252 16.5438
  240 224.530 -2.65443 -11.2123
  241 214.059 -5.33810 2.98865
  242 213.958 -5.32837 -2.89866
  243 43.7206 4.19389 -22.1194
  244 44.4694 3.67891 22.0503
  245 239.385 -20.9024 -17.3479
  246 237.015 -0.728037 0.705061
  247 237.292 -0.743171 -0.753506
  248 219.145 18.1558 -19.0970
  249 191.944 3.60624 11.1164
  250 409.144 65.5645 43.8556
  251 405.980 46.2299 -27.5835
  252 291.213 63.1870 -0.719807
  253 181.621 -8.67825 53.2043
  254 166.466 -5.55028 -55.7016
  255 190.424 -3.90848 -0.602168
  256 190.404 -3.88106 0.596665
  257 157.018 -4.32567 5.59980
  258 157.023 -4.38721 -5.65480
  259 230.579 -2.40033 7.01878
  260 223.451 -15.8720 -12.2006
  261 142.510 -0.311143 -0.947638
  262 142.538 -0.306095 0.940864
  263 220.625 -8.86437 -9.65319
  264 91.7480 -3.04401 -22.9756
  265 92.1691 -3.05427 22.7997
  266 223.250 -9.62861 16.6601
  267 169.901 -18.0347 32.0006
  268 170.360 -18.3590 -31.9047
  269 190.898 7.21585 -5.17345
  270 164.694 -2.60376 -1.84629
  271 164.704 -2.58482 1.83805
  272 208.392 -0.545096 13.7351
  273 249.845 45.9315 14.0333
  274 131.875 -1.68598 7.04443
  275 131.772 -1.70073 -7.10971
  276 229.675 -19.1212 8.93886
  277 212.618 -23.7990 -20.9468
  278 237.797 -1.04050 2.26801
  279 163.255 -9.83868 -12.0509
  280 162.953 -9.72544 11.9997
  281 294.918 29.2704 74.7617
  282 136.665 -10.9979 38.3460
  283 221.092 31.1060 -1.24394
  284 281.843 30.8571 -13.1051
  285 211.659 -16.3844 3.56107
  286 212.738 -24.4573 18.7817
  287 137.108 -10.8117 -38.8024
  288 25.0300 30.8185 27.6594
  289 220.662 -8.89927 9.82638
  290 290.497 37.6543 10.6445
  291 239.791 -0.927012 -1.96598
  292 215.428 7.50449 -21.9772
  293 213.310 -12.0441 5.61559
  294 208.780 -17.6523 -0.271063
  295 214.577 9.82547 21.1524
  296 228.544 -19.1345 -8.07801
  297 324.562 63.4512 -5.15857
  298 213.251 -11.5729 -5.37977
  299 177.486 50.1084 -103.889
  300 218.303 -23.1180 -3.27549
  301 216.730 -23.7447 5.78680
  302 158.140 -14.4144 -25.1816
  303 141.241 -0.587312 -2.07536
  304 141.277 -0.577166 2.05685
  305 158.197 -14.4229 25.0362
  306 230.600 -0.368027 -25.1409
  307 249.766 -10.3247 -11.4316
  308 189.029 -11.4847 -4.10374
  309 188.893 -11.5102 4.18516
  310 227.643 -19.5887 33.9819
  311 226.439 -1.76697 8.49355
  312 276.742 0.943884 10.8446
  313 184.986 -6.59608 -2.20258
  314 184.995 -6.57115 2.18735
  315 167.885 -4.46868 -3.60922
  316 167.882 -4.42479 3.60225
  317 189.870 2.49430 -10.7559
  318 246.057 18.0333 -24.3099
  319 383.208 102.949 -48.1002
  320 224.623 -1.84925 -0.825838
  321 224.484 -1.82321 0.845290
  322 119.142 -0.0784989 47.8443
  323 167.139 -7.71972 -7.86421
  324 166.804 -7.68954 7.88289
  325 119.124 -0.347496 -47.6627
  326 234.036 27.6643 -20.4733
  327 263.138 12.9542 18.7648
  328 227.714 -16.2559 -37.8466
  329 208.433 -8.01468 2.65256
  330 208.214 -7.95203 -2.55763
  331 222.917 -4.51814 -4.78793
  332 208.555 -0.411732 -12.8507
  333 234.987 1.04933 24.7019
  334 235.073 -1.56885 -4.86102
  335 139.504 -8.61079 19.2427
  336 139.352 -8.66147 -19.4017
  337 218.049 -0.502348 22.9385
  338 132.539 -1.14383 -4.15759
  339 132.625 -1.13287 4.11613
  340 224.512 -5.07074 7.31017
  341 269.044 55.1250 -10.7019
  342 222.789 -4.55607 4.95892
  343 236.726 29.7969 20.5755
  344 226.740 -4.18631 23.9583
  345 178.643 -3.38694 0.693861
  346 178.647 -3.40961 -0.699612
  347 214.071 -0.779410 -20.3385
  348 284.641 59.9693 7.32575
  349 235.674 43.3806 0.431090
  350 144.587 16.8770 -71.4248
  351 14.0856 6.50014 -9.36072
  352 15.5416 7.02633 10.1142
  353 -0.939503 1.54402 4.54192
  354 -0.0153557 0.794856 -4.72453
  355 420.001 29.1167 10.1085
  356 195.381 -15.9530 -4.81996
  357 224.708 -4.89354 -7.13614
  358 202.220 -3.50569 0.404488
  359 202.196 -3.47537 -0.405416
  360 215.761 23.8355 -10.3339
  361 184.382 -18.8878 15.7207
  362 15.7296 23.2729 -16.8724
  363 184.578 -18.8878 -16.0269
  364 218.667 24.8806 10.9980
  365 223.952 -5.91118 -12.5384
  366 237.893 -13.2240 -15.4408
  367 252.686 53.6449 4.08235
  368 238.500 -14.8333 12.9542
  369 96.5304 -2.47302 15.4108
  370 95.9230 -2.42581 -15.5187
  371 54.1286 1.39619 -21.2302
  372 54.7451 1.16878 21.1319
  373 193.008 0.569611 10.8944
  374 372.242 107.821 40.4987
  375 231.858 -1.41970 -6.11077
  376 179.465 -15.2975 -11.9788
  377 179.300 -15.2528 11.9613
  378 222.451 -5.08991 -15.7476
  379 254.446 -12.2971 3.09315
  380 195.373 -15.9361 4.98524
  381 280.101 1.63622 -21.4289
  382 155.592 -1.31875 -0.682379
  383 155.611 -1.30690 0.676427
  384 218.484 -1.25391 -9.98855
  385 115.860 -1.73596 -10.0738
  386 115.939 -1.79007 9.94518
  387 261.856 33.4137 -20.8621
  388 141.041 10.0213 66.2515
  389 204.543 -10.7539 1.58598
  390 204.748 -10.7329 -1.59720
  391 240.154 40.7650 -13.0835
  392 227.704 -6.71877 -22.7804
  393 228.997 -23.3561 18.0874
  394 189.746 -5.06256 -0.916314
  395 189.721 -5.03542 0.904351
  396 219.854 -16.9469 8.44166
  397 237.438 -1.07781 3.62789
  398 146.002 -5.46091 -11.7005
  399 146.058 -5.45895 11.5932
  400 222.744 7.46598 -24.4967
  401 210.661 -4.50325 1.50494
  402 210.653 -4.51272 -1.47473
  403 217.516 -2.54925 18.7571
  404 201.914 14.6504 4.92938
  405 225.934 -9.49985 19.9840
  406 327.787 68.8529 11.6348
  407 107.775 -5.82183 -30.7827
  408 108.085 -5.82471 30.5361
  409 47.8845 25.9312 -36.1949
  410 243.375 -0.642374 1.04065
  411 120.764 -1.07976 -6.36648
  412 120.932 -1.05685 6.30786
  413 222.654 -5.76860 15.4507
  414 201.905 -21.9555 9.99009
  415 228.737 -2.74036 3.39910
  416 232.259 11.8125 25.6299
  417 50.2963 27.6106 37.8220
  418 202.221 -21.8381 -9.12861
  419 209.031 -19.4589 -1.13331
  420 66.5461 -1.34098 -19.3037
  421 67.0838 -1.39393 19.1638
  422 160.188 -12.7248 -46.2577
  423 240.282 -3.54828 22.0298
  424 159.538 -12.9286 45.8355
  425 221.791 -12.4213 -13.1743
  426 204.880 13.7577 -10.8312
  427 221.840 -9.53556 12.4679
  428 239.638 -0.999242 -2.48497
  429 6.98920 7.25731 2.86444
  430 47.7870 54.5564 53.7811
  431 212.752 -0.787545 9.59931
  432 177.094 2.35639 4.69536
  433 180.321 2.89006 -6.38041
  434 153.858 -2.63596 -3.94869
  435 153.870 -2.60129 3.91992
  436 218.703 -16.9391 -7.79095
  437 220.627 -4.30136 -21.0396
  438 178.103 3.25653 -1.73376
  439 327.859 77.9707 14.8778
  440 44.2112 14.9587 -27.0644
  441 48.8400 13.7336 28.9832
  442 204.356 -7.26941 1.37776
  443 204.275 -7.24886 -1.32055
  444 272.663 60.6245 -0.877086
  445 172.029 68.8780 106.188
  446 263.435 -3.80414 -5.04926
  447 149.442 -7.92671 -15.8785
  448 149.509 -7.86967 15.7348
  449 150.091 -3.45604 6.21028
  450 150.066 -3.48281 -6.27159
  451 203.724 4.46326 -17.5596
  452 244.698 -0.290524 -0.700009
  453 197.761 8.99656 9.83353
  454 251.700 31.1112 22.3528
  455 209.378 -15.5608 -2.72586
  456 228.661 -2.60079 -3.29875
  457 240.666 -0.898306 2.29002
  458 244.012 -0.307106 0.401023
  459 244.228 -0.353949 -0.300864
  460 131.443 -0.261143 1.52662
  461 131.379 -0.264902 -1.54409
  462 229.340 -14.5295 15.9117
  463 205.724 8.06241 17.0012
  464 215.545 0.859030 -22.3480
  465 225.919 -4.69138 9.38301
  466 329.237 53.3949 -62.2007
  467 226.318 -12.5232 -17.6247
  468 1.74306 4.21516 1.47249
  469 1.74228 4.26597 -0.353885
  470 178.415 -10.2203 6.61858
  471 177.799 -10.0884 -6.54565
  472 283.324 4.61681 32.9885
  473 78.6163 70.3650 -80.0023
  474 223.087 -0.653766 7.51163
  475 254.300 -14.8780 -18.3606
  476 133.481 -7.79476 22.3201
  477 271.543 48.1870 -15.3585
  478 223.046 -12.0378 14.8362
  479 186.548 -8.99489 -3.08334
  480 186.714 -8.84258 3.07202
  481 192.958 1.00426 -9.62618
  482 133.055 -7.76655 -22.4692
  483 198.080 0.0550252 9.69510
  484 190.930 -21.8143 -28.4196
  485 190.442 -21.8476 28.5082
  486 230.454 -1.48542 6.73665
  487 208.084 19.5884 2.03883
  488 213.421 3.40418 72.2818
  489 313.191 64.0972 -0.403792
  490 215.946 -3.55325 1.65203
  491 215.961 -3.53963 -1.70136
  492 164.605 -2.99719 -2.45208
  493 164.613 -2.97100 2.44139
  494 86.5804 4.13827 40.0453
  495 223.996 -10.7542 -17.1975
  496 202.880 -4.37437 0.399592
  497 202.860 -4.35723 -0.394337
  498 176.380 -18.7389 23.2717
  499 88.2897 5.44639 -41.0786
  500 224.471 -18.2635 -8.89191
  501 3.68997 0.449325 2.08172
  502 194.645 9.97386 0.709946
  503 216.790 -2.40995 -0.553449
  504 216.782 -2.44558 0.542967
  505 176.506 -18.7102 -23.4590
  506 254.590 -13.2261 23.8243
  507 251.526 9.13937 22.8747
  508 232.531 -1.47670 -1.66547
  509 223.782 -18.5248 9.00210
  510 137.860 -0.158085 -0.263212
  511 137.887 -0.156745 0.260633
  512 223.246 -8.54253 -18.2486
  513 215.508 15.9377 18.6489
  514 248.397 6.13557 -22.5771
  515 137.033 -0.243499 -0.855974
  516 137.065 -0.240261 0.849443
  517 437.854 63.2164 -56.7626
  518 224.437 26.7727 16.4685
  519 232.747 -1.34825 1.48736
  520 209.507 -19.8844 1.63509
  521 175.185 -5.87869 3.59896
  522 175.187 -5.92577 -3.59172
  523 244.529 -14.8538 7.68932
  524 234.520 -4.64987 -23.1084
  525 262.007 51.8139 12.6913
  526 217.453 3.72696 23.1610
  527 220.101 -4.14352 3.10974
  528 214.026 -22.7830 -27.1956
  529 221.426 -5.44974 17.9002
  530 433.153 19.8120 -7.96844
  531 242.784 -18.2744 -1.51178
  532 231.084 -1.42264 -0.416807
  533 231.137 -1.52179 0.374463
  534 437.629 29.3835 28.0073
  535 211.873 -0.0884318 19.6976
  536 298.981 49.8183 -6.64137
  537 223.915 -6.02233 -9.16607
  538 99.0033 -0.965423 -6.89618
  539 99.3297 -0.919312 6.82270
  540 150.655 -14.1407 -32.1192
  541 150.764 -13.9026 31.8720
  542 219.983 -3.96552 -3.07732
  543 239.174 8.79170 -25.1615
  544 210.012 -14.3011 3.52509
  545 225.458 25.8790 -17.1096
  546 227.903 -2.58833 9.07100
  547 286.928 13.9788 -1.75223
  548 194.337 -6.68092 -0.654537
  549 194.273 -6.65450 0.642560
  550 211.538 -9.96488 4.26979
  551 313.463 61.5908 -2.96931
  552 222.465 9.73247 24.0672
  553 94.7210 24.4411 59.3454
  554 216.043 -12.9879 48.0044
  555 286.923 13.0831 -52.6938
  556 227.484 18.8177 -22.4364
  557 202.503 -17.4458 -41.5591
  558 219.208 -23.9923 -7.47534
  559 229.204 -23.1548 -11.3200
  560 29.5523 37.8519 -35.9179
  561 230.323 -2.82515 -5.68969
  562 347.500 67.7198 -19.1921
  563 212.695 -9.54646 -4.69304
  564 214.534 -6.92642 3.86593
  565 214.332 -6.76364 -3.72157
  566 146.093 -0.899248 -1.87431
  567 146.121 -0.887538 1.86028
  568 19.8972 2.21502 -11.5603
  569 21.0929 2.31904 11.8354
  570 108.643 -5.12674 -23.5150
  571 109.500 -5.15344 23.4699
  572 217.454 -11.7492 -8.50800
  573 221.827 -24.0887 8.14435
  574 228.044 -21.6048 2.41231
  575 185.980 -3.29682 -0.626312
  576 185.967 -3.27146 0.622654
  577 176.842 -18.5087 -35.5950
  578 198.537 -16.2288 44.0243
  579 172.467 -17.3972 35.8111
  580 223.490 -4.94236 -22.6393
  581 138.397 -2.39286 7.04530
  582 138.330 -2.41851 -7.10865
  583 212.473 11.7013 -18.7156
  584 212.922 -0.370918 -8.71322
  585 266.633 58.1996 -5.79213
  586 173.172 -2.67162 -0.644562
  587 173.175 -2.65264 0.641096
  588 227.695 -0.656466 -4.95476
  589 155.841 -5.39749 -7.72648
  590 155.839 -5.37670 7.65428
  591 127.871 6.05184 56.9295
  592 221.614 -10.1516 -12.6129
  593 122.746 -6.42031 40.8523
  594 217.772 -11.2506 8.67077
  595 229.641 -3.15493 6.26632
  596 226.902 -1.96626 -1.48906
  597 157.513 -2.02589 -1.71807
  598 157.529 -2.00855 1.70779
  599 255.648 51.2684 -11.3690
  600 122.662 -6.16603 -41.0163
  601 217.058 -9.34934 -6.99297
  602 195.282 -3.60720 -0.268822
  603 195.260 -3.57871 0.267582
  604 370.127 49.9704 -8.74102
  605 127.772 -0.865170 3.90441
  606 127.659 -0.873791 -3.94365
  607 201.183 4.55569 16.0048
  608 290.707 23.8829 -5.03737
  609 136.376 1.08909 -56.5352
  610 68.8337 1.86375 -30.6274
  611 69.4290 1.45394 30.4633
  612 170.726 -10.1099 9.48884
  613 172.567 -10.4076 -9.19304
  614 293.168 58.9792 6.59415
  615 225.935 -2.04216 1.35884
  616 192.068 5.31856 -9.64878
  617 240.730 43.4359 10.3444
  618 239.816 45.0835 -6.87685
  619 197.113 -10.9790 -1.12796
  620 198.651 -10.7240 0.414496
  621 141.694 30.7144 -81.5176
  622 168.619 -5.88740 -5.21958
  623 168.629 -5.81782 5.19865
  624 435.030 88.9534 66.8896
  625 223.298 -7.28195 19.6406
  626 125.931 -4.57255 -15.0693
  627 350.466 79.0915 51.7108
  628 126.232 -4.54545 15.0064
  629 214.364 -8.24162 -56.2221
  630 148.851 -0.793933 -0.692173
  631 148.875 -0.786957 0.688208
  632 184.870 1.60921 8.41140
  633 82.9303 -1.27547 -13.5465
  634 83.4213 -1.27850 13.4342
  635 194.538 -13.8559 3.59635
  636 204.268 -16.4134 -0.474054
  637 241.978 -0.482571 -2.07414
  638 133.639 -0.240584 1.11631
  639 133.591 -0.244720 -1.12920
  640 183.113 -4.16465 -0.894135
  641 183.104 -4.13931 0.885805
  642 211.351 -23.3983 27.5154
  643 242.363 27.0959 -22.7677
  644 160.112 -7.62039 -9.97348
  645 159.988 -7.48985 9.89654
  646 190.859 -13.8410 -5.26958
  647 302.043 65.9950 1.08387
  648 226.666 -21.8906 -1.13847
  649 196.052 -4.68171 -0.244629
  650 196.021 -4.65631 0.245591
  651 270.992 29.5403 17.9083
  652 226.948 -3.20687 -9.86265
  653 199.277 -0.272102 -7.90242
  654 91.3937 -3.11244 -29.5144
  655 91.6902 -3.20468 29.2623
  656 190.411 -16.5401 -8.76700
  657 286.426 63.5261 0.196596
  658 221.184 29.9971 -7.41728
  659 145.402 -1.39815 -3.47901
  660 145.432 -1.37838 3.44834
  661 206.941 -5.80621 -1.33118
  662 206.982 -5.81497 1.37813
  663 389.115 50.9169 22.3573
  664 246.075 -0.610830 0.578801
  665 237.088 -0.886967 3.53600
  666 236.090 -0.912649 -4.11865
  667 223.804 -20.8014 4.38289
  668 163.123 -1.96579 -0.859112
  669 163.136 -1.95092 0.854724
  670 238.438 38.3485 15.8889
  671 307.302 68.4725 -3.13928
  672 166.765 -12.5599 -14.1368
  673 166.707 -12.4323 14.0596
  674 209.778 -21.6406 -3.63436
  675 220.721 13.1100 -22.6351
  676 263.697 0.620383 10.7017
  677 173.285 -3.28822 -1.65869
  678 173.288 -3.26548 1.65074
  679 149.908 -13.2231 -29.0061
  680 221.657 -21.4124 -2.30256
  681 183.732 -20.3929 25.6259
  682 87.3621 27.7456 -57.2241
  683 171.144 -15.9713 19.7564
  684 206.320 0.0530823 7.32150
  685 150.041 -13.0707 28.8019
  686 216.927 -9.53581 7.07916
  687 171.214 -15.9073 -19.9474
  688 174.003 2.20566 1.76071
  689 134.429 -3.72941 10.6799
  690 134.307 -3.73484 -10.7610
  691 183.855 -20.9232 -25.9177
  692 227.783 -14.9635 -15.3935
  693 208.713 -2.84498 -0.337222
  694 208.745 -2.87678 0.338695
  695 232.913 -14.7814 15.3206
  696 211.436 -22.1064 4.45855
  697 257.246 23.5842 22.3344
  698 231.786 -4.30185 23.7341
  699 223.028 -7.94994 14.5824
  700 212.149 17.4125 -14.1956
  701 256.253 43.2097 17.6311
  702 221.010 -3.03276 -14.0010
  703 220.616 -7.24557 7.69489
  704 227.219 35.6764 4.01411
  705 224.300 -3.75630 12.2641
  706 70.0971 47.5304 59.9041
  707 208.891 -24.0067 -15.5589
  708 241.894 4.42839 24.2033
  709 244.495 -7.53612 -17.5608
  710 244.769 -0.271829 1.16750
  711 222.959 -7.59558 -11.5650
  712 209.172 -24.1975 14.0664
  713 408.857 36.1853 -6.07703
  714 122.440 -0.557798 4.08988
  715 122.288 -0.564096 -4.13127
  716 226.432 -4.02060 -5.49502
  717 246.282 -0.202346 -1.13227
  718 190.043 -16.8050 8.81550
  719 228.834 -8.47050 21.6172
  720 350.391 82.4920 -23.7743
  721 216.890 -15.7105 7.36429
  722 240.963 -15.8197 -9.51743
  723 220.704 -7.04634 -7.57402
  724 246.299 -0.369183 -0.387853
  725 223.019 -0.00503653 24.5086
  726 10.0744 8.45424 12.3099
  727 253.405 -9.93343 -36.0304
  728 275.245 16.1224 11.7695
  729 228.917 -23.3446 9.98368
  730 161.453 -3.98406 4.28871
  731 161.458 -4.04120 -4.31213
  732 215.834 105.977 -111.570
  733 233.031 -15.3639 -14.2265
  734 173.297 0.836485 -3.36473
  735 203.430 1.09135 15.6404
  736 224.544 -11.1912 17.4930
  737 215.234 -18.1380 4.06535
  738 224.436 -20.4037 -29.5585
  739 213.870 -16.9239 -4.43109
  740 253.557 -12.1506 -3.95356
  741 233.404 -1.80895 3.23194
  742 207.551 -12.4860 2.52697
  743 379.977 76.0147 -40.1665
  744 221.753 -5.84973 6.14166
  745 218.660 3.56182 -23.7954
  746 187.484 -2.15393 63.3383
  747 234.569 18.9208 24.4013
  748 201.725 -15.9410 1.54917
  749 154.930 -12.3410 -21.1437
  750 154.937 -12.3041 20.9618
  751 213.787 24.0345 -3.31420
  752 218.018 -2.50954 21.3084
  753 220.583 -5.22489 -18.2645
  754 207.791 -12.7376 -2.59936
  755 200.802 -18.0635 4.57054
  756 229.004 37.9068 -4.55429
  757 214.963 -18.6035 -3.21526
  758 215.474 -13.6220 7.12771
  759 218.607 -2.69950 1.15059
  760 218.749 -2.62228 -1.14433
  761 294.169 64.8934 2.07937
  762 240.961 -20.4514 -6.18235
  763 223.646 -6.78204 11.5012
  764 233.525 -1.80001 -2.95368
  765 235.250 1.58806 -24.9342
  766 268.652 13.9827 -15.3496
  767 129.033 -0.148089 -1.89715
  768 129.118 -0.146113 1.87649
  769 1.79097 -4.31348 -3.07896
  770 228.261 -0.239738 4.59347
  771 208.318 -0.375774 -17.3377
  772 215.561 -2.01396 15.3572
  773 198.270 23.9413 93.3561
  774 245.476 50.7292 -0.553458
  775 174.039 -12.6049 10.9069
  776 29.1911 0.707901 -11.4914
  777 30.1064 0.525483 11.6168
  778 213.545 -1.52701 -17.2927
  779 174.535 -12.7343 -10.9011
  780 232.131 -1.98429 2.48504
  781 116.677 -5.07407 20.0805
  782 115.649 -5.05755 -20.0976
  783 221.746 -5.67578 -5.98480
  784 139.732 -3.64309 -9.27982
  785 139.802 -3.61795 9.19162
  786 231.100 -2.10221 -6.85612
  787 175.096 -4.76117 -2.86949
  788 175.098 -4.72819 2.87006
  789 252.497 -1.61087 -17.6582
  790 226.523 -2.35353 -24.6575
  791 113.110 -0.757386 -5.23303
  792 113.340 -0.750384 5.16910
  793 4.84593 2.87680 -6.84391
  794 5.89177 3.03241 7.20931
  795 181.882 0.849791 -6.11484
  796 207.060 -23.2712 -11.4140
  797 -2.42132 -1.68874 4.14085
  798 -2.10968 -1.96755 -4.09628
  799 215.627 -4.23490 2.43391
  800 234.071 -18.2149 -8.50465
  801 240.968 35.7968 -18.5705
  802 233.176 -1.77647 -2.35817
  803 504.690 100.806 -94.8051
  804 215.583 -4.21942 -2.40332
  805 325.425 62.3501 4.74228
  806 230.396 6.71801 -25.6810
  807 255.067 19.2177 -22.8163
  808 41.0880 -0.488037 -10.6635
  809 41.9056 -0.552061 10.6428
  810 141.957 -2.13048 5.46642
  811 141.908 -2.14892 -5.51914
  812 134.976 -0.349311 1.01649
  813 134.938 -0.352885 -1.02548
  814 257.585 43.4494 -17.5140
  815 150.449 -0.999888 -1.48434
  816 150.472 -0.988166 1.47500
  817 218.702 -2.20086 -22.2302
  818 318.910 31.4938 25.5865
  819 195.850 4.30406 -13.4470
  820 66.3953 -0.612144 11.4785
  821 65.7932 -0.617657 -11.5735
  822 256.795 6.42643 66.6422
  823 226.183 -4.05448 5.67171
  824 200.649 13.2505 -5.60535
  825 91.2439 -0.165239 7.85632
  826 90.7486 -0.121824 -7.91781
  827 138.121 -0.754777 -2.66639
  828 138.169 -0.743918 2.63950
  829 24.5477 21.9644 18.5406
  830 209.670 4.95823 20.0511
  831 233.790 34.4384 -15.8549
  832 252.193 29.2840 -22.5669
  833 164.411 -6.34277 -6.91721
  834 164.308 -6.29236 6.90462
  835 260.924 55.8136 8.02194
  836 225.953 -1.75803 -0.325771
  837 225.963 -1.74444 0.364915
  838 223.037 -6.62953 -14.6669
  839 186.202 -12.5139 6.10961
  840 205.755 -23.1317 11.4937
  841 242.721 -19.8901 18.0163
  842 184.407 -5.40132 -1.56176
  843 184.402 -5.37876 1.54897
  844 210.822 19.5127 9.10397
  845 197.745 2.64510 -14.5381
  846 55.0244 63.3545 62.3532
  847 201.446 -17.9189 -4.06886
  848 202.064 -9.03972 0.897110
  849 202.174 -9.05464 -0.906991
  850 222.322 -3.25360 23.4185
  851 220.794 -14.4761 -11.1626
  852 196.740 -13.0982 -2.06736
  853 455.602 14.7631 -22.7760
  854 186.910 -17.7879 12.3134
  855 186.769 -18.0235 -12.5229
  856 222.192 -2.62616 11.9219
  857 336.346 86.5011 -17.9655
  858 175.133 -16.0435 -15.6089
  859 194.001 -21.9015 14.6305
  860 175.075 -15.8462 15.4638
  861 190.040 -7.70365 -1.73229
  862 190.031 -7.67489 1.71714
  863 27.4752 11.9236 16.1539
  864 238.886 17.8667 -24.7731
  865 182.139 -7.18810 -3.02913
  866 182.170 -7.11291 3.04097
  867 179.741 -3.00778 -0.361512
  868 179.736 -2.98560 0.358711
  869 198.339 -3.90830 0.113320
  870 198.314 -3.88065 -0.114288
  871 160.075 -3.23230 -3.72277
  872 160.085 -3.19491 3.70517
  873 182.890 -9.73062 -4.67792
  874 182.911 -9.66014 4.69781
  875 4.27254 -2.18363 -1.70728
  876 277.289 52.0211 13.4774
  877 238.461 -8.31906 -20.1127
  878 193.856 -21.5865 -14.7972
  879 209.599 -6.70647 2.37248
  880 209.504 -6.63389 -2.31098
  881 228.464 0.310712 25.1822
  882 249.475 -17.8062 -9.41616
  883 221.186 15.1998 -80.8407
  884 99.0318 -1.51164 39.6699
  885 -4.23690 2.31200 -2.52219
  886 -3.72844 2.60630 2.81940
  887 27.2698 12.6828 -16.4824
  888 223.623 -6.34958 9.12272
  889 235.801 -1.45484 -3.86318
  890 211.830 -20.3206 34.1543
  891 98.7910 -1.39894 -39.8354
  892 236.081 -19.2621 6.24758
  893 263.817 -8.03739 29.2875
  894 188.788 0.746388 6.48789
  895 217.513 20.6884 15.5391
  896 116.853 -6.63108 29.2711
  897 116.391 -6.68521 -29.4756
  898 140.301 -6.81071 -16.3825
  899 148.392 -7.16136 -50.7069
  900 235.865 -5.47167 22.4420
  901 325.392 75.9179 10.1755
  902 236.609 9.12865 25.2623
  903 223.682 -4.71883 -13.3523
  904 151.572 -6.41720 51.9757
  905 285.826 52.5652 -10.3039
  906 27.6846 23.7234 -22.9370
  907 205.733 -0.429820 -6.98391
  908 140.448 -6.75290 16.2282
  909 171.892 -3.86112 2.54470
  910 171.890 -3.88929 -2.55145
  911 221.124 -14.3998 11.5088
  912 230.214 -1.34407 0.973591
  913 168.862 1.61707 -63.1552
  914 243.003 -0.493002 1.83277
  915 241.036 -0.399698 -2.32109
  916 177.575 1.50422 -5.61360
  917 232.460 -0.927043 -4.08153
  918 172.575 -8.19982 -6.30243
  919 172.690 -8.07356 6.32028
  920 -5.87078 2.06264 -3.40454
  921 -8.00913 1.24322 3.56747
  922 230.214 -1.24103 -0.981784
  923 74.5959 -1.66206 26.7452
  924 74.1229 -1.49533 -26.9046
  925 245.037 35.8352 19.6487
  926 444.749 8.01297 7.08444
  927 230.378 25.6682 20.4832
  928 262.612 -9.36860 7.38835
  929 227.336 -12.6094 17.6768
  930 283.310 59.4779 -7.83023
  931 173.598 0.688560 4.22855
  932 218.841 -5.05329 -3.80042
  933 226.815 12.1977 -24.7707
  934 275.683 7.91642 -5.88779
  935 213.092 -13.1496 -5.70564
  936 106.778 -0.626472 -5.86870
  937 106.899 -0.604458 5.78257
  938 225.057 -5.21046 -10.5567
  939 7.18893 9.22979 1.54320
  940 215.995 -22.3845 -1.42517
  941 185.369 5.39140 -0.579968
  942 281.199 62.0519 -5.20626
  943 43.7513 32.6120 -38.4687
  944 215.580 -1.60117 -13.7622
  945 148.053 -2.56759 -5.08631
  946 148.079 -2.53654 5.03966
  947 1.19689 -6.26523 4.80702
  948 145.648 -10.9649 -23.5175
  949 219.964 -12.6753 -10.8113
  950 134.407 0.286946 -0.417107
  951 134.435 0.288479 0.413931
  952 221.369 26.8873 -12.4705
  953 239.259 -0.610624 -0.371807
  954 239.260 -0.621280 0.483431
  955 145.707 -10.9322 23.3491
  956 222.347 -0.278718 -5.46204
  957 256.731 1.83815 17.0976
  958 227.624 -3.10812 4.40869
  959 35.3489 9.20891 -20.5817
  960 236.312 -1.34569 3.50936
  961 213.021 1.68463 21.5052
  962 224.696 31.1858 11.0965
  963 225.220 2.61412 -25.3679
  964 154.098 -8.40635 -13.9875
  965 243.814 -8.58677 16.9797
  966 154.196 -8.37120 13.8381
  967 6.81813 7.54312 -0.302533
  968 25.7000 4.59618 15.0645
  969 124.913 -2.28717 9.67650
  970 124.755 -2.29034 -9.73615
  971 218.993 -5.15496 3.99194
  972 234.677 40.9603 6.17271
  973 119.174 11.0571 -59.6694
  974 196.351 -12.3213 1.75181
  975 184.267 -19.3392 -18.7780
  976 269.383 51.7366 13.7974
  977 206.993 -3.58756 0.450014
  978 206.986 -3.56619 -0.451005
  979 227.235 -4.11260 -7.63726
  980 208.796 17.9852 -8.40142
  981 482.046 141.481 95.5395
  982 42.4725 2.50068 -20.0030
  983 43.1821 2.08113 20.0521
  984 3.15468 -4.65691 0.761235
  985 209.524 11.5627 17.2440
  986 184.200 -19.4537 18.6322
  987 228.892 -10.7716 -20.0145
  988 249.131 20.3842 24.5748
  989 240.199 -19.3918 -22.3881
  990 351.376 74.0522 23.9411
  991 203.090 -3.22669 -0.0426012
  992 203.063 -3.19790 0.0429659
  993 238.267 -9.66142 19.1140
  994 16.2391 25.6594 27.5791
  995 105.214 -2.27606 13.8888
  996 104.869 -2.24716 -14.0468
  997 126.329 -6.30415 18.9446
  998 125.883 -6.21059 -19.0227
  999 142.554 -6.00612 13.5512
  1000 155.828 -1.30357 -0.679918
  1001 155.848 -1.29349 0.676840
  1002 397.716 124.616 -78.7887
  1003 357.968 89.6141 35.9606
  1004 142.439 -6.03882 -13.6731
  1005 245.470 -1.09602 21.0498
  1006 218.568 22.6843 -14.9780
  1007 154.393 -13.2221 42.0086
  1008 199.025 -23.5006 -22.2515
  1009 227.598 -1.82379 -8.04801
  1010 101.748 7.16094 48.4620
  1011 130.642 -10.0017 33.5771
  1012 199.905 10.1799 -10.7795
  1013 230.018 -4.52222 -23.9811
  1014 297.925 117.227 127.781
  1015 188.385 5.69280 7.65558
  1016 258.245 55.9447 -0.961803
  1017 190.501 7.35548 -71.8404
  1018 192.907 -20.3793 -12.5640
  1019 246.553 -0.206399 -0.927622
  1020 235.087 21.6180 -23.7749
  1021 135.836 -0.932117 3.44650
  1022 135.773 -0.941703 -3.48168
  1023 4.89155 1.70165 -6.72282
  1024 154.146 -7.17877 -11.6429
  1025 130.488 -10.1321 -33.8427
  1026 154.019 -7.16040 11.5059
  1027 224.751 -6.80668 22.1731
  1028 201.467 -12.4910 0.105699
  1029 211.144 3.84991 -20.8148
  1030 217.201 27.1539 4.36992
  1031 297.577 17.3651 9.15722
  1032 222.879 -16.8993 11.0499
  1033 139.699 -11.2763 -25.7364
  1034 209.245 7.35805 -19.4552
  1035 155.785 -13.0395 -42.2455
  1036 300.630 65.6001 -0.942688
  1037 203.091 13.2779 9.80592
  1038 258.806 -1.57242 -13.3771
  1039 194.114 -20.3831 11.4952
  1040 222.716 -7.01165 17.2081
  1041 221.391 -11.6454 12.5937
  1042 220.180 -11.0289 10.9640
  1043 272.430 34.4942 -18.3564
  1044 219.554 -3.51446 17.3536
  1045 198.674 -23.5668 21.8803
  1046 212.087 -8.62845 3.86511
  1047 139.784 -11.2955 25.5819
  1048 198.862 -14.7243 -2.18979
  1049 114.673 -5.53733 -35.9198
  1050 164.516 -17.1321 28.3949
  1051 223.797 -1.47877 -9.31019
  1052 217.675 -2.44560 -19.6705
  1053 188.402 -15.0089 -7.52817
  1054 114.873 -5.70413 35.6247
  1055 202.317 0.460699 -13.5966
  1056 150.138 -10.1066 -18.1633
  1057 274.182 58.6177 8.80440
  1058 60.0937 10.1815 -33.8548
  1059 475.332 33.6245 46.1342
  1060 109.076 8.32575 -50.7895
  1061 220.176 -18.2189 -7.07007
  1062 150.174 -10.0172 18.0058
  1063 200.059 2.06356 15.1773
  1064 110.970 -2.31436 11.4928
  1065 110.906 -2.37217 -11.6151
  1066 222.629 -6.16526 -20.5347
  1067 237.908 -1.09569 1.47647
  1068 232.639 -0.486241 4.13200
  1069 229.571 7.64416 25.6039
  1070 214.404 -1.61465 18.4485
  1071 166.890 17.6595 77.7572
  1072 248.212 -0.148764 0.460413
  1073 230.811 31.3509 16.3104
  1074 194.438 2.75807 13.0552
  1075 235.792 -0.857881 3.98140
  1076 149.425 -1.68466 -2.82556
  1077 149.448 -1.66511 2.80517
  1078 94.5191 -2.73435 -19.1519
  1079 94.9114 -2.83238 19.0118
  1080 195.051 9.65141 5.47150
  1081 298.783 15.3885 -20.3170
  1082 274.478 -0.755257 -40.2031
  1083 216.697 -0.179492 -5.64747
  1084 164.591 -17.2622 -28.6168
  1085 188.795 -14.2734 6.67585
  1086 218.007 -0.488284 5.89650
  1087 228.961 -16.5622 -12.9519
  1088 140.577 -0.362759 1.70069
  1089 140.545 -0.368926 -1.71235
  1090 219.751 -18.7409 7.06758
  1091 208.712 -4.19628 0.851294
  1092 208.678 -4.19966 -0.836464
  1093 202.989 -20.4931 6.96710
  1094 263.031 -8.57485 -1.58451
  1095 116.141 -0.219663 -3.25592
  1096 116.340 -0.212003 3.21916
  1097 178.304 -11.1730 -48.3984
  1098 189.015 -4.52301 0.786012
  1099 189.036 -4.55040 -0.794856
  1100 114.775 60.9800 85.3988
  1101 263.528 21.5320 -20.5107
  1102 37.8945 18.7211 -25.3103
  1103 227.775 -3.28550 -4.26349
  1104 59.7806 20.7986 -38.7995
  1105 124.899 -7.95952 -24.4732
  1106 248.371 -0.216243 0.274750
  1107 248.481 -0.199426 -0.204850
  1108 223.612 -12.7213 -15.1954
  1109 198.062 -22.1776 -30.8215
  1110 60.1211 8.66644 32.2612
  1111 243.130 24.1035 23.2445
  1112 221.156 -2.10685 -0.396490
  1113 221.178 -2.10926 0.418460
  1114 242.356 -15.7184 37.2776
  1115 248.707 50.0478 9.00203
  1116 146.112 -3.63167 -7.30924
  1117 146.146 -3.61332 7.25248
  1118 111.633 12.9167 60.2024
  1119 210.644 1.04172 -20.1606
  1120 65.4000 21.3117 41.7807
  1121 273.222 -4.89780 -11.5292
  1122 266.685 59.3349 2.79336
  1123 182.836 -14.5927 9.31199
  1124 166.841 0.832360 -0.823773
  1125 233.522 -1.97401 5.15156
  1126 242.144 -0.258884 2.01583
  1127 50.8190 0.107606 -9.60891
  1128 51.5716 0.0812227 9.54033
  1129 188.102 3.06528 -9.65670
  1130 195.194 -5.74605 -0.403104
  1131 195.147 -5.71630 0.399605
  1132 20.2779 30.0249 -29.2969
  1133 32.5103 67.6241 -59.5969
  1134 197.773 -7.73954 0.127902
  1135 197.854 -7.74205 -0.137660
  1136 204.574 -4.88338 0.935007
  1137 204.545 -4.87121 -0.916105
  1138 52.9588 33.9416 41.9113
  1139 159.963 -2.05160 -1.33618
  1140 159.979 -2.03596 1.32887
  1141 201.959 15.2012 -0.232534
  1142 261.849 31.5748 -89.9150
  1143 247.698 42.8446 -15.4143
  1144 226.225 -8.64691 -21.0334
  1145 222.898 -11.0677 -15.3582
  1146 182.964 -14.7325 -9.47375
  1147 182.719 0.565252 5.96161
  1148 206.730 12.8313 -14.4070
  1149 203.734 10.8947 13.7455
  1150 211.945 -8.37250 -3.79843
  1151 201.996 -12.2355 -0.251819
  1152 183.160 -11.9621 -6.91972
  1153 218.550 -1.26714 10.9943
  1154 390.669 39.5253 5.53670
  1155 220.133 -4.66952 20.0380
  1156 220.544 14.4806 21.7443
  1157 203.953 -20.1250 -5.02630
  1158 24.2599 4.23114 -14.5164
  1159 207.782 -9.59528 -2.85516
  1160 135.403 -0.243811 -0.0777641
  1161 135.428 -0.242862 0.0766944
  1162 254.173 -6.73408 11.5684
  1163 242.262 -20.3677 7.63125
  1164 348.744 62.7266 14.9713
  1165 80.5119 -0.189938 -8.04343
  1166 81.0304 -0.172030 7.97897
  1167 184.800 -3.76417 -0.698591
  1168 184.789 -3.73873 0.692339
  1169 208.481 -18.4260 0.177770
  1170 168.397 0.721383 2.69314
  1171 213.580 -15.2037 5.50887
  1172 11.6501 13.8558 -6.29930
  1173 37.5336 18.9653 24.7673
  1174 142.236 -7.61713 46.8057
  1175 246.615 47.1987 -10.9946
  1176 236.693 -0.627111 -3.14107
  1177 249.465 -0.368895 0.196919
  1178 249.729 -0.515696 -0.131209
  1179 141.303 -0.384514 -0.270454
  1180 141.329 -0.381595 0.268068
  1181 227.236 14.5473 24.7486
  1182 338.582 58.2278 -1.23044
  1183 233.926 38.8182 -11.0783
  1184 175.279 -12.7848 48.0838
  1185 141.475 -7.30608 -46.7208
  1186 156.760 -10.6568 -16.2341
  1187 219.085 -6.03279 5.04099
  1188 306.653 67.3207 1.07147
  1189 156.766 -10.5896 16.0974
  1190 224.092 -3.79608 3.81825
  1191 198.182 7.28497 13.1032
  1192 219.439 6.78101 23.7247
  1193 314.610 70.4061 6.43366
  1194 185.175 -4.87408 1.31913
  1195 185.188 -4.90004 -1.33057
  1196 226.916 -4.15776 7.92530
  1197 131.994 -1.48226 5.42105
  1198 131.899 -1.49771 -5.47449
  1199 222.059 -2.89699 -1.77328
  1200 90.8108 53.8311 -82.3701
  1201 192.218 -10.7760 -51.4669
  1202 179.935 -5.72099 -2.60054
  1203 179.951 -5.69255 2.60107
  1204 238.972 -1.02157 1.31555
  1205 225.512 -2.82537 3.06154
  1206 11.9233 14.6450 10.5604
  1207 246.234 -0.236876 1.07740
  1208 28.5652 35.6695 35.3903
  1209 220.078 -3.16645 -2.26462
  1210 -0.331223 -5.46801 -4.77702
  1211 154.621 -15.0738 -36.1832
  1212 154.170 -14.7034 35.8092
  1213 246.231 -0.398384 -1.18423
  1214 209.133 -11.0244 -3.35279
  1215 238.771 -0.920575 -1.36436
  1216 189.422 -6.16884 -1.14200
  1217 189.399 -6.14312 1.12479
  1218 221.911 -2.87412 1.67276
  1219 207.630 -9.40988 2.82519
  1220 199.532 -6.40697 -0.374493
  1221 199.607 -6.42769 0.400708
  1222 238.595 -0.949683 -1.11913
  1223 205.216 -21.5315 -34.8258
  1224 233.212 -1.30780 -1.16095
  1225 221.051 -3.26028 2.41525
  1226 151.925 -1.75461 -2.07153
  1227 151.947 -1.73697 2.05757
  1228 170.582 -2.56984 -1.01178
  1229 170.588 -2.55077 1.00575
  1230 279.438 43.4461 15.6384
  1231 234.623 -17.9573 9.94767
  1232 160.380 -0.663592 59.5522
  1233 125.989 -0.242671 2.07888
  1234 125.881 -0.245147 -2.10151
  1235 221.650 -4.05453 15.1198
  1236 212.427 -3.11163 0.556433
  1237 212.439 -3.09988 -0.556061
  1238 242.533 47.4537 5.11552
  1239 223.314 -23.3307 27.2693
  1240 126.581 -1.86667 7.64952
  1241 126.451 -1.88156 -7.71062
  1242 212.044 -5.09557 2.04976
  1243 211.998 -5.12946 -1.99794
  1244 218.971 -5.95386 -4.86825
  1245 199.572 0.0284400 7.04567
  1246 349.688 86.8214 -27.8501
  1247 222.865 -8.09115 -13.5551
  1248 37.0606 9.08297 21.1916
  1249 230.358 -12.2180 18.7611
  1250 182.750 3.90341 -5.27783
  1251 13.4328 10.2386 7.34256
  1252 305.505 33.2630 -0.813504
  1253 224.802 -10.1791 -18.8333
  1254 183.667 2.53541 8.07835
  1255 125.801 -7.97054 24.4193
  1256 228.659 -17.6464 11.6591
  1257 334.439 62.3653 17.7005
  1258 75.5782 11.3882 41.1826
  1259 229.990 -2.62842 -6.81247
  1260 448.554 4.96080 -4.57189
  1261 464.038 7.01978 20.4728
  1262 496.368 17.1254 -48.4819
  1263 222.445 -6.88911 -16.7154
  1264 222.590 -10.1025 14.4026
  1265 226.290 -16.0543 13.6582
  1266 -6.68722 0.714002 4.28373
  1267 -6.10307 0.554034 -4.64213
  1268 220.478 -24.3094 -12.1582
  1269 226.118 -22.7979 -18.7010
  1270 169.687 1.03916 -3.33068
  1271 219.622 -24.7618 18.7370
  1272 234.410 -11.0655 -19.0733
  1273 4.15863 6.78619 0.373656
  1274 189.570 -3.45873 0.560938
  1275 189.586 -3.48547 -0.562433
  1276 233.426 -1.76477 4.67658
  1277 224.090 -3.72489 -3.59917
  1278 210.643 -23.0075 -6.05754
  1279 191.730 -10.4557 2.60416
  1280 190.736 -10.3133 -2.90295
  1281 225.903 -4.69307 10.7440
  1282 231.437 -8.45450 -21.7132
  1283 13.9520 10.6763 -7.05201
</Section>

newXOutput 31

<Section columns = "stress_xx | stress_yy | stress_xy">
  1 259.472 -0.00865165 0.528923
  2 259.490 -0.00544547 -0.530792
  3 137.626 -0.0659429 -0.191798
  4 -1.76062 -1.74759 -2.52988
  5 475.396 182.690 149.315
  6 470.858 189.617 -149.869
  7 -2.04286 -1.66660 2.68372
  8 137.601 -0.0665036 0.191204
  9 261.389 -0.413170 0.168371
  10 260.789 -0.662570 -0.113105
  11 260.109 -0.421961 0.626954
  12 259.434 -0.599471 0.205370
  13 257.991 -0.497478 0.989249
  14 256.691 -0.507286 0.740157
  15 253.690 -0.450679 1.41120
  16 249.473 -0.285031 2.07192
  17 245.696 -0.318946 2.29127
  18 240.155 -0.474230 2.75348
  19 232.543 -0.0115177 4.04848
  20 225.509 -0.350575 3.82963
  21 217.591 -0.472267 5.37100
  22 206.142 0.337491 4.65444
  23 197.923 0.487949 5.48655
  24 187.208 0.835476 4.27862
  25 179.826 0.844419 4.30661
  26 169.124 1.21313 2.19113
  27 166.884 1.91534 2.34387
  28 165.543 1.55221 -0.690160
  29 167.395 0.868402 -1.52648
  30 170.796 0.865897 -1.86908
  31 178.808 1.10941 -3.73790
  32 186.588 0.875208 -4.74384
  33 198.065 0.170152 -5.63516
  34 207.259 -0.127379 -5.15496
  35 217.109 -0.378228 -5.08498
  36 226.052 -0.271976 -3.60214
  37 233.785 -0.277172 -3.09507
  38 240.197 -0.461192 -2.61108
  39 245.969 -0.320163 -1.83868
  40 249.612 -0.370805 -1.95978
  41 253.129 -0.473327 -1.43667
  42 256.487 -0.567657 -0.650261
  43 258.220 -0.451650 -0.750449
  44 259.167 -0.260834 -0.477119
  45 258.569 -0.117623 -0.434163
  46 261.077 -0.673430 0.0695960
  47 261.480 -0.432525 -0.173820
  48 252.524 -0.118467 -0.326542
  49 246.605 -0.948242 -0.576265
  50 239.414 -1.41875 -0.393920
  51 230.669 -2.15536 -0.535003
  52 222.412 -2.37713 -0.671776
  53 213.621 -3.03083 -0.635281
  54 205.860 -3.40357 -0.363960
  55 199.056 -3.85214 -0.150274
  56 191.214 -3.20874 -0.150309
  57 182.178 -3.02161 -0.223934
  58 173.462 -2.40617 -0.0819250
  59 165.196 -1.55604 -0.0365963
  60 157.328 -1.12408 0.00169788
  61 150.410 -0.596105 0.0639086
  62 143.311 -0.175125 -0.221493
  63 137.723 0.189545 0.257560
  64 135.240 0.561223 0.165844
  65 137.003 -0.00371094 0.405602
  66 135.169 -0.0877689 0.485340
  67 133.500 -0.125485 0.606580
  68 131.216 -0.0256969 0.799043
  69 128.331 -0.0152734 1.01257
  70 126.252 -0.190156 1.97686
  71 120.087 0.177420 2.16368
  72 115.782 -0.0194246 2.49147
  73 109.369 -0.122311 2.82230
  74 101.965 -0.201589 3.44023
  75 92.7168 -0.0510410 4.17685
  76 81.4391 0.0483628 4.59394
  77 71.7891 -0.114685 6.55799
  78 52.5643 0.620677 6.16348
  79 39.5752 0.536642 6.52505
  80 24.1084 -0.0981761 7.20141
  81 11.3620 1.23409 7.43918
  82 -3.10032 1.82018 4.37098
  83 -13.4938 1.84295 1.43622
  84 -12.8408 1.75039 -0.838088
  85 -11.9674 1.44248 -3.65032
  86 -7.00711 -0.505713 -3.42459
  87 -0.887467 -6.72747 -3.76697
  88 0.614302 -12.4581 -4.76355
  89 1.77982 -19.9402 -2.78460
  90 3.99580 -20.8676 -0.114382
  91 8.51682 -6.65674 10.8210
  92 25.7408 36.5008 37.9831
  93 155.021 138.616 132.831
  94 574.026 85.0980 96.8787
  95 515.580 12.2423 31.7860
  96 477.872 5.02082 9.72718
  97 463.919 4.23361 0.773114
  98 471.200 5.67439 -8.38394
  99 514.183 11.3335 -25.1298
  100 610.297 41.0872 -84.0200
  101 91.5750 140.846 -110.631
  102 19.2997 24.1300 -31.1923
  103 9.27609 -5.72334 -11.2331
  104 3.72567 -21.0138 -1.62295
  105 0.996709 -15.2874 3.22493
  106 1.29960 -15.6759 4.15124
  107 0.0433171 -5.83814 4.16832
  108 -7.30831 -0.347167 3.25912
  109 -12.3511 1.08226 3.19651
  110 -13.5130 2.13178 0.914309
  111 -13.9407 1.81912 -1.31370
  112 -4.06008 1.86570 -4.08223
  113 10.5044 1.24526 -7.08535
  114 23.2310 0.0310184 -7.08242
  115 38.6737 0.580592 -6.54098
  116 51.7452 0.637659 -6.21371
  117 71.1530 -0.117377 -6.61704
  118 80.8934 0.0544960 -4.64153
  119 92.2410 -0.0488795 -4.23230
  120 101.718 -0.222214 -3.46873
  121 109.044 -0.117027 -2.83130
  122 115.537 -0.0113427 -2.51933
  123 119.887 0.175043 -2.18964
  124 126.111 -0.191916 -1.99891
  125 128.220 -0.0164188 -1.02621
  126 131.134 -0.0267721 -0.810303
  127 133.440 -0.127250 -0.615543
  128 135.125 -0.0892779 -0.491629
  129 136.969 -0.00503939 -0.409649
  130 135.212 0.560407 -0.167752
  131 137.697 0.189166 -0.258737
  132 143.284 -0.176662 0.220795
  133 150.384 -0.599945 -0.0654080
  134 157.305 -1.13261 -0.00346608
  135 165.179 -1.56793 0.0348784
  136 173.453 -2.42328 0.0802539
  137 182.179 -3.04311 0.222639
  138 191.225 -3.23348 0.149086
  139 199.075 -3.87956 0.149800
  140 205.885 -3.43080 0.364907
  141 213.654 -3.05560 0.638026
  142 222.438 -2.39441 0.681692
  143 230.686 -2.17079 0.582062
  144 239.454 -1.33430 0.402912
  145 246.781 -0.920426 0.563777
  146 252.560 -0.157360 0.321839
  147 224.680 -21.0963 -2.47146
  148 224.501 -20.8144 2.55267
  149 234.976 33.8352 -12.0537
  150 251.251 14.8433 25.7731
  151 190.194 -18.2187 -41.2022
  152 191.709 -18.2055 39.8416
  153 183.878 -7.90955 4.65740
  154 183.898 -8.02316 -4.66302
  155 267.006 9.53529 -20.1853
  156 224.075 -7.99262 5.62238
  157 223.983 -7.79462 -5.55062
  158 289.673 65.0184 3.45307
  159 228.895 -0.365817 -24.9492
  160 168.635 -13.4246 -18.3594
  161 168.629 -13.3088 18.1873
  162 229.442 -5.16296 22.6281
  163 217.146 15.7984 14.7580
  164 89.0923 14.5684 -49.1363
  165 98.9998 13.7833 51.8107
  166 282.569 3.01407 3.82033
  167 230.291 -8.77931 -15.9329
  168 305.652 67.1869 -2.51581
  169 207.048 -5.81963 0.345505
  170 207.001 -5.79881 -0.325651
  171 233.510 -2.69954 -2.47863
  172 234.291 -2.40921 2.14922
  173 161.143 -2.40698 -2.84974
  174 161.159 -2.38113 2.83276
  175 251.715 -6.92948 52.3142
  176 209.987 8.64530 -15.8815
  177 136.800 -10.3297 -29.7543
  178 137.214 -10.2529 29.5470
  179 153.434 -5.17003 -9.63442
  180 153.444 -5.10878 9.55614
  181 231.466 -6.01499 13.5348
  182 210.055 -14.4662 0.197781
  183 209.289 -14.3581 0.155332
  184 239.680 -23.1275 -2.91375
  185 240.894 -22.0319 -0.0899060
  186 331.841 77.9892 -10.1630
  187 239.671 38.6195 11.2926
  188 240.474 14.7846 -25.7178
  189 250.987 -2.49200 -61.0284
  190 239.091 -13.4559 -18.3688
  191 241.117 -9.58447 21.4695
  192 200.628 -22.8085 19.8178
  193 200.701 -22.6520 -19.7509
  194 213.804 2.68181 19.1321
  195 96.8846 -2.28993 -36.3026
  196 97.1351 -2.50618 36.0685
  197 375.351 56.4386 8.03086
  198 226.302 -13.4475 10.2363
  199 234.952 -4.22868 -8.89312
  200 184.972 -4.58712 -2.05984
  201 184.972 -4.56146 2.05192
  202 224.818 -2.90592 -17.3954
  203 256.395 37.7094 -20.7828
  204 213.365 19.1263 -2.96359
  205 137.803 -5.01143 13.6561
  206 137.587 -5.02915 -13.7661
  207 238.778 -2.54015 4.94970
  208 231.539 4.35741 25.6309
  209 187.768 -13.8154 -8.53226
  210 186.437 -13.0844 8.77430
  211 273.781 40.6012 19.4219
  212 323.759 43.3960 5.32363
  213 21.1206 16.7765 -13.2411
  214 19.5086 15.5094 11.2178
  215 132.273 37.6107 87.3276
  216 224.001 -14.8654 -8.04482
  217 239.704 -2.44166 -4.47567
  218 211.276 1.80960 -17.6110
  219 146.854 -1.54161 -4.26052
  220 146.898 -1.52387 4.21950
  221 201.047 -9.48590 -1.38118
  222 201.139 -9.54069 1.26492
  223 226.874 -3.03627 14.8389
  224 262.751 -15.2548 4.58738
  225 259.442 53.3155 -6.08016
  226 203.469 -19.7364 -8.97663
  227 258.363 -4.47241 17.0809
  228 219.667 -3.59396 1.00723
  229 219.673 -3.56225 -1.00558
  230 201.917 -19.6406 9.37298
  231 231.859 -14.6618 15.0472
  232 328.584 41.2323 -18.6833
  233 71.5084 42.6104 -62.7229
  234 194.432 6.73485 3.76765
  235 232.158 20.4883 21.5548
  236 248.249 -1.70692 -23.2176
  237 231.611 -8.29835 -21.2605
  238 121.569 -4.01172 -17.1717
  239 122.006 -3.94955 17.1094
  240 232.070 -2.74667 -11.5519
  241 221.241 -5.52197 3.06162
  242 221.138 -5.51205 -2.96891
  243 45.2665 4.33252 -22.8968
  244 46.0389 3.80038 22.8251
  245 247.365 -21.6016 -17.9953
  246 244.904 -0.759136 0.722485
  247 245.188 -0.774837 -0.772841
  248 226.551 18.7696 -19.6954
  249 198.492 3.73397 11.4695
  250 422.607 67.7193 45.3064
  251 419.326 47.7487 -28.4875
  252 300.968 65.2810 -0.721640
  253 187.714 -8.97366 55.0305
  254 172.064 -5.74423 -57.6102
  255 196.859 -4.04092 -0.632231
  256 196.839 -4.01269 0.626535
  257 162.390 -4.46729 5.80088
  258 162.394 -4.53074 -5.85754
  259 238.295 -2.48553 7.22513
  260 230.945 -16.4068 -12.5447
  261 147.438 -0.319549 -0.981824
  262 147.467 -0.314350 0.974856
  263 228.026 -9.16561 -9.92866
  264 94.9376 -3.14750 -23.7635
  265 95.3721 -3.15807 23.5821
  266 230.746 -9.95482 17.1589
  267 175.639 -18.6436 33.1091
  268 176.112 -18.9787 -33.0098
  269 197.413 7.46734 -5.33781
  270 170.316 -2.68862 -1.91401
  271 170.328 -2.66913 1.90553
  272 215.448 -0.562159 14.1645
  273 258.252 47.4657 14.4561
  274 136.436 -1.74016 7.28737
  275 136.329 -1.75535 -7.35461
  276 237.366 -19.7650 9.16810
  277 219.737 -24.5991 -21.7018
  278 245.717 -1.08143 2.33015
  279 168.811 -10.1648 -12.4761
  280 168.500 -10.0479 12.4234
  281 304.602 30.3348 77.3247
  282 141.313 -11.3736 39.6648
  283 228.571 32.1547 -1.28240
  284 291.235 31.9030 -13.4393
  285 218.769 -16.9341 3.62839
  286 219.863 -25.2791 19.4645
  287 141.769 -11.1814 -40.1356
  288 25.9050 31.8988 28.6502
  289 228.064 -9.20149 10.1071
  290 300.167 38.9280 10.8921
  291 247.770 -0.963601 -2.01988
  292 222.708 7.75987 -22.6661
  293 220.474 -12.4498 5.75687
  294 215.797 -18.2440 -0.230270
  295 221.832 10.1589 21.8168
  296 236.198 -19.7784 -8.28004
  297 335.380 65.5458 -5.35348
  298 220.413 -11.9630 -5.51468
  299 183.372 51.8265 -107.401
  300 225.619 -23.8941 -3.44455
  301 223.994 -24.5420 6.03847
  302 163.509 -14.8980 -26.0520
  303 146.123 -0.605015 -2.14941
  304 146.160 -0.594560 2.13036
  305 163.569 -14.9070 25.9021
  306 238.348 -0.381850 -25.9132
  307 258.105 -10.6707 -11.7315
  308 195.415 -11.8674 -4.27256
  309 195.274 -11.8938 4.35695
  310 235.233 -20.2422 35.1780
  311 234.039 -1.82910 8.75046
  312 285.927 0.997871 11.3001
  313 191.247 -6.81595 -2.29691
  314 191.257 -6.79034 2.28121
  315 173.605 -4.61570 -3.74360
  316 173.601 -4.57048 3.73647
  317 196.352 2.58288 -11.0973
  318 254.311 18.6376 -25.0469
  319 395.876 106.377 -49.7571
  320 232.130 -1.91889 -0.846179
  321 231.987 -1.89195 0.866253
  322 123.199 -0.0899902 49.4899
  323 172.827 -7.97490 -8.14833
  324 172.481 -7.94393 8.16778
  325 123.180 -0.368630 -49.3020
  326 241.920 28.5931 -21.1059
  327 271.924 13.3907 19.2997
  328 235.301 -16.7972 -39.1719
  329 215.439 -8.28612 2.70807
  330 215.213 -8.22158 -2.61019
  331 230.381 -4.67573 -4.91805
  332 215.615 -0.424696 -13.2521
  333 242.875 1.08172 25.4559
  334 242.922 -1.62596 -5.00254
  335 144.281 -8.89769 19.9057
  336 144.123 -8.94992 -20.0696
  337 225.403 -0.518907 23.6527
  338 137.130 -1.17998 -4.30232
  339 137.219 -1.16869 4.25962
  340 232.033 -5.24611 7.51850
  341 278.072 56.9635 -11.0024
  342 230.249 -4.71476 5.09416
  343 244.697 30.7954 21.2096
  344 234.362 -4.32918 24.6938
  345 184.706 -3.49989 0.723896
  346 184.710 -3.52322 -0.729824
  347 221.300 -0.804950 -20.9726
  348 294.170 61.9682 7.50277
  349 243.628 44.8336 0.444310
  350 149.454 17.4407 -73.8637
  351 14.6089 6.72118 -9.70540
  352 16.1133 7.26566 10.4841
  353 -0.958455 1.60346 4.68340
  354 -0.00557291 0.830256 -4.87279
  355 433.764 30.0716 10.4336
  356 201.966 -16.4859 -5.02142
  357 232.234 -5.06318 -7.33930
  358 209.026 -3.62742 0.410127
  359 209.002 -3.59618 -0.411105
  360 223.065 24.6420 -10.6582
  361 190.606 -19.5199 16.2843
  362 16.2871 24.1058 -17.4932
  363 190.807 -19.5195 -16.6003
  364 226.064 25.7213 11.3431
  365 231.466 -6.11346 -12.9120
  366 245.855 -13.6700 -15.8807
  367 261.195 55.4331 4.20320
  368 246.478 -15.3334 13.3109
  369 99.8955 -2.55535 15.9381
  370 99.2687 -2.50654 -16.0492
  371 56.0451 1.44108 -21.9664
  372 56.6808 1.20628 21.8649
  373 199.589 0.593248 11.2392
  374 384.537 111.441 41.9529
  375 239.618 -1.47088 -6.29290
  376 185.536 -15.8072 -12.4122
  377 185.367 -15.7613 12.3940
  378 229.927 -5.26373 -16.2258
  379 262.925 -12.7074 3.11370
  380 201.958 -16.4685 5.19233
  381 289.379 1.71499 -22.2352
  382 160.929 -1.36036 -0.709395
  383 160.949 -1.34816 0.703276
  384 225.847 -1.29739 -10.2962
  385 119.884 -1.79261 -10.4175
  386 119.965 -1.84858 10.2848
  387 270.624 34.5340 -21.4751
  388 145.797 10.3553 68.5197
  389 211.426 -11.1150 1.60120
  390 211.636 -11.0934 -1.61270
  391 248.248 42.1302 -13.4829
  392 235.353 -6.94674 -23.4749
  393 236.644 -24.1391 18.7549
  394 196.159 -5.23281 -0.963833
  395 196.133 -5.20491 0.951472
  396 227.230 -17.5168 8.66424
  397 245.359 -1.11768 3.73253
  398 151.007 -5.64042 -12.1059
  399 151.065 -5.63851 11.9953
  400 230.253 7.71802 -25.2601
  401 217.734 -4.65937 1.53509
  402 217.727 -4.66923 -1.50401
  403 224.848 -2.63631 19.3376
  404 208.777 15.1522 5.08603
  405 233.521 -9.82178 20.5869
  406 338.708 71.1307 12.0629
  407 111.483 -6.02093 -31.8400
  408 111.803 -6.02384 31.5857
  409 49.5489 26.8154 -37.4711
  410 251.460 -0.668949 1.06830
  411 124.961 -1.11389 -6.58424
  412 125.134 -1.09026 6.52386
  413 230.135 -5.96522 15.9182
  414 208.693 -22.6914 10.3723
  415 236.379 -2.83893 3.49086
  416 240.073 12.2081 26.4228
  417 52.0385 28.5521 39.1504
  418 209.019 -22.5696 -9.48190
  419 216.053 -20.1110 -1.22307
  420 68.8910 -1.38791 -19.9692
  421 69.4454 -1.44254 19.8249
  422 165.593 -13.1601 -47.8477
  423 248.332 -3.67028 22.6887
  424 164.923 -13.3701 47.4119
  425 229.235 -12.8407 -13.5562
  426 211.836 14.2286 -11.1734
  427 229.284 -9.85904 12.8321
  428 247.617 -1.03768 -2.55429
  429 7.24103 7.53145 2.99490
  430 49.4310 56.4686 55.6614
  431 219.942 -0.813786 9.89722
  432 183.178 2.44189 4.84551
  433 186.505 2.99373 -6.58375
  434 159.133 -2.72091 -4.09064
  435 159.146 -2.68517 4.06102
  436 226.042 -17.5085 -7.99283
  437 228.053 -4.44776 -21.6879
  438 184.217 3.37372 -1.78897
  439 338.771 80.5730 15.4561
  440 45.7593 15.4643 -28.0221
  441 50.5435 14.1975 30.0045
  442 211.232 -7.51534 1.39512
  443 211.148 -7.49429 -1.33616
  444 281.822 62.6365 -0.899835
  445 177.699 71.2863 109.778
  446 272.209 -3.92428 -5.12880
  447 154.549 -8.18976 -16.4284
  448 154.618 -8.13098 16.2802
  449 155.241 -3.56846 6.42968
  450 155.215 -3.59603 -6.49283
  451 210.637 4.61846 -18.1137
  452 252.822 -0.304638 -0.718065
  453 204.491 9.30760 10.1458
  454 260.145 32.1520 23.0263
  455 216.415 -16.0829 -2.76871
  456 236.299 -2.69486 -3.38803
  457 248.676 -0.933374 2.35382
  458 252.112 -0.322337 0.411309
  459 252.335 -0.370821 -0.308203
  460 136.012 -0.268633 1.58059
  461 135.945 -0.272507 -1.59857
  462 237.027 -15.0198 16.3739
  463 212.702 8.33923 17.5381
  464 222.823 0.888839 -23.0456
  465 233.489 -4.85363 9.65798
  466 340.033 55.2821 -64.3822
  467 233.912 -12.9462 -18.1475
  468 1.83152 4.36145 1.54100
  469 1.82946 4.41521 -0.384769
  470 184.462 -10.5599 6.86721
  471 183.826 -10.4232 -6.79105
  472 292.694 4.81252 34.1782
  473 81.2592 72.8133 -82.7413
  474 230.589 -0.677618 7.74121
  475 262.754 -15.3682 -19.0512
  476 138.055 -8.05529 23.0864
  477 280.636 49.7998 -15.7914
  478 230.530 -12.4446 15.2721
  479 192.857 -9.29443 -3.21269
  480 193.028 -9.13725 3.20107
  481 199.537 1.04026 -9.93049
  482 137.616 -8.02600 -23.2399
  483 204.819 0.0591547 10.0004
  484 197.348 -22.5490 -29.4152
  485 196.844 -22.5835 29.5078
  486 238.173 -1.53835 6.93804
  487 215.144 20.2551 2.10355
  488 220.517 3.53499 74.7466
  489 323.651 66.2142 -0.416989
  490 223.185 -3.67863 1.69037
  491 223.200 -3.66458 -1.74132
  492 170.224 -3.09494 -2.54368
  493 170.232 -3.06798 2.53269
  494 89.5586 4.27094 41.4324
  495 231.516 -11.1181 -17.7110
  496 209.708 -4.52470 0.398523
  497 209.687 -4.50708 -0.393148
  498 182.339 -19.3679 24.0863
  499 91.3244 5.62231 -42.5005
  500 231.996 -18.8782 -9.12415
  501 3.82601 0.490072 2.12960
  502 201.279 10.3190 0.732969
  503 224.053 -2.49782 -0.565729
  504 224.045 -2.53458 0.554901
  505 182.467 -19.3380 -24.2798
  506 263.052 -13.6578 24.6951
  507 259.943 9.44429 23.5550
  508 240.285 -1.53320 -1.70870
  509 231.284 -19.1480 9.23824
  510 142.645 -0.161890 -0.273191
  511 142.673 -0.160509 0.270539
  512 230.745 -8.83195 -18.7999
  513 222.797 16.4772 19.2348
  514 256.712 6.34043 -23.2496
  515 141.788 -0.250263 -0.886417
  516 141.822 -0.246926 0.879696
  517 452.195 65.2886 -58.6102
  518 232.016 27.6737 16.9830
  519 240.507 -1.40076 1.52571
  520 216.545 -20.5509 1.74193
  521 181.135 -6.07337 3.73784
  522 181.137 -6.12188 -3.73031
  523 252.695 -15.3531 7.86762
  524 242.385 -4.80886 -23.8073
  525 270.807 53.5416 13.0616
  526 224.793 3.85356 23.8849
  527 227.473 -4.28865 3.18934
  528 221.185 -23.5491 -28.1600
  529 228.873 -5.63546 18.4466
  530 447.310 20.4631 -8.22639
  531 250.889 -18.8871 -1.48705
  532 238.789 -1.47775 -0.426259
  533 238.844 -1.58014 0.382487
  534 451.935 30.3426 28.9090
  535 219.035 -0.0902695 20.3133
  536 308.931 51.5049 -6.75044
  537 231.420 -6.22908 -9.43148
  538 102.471 -0.997026 -7.13103
  539 102.807 -0.949386 7.05525
  540 155.769 -14.6187 -33.2253
  541 155.883 -14.3725 32.9701
  542 227.350 -4.10486 -3.15634
  543 247.202 9.08532 -25.9298
  544 217.070 -14.7812 3.59507
  545 233.070 26.7506 -17.6428
  546 235.542 -2.67945 9.34194
  547 296.453 14.4689 -1.91390
  548 200.895 -6.90542 -0.699635
  549 200.829 -6.87830 0.687220
  550 218.644 -10.3012 4.37180
  551 323.877 63.6732 -3.18457
  552 229.968 10.0604 24.8187
  553 97.9450 25.2681 61.3918
  554 223.248 -13.4196 49.6631
  555 296.382 13.5706 -54.5298
  556 235.153 19.4512 -23.1344
  557 209.278 -18.0334 -42.9991
  558 226.550 -24.7981 -7.78523
  559 236.862 -23.9322 -11.7625
  560 30.5756 39.1933 -37.1886
  561 238.022 -2.92591 -5.85215
  562 359.040 69.9592 -19.8652
  563 219.838 -9.86943 -4.80956
  564 221.733 -7.16278 3.96222
  565 221.524 -6.99476 -3.81351
  566 151.130 -0.926802 -1.94191
  567 151.159 -0.914738 1.92747
  568 20.6425 2.28840 -11.9695
  569 21.8766 2.39606 12.2539
  570 112.397 -5.29934 -24.3208
  571 113.281 -5.32701 24.2747
  572 224.753 -12.1460 -8.74199
  573 229.252 -24.8979 8.47778
  574 235.676 -22.3311 2.42589
  575 192.275 -3.40824 -0.652111
  576 192.262 -3.38214 0.648330
  577 182.798 -19.1346 -36.8269
  578 205.185 -16.7760 45.5461
  579 178.283 -17.9860 37.0496
  580 231.007 -5.11033 -23.3350
  581 143.170 -2.47015 7.29025
  582 143.100 -2.49659 -7.35550
  583 219.664 12.0998 -19.3045
  584 220.117 -0.383593 -8.98353
  585 275.593 60.1351 -5.95623
  586 179.063 -2.75973 -0.669187
  587 179.066 -2.74020 0.665616
  588 235.337 -0.679818 -5.10521
  589 161.170 -5.57454 -8.00026
  590 161.168 -5.55317 7.92584
  591 132.204 6.24777 58.8837
  592 229.051 -10.4954 -12.9807
  593 126.931 -6.64367 42.2580
  594 225.080 -11.6306 8.91053
  595 237.322 -3.26641 6.44635
  596 234.480 -2.03967 -1.52675
  597 162.909 -2.09096 -1.78176
  598 162.926 -2.07311 1.77119
  599 264.245 52.9786 -11.7048
  600 126.844 -6.38130 -42.4269
  601 224.342 -9.66641 -7.18264
  602 201.870 -3.73071 -0.282737
  603 201.848 -3.70137 0.281444
  604 382.368 51.6133 -9.03510
  605 132.207 -0.892654 4.03906
  606 132.091 -0.901538 -4.07948
  607 208.018 4.71396 16.5110
  608 300.362 24.7058 -5.09513
  609 140.990 1.11669 -58.4739
  610 71.2288 1.92105 -31.6903
  611 71.8433 1.49803 31.5206
  612 176.525 -10.4452 9.83079
  613 178.424 -10.7527 -9.52593
  614 302.955 60.9537 6.72400
  615 233.484 -2.11811 1.39249
  616 198.619 5.50519 -9.95516
  617 248.845 44.8893 10.6606
  618 247.903 46.5916 -7.08712
  619 203.758 -11.3463 -1.19980
  620 205.345 -11.0832 0.462913
  621 146.449 31.7553 -84.2959
  622 174.359 -6.08133 -5.41139
  623 174.370 -6.00960 5.38988
  624 449.306 91.8784 69.0964
  625 230.802 -7.52915 20.2376
  626 130.275 -4.72373 -15.5856
  627 361.973 81.8430 53.5922
  628 130.586 -4.69583 15.5209
  629 221.508 -8.51270 -58.1536
  630 153.978 -0.817874 -0.717057
  631 154.002 -0.810693 0.712978
  632 191.198 1.66739 8.67884
  633 85.8423 -1.31801 -14.0093
  634 86.3487 -1.32114 13.8935
  635 201.098 -14.3187 3.75414
  636 211.140 -16.9628 -0.535661
  637 250.034 -0.501582 -2.13328
  638 138.282 -0.247519 1.15649
  639 138.232 -0.251783 -1.16977
  640 189.317 -4.30414 -0.935202
  641 189.308 -4.27807 0.926608
  642 218.427 -24.1850 28.4889
  643 250.509 28.0041 -23.4641
  644 165.573 -7.87201 -10.3259
  645 165.445 -7.73728 10.2465
  646 197.302 -14.3025 -5.48113
  647 312.140 68.1859 1.17071
  648 234.254 -22.6262 -1.11101
  649 202.665 -4.84097 -0.268333
  650 202.632 -4.81485 0.269285
  651 280.042 30.5337 18.4115
  652 234.556 -3.31892 -10.1570
  653 206.053 -0.279618 -8.15086
  654 94.5586 -3.22079 -30.5292
  655 94.8645 -3.31593 30.2690
  656 196.835 -17.0922 -9.09812
  657 296.030 65.6298 0.198290
  658 228.664 31.0086 -7.64901
  659 150.411 -1.44225 -3.60249
  660 150.443 -1.42188 3.57091
  661 213.898 -6.00460 -1.35186
  662 213.940 -6.01352 1.40021
  663 401.947 52.5885 23.0965
  664 254.239 -0.634765 0.594033
  665 245.002 -0.919887 3.63896
  666 243.976 -0.945911 -4.24028
  667 231.303 -21.5006 4.46523
  668 168.698 -2.02940 -0.890921
  669 168.711 -2.01410 0.886405
  670 246.472 39.6325 16.3771
  671 317.564 70.7473 -3.30277
  672 172.429 -12.9775 -14.6357
  673 172.369 -12.8459 14.5562
  674 216.823 -22.3661 -3.80901
  675 228.171 13.5528 -23.3431
  676 272.485 0.644857 10.9682
  677 179.179 -3.39679 -1.72356
  678 179.182 -3.37339 1.71537
  679 155.006 -13.6685 -30.0047
  680 229.085 -22.1317 -2.31724
  681 189.923 -21.0790 26.5237
  682 90.3426 28.6820 -59.1999
  683 176.940 -16.5059 20.4494
  684 213.315 0.0550612 7.55022
  685 155.143 -13.5111 29.7941
  686 224.207 -9.85887 7.27118
  687 177.011 -16.4396 -20.6464
  688 179.990 2.28544 1.81697
  689 139.062 -3.85154 11.0481
  690 138.936 -3.85706 -11.1317
  691 190.048 -21.6270 -26.8253
  692 235.420 -15.4682 -15.8400
  693 215.723 -2.94631 -0.342994
  694 215.757 -2.97909 0.344498
  695 240.714 -15.2803 15.7599
  696 218.534 -22.8480 4.66204
  697 265.857 24.3741 22.9955
  698 239.567 -4.44927 24.4571
  699 230.514 -8.22043 15.0175
  700 219.334 18.0041 -14.6424
  701 264.858 44.6534 18.1557
  702 228.445 -3.13648 -14.4295
  703 228.013 -7.49304 7.91075
  704 234.896 36.8755 4.13920
  705 231.831 -3.88562 12.6343
  706 72.4897 49.1616 61.9784
  707 215.896 -24.8130 -16.1322
  708 250.003 4.57439 24.9353
  709 252.673 -7.79043 -18.0674
  710 252.900 -0.284445 1.19938
  711 230.437 -7.85465 -11.9041
  712 216.188 -25.0101 14.5897
  713 422.284 37.3748 -6.27561
  714 126.698 -0.575295 4.23067
  715 126.541 -0.581779 -4.27332
  716 234.008 -4.16132 -5.64889
  717 254.459 -0.212105 -1.16357
  718 196.455 -17.3662 9.14830
  719 236.515 -8.75791 22.2711
  720 361.956 85.2949 -24.7029
  721 224.170 -16.2388 7.55487
  722 249.017 -16.3516 -9.75877
  723 228.104 -7.28734 -7.78634
  724 254.469 -0.385309 -0.397197
  725 230.529 -0.00646671 25.2683
  726 10.4282 8.80835 12.7671
  727 261.814 -10.2503 -37.3069
  728 284.413 16.6722 12.0630
  729 236.568 -24.1278 10.3826
  730 166.968 -4.11438 4.44539
  731 166.973 -4.17329 -4.46949
  732 222.879 109.671 -115.341
  733 240.835 -15.8818 -14.6298
  734 179.261 0.869952 -3.47232
  735 210.333 1.13055 16.1326
  736 232.081 -11.5698 18.0146
  737 222.458 -18.7468 4.14542
  738 231.925 -21.0883 -30.6050
  739 221.052 -17.4922 -4.52561
  740 262.010 -12.5554 -4.00338
  741 241.192 -1.87581 3.32095
  742 214.529 -12.9052 2.56882
  743 392.544 78.5247 -41.5181
  744 229.183 -6.05117 6.31135
  745 226.037 3.68292 -24.5383
  746 193.756 -2.22249 65.5064
  747 242.461 19.5549 25.1554
  748 208.516 -16.4745 1.64508
  749 160.203 -12.7534 -21.8753
  750 160.210 -12.7154 21.6877
  751 221.030 24.8490 -3.41803
  752 225.367 -2.59514 21.9686
  753 228.005 -5.40240 -18.8237
  754 214.778 -13.1654 -2.64324
  755 207.560 -18.6678 4.76852
  756 236.739 39.1795 -4.69472
  757 222.179 -19.2281 -3.26696
  758 222.708 -14.0805 7.31454
  759 225.928 -2.79703 1.17760
  760 226.074 -2.71730 -1.17110
  761 304.016 67.0455 2.10614
  762 249.000 -21.1365 -6.46151
  763 231.148 -7.01370 11.8395
  764 241.315 -1.86679 -3.03421
  765 243.147 1.63936 -25.6955
  766 277.613 14.4582 -15.7672
  767 133.520 -0.151795 -1.96335
  768 133.607 -0.149759 1.94208
  769 1.85822 -4.44132 -3.16828
  770 235.921 -0.249564 4.73256
  771 215.370 -0.386211 -17.8806
  772 222.834 -2.08222 15.8329
  773 204.854 24.7786 96.5209
  774 253.750 52.4227 -0.570387
  775 179.940 -13.0240 11.3001
  776 30.2667 0.730346 -11.8932
  777 31.2109 0.541857 12.0228
  778 220.756 -1.57821 -17.8306
  779 180.451 -13.1575 -11.2944
  780 239.875 -2.05764 2.55147
  781 120.704 -5.24393 20.7679
  782 119.643 -5.22678 -20.7851
  783 229.176 -5.87150 -6.14997
  784 144.541 -3.76187 -9.60094
  785 144.613 -3.73597 9.51008
  786 238.832 -2.17758 -7.05809
  787 181.045 -4.91853 -2.98068
  788 181.047 -4.88457 2.98130
  789 260.934 -1.66442 -18.1629
  790 234.140 -2.43416 -25.4170
  791 117.054 -0.781831 -5.41184
  792 117.292 -0.774599 5.34594
  793 5.06536 2.97446 -7.09199
  794 6.14470 3.13554 7.47002
  795 188.117 0.880409 -6.30896
  796 214.011 -24.0520 -11.8474
  797 -2.49988 -1.74257 4.27779
  798 -2.17906 -2.03208 -4.23308
  799 222.857 -4.38278 2.49308
  800 241.902 -18.8278 -8.71689
  801 249.080 36.9960 -19.1390
  802 240.952 -1.84266 -2.42143
  803 521.047 104.137 -97.8782
  804 222.812 -4.36688 -2.46168
  805 336.272 64.4074 4.92134
  806 238.145 6.94288 -26.4744
  807 263.606 19.8625 -23.4949
  808 42.5793 -0.505463 -11.0333
  809 43.4225 -0.571591 11.0120
  810 146.849 -2.19925 5.65782
  811 146.799 -2.21824 -5.71211
  812 139.665 -0.359644 1.05255
  813 139.626 -0.363328 -1.06180
  814 266.232 44.9025 -18.0327
  815 155.624 -1.03081 -1.53817
  816 155.648 -1.01874 1.52856
  817 226.074 -2.27523 -22.9198
  818 329.427 32.6123 26.5585
  819 202.519 4.45521 -13.8731
  820 68.7505 -0.632871 11.8730
  821 68.1297 -0.638580 -11.9709
  822 265.284 6.67591 68.9256
  823 233.751 -4.19633 5.83053
  824 207.472 13.7052 -5.78274
  825 94.4470 -0.169853 8.12421
  826 93.9362 -0.124979 -8.18757
  827 142.900 -0.777998 -2.76062
  828 142.950 -0.766806 2.73293
  829 25.4112 22.7297 19.2144
  830 216.769 5.12862 20.6819
  831 241.673 35.5940 -16.3447
  832 260.653 30.2657 -23.2464
  833 170.014 -6.55170 -7.16638
  834 169.909 -6.49981 7.15355
  835 269.697 57.6719 8.25471
  836 233.500 -1.82471 -0.333512
  837 233.510 -1.81064 0.373887
  838 230.526 -6.85587 -15.1074
  839 192.496 -12.9309 6.34628
  840 212.664 -23.9078 11.9284
  841 250.807 -20.5527 18.6888
  842 190.650 -5.58167 -1.63167
  843 190.645 -5.55849 1.61848
  844 217.968 20.1757 9.39140
  845 204.472 2.73870 -14.9977
  846 56.8932 65.6238 64.5132
  847 208.225 -18.5182 -4.25037
  848 208.868 -9.34371 0.894353
  849 208.981 -9.35936 -0.904645
  850 229.806 -3.36465 24.1415
  851 228.203 -14.9640 -11.4766
  852 203.372 -13.5357 -2.17387
  853 470.449 15.2433 -23.5023
  854 193.219 -18.3824 12.7627
  855 193.072 -18.6255 -12.9792
  856 229.664 -2.71636 12.2858
  857 347.519 89.4004 -18.6645
  858 181.062 -16.5790 -16.1630
  859 200.533 -22.6355 15.1637
  860 181.002 -16.3754 16.0132
  861 196.461 -7.96108 -1.81459
  862 196.452 -7.93153 1.79894
  863 28.4505 12.3305 16.7383
  864 246.914 18.4656 -25.5333
  865 188.309 -7.42724 -3.15254
  866 188.341 -7.34971 3.16479
  867 185.840 -3.10836 -0.376606
  868 185.834 -3.08553 0.373718
  869 205.023 -4.04270 0.106208
  870 204.997 -4.01423 -0.107235
  871 165.549 -3.33741 -3.85789
  872 165.559 -3.29889 3.83979
  873 189.081 -10.0539 -4.86107
  874 189.103 -9.98132 4.88178
  875 4.42764 -2.21606 -1.79396
  876 286.568 53.7616 13.8442
  877 246.448 -8.60087 -20.7079
  878 200.381 -22.3098 -15.3356
  879 216.641 -6.93491 2.42246
  880 216.543 -6.86008 -2.35913
  881 236.146 0.319224 25.9585
  882 257.783 -18.3988 -9.80809
  883 228.524 15.7408 -83.5919
  884 102.430 -1.57019 41.0385
  885 -4.34274 2.39116 -2.62245
  886 -3.81836 2.69576 2.92951
  887 28.2395 13.1155 -17.0793
  888 231.118 -6.56734 9.38611
  889 243.668 -1.50896 -3.97320
  890 218.914 -21.0039 35.3490
  891 102.182 -1.45417 -41.2092
  892 243.974 -19.9103 6.38350
  893 272.568 -8.28663 30.3430
  894 195.240 0.772947 6.69342
  895 224.870 21.3880 16.0272
  896 120.867 -6.85615 30.2748
  897 120.389 -6.91209 -30.4856
  898 145.111 -7.03652 -16.9467
  899 153.407 -7.41069 -52.4480
  900 243.773 -5.65845 23.1181
  901 336.199 78.4774 10.6308
  902 244.556 9.43292 26.0375
  903 231.193 -4.88067 -13.7555
  904 156.690 -6.64055 53.7598
  905 295.374 54.3292 -10.5554
  906 28.6574 24.5450 -23.7647
  907 212.709 -0.443275 -7.20207
  908 145.263 -6.97691 16.7877
  909 177.740 -3.98861 2.64218
  910 177.738 -4.01761 -2.64911
  911 228.543 -14.8851 11.8338
  912 237.894 -1.39684 0.997797
  913 174.529 1.66699 -65.3143
  914 251.090 -0.512190 1.88465
  915 249.068 -0.415623 -2.38827
  916 183.674 1.55821 -5.79252
  917 240.243 -0.959290 -4.20436
  918 178.437 -8.47122 -6.53535
  919 178.557 -8.34100 6.55397
  920 -6.05608 2.13591 -3.51016
  921 -8.26819 1.28743 3.68064
  922 237.894 -1.29028 -1.00663
  923 77.1962 -1.72189 27.6697
  924 76.7084 -1.54981 -27.8341
  925 253.277 37.0341 20.2469
  926 459.256 8.27574 7.30771
  927 238.144 26.5302 21.1194
  928 271.345 -9.67203 7.71969
  929 234.963 -13.0355 18.2002
  930 292.796 61.4618 -8.02241
  931 179.573 0.715566 4.36355
  932 226.175 -5.22866 -3.89878
  933 234.456 12.6083 -25.5412
  934 284.854 8.19567 -5.98614
  935 220.250 -13.5920 -5.84753
  936 110.508 -0.646531 -6.06846
  937 110.633 -0.623801 5.97961
  938 232.602 -5.38987 -10.8680
  939 7.45205 9.55967 1.62438
  940 223.239 -23.1357 -1.53083
  941 191.711 5.58181 -0.598372
  942 290.627 64.1153 -5.33355
  943 45.2690 33.7384 -39.8270
  944 222.853 -1.65546 -14.1884
  945 153.143 -2.65043 -5.26590
  946 153.169 -2.61843 5.21786
  947 1.24415 -6.46779 4.95979
  948 150.617 -11.3318 -24.3267
  949 227.345 -13.1032 -11.1170
  950 139.083 0.297041 -0.432210
  951 139.113 0.298617 0.428944
  952 228.852 27.7945 -12.8603
  953 247.214 -0.637345 -0.382235
  954 247.215 -0.648291 0.497281
  955 150.679 -11.2982 24.1531
  956 229.829 -0.289814 -5.62941
  957 265.304 1.90010 17.5806
  958 235.234 -3.21860 4.53023
  959 36.6020 9.51904 -21.3134
  960 244.194 -1.39603 3.60868
  961 220.222 1.74353 22.1789
  962 232.288 32.2353 11.4431
  963 232.802 2.70164 -26.1547
  964 159.358 -8.68491 -14.4746
  965 251.968 -8.87772 17.4672
  966 159.460 -8.64876 14.3205
  967 7.07035 7.81375 -0.340181
  968 26.6293 4.75021 15.6013
  969 129.235 -2.36177 10.0084
  970 129.072 -2.36496 -10.0698
  971 226.332 -5.33348 4.09613
  972 242.597 42.3332 6.36318
  973 123.216 11.4227 -61.7187
  974 202.971 -12.7331 1.84639
  975 190.482 -19.9872 -19.4448
  976 278.415 53.4633 14.1897
  977 213.950 -3.71262 0.454217
  978 213.943 -3.69062 -0.455270
  979 234.842 -4.25587 -7.85815
  980 215.877 18.5976 -8.66644
  981 497.689 146.182 98.7085
  982 43.9860 2.58235 -20.7030
  983 44.7179 2.14891 20.7535
  984 3.26733 -4.77598 0.810449
  985 216.623 11.9574 17.7881
  986 190.414 -20.1057 19.2943
  987 236.572 -11.1359 -20.6146
  988 257.484 21.0656 25.3175
  989 248.200 -20.0381 -23.2051
  990 363.042 76.5028 24.7768
  991 209.924 -3.33930 -0.0477283
  992 209.897 -3.30964 0.0480915
  993 246.245 -9.98874 19.6766
  994 16.7997 26.6368 28.5654
  995 108.874 -2.35140 14.3630
  996 108.519 -2.32154 -14.5257
  997 130.677 -6.51404 19.5944
  998 130.216 -6.41721 -19.6748
  999 147.443 -6.20480 14.0201
  1000 161.174 -1.34457 -0.704000
  1001 161.194 -1.33418 0.700831
  1002 410.709 128.839 -81.5107
  1003 369.841 92.5921 37.2192
  1004 147.324 -6.23846 -14.1457
  1005 253.686 -1.13546 21.6721
  1006 225.959 23.4509 -15.4472
  1007 159.616 -13.6731 43.4535
  1008 205.708 -24.2906 -23.0436
  1009 235.232 -1.88774 -8.29102
  1010 105.224 7.39415 50.1341
  1011 135.101 -10.3417 34.7314
  1012 206.703 10.5303 -11.1211
  1013 237.742 -4.67656 -24.7133
  1014 307.575 121.333 132.067
  1015 194.821 5.89194 7.89961
  1016 266.936 57.8074 -0.990048
  1017 196.859 7.60943 -74.2911
  1018 199.405 -21.0612 -13.0260
  1019 254.735 -0.217021 -0.953001
  1020 242.997 22.3434 -24.5091
  1021 140.538 -0.961183 3.56699
  1022 140.474 -0.971061 -3.60322
  1023 5.06696 1.82619 -6.98772
  1024 159.413 -7.41599 -12.0497
  1025 134.941 -10.4764 -35.0053
  1026 159.282 -7.39716 11.9085
  1027 232.305 -7.03786 22.8504
  1028 208.251 -12.9094 0.0703573
  1029 218.288 3.98216 -21.4682
  1030 224.553 28.0714 4.50705
  1031 307.430 17.9834 9.57347
  1032 230.354 -17.4682 11.3557
  1033 144.469 -11.6550 -26.6216
  1034 216.331 7.61010 -20.0681
  1035 161.052 -13.4847 -43.6976
  1036 310.689 67.7711 -0.992977
  1037 209.990 13.7324 10.1167
  1038 267.440 -1.62187 -13.7356
  1039 200.653 -21.0654 11.9227
  1040 230.198 -7.25020 17.7287
  1041 228.820 -12.0388 12.9582
  1042 227.568 -11.4017 11.2775
  1043 281.532 35.6536 -18.8754
  1044 226.946 -3.63442 17.8875
  1045 205.347 -24.3589 22.6597
  1046 219.210 -8.92085 3.95766
  1047 144.557 -11.6750 26.4625
  1048 205.561 -15.2161 -2.30369
  1049 118.600 -5.72917 -37.1539
  1050 170.086 -17.7090 29.3784
  1051 231.318 -1.53092 -9.59389
  1052 225.012 -2.52876 -20.2798
  1053 194.763 -15.5095 -7.81545
  1054 118.807 -5.90130 36.8495
  1055 209.186 0.478270 -14.0243
  1056 155.262 -10.4430 -18.7921
  1057 283.381 60.5678 9.04737
  1058 62.1832 10.5208 -35.0372
  1059 490.791 34.7154 47.6089
  1060 112.794 8.59688 -52.5383
  1061 227.561 -18.8314 -7.24545
  1062 155.299 -10.3509 18.6297
  1063 206.858 2.13710 15.6567
  1064 114.827 -2.39098 11.8856
  1065 114.761 -2.45066 -12.0116
  1066 230.115 -6.37447 -21.1632
  1067 245.827 -1.13851 1.51510
  1068 240.428 -0.504766 4.25581
  1069 237.295 7.89943 26.3962
  1070 221.643 -1.66915 19.0222
  1071 172.480 18.2593 80.4059
  1072 256.444 -0.156253 0.472167
  1073 238.597 32.4036 16.8166
  1074 201.063 2.85578 13.4691
  1075 243.672 -0.889017 4.09975
  1076 154.563 -1.73795 -2.92674
  1077 154.588 -1.71781 2.90575
  1078 97.8100 -2.82633 -19.8073
  1079 98.2147 -2.92768 19.6630
  1080 201.697 9.98511 5.64553
  1081 308.660 15.9405 -21.0968
  1082 283.555 -0.750312 -41.6231
  1083 224.008 -0.186350 -5.82182
  1084 170.163 -17.8433 -29.6076
  1085 195.170 -14.7496 6.93460
  1086 225.359 -0.505433 6.07834
  1087 236.634 -17.1204 -13.3156
  1088 145.442 -0.372956 1.76052
  1089 145.409 -0.379309 -1.77252
  1090 227.123 -19.3709 7.24280
  1091 215.724 -4.34191 0.864287
  1092 215.688 -4.34545 -0.849046
  1093 209.815 -21.1793 7.24795
  1094 271.780 -8.85528 -1.72452
  1095 120.192 -0.226560 -3.36744
  1096 120.397 -0.218659 3.32956
  1097 184.293 -11.5547 -50.0621
  1098 195.406 -4.67549 0.825917
  1099 195.426 -4.70367 -0.835059
  1100 118.630 63.0731 88.3108
  1101 272.337 22.2565 -21.1056
  1102 39.2227 19.3604 -26.2137
  1103 235.389 -3.40188 -4.38079
  1104 61.8502 21.5000 -40.1563
  1105 129.188 -8.22683 -25.3126
  1106 256.602 -0.226792 0.282562
  1107 256.714 -0.209417 -0.210513
  1108 231.117 -13.1510 -15.6412
  1109 204.706 -22.9247 -31.9011
  1110 62.2122 8.95522 33.3878
  1111 251.299 24.9105 23.9545
  1112 228.554 -2.18509 -0.406161
  1113 228.577 -2.18753 0.428797
  1114 250.413 -16.2335 38.5893
  1115 257.082 51.7180 9.27317
  1116 151.132 -3.75008 -7.56523
  1117 151.167 -3.73121 7.50678
  1118 115.427 13.3460 62.2718
  1119 217.769 1.07865 -20.7924
  1120 67.6563 22.0321 43.2375
  1121 282.290 -5.04654 -12.0035
  1122 275.650 61.3057 2.87302
  1123 189.018 -15.0789 9.65669
  1124 172.603 0.864395 -0.850113
  1125 241.324 -2.04453 5.30091
  1126 250.210 -0.270311 2.07380
  1127 52.6500 0.110474 -9.93978
  1128 53.4260 0.0832550 9.86904
  1129 194.529 3.17474 -9.96379
  1130 201.780 -5.93979 -0.436643
  1131 201.731 -5.90921 0.432988
  1132 20.9788 31.1854 -30.3481
  1133 33.6164 70.1054 -61.6706
  1134 204.439 -7.99976 0.159323
  1135 204.524 -8.00217 -0.169491
  1136 211.456 -5.05067 0.947544
  1137 211.425 -5.03820 -0.928109
  1138 54.7864 35.1055 43.3813
  1139 165.438 -2.11775 -1.38564
  1140 165.454 -2.10166 1.37812
  1141 208.824 15.7216 -0.239593
  1142 270.471 32.7075 -92.9687
  1143 256.032 44.2778 -15.8793
  1144 233.822 -8.93977 -21.6709
  1145 230.380 -11.4422 -15.8129
  1146 189.150 -15.2231 -9.82401
  1147 188.981 0.586505 6.15118
  1148 213.743 13.2698 -14.8620
  1149 210.652 11.2682 14.1806
  1150 219.063 -8.65654 -3.88910
  1151 208.797 -12.6456 -0.221656
  1152 189.357 -12.3599 -7.18105
  1153 225.914 -1.31090 11.3329
  1154 403.543 40.8222 5.71695
  1155 227.545 -4.82823 20.6545
  1156 227.990 14.9692 22.4248
  1157 210.811 -20.7986 -5.24309
  1158 25.1424 4.37251 -15.0345
  1159 214.768 -9.91899 -2.91360
  1160 140.113 -0.250502 -0.0809201
  1161 140.139 -0.249523 0.0798210
  1162 262.654 -6.95968 11.8696
  1163 250.343 -21.0490 7.95971
  1164 360.329 64.7937 15.4896
  1165 83.3552 -0.195275 -8.31811
  1166 83.8898 -0.176763 8.25168
  1167 191.058 -3.89070 -0.730222
  1168 191.046 -3.86451 0.723767
  1169 215.487 -19.0434 0.133643
  1170 174.209 0.748608 2.77950
  1171 220.753 -15.7146 5.64088
  1172 12.0673 14.3514 -6.55187
  1173 38.8473 19.6138 25.6503
  1174 147.055 -7.88177 48.4131
  1175 254.921 48.7757 -11.3268
  1176 244.601 -0.649738 -3.23465
  1177 257.730 -0.382935 0.201812
  1178 258.001 -0.534508 -0.134110
  1179 146.194 -0.395189 -0.280526
  1180 146.222 -0.392183 0.278073
  1181 234.892 15.0360 25.5189
  1182 349.843 60.1425 -1.27125
  1183 241.818 40.1197 -11.4200
  1184 181.173 -13.2205 49.7370
  1185 146.269 -7.56083 -48.3251
  1186 162.101 -11.0110 -16.7994
  1187 226.429 -6.24022 5.17584
  1188 316.877 69.5783 1.20136
  1189 162.107 -10.9418 16.6584
  1190 231.590 -3.92992 3.92016
  1191 204.925 7.53715 13.5189
  1192 226.844 7.01051 24.4664
  1193 325.105 72.7462 6.71705
  1194 191.444 -5.03724 1.37773
  1195 191.457 -5.06393 -1.38953
  1196 234.514 -4.30278 8.15491
  1197 136.563 -1.52980 5.60919
  1198 136.465 -1.54572 -5.66424
  1199 229.488 -3.00110 -1.81671
  1200 93.8864 55.6695 -85.1916
  1201 198.653 -11.1400 -53.2375
  1202 186.037 -5.91097 -2.70562
  1203 186.053 -5.88171 2.70619
  1204 246.923 -1.06144 1.35102
  1205 233.052 -2.92713 3.14275
  1206 12.3460 15.1838 10.9612
  1207 254.414 -0.246979 1.10717
  1208 29.5572 36.9382 36.6495
  1209 227.447 -3.27946 -2.32094
  1210 -0.339088 -5.64686 -4.93404
  1211 159.857 -15.5850 -37.4290
  1212 159.392 -15.2023 37.0428
  1213 254.411 -0.413626 -1.21734
  1214 216.162 -11.3956 -3.42418
  1215 246.716 -0.957191 -1.40027
  1216 195.824 -6.37554 -1.20080
  1217 195.800 -6.34913 1.18302
  1218 229.336 -2.97755 1.71338
  1219 214.611 -9.72720 2.88302
  1220 206.254 -6.62383 -0.363094
  1221 206.332 -6.64508 0.390074
  1222 246.533 -0.987415 -1.14831
  1223 212.086 -22.2562 -36.0414
  1224 240.984 -1.35887 -1.19031
  1225 228.451 -3.37632 2.47633
  1226 157.145 -1.81022 -2.14704
  1227 157.167 -1.79204 2.13268
  1228 176.391 -2.65436 -1.05160
  1229 176.397 -2.63474 1.04539
  1230 288.773 44.9041 16.0659
  1231 242.472 -18.5622 10.2077
  1232 165.777 -0.690646 61.5923
  1233 130.374 -0.249519 2.15118
  1234 130.262 -0.252071 -2.17449
  1235 229.104 -4.19307 15.5812
  1236 219.553 -3.22216 0.566061
  1237 219.566 -3.21006 -0.565683
  1238 250.709 49.0397 5.27142
  1239 230.772 -24.1127 28.2400
  1240 130.965 -1.92723 7.91257
  1241 130.831 -1.94256 -7.97549
  1242 219.162 -5.27123 2.09490
  1243 219.115 -5.30636 -2.04153
  1244 226.311 -6.15886 -4.99787
  1245 206.359 0.0300599 7.26692
  1246 361.299 89.7080 -28.8378
  1247 230.345 -8.36629 -13.9573
  1248 38.3704 9.38927 21.9434
  1249 238.082 -12.6311 19.3173
  1250 189.010 4.04231 -5.44595
  1251 13.9240 10.5917 7.62193
  1252 315.631 34.4087 -0.959263
  1253 232.349 -10.5235 -19.3993
  1254 189.956 2.62653 8.33601
  1255 130.120 -8.23834 25.2574
  1256 236.319 -18.2407 11.9803
  1257 345.497 64.5156 18.4332
  1258 78.1820 11.7678 42.6140
  1259 237.683 -2.72216 -7.01058
  1260 463.175 5.12530 -4.71757
  1261 479.131 7.24553 21.1203
  1262 512.465 17.6679 -50.0250
  1263 229.919 -7.12365 -17.2209
  1264 230.061 -10.4447 14.8279
  1265 233.876 -16.5955 14.0477
  1266 -6.90970 0.740608 4.42403
  1267 -6.30522 0.575612 -4.79525
  1268 227.857 -25.1260 -12.6247
  1269 233.671 -23.5629 -19.3891
  1270 175.539 1.07730 -3.43720
  1271 226.969 -25.5928 19.4224
  1272 242.265 -11.4395 -19.6368
  1273 4.32276 7.02481 0.409456
  1274 195.979 -3.57634 0.581835
  1275 195.995 -3.60387 -0.583386
  1276 241.222 -1.82952 4.81030
  1277 231.588 -3.85642 -3.69461
  1278 217.713 -23.7791 -6.31438
  1279 198.203 -10.8046 2.72218
  1280 197.177 -10.6573 -3.02987
  1281 233.478 -4.85493 11.0633
  1282 239.201 -8.74108 -22.3678
  1283 14.4614 11.0444 -7.32384
</Section>

newXOutput 32

<Section columns = "stress_xx | stress_yy | stress_xy">
  1 267.764 -0.0115284 0.544420
  2 267.782 -0.00816328 -0.546328
  3 142.265 -0.0672243 -0.197400
  4 -1.81883 -1.80507 -2.61358
  5 490.085 188.689 154.074
  6 485.413 195.828 -154.604
  7 -2.11049 -1.72116 2.77288
  8 142.239 -0.0678011 0.196793
  9 269.736 -0.427581 0.172891
  10 269.121 -0.685129 -0.117725
  11 268.424 -0.437489 0.644322
  12 267.732 -0.620420 0.209352
  13 266.253 -0.515282 1.01656
  14 264.920 -0.525171 0.759541
  15 261.838 -0.466437 1.45070
  16 257.504 -0.296649 2.13037
  17 253.623 -0.330921 2.35684
  18 247.925 -0.490306 2.83333
  19 240.094 -0.0133258 4.16729
  20 232.857 -0.362420 3.94320
  21 224.704 -0.487255 5.53186
  22 212.918 0.348019 4.79505
  23 204.453 0.504400 5.65333
  24 193.416 0.862857 4.40962
  25 185.810 0.873944 4.43892
  26 174.784 1.25375 2.25875
  27 172.475 1.97917 2.41650
  28 171.093 1.60494 -0.711657
  29 173.001 0.899660 -1.57351
  30 176.506 0.895770 -1.92684
  31 184.761 1.14672 -3.85297
  32 192.777 0.904693 -4.88896
  33 204.598 0.177227 -5.80690
  34 214.067 -0.130695 -5.31062
  35 224.208 -0.390087 -5.23719
  36 233.415 -0.281254 -3.70918
  37 241.372 -0.287080 -3.18609
  38 247.967 -0.476980 -2.68699
  39 253.903 -0.331699 -1.89090
  40 257.646 -0.384788 -2.01489
  41 261.260 -0.490099 -1.47680
  42 264.709 -0.587373 -0.667023
  43 266.488 -0.467674 -0.770725
  44 267.458 -0.271153 -0.489431
  45 266.839 -0.124039 -0.445433
  46 269.416 -0.696016 0.0728767
  47 269.830 -0.447466 -0.178476
  48 260.614 -0.127091 -0.336157
  49 254.523 -0.985083 -0.594163
  50 247.120 -1.47215 -0.404786
  51 238.116 -2.23285 -0.550109
  52 229.611 -2.46139 -0.690122
  53 220.556 -3.13456 -0.652876
  54 212.560 -3.51794 -0.373104
  55 205.549 -3.97872 -0.152894
  56 197.469 -3.31344 -0.152706
  57 188.158 -3.11876 -0.229030
  58 179.177 -2.48224 -0.0825758
  59 170.661 -1.60393 -0.0363074
  60 162.556 -1.15774 0.00290247
  61 155.430 -0.612769 0.0667541
  62 148.119 -0.179151 -0.227844
  63 142.364 0.196141 0.266384
  64 139.805 0.578821 0.172068
  65 141.618 -0.00329896 0.419824
  66 139.724 -0.0898170 0.502612
  67 137.999 -0.128694 0.628073
  68 135.639 -0.0257819 0.826785
  69 132.659 -0.0152952 1.04732
  70 130.508 -0.195164 2.04300
  71 124.143 0.183315 2.23574
  72 119.697 -0.0196289 2.57351
  73 113.074 -0.125706 2.91548
  74 105.427 -0.207457 3.55349
  75 95.8771 -0.0522284 4.31437
  76 84.2307 0.0501772 4.74582
  77 74.2599 -0.117638 6.77513
  78 54.4057 0.640534 6.36894
  79 40.9849 0.553724 6.74272
  80 24.9984 -0.102463 7.44354
  81 11.8181 1.27335 7.69197
  82 -3.13955 1.87947 4.52480
  83 -13.8961 1.90334 1.49325
  84 -13.2395 1.80925 -0.855697
  85 -12.3548 1.49167 -3.76573
  86 -7.23574 -0.520494 -3.53532
  87 -0.914779 -6.94694 -3.88943
  88 0.637058 -12.8608 -4.91539
  89 1.84138 -20.5690 -2.86490
  90 4.13155 -21.4959 -0.0983233
  91 8.80277 -6.75667 11.2098
  92 26.5860 37.8857 39.2731
  93 159.878 143.331 137.102
  94 591.841 87.7755 99.8424
  95 531.668 12.6244 32.7447
  96 492.863 5.18036 10.0205
  97 478.507 4.36970 0.795390
  98 486.004 5.85471 -8.63872
  99 530.239 11.6905 -25.8887
  100 629.126 42.3773 -86.5586
  101 94.4717 145.689 -114.215
  102 19.9320 25.1502 -32.2657
  103 9.58870 -5.79196 -11.6472
  104 3.85289 -21.6397 -1.70125
  105 1.03377 -15.7636 3.31665
  106 1.34544 -16.1841 4.28250
  107 0.0458822 -6.02735 4.30400
  108 -7.54709 -0.356324 3.36394
  109 -12.7508 1.11919 3.29697
  110 -13.9331 2.20325 0.934113
  111 -14.3558 1.87847 -1.36687
  112 -4.12856 1.92646 -4.22657
  113 10.9348 1.28485 -7.32649
  114 24.0949 0.0309412 -7.32058
  115 40.0565 0.599054 -6.75907
  116 53.5620 0.658026 -6.42070
  117 73.6048 -0.120420 -6.83595
  118 83.6687 0.0565051 -4.79483
  119 95.3871 -0.0500164 -4.37151
  120 105.174 -0.228735 -3.58279
  121 112.739 -0.120236 -2.92470
  122 119.445 -0.0112920 -2.60219
  123 123.938 0.180869 -2.26246
  124 130.363 -0.196975 -2.06570
  125 132.545 -0.0164737 -1.06135
  126 135.555 -0.0268889 -0.838365
  127 137.937 -0.130512 -0.637290
  128 139.678 -0.0913713 -0.509077
  129 141.582 -0.00466574 -0.423983
  130 139.776 0.577988 -0.174028
  131 142.336 0.195753 -0.267594
  132 148.090 -0.180733 0.227131
  133 155.402 -0.616719 -0.0682927
  134 162.532 -1.16652 -0.00471615
  135 170.643 -1.61615 0.0345460
  136 179.168 -2.49983 0.0808616
  137 188.159 -3.14088 0.227702
  138 197.480 -3.33889 0.151447
  139 205.569 -4.00693 0.152403
  140 212.585 -3.54596 0.374077
  141 220.590 -3.16005 0.655703
  142 229.639 -2.47917 0.700331
  143 238.134 -2.24871 0.598578
  144 247.161 -1.38497 0.414018
  145 254.705 -0.956364 0.581276
  146 260.652 -0.167244 0.331305
  147 231.960 -21.7805 -2.49084
  148 231.774 -21.4893 2.57461
  149 242.641 34.9343 -12.4145
  150 259.393 15.3219 26.5285
  151 196.365 -18.8147 -42.5792
  152 197.930 -18.8005 41.1752
  153 189.904 -8.16290 4.83101
  154 189.925 -8.27995 -4.83671
  155 275.620 9.84618 -20.7454
  156 231.336 -8.25568 5.76444
  157 231.240 -8.05147 -5.69095
  158 299.059 67.1015 3.53515
  159 236.343 -0.377928 -25.6951
  160 174.170 -13.8566 -18.9795
  161 174.165 -13.7372 18.8021
  162 236.899 -5.33267 23.2977
  163 224.255 16.3180 15.2068
  164 92.0458 15.0364 -50.7805
  165 102.269 14.2272 53.5423
  166 291.641 3.12308 3.84509
  167 237.759 -9.06721 -16.3908
  168 315.517 69.3516 -2.51785
  169 213.784 -6.01065 0.335649
  170 213.736 -5.98929 -0.315251
  171 241.047 -2.79429 -2.53985
  172 241.850 -2.49477 2.20186
  173 166.481 -2.48165 -2.95036
  174 166.498 -2.45505 2.93291
  175 259.780 -7.13443 54.0656
  176 216.876 8.93277 -16.3654
  177 141.318 -10.6664 -30.7415
  178 141.745 -10.5872 30.5280
  179 158.517 -5.33380 -9.95962
  180 158.528 -5.27072 9.87909
  181 238.969 -6.21374 13.9242
  182 216.883 -14.9339 0.160547
  183 216.093 -14.8224 0.203031
  184 247.416 -23.8778 -3.07822
  185 248.672 -22.7468 -0.0210906
  186 342.512 80.5028 -10.5732
  187 247.485 39.8706 11.6294
  188 248.288 15.2638 -26.4830
  189 259.019 -2.54962 -63.0575
  190 246.830 -13.8947 -18.8885
  191 248.924 -9.89849 22.0875
  192 207.148 -23.5480 20.5034
  193 207.222 -23.3862 -20.4346
  194 220.803 2.77188 19.7121
  195 100.114 -2.37093 -37.5117
  196 100.372 -2.59380 37.2704
  197 387.352 58.2299 8.29312
  198 233.637 -13.8855 10.5104
  199 242.552 -4.37063 -9.14377
  200 191.035 -4.73435 -2.14070
  201 191.036 -4.70798 2.13255
  202 232.137 -3.00146 -17.9127
  203 264.717 38.9288 -21.3886
  204 220.363 19.7559 -3.05338
  205 142.389 -5.17101 14.1104
  206 142.165 -5.18921 -14.2236
  207 246.482 -2.62861 5.08384
  208 239.073 4.49876 26.3988
  209 193.905 -14.2593 -8.84038
  210 192.535 -13.5046 9.08878
  211 282.636 41.9141 19.9639
  212 334.115 44.8421 5.62183
  213 21.8490 17.3387 -13.7173
  214 20.1828 16.0291 11.6232
  215 136.573 38.8482 90.2047
  216 231.264 -15.3486 -8.24861
  217 247.433 -2.52660 -4.59670
  218 218.200 1.87165 -18.1453
  219 151.751 -1.58866 -4.40524
  220 151.797 -1.57039 4.36305
  221 207.599 -9.79236 -1.45610
  222 207.694 -9.84912 1.33616
  223 234.253 -3.13630 15.2778
  224 271.200 -15.7432 4.81834
  225 267.881 55.0327 -6.25405
  226 210.086 -20.3738 -9.31096
  227 266.700 -4.61860 17.5460
  228 226.785 -3.71635 1.02671
  229 226.791 -3.68370 -1.02503
  230 208.487 -20.2750 9.71912
  231 239.371 -15.1398 15.4669
  232 339.061 42.6212 -19.4126
  233 73.8750 44.0172 -64.8245
  234 200.852 6.96258 3.88381
  235 239.725 21.1546 22.2029
  236 256.284 -1.76453 -23.8879
  237 239.128 -8.57006 -21.8831
  238 125.632 -4.14034 -17.7386
  239 126.083 -4.07627 17.6747
  240 239.597 -2.83894 -11.8886
  241 228.411 -5.70581 3.13274
  242 228.304 -5.69571 -3.03733
  243 46.8147 4.47076 -23.6752
  244 47.6106 3.92151 23.6007
  245 255.326 -22.2993 -18.6458
  246 252.774 -0.790592 0.739490
  247 253.066 -0.806863 -0.791772
  248 233.947 19.3827 -20.2900
  249 205.034 3.86191 11.8208
  250 436.029 69.8673 46.7533
  251 432.631 49.2628 -29.3885
  252 310.705 67.3695 -0.722060
  253 193.796 -9.26882 56.8561
  254 177.653 -5.93834 -59.5180
  255 203.286 -4.17318 -0.662857
  256 203.265 -4.14416 0.656968
  257 167.758 -4.60841 6.00242
  258 167.762 -4.67377 -6.06074
  259 245.995 -2.57088 7.42929
  260 238.427 -16.9406 -12.8841
  261 152.365 -0.327808 -1.01610
  262 152.396 -0.322460 1.00894
  263 235.414 -9.46655 -10.2006
  264 98.1287 -3.25088 -24.5511
  265 98.5764 -3.26178 24.3642
  266 238.229 -10.2806 17.6529
  267 181.369 -19.2516 34.2177
  268 181.856 -19.5976 -34.1150
  269 203.924 7.71899 -5.50128
  270 175.935 -2.77317 -1.98197
  271 175.947 -2.75313 1.97325
  272 222.494 -0.579110 14.5911
  273 266.644 48.9968 14.8751
  274 140.996 -1.79408 7.53028
  275 140.886 -1.80971 -7.59946
  276 245.042 -20.4078 9.39241
  277 226.843 -25.3979 -22.4588
  278 253.620 -1.12266 2.39132
  279 174.363 -10.4900 -12.9019
  280 174.043 -10.3696 12.8477
  281 314.256 31.4028 79.8865
  282 145.956 -11.7492 40.9833
  283 236.041 33.2018 -1.32057
  284 300.606 32.9479 -13.7661
  285 225.866 -17.4829 3.69228
  286 226.976 -26.0996 20.1494
  287 146.426 -11.5510 -41.4685
  288 26.7807 32.9803 29.6433
  289 235.453 -9.50341 10.3841
  290 309.814 40.2003 11.1323
  291 255.731 -1.00046 -2.07292
  292 229.979 8.01504 -23.3507
  293 227.625 -12.8548 5.89491
  294 222.801 -18.8346 -0.186387
  295 229.078 10.4920 22.4770
  296 243.838 -20.4212 -8.47731
  297 346.173 67.6344 -5.54941
  298 227.562 -12.3524 -5.64647
  299 189.242 53.5439 -110.907
  300 232.920 -24.6688 -3.61708
  301 231.245 -25.3379 6.29335
  302 168.873 -15.3808 -26.9226
  303 151.005 -0.622555 -2.22361
  304 151.044 -0.611794 2.20403
  305 168.935 -15.3902 26.7681
  306 246.083 -0.395715 -26.6795
  307 266.425 -11.0159 -12.0255
  308 201.792 -12.2492 -4.44303
  309 201.647 -12.2765 4.53041
  310 242.806 -20.8942 36.3755
  311 241.626 -1.89130 9.00514
  312 295.089 1.05327 11.7607
  313 197.501 -7.03533 -2.39235
  314 197.511 -7.00905 2.37619
  315 179.320 -4.76226 -3.87858
  316 179.317 -4.71571 3.87127
  317 202.830 2.67161 -11.4368
  318 262.550 19.2408 -25.7775
  319 408.508 109.798 -51.4137
  320 239.621 -1.98887 -0.866023
  321 239.474 -1.96103 0.886718
  322 127.253 -0.102041 51.1351
  323 178.509 -8.22937 -8.43322
  324 178.153 -8.19763 8.45343
  325 127.233 -0.390346 -50.9410
  326 249.791 29.5203 -21.7339
  327 280.692 13.8266 19.8276
  328 242.872 -17.3373 -40.4983
  329 222.433 -8.55721 2.76137
  330 222.200 -8.49080 -2.66056
  331 237.830 -4.83342 -5.04601
  332 222.666 -0.437581 -13.6509
  333 250.749 1.11390 26.2037
  334 250.755 -1.68325 -5.14244
  335 149.055 -9.18394 20.5687
  336 148.891 -9.23770 -20.7373
  337 232.746 -0.535402 24.3621
  338 141.722 -1.21592 -4.44711
  339 141.814 -1.20430 4.40318
  340 239.538 -5.42150 7.72414
  341 287.084 58.7980 -11.2986
  342 237.695 -4.87352 5.22720
  343 252.655 31.7920 21.8390
  344 241.970 -4.47193 25.4236
  345 190.763 -3.61258 0.754299
  346 190.767 -3.63657 -0.760403
  347 228.519 -0.830395 -21.6026
  348 303.680 63.9627 7.67509
  349 251.570 46.2839 0.457425
  350 154.313 18.0032 -76.3009
  351 15.1346 6.94202 -10.0515
  352 16.6872 7.50480 10.8553
  353 -0.976536 1.66329 4.82390
  354 0.00487765 0.866173 -5.02010
  355 447.481 31.0235 10.7571
  356 208.542 -17.0176 -5.22503
  357 239.745 -5.23287 -7.53980
  358 215.822 -3.74918 0.415260
  359 215.797 -3.71701 -0.416287
  360 230.360 25.4474 -10.9805
  361 196.821 -20.1506 16.8493
  362 16.8456 24.9405 -18.1164
  363 197.027 -20.1500 -17.1750
  364 233.451 26.5610 11.6860
  365 238.968 -6.31563 -13.2821
  366 253.801 -14.1153 -16.3148
  367 269.690 57.2175 4.32279
  368 254.440 -15.8329 13.6619
  369 103.263 -2.63749 16.4651
  370 102.617 -2.58707 -16.5793
  371 57.9648 1.48577 -22.7029
  372 58.6196 1.24361 22.5981
  373 206.165 0.617139 11.5821
  374 396.796 115.055 43.4104
  375 247.362 -1.52220 -6.47326
  376 191.600 -16.3157 -12.8467
  377 191.426 -16.2686 12.8280
  378 237.390 -5.43743 -16.6999
  379 271.385 -13.1168 3.12890
  380 208.534 -16.9998 5.40157
  381 298.632 1.79523 -23.0457
  382 166.264 -1.40173 -0.736618
  383 166.285 -1.38918 0.730335
  384 233.198 -1.34088 -10.6015
  385 123.909 -1.84905 -10.7609
  386 123.993 -1.90687 10.6242
  387 279.376 35.6522 -22.0814
  388 150.546 10.6886 70.7868
  389 218.297 -11.4755 1.61400
  390 218.514 -11.4534 -1.62577
  391 256.329 43.4928 -13.8791
  392 242.988 -7.17445 -24.1636
  393 244.275 -24.9205 19.4250
  394 202.564 -5.40277 -1.01232
  395 202.537 -5.37411 0.999560
  396 234.592 -18.0856 8.88256
  397 253.262 -1.15770 3.83592
  398 156.011 -5.81936 -12.5114
  399 156.071 -5.81751 12.3976
  400 237.751 7.96973 -26.0183
  401 224.796 -4.81551 1.56392
  402 224.787 -4.82578 -1.53198
  403 232.169 -2.72331 19.9138
  404 215.634 15.6537 5.24184
  405 241.094 -10.1433 21.1843
  406 349.604 73.4024 12.4926
  407 115.191 -6.21992 -32.8970
  408 115.521 -6.22284 32.6350
  409 51.2141 27.6990 -38.7491
  410 259.525 -0.695789 1.09545
  411 129.159 -1.14782 -6.80186
  412 129.338 -1.12347 6.73973
  413 237.603 -6.16167 16.3816
  414 215.470 -23.4259 10.7567
  415 244.005 -2.93773 3.58106
  416 247.873 12.6031 27.2099
  417 53.7811 29.4929 40.4803
  418 215.806 -23.2998 -9.83753
  419 223.064 -20.7619 -1.31594
  420 71.2390 -1.43488 -20.6347
  421 71.8100 -1.49119 20.4860
  422 170.989 -13.5951 -49.4373
  423 256.366 -3.79221 23.3412
  424 170.300 -13.8112 48.9881
  425 236.665 -13.2594 -13.9337
  426 218.784 14.6993 -11.5136
  427 236.715 -10.1822 13.1921
  428 255.578 -1.07635 -2.62261
  429 7.49356 7.80711 3.12741
  430 51.0745 58.3827 57.5432
  431 227.122 -0.839969 10.1930
  432 189.260 2.52766 4.99491
  433 192.687 3.09764 -6.78603
  434 164.407 -2.80547 -4.23291
  435 164.420 -2.76868 4.20246
  436 233.367 -18.0770 -8.19057
  437 235.468 -4.59402 -22.3313
  438 190.330 3.49122 -1.84390
  439 349.657 83.1697 16.0382
  440 47.3088 15.9692 -28.9813
  441 52.2482 14.6607 31.0272
  442 218.096 -7.76095 1.41063
  443 218.010 -7.73941 -1.34993
  444 290.965 64.6435 -0.922122
  445 183.352 73.6966 113.363
  446 280.963 -4.04366 -5.20244
  447 159.652 -8.45213 -16.9783
  448 159.724 -8.39163 16.8257
  449 160.388 -3.68045 6.64936
  450 160.362 -3.70881 -6.71434
  451 217.543 4.77374 -18.6647
  452 260.926 -0.318998 -0.735750
  453 211.216 9.61869 10.4564
  454 268.574 33.1908 23.6936
  455 223.440 -16.6040 -2.80842
  456 243.922 -2.78919 -3.47582
  457 256.669 -0.968688 2.41670
  458 260.193 -0.337847 0.421380
  459 260.420 -0.387972 -0.315359
  460 140.582 -0.276027 1.63463
  461 140.513 -0.280016 -1.65312
  462 244.700 -15.5095 16.8308
  463 219.673 8.61597 18.0719
  464 230.090 0.918674 -23.7386
  465 241.045 -5.01591 9.92994
  466 350.793 57.1723 -66.5656
  467 241.491 -13.3686 -18.6650
  468 1.92181 4.50779 1.61067
  469 1.91840 4.56459 -0.416858
  470 190.501 -10.8986 7.11706
  471 189.846 -10.7572 -7.03762
  472 302.039 5.01060 35.3710
  473 83.8976 75.2630 -85.4788
  474 238.079 -0.701552 7.96895
  475 271.188 -15.8569 -19.7453
  476 142.628 -8.31529 23.8524
  477 289.712 51.4096 -16.2182
  478 238.002 -12.8509 15.7032
  479 199.158 -9.59329 -3.34343
  480 199.334 -9.43125 3.33152
  481 206.111 1.07634 -10.2330
  482 142.174 -8.28489 -24.0103
  483 211.551 0.0634257 10.3039
  484 203.755 -23.2826 -30.4117
  485 203.235 -23.3182 30.5084
  486 245.877 -1.59138 7.13752
  487 222.196 20.9211 2.16792
  488 227.597 3.66667 77.2096
  489 334.089 68.3253 -0.430141
  490 230.410 -3.80417 1.72757
  491 230.426 -3.78969 -1.78013
  492 175.838 -3.19233 -2.63570
  493 175.847 -3.16459 2.62442
  494 92.5363 4.40296 42.8200
  495 239.023 -11.4814 -18.2196
  496 216.525 -4.67497 0.396548
  497 216.503 -4.65688 -0.391058
  498 188.289 -19.9958 24.9016
  499 94.3583 5.79746 -43.9227
  500 239.506 -19.4918 -9.35176
  501 3.96263 0.532451 2.17593
  502 207.908 10.6642 0.755896
  503 231.303 -2.58597 -0.577594
  504 231.294 -2.62384 0.566420
  505 188.420 -19.9648 -25.1012
  506 271.493 -14.0879 25.5688
  507 268.343 9.74860 24.2285
  508 248.021 -1.59003 -1.75107
  509 238.771 -19.7701 9.46975
  510 147.431 -0.165591 -0.283223
  511 147.460 -0.164170 0.280500
  512 238.231 -9.12103 -19.3464
  513 230.077 17.0161 19.8170
  514 265.010 6.54491 -23.9155
  515 146.545 -0.256922 -0.916911
  516 146.580 -0.253488 0.910003
  517 466.487 67.3540 -60.4509
  518 239.585 28.5733 17.4941
  519 248.249 -1.45361 1.56328
  520 223.570 -21.2163 1.85189
  521 187.078 -6.26753 3.87760
  522 187.080 -6.31745 -3.86978
  523 260.843 -15.8516 8.04052
  524 250.237 -4.96772 -24.5000
  525 279.592 55.2655 13.4277
  526 232.122 3.98005 24.6040
  527 234.830 -4.43388 3.26725
  528 228.330 -24.3139 -29.1259
  529 236.308 -5.82104 18.9886
  530 461.418 21.1121 -8.48328
  531 258.975 -19.4986 -1.45754
  532 246.478 -1.53322 -0.435413
  533 246.535 -1.63884 0.390214
  534 466.191 31.2982 29.8065
  535 226.189 -0.0920218 20.9249
  536 318.857 53.1895 -6.85209
  537 238.911 -6.43575 -9.69376
  538 105.941 -1.02852 -7.36567
  539 106.288 -0.979354 7.28761
  540 160.879 -15.0960 -34.3312
  541 160.997 -14.8419 34.0681
  542 234.704 -4.24434 -3.23369
  543 255.216 9.37836 -26.6917
  544 224.115 -15.2605 3.66186
  545 240.671 27.6210 -18.1723
  546 243.166 -2.77067 9.61028
  547 305.953 14.9597 -2.08183
  548 207.443 -7.12953 -0.746104
  549 207.375 -7.10173 0.733251
  550 225.738 -10.6370 4.47103
  551 334.264 65.7529 -3.40678
  552 237.459 10.3879 25.5653
  553 101.166 26.0941 63.4381
  554 230.437 -13.8502 51.3218
  555 305.814 14.0604 -56.3668
  556 242.810 20.0837 -23.8276
  557 216.040 -18.6202 -44.4394
  558 233.878 -25.6026 -8.09834
  559 244.503 -24.7082 -12.2083
  560 31.5990 40.5370 -38.4613
  561 245.706 -3.02686 -6.01253
  562 370.552 72.1925 -20.5390
  563 226.969 -10.1920 -4.92329
  564 228.919 -7.39894 4.05624
  565 228.704 -7.22572 -3.90321
  566 156.166 -0.954136 -2.00968
  567 156.196 -0.941721 1.99483
  568 21.3916 2.36159 -12.3793
  569 22.6639 2.47290 12.6729
  570 116.150 -5.47166 -25.1262
  571 117.062 -5.50031 25.0792
  572 232.039 -12.5423 -8.97230
  573 236.664 -25.7056 8.81446
  574 243.293 -23.0562 2.43514
  575 198.562 -3.51951 -0.678162
  576 198.549 -3.49267 0.674259
  577 188.746 -19.7597 -38.0591
  578 211.820 -17.3223 47.0680
  579 184.090 -18.5742 38.2882
  580 238.512 -5.27811 -24.0255
  581 147.942 -2.54711 7.53529
  582 147.870 -2.57433 -7.60241
  583 226.846 12.4980 -19.8898
  584 227.301 -0.396261 -9.25194
  585 284.538 62.0661 -6.11812
  586 184.949 -2.84757 -0.693956
  587 184.952 -2.82749 0.690280
  588 242.965 -0.703215 -5.25439
  589 166.496 -5.75100 -8.27445
  590 166.494 -5.72907 8.19782
  591 136.533 6.44289 60.8372
  592 236.475 -10.8388 -13.3444
  593 131.113 -6.86715 43.6633
  594 232.376 -12.0101 9.14661
  595 244.986 -3.37804 6.62416
  596 242.043 -2.11341 -1.56361
  597 168.302 -2.15573 -1.84571
  598 168.320 -2.13736 1.83485
  599 272.828 54.6851 -12.0370
  600 131.023 -6.59672 -43.8372
  601 231.613 -9.98313 -7.36913
  602 208.449 -3.85414 -0.296933
  603 208.426 -3.82395 0.295587
  604 394.575 53.2510 -9.32869
  605 136.644 -0.919987 4.17369
  606 136.524 -0.929133 -4.21528
  607 214.846 4.87230 17.0143
  608 309.993 25.5287 -5.14570
  609 145.597 1.14366 -60.4119
  610 73.6251 1.97791 -32.7535
  611 74.2588 1.54173 32.5783
  612 182.318 -10.7796 10.1736
  613 184.275 -11.0970 -9.85976
  614 312.722 62.9245 6.84781
  615 241.017 -2.19437 1.42534
  616 205.165 5.69202 -10.2599
  617 256.948 46.3399 10.9742
  618 255.979 48.0966 -7.29570
  619 210.393 -11.7129 -1.27365
  620 212.029 -11.4418 0.513417
  621 151.196 32.7952 -87.0720
  622 180.094 -6.27468 -5.60390
  623 180.106 -6.20080 5.58182
  624 463.536 94.7943 71.2967
  625 238.294 -7.77607 20.8296
  626 134.619 -4.87448 -16.1015
  627 373.444 84.5959 55.4792
  628 134.939 -4.84579 16.0351
  629 228.637 -8.78293 -60.0845
  630 159.103 -0.841594 -0.741998
  631 159.129 -0.834211 0.737807
  632 197.522 1.72573 8.94484
  633 88.7576 -1.36044 -14.4718
  634 89.2793 -1.36369 14.3526
  635 207.649 -14.7805 3.91400
  636 218.000 -17.5112 -0.600052
  637 258.071 -0.520735 -2.19167
  638 142.926 -0.254368 1.19677
  639 142.875 -0.258758 -1.21042
  640 195.514 -4.44335 -0.976888
  641 195.504 -4.41655 0.968032
  642 225.489 -24.9704 29.4639
  643 258.642 28.9107 -24.1549
  644 171.029 -8.12292 -10.6787
  645 170.898 -7.98402 10.5970
  646 203.735 -14.7628 -5.69449
  647 322.217 70.3714 1.26058
  648 241.827 -23.3605 -1.07940
  649 209.267 -5.00006 -0.292967
  650 209.234 -4.97323 0.293905
  651 289.073 31.5255 18.9075
  652 242.150 -3.43105 -10.4486
  653 212.823 -0.287016 -8.39778
  654 97.7241 -3.32919 -31.5436
  655 98.0393 -3.42723 31.2756
  656 203.249 -17.6432 -9.43097
  657 305.616 67.7281 0.199665
  658 236.135 32.0185 -7.87922
  659 155.419 -1.48609 -3.72615
  660 155.453 -1.46512 3.69368
  661 220.843 -6.20285 -1.37100
  662 220.887 -6.21191 1.42073
  663 414.741 54.2548 23.8338
  664 262.383 -0.658868 0.608978
  665 252.900 -0.952948 3.74076
  666 251.845 -0.979280 -4.36065
  667 238.787 -22.1986 4.54329
  668 174.269 -2.09273 -0.922858
  669 174.283 -2.07700 0.918216
  670 254.494 40.9139 16.8615
  671 327.804 73.0166 -3.46963
  672 178.087 -13.3941 -15.1353
  673 178.026 -13.2586 15.0535
  674 223.854 -23.0902 -3.98671
  675 235.610 13.9951 -24.0465
  676 281.253 0.669580 11.2282
  677 185.067 -3.50504 -1.78890
  678 185.070 -3.48099 1.78047
  679 160.098 -14.1132 -31.0032
  680 236.500 -22.8498 -2.32790
  681 196.105 -21.7641 27.4224
  682 93.3209 29.6171 -61.1757
  683 182.728 -17.0395 21.1430
  684 220.301 0.0570491 7.77744
  685 160.240 -13.9508 30.7861
  686 231.474 -10.1815 7.45999
  687 182.800 -16.9708 -21.3460
  688 185.974 2.36547 1.87295
  689 143.695 -3.97325 11.4163
  690 143.565 -3.97886 -11.5023
  691 196.232 -22.3298 -27.7337
  692 243.043 -15.9722 -16.2812
  693 222.721 -3.04782 -0.348409
  694 222.756 -3.08157 0.349943
  695 248.501 -15.7785 16.1937
  696 225.618 -23.5882 4.86859
  697 274.452 25.1625 23.6498
  698 247.333 -4.59660 25.1740
  699 237.988 -8.49067 15.4483
  700 226.511 18.5950 -15.0864
  701 273.447 46.0942 18.6751
  702 235.868 -3.24014 -14.8546
  703 235.397 -7.74035 8.12355
  704 242.563 38.0727 4.26344
  705 239.349 -4.01492 13.0012
  706 74.8805 50.7922 64.0531
  707 222.887 -25.6179 -16.7078
  708 258.098 4.72001 25.6608
  709 260.834 -8.04433 -18.5679
  710 261.012 -0.297256 1.23075
  711 237.902 -8.11352 -12.2396
  712 223.191 -25.8213 15.1153
  713 435.669 38.5607 -6.47349
  714 130.958 -0.592680 4.37144
  715 130.796 -0.599350 -4.41531
  716 241.568 -4.30216 -5.80058
  717 262.617 -0.222032 -1.19440
  718 202.859 -17.9262 9.48284
  719 244.182 -9.04499 22.9192
  720 373.488 88.0951 -25.6380
  721 231.437 -16.7662 7.74153
  722 257.054 -16.8827 -9.99469
  723 235.490 -7.52819 -7.99564
  724 262.619 -0.401638 -0.406298
  725 238.027 -0.00795509 26.0226
  726 10.7824 9.16646 13.2263
  727 270.203 -10.5655 -38.5855
  728 293.561 17.2216 12.3494
  729 244.203 -24.9096 10.7849
  730 172.480 -4.24425 4.60258
  731 172.484 -4.30492 -4.62735
  732 229.898 113.366 -119.107
  733 248.624 -16.3990 -15.0276
  734 185.223 0.903713 -3.57936
  735 217.229 1.16986 16.6218
  736 239.605 -11.9480 18.5312
  737 229.669 -19.3546 4.22178
  738 239.399 -21.7718 -31.6530
  739 228.221 -18.0594 -4.61652
  740 270.443 -12.9593 -4.04780
  741 248.964 -1.94295 3.40857
  742 221.496 -13.3236 2.60789
  743 405.077 81.0275 -42.8674
  744 236.599 -6.25258 6.47845
  745 233.404 3.80391 -25.2763
  746 200.015 -2.29067 67.6733
  747 250.340 20.1879 25.9040
  748 215.295 -17.0070 1.74359
  749 165.471 -13.1649 -22.6069
  750 165.479 -13.1258 22.4138
  751 228.264 25.6625 -3.52118
  752 232.705 -2.68066 22.6241
  753 235.416 -5.57974 -19.3785
  754 221.752 -13.5925 -2.68431
  755 214.308 -19.2710 4.96896
  756 244.464 40.4500 -4.83411
  757 229.382 -19.8515 -3.31501
  758 229.929 -14.5383 7.49772
  759 233.234 -2.89481 1.20384
  760 233.385 -2.81260 -1.19709
  761 313.843 69.1921 2.13013
  762 257.020 -21.8203 -6.74476
  763 238.635 -7.24521 12.1742
  764 249.088 -1.93386 -3.11342
  765 251.030 1.69048 -26.4506
  766 286.554 14.9334 -16.1778
  767 138.008 -0.155413 -2.02959
  768 138.098 -0.153317 2.00770
  769 1.92582 -4.56781 -3.25651
  770 243.567 -0.259488 4.87046
  771 222.414 -0.396483 -18.4200
  772 230.096 -2.15040 16.3052
  773 211.421 25.6167 99.6821
  774 262.012 54.1125 -0.587182
  775 185.834 -13.4422 11.6944
  776 31.3467 0.752668 -12.2954
  777 32.3196 0.558122 12.4292
  778 227.958 -1.62932 -18.3649
  779 186.360 -13.5797 -11.6886
  780 247.603 -2.13128 2.61672
  781 124.731 -5.41346 21.4549
  782 123.636 -5.39568 -21.4721
  783 236.591 -6.06720 -6.31259
  784 149.349 -3.88020 -9.92209
  785 149.423 -3.85357 9.82858
  786 246.549 -2.25312 -7.25794
  787 186.987 -5.07545 -3.09261
  788 186.990 -5.04053 3.09329
  789 269.353 -1.71778 -18.6610
  790 241.744 -2.51474 -26.1709
  791 121.001 -0.806167 -5.59053
  792 121.245 -0.798707 5.52267
  793 5.28817 3.07202 -7.34084
  794 6.40083 3.23857 7.73150
  795 194.349 0.911111 -6.50201
  796 220.949 -24.8313 -12.2832
  797 -2.57812 -1.79612 4.41436
  798 -2.24822 -2.09639 -4.36959
  799 230.074 -4.53075 2.55075
  800 249.719 -19.4397 -8.92408
  801 257.178 38.1930 -19.7029
  802 248.711 -1.90914 -2.48359
  803 537.338 107.458 -100.939
  804 230.027 -4.51444 -2.51855
  805 347.095 66.4589 5.10132
  806 245.881 7.16733 -27.2620
  807 272.129 20.5062 -24.1668
  808 44.0753 -0.522923 -11.4032
  809 44.9439 -0.591148 11.3812
  810 151.740 -2.26771 5.84936
  811 151.688 -2.28725 -5.90522
  812 144.356 -0.369867 1.08866
  813 144.315 -0.373662 -1.09817
  814 274.863 46.3528 -18.5460
  815 160.798 -1.06149 -1.59216
  816 160.823 -1.04908 1.58228
  817 233.434 -2.34948 -23.6045
  818 339.913 33.7328 27.5360
  819 209.181 4.60654 -14.2969
  820 71.1098 -0.653569 12.2674
  821 70.4704 -0.659476 -12.3683
  822 273.750 6.92718 71.2080
  823 241.305 -4.33829 5.98708
  824 214.288 14.1597 -5.95912
  825 97.6535 -0.174396 8.39188
  826 97.1273 -0.128065 -8.45710
  827 147.680 -0.801040 -2.85498
  828 147.732 -0.789518 2.82650
  829 26.2757 23.4955 19.8905
  830 223.859 5.29897 21.3090
  831 249.544 36.7475 -16.8310
  832 269.098 31.2456 -23.9197
  833 175.613 -6.75999 -7.41615
  834 175.505 -6.70665 7.40310
  835 278.455 59.5260 8.48474
  836 241.031 -1.89175 -0.341040
  837 241.042 -1.87719 0.382639
  838 238.002 -7.08204 -15.5439
  839 198.782 -13.3469 6.58451
  840 219.561 -24.6825 12.3655
  841 258.875 -21.2138 19.3645
  842 196.886 -5.76162 -1.70255
  843 196.882 -5.73784 1.68896
  844 225.105 20.8380 9.67716
  845 211.193 2.83244 -15.4547
  846 58.7599 67.8984 66.6736
  847 214.993 -19.1164 -4.43440
  848 215.660 -9.64719 0.889531
  849 215.777 -9.66358 -0.900240
  850 237.277 -3.47560 24.8591
  851 235.599 -15.4512 -11.7861
  852 209.994 -13.9723 -2.28253
  853 485.241 15.7217 -24.2249
  854 199.519 -18.9756 13.2135
  855 199.366 -19.2263 -13.4368
  856 237.123 -2.80653 12.6469
  857 358.665 92.2944 -19.3684
  858 186.983 -17.1133 -16.7180
  859 207.054 -23.3682 15.6986
  860 186.922 -16.9034 16.5636
  861 202.873 -8.21798 -1.89826
  862 202.864 -8.18765 1.88210
  863 29.4276 12.7370 17.3244
  864 254.928 19.0634 -26.2875
  865 194.472 -7.66580 -3.27709
  866 194.505 -7.58596 3.28976
  867 191.931 -3.20872 -0.391858
  868 191.926 -3.18525 0.388883
  869 211.698 -4.17706 0.0984249
  870 211.671 -4.14777 -0.0995137
  871 171.019 -3.44212 -3.99340
  872 171.030 -3.40246 3.97480
  873 195.265 -10.3764 -5.04555
  874 195.287 -10.3017 5.06708
  875 4.58323 -2.24572 -1.88242
  876 295.829 55.4986 14.2048
  877 254.418 -8.88231 -21.2971
  878 206.897 -23.0317 -15.8757
  879 223.671 -7.16315 2.47048
  880 223.570 -7.08609 -2.40534
  881 243.815 0.327625 26.7291
  882 266.073 -18.9901 -10.2042
  883 235.842 16.2828 -86.3405
  884 105.828 -1.62914 42.4071
  885 -4.44596 2.47029 -2.72356
  886 -3.90578 2.78520 3.04044
  887 29.2111 13.5478 -17.6780
  888 238.600 -6.78502 9.64634
  889 251.517 -1.56332 -4.08179
  890 225.983 -21.6860 36.5448
  891 105.571 -1.50984 -42.5829
  892 251.851 -20.5575 6.51447
  893 281.296 -8.53406 31.4013
  894 201.688 0.799558 6.89780
  895 232.217 22.0868 16.5122
  896 124.879 -7.08098 31.2780
  897 124.386 -7.13871 -31.4952
  898 149.919 -7.26176 -17.5107
  899 158.415 -7.66017 -54.1886
  900 251.666 -5.84508 23.7882
  901 346.980 81.0332 11.0924
  902 252.490 9.73656 26.8067
  903 238.691 -5.04245 -14.1550
  904 161.801 -6.86403 55.5433
  905 304.902 56.0901 -10.8005
  906 29.6314 25.3667 -24.5948
  907 219.677 -0.456644 -7.41881
  908 150.077 -7.20034 17.3470
  909 183.583 -4.11573 2.74024
  910 183.580 -4.14554 -2.74735
  911 235.949 -15.3696 12.1545
  912 245.558 -1.44998 1.02143
  913 180.187 1.71655 -67.4722
  914 259.158 -0.531509 1.93583
  915 257.083 -0.431678 -2.45467
  916 189.771 1.61234 -5.97051
  917 248.010 -0.991552 -4.32608
  918 184.294 -8.74189 -6.76921
  919 184.418 -8.60773 6.78859
  920 -6.24027 2.20932 -3.61501
  921 -8.52613 1.33173 3.79318
  922 245.557 -1.33990 -1.03093
  923 79.7981 -1.78187 28.5942
  924 79.2955 -1.60446 -28.7636
  925 261.503 38.2307 20.8401
  926 473.709 8.53766 7.52966
  927 245.899 27.3908 21.7512
  928 280.058 -9.97416 8.05577
  929 242.575 -13.4610 18.7182
  930 302.263 63.4414 -8.20977
  931 185.547 0.742779 4.49785
  932 233.495 -5.40406 -3.99513
  933 242.085 13.0182 -26.3063
  934 294.003 8.47537 -6.07798
  935 227.395 -14.0337 -5.98602
  936 114.241 -0.666489 -6.26803
  937 114.369 -0.643047 6.17647
  938 240.133 -5.56926 -11.1760
  939 7.71614 9.89029 1.70735
  940 230.469 -23.8856 -1.63999
  941 198.050 5.77250 -0.616675
  942 300.038 66.1739 -5.45760
  943 46.7872 34.8650 -41.1872
  944 230.116 -1.70969 -14.6115
  945 158.230 -2.73290 -5.44573
  946 158.258 -2.69996 5.39630
  947 1.29181 -6.66947 5.11171
  948 155.582 -11.6980 -25.1357
  949 234.714 -13.5304 -11.4185
  950 143.762 0.307150 -0.447355
  951 143.793 0.308768 0.443999
  952 236.326 28.7004 -13.2476
  953 255.150 -0.664403 -0.392515
  954 255.151 -0.675636 0.510958
  955 155.646 -11.6635 24.9570
  956 237.299 -0.301003 -5.79547
  957 273.858 1.96201 18.0569
  958 242.829 -3.32926 4.64990
  959 37.8572 9.82868 -22.0464
  960 252.058 -1.44660 3.70668
  961 227.412 1.80248 22.8484
  962 239.870 33.2832 11.7875
  963 240.371 2.78902 -26.9360
  964 164.615 -8.96274 -14.9619
  965 260.106 -9.16830 17.9486
  966 164.720 -8.92560 14.8032
  967 7.32366 8.08505 -0.379583
  968 27.5614 4.90395 16.1392
  969 133.558 -2.43609 10.3401
  970 133.390 -2.43930 -10.4032
  971 233.657 -5.51202 4.19826
  972 250.506 43.7035 6.55223
  973 127.254 11.7872 -63.7673
  974 209.582 -13.1442 1.94307
  975 196.688 -20.6340 -20.1128
  976 287.430 55.1864 14.5768
  977 220.895 -3.83774 0.457731
  978 220.887 -3.81511 -0.458848
  979 242.434 -4.39920 -8.07642
  980 222.950 19.2096 -8.92990
  981 513.270 150.872 101.869
  982 45.5026 2.66373 -21.4036
  983 46.2566 2.21643 21.4556
  984 3.38022 -4.89236 0.861142
  985 223.714 12.3518 18.3289
  986 196.619 -20.7565 19.9576
  987 244.238 -11.4997 -21.2091
  988 265.820 21.7456 26.0537
  989 256.182 -20.6830 -24.0249
  990 374.679 78.9469 25.6131
  991 216.747 -3.45197 -0.0530772
  992 216.719 -3.42144 0.0534380
  993 254.208 -10.3157 20.2330
  994 17.3603 27.6200 29.5538
  995 112.537 -2.42654 14.8368
  996 112.170 -2.39570 -15.0043
  997 135.024 -6.72345 20.2440
  998 134.549 -6.62333 -20.3265
  999 152.330 -6.40294 14.4891
  1000 166.517 -1.38530 -0.728117
  1001 166.538 -1.37463 0.724859
  1002 423.657 133.057 -84.2324
  1003 381.683 95.5629 38.4787
  1004 152.206 -6.43754 -14.6184
  1005 261.886 -1.17497 22.2879
  1006 233.340 24.2164 -15.9135
  1007 164.833 -14.1238 44.8980
  1008 212.380 -25.0792 -23.8371
  1009 242.852 -1.95176 -8.53189
  1010 108.698 7.62647 51.8061
  1011 139.556 -10.6813 35.8854
  1012 213.494 10.8808 -11.4608
  1013 245.453 -4.83077 -25.4396
  1014 317.186 125.442 136.345
  1015 201.254 6.09126 8.14237
  1016 275.613 59.6658 -1.01799
  1017 203.203 7.86341 -76.7400
  1018 205.894 -21.7417 -13.4897
  1019 262.897 -0.227854 -0.977976
  1020 250.895 23.0675 -25.2379
  1021 145.242 -0.990053 3.68756
  1022 145.175 -1.00022 -3.72483
  1023 5.24280 1.95498 -7.25473
  1024 164.676 -7.65254 -12.4567
  1025 139.391 -10.8204 -36.1676
  1026 164.541 -7.63326 12.3113
  1027 239.847 -7.26878 23.5222
  1028 215.024 -13.3270 0.0326242
  1029 225.422 4.11439 -22.1176
  1030 231.897 28.9876 4.64331
  1031 317.256 18.6030 9.99592
  1032 237.816 -18.0362 11.6569
  1033 149.235 -12.0330 -27.5066
  1034 223.410 7.86205 -20.6772
  1035 166.311 -13.9296 -45.1492
  1036 320.728 69.9363 -1.04435
  1037 216.882 14.1868 10.4258
  1038 276.055 -1.67096 -14.0876
  1039 207.182 -21.7464 12.3522
  1040 237.669 -7.48852 18.2447
  1041 236.237 -12.4317 13.3184
  1042 234.944 -11.7740 11.5870
  1043 290.616 36.8112 -19.3874
  1044 234.327 -3.75429 18.4173
  1045 212.009 -25.1497 23.4407
  1046 226.320 -9.21291 4.04769
  1047 149.327 -12.0538 27.3430
  1048 212.249 -15.7069 -2.41995
  1049 122.526 -5.92106 -38.3876
  1050 175.649 -18.2850 30.3622
  1051 238.826 -1.58314 -9.87525
  1052 232.339 -2.61183 -20.8847
  1053 201.116 -16.0090 -8.10441
  1054 122.740 -6.09849 38.0740
  1055 216.047 0.495949 -14.4494
  1056 160.382 -10.7787 -19.4210
  1057 292.562 62.5134 9.28656
  1058 64.2738 10.8592 -36.2205
  1059 506.191 35.8021 49.0763
  1060 116.508 8.86697 -54.2869
  1061 234.933 -19.4428 -7.41659
  1062 160.421 -10.6838 19.2538
  1063 213.650 2.21079 16.1334
  1064 118.685 -2.46738 12.2781
  1065 118.618 -2.52894 -12.4079
  1066 237.589 -6.58343 -21.7868
  1067 253.729 -1.18162 1.55299
  1068 248.202 -0.523400 4.37846
  1069 245.005 8.15418 27.1829
  1070 228.871 -1.72357 19.5919
  1071 178.059 18.8585 83.0524
  1072 264.655 -0.163884 0.483673
  1073 246.372 33.4545 17.3193
  1074 207.682 2.95365 13.8808
  1075 251.536 -0.920246 4.21693
  1076 159.701 -1.79094 -3.02813
  1077 159.726 -1.77020 3.00655
  1078 101.103 -2.91814 -20.4624
  1079 101.520 -3.02281 20.3139
  1080 208.338 10.3189 5.81863
  1081 318.510 16.4938 -21.8814
  1082 292.608 -0.743351 -43.0450
  1083 231.309 -0.193251 -5.99490
  1084 175.728 -18.4236 -30.5985
  1085 201.536 -15.2247 7.19507
  1086 232.700 -0.522601 6.25885
  1087 244.292 -17.6778 -13.6741
  1088 150.308 -0.383005 1.82041
  1089 150.273 -0.389544 -1.83275
  1090 234.481 -19.9998 7.41376
  1091 222.723 -4.48757 0.876283
  1092 222.686 -4.49128 -0.860635
  1093 216.629 -21.8643 7.53129
  1094 280.509 -9.13469 -1.86983
  1095 124.245 -0.233413 -3.47889
  1096 124.456 -0.225274 3.43991
  1097 190.272 -11.9362 -51.7254
  1098 201.787 -4.82773 0.866598
  1099 201.809 -4.85669 -0.876037
  1100 122.477 65.1656 91.2205
  1101 281.127 22.9799 -21.6934
  1102 40.5522 19.9993 -27.1191
  1103 242.987 -3.51844 -4.49627
  1104 63.9202 22.2005 -41.5143
  1105 133.475 -8.49366 -26.1515
  1106 264.811 -0.237526 0.290272
  1107 264.926 -0.219594 -0.216091
  1108 238.607 -13.5801 -16.0822
  1109 211.337 -23.6707 -32.9817
  1110 64.3044 9.24334 34.5154
  1111 259.453 25.7159 24.6587
  1112 235.938 -2.26365 -0.415587
  1113 235.962 -2.26613 0.438885
  1114 258.450 -16.7469 39.9026
  1115 265.445 53.3848 9.54184
  1116 156.151 -3.86805 -7.82141
  1117 156.187 -3.84866 7.76130
  1118 119.217 13.7743 64.3407
  1119 224.885 1.11565 -21.4201
  1120 69.9125 22.7516 44.6952
  1121 291.335 -5.19393 -12.4827
  1122 284.600 63.2717 2.95164
  1123 195.193 -15.5640 10.0028
  1124 178.365 0.896644 -0.876320
  1125 249.110 -2.11520 5.44852
  1126 258.257 -0.281891 2.13106
  1127 54.4859 0.113291 -10.2706
  1128 55.2852 0.0852408 10.1977
  1129 200.952 3.28443 -10.2692
  1130 208.355 -6.13323 -0.471378
  1131 208.305 -6.10183 0.467564
  1132 21.6797 32.3538 -31.4018
  1133 34.7213 72.5959 -63.7452
  1134 211.096 -8.25953 0.192392
  1135 211.183 -8.26182 -0.202974
  1136 218.326 -5.21787 0.958877
  1137 218.295 -5.20510 -0.938917
  1138 56.6140 36.2689 44.8527
  1139 170.909 -2.18361 -1.43529
  1140 170.926 -2.16707 1.42756
  1141 215.682 16.2417 -0.246593
  1142 279.068 33.8429 -96.0192
  1143 264.353 45.7083 -16.3401
  1144 241.406 -9.23226 -22.3030
  1145 237.848 -11.8162 -16.2628
  1146 195.328 -15.7126 -10.1757
  1147 195.240 0.607870 6.33973
  1148 220.747 13.7079 -15.3143
  1149 217.563 11.6414 14.6133
  1150 226.169 -8.94027 -3.97729
  1151 215.586 -13.0549 -0.189111
  1152 195.545 -12.7567 -7.44375
  1153 233.267 -1.35466 11.6689
  1154 416.379 42.1149 5.89651
  1155 234.944 -4.98677 21.2664
  1156 235.426 15.4571 23.1010
  1157 217.657 -21.4709 -5.46254
  1158 26.0278 4.51359 -15.5536
  1159 221.742 -10.2422 -2.96958
  1160 144.824 -0.257084 -0.0841046
  1161 144.852 -0.256076 0.0829764
  1162 271.116 -7.18482 12.1646
  1163 258.405 -21.7289 8.29222
  1164 371.884 66.8547 16.0079
  1165 86.2025 -0.200532 -8.59259
  1166 86.7531 -0.181417 8.52421
  1167 197.307 -4.01700 -0.762310
  1168 197.296 -3.99008 0.755652
  1169 222.482 -19.6596 0.0864174
  1170 180.020 0.775982 2.86544
  1171 227.914 -16.2246 5.76930
  1172 12.4856 14.8481 -6.80669
  1173 40.1623 20.2618 26.5351
  1174 151.868 -8.14651 50.0200
  1175 263.214 50.3494 -11.6561
  1176 252.492 -0.672426 -3.32732
  1177 265.973 -0.397053 0.206590
  1178 266.251 -0.553377 -0.136913
  1179 151.086 -0.405701 -0.290642
  1180 151.115 -0.402609 0.288123
  1181 242.536 15.5238 26.2839
  1182 361.076 62.0512 -1.31196
  1183 249.700 41.4189 -11.7590
  1184 187.057 -13.6559 51.3897
  1185 151.057 -7.81576 -49.9288
  1186 167.437 -11.3643 -17.3649
  1187 233.759 -6.44759 5.30828
  1188 327.079 71.8317 1.33696
  1189 167.444 -11.2932 17.2198
  1190 239.073 -4.06391 4.02025
  1191 211.661 7.78938 13.9322
  1192 234.238 7.23975 25.2034
  1193 335.576 75.0808 7.00417
  1194 197.705 -5.20007 1.43712
  1195 197.718 -5.22748 -1.44928
  1196 242.097 -4.44788 8.38183
  1197 141.132 -1.57712 5.79739
  1198 141.031 -1.59351 -5.85402
  1199 236.903 -3.10546 -1.85906
  1200 96.9583 57.5066 -88.0117
  1201 205.077 -11.5035 -55.0077
  1202 192.131 -6.10047 -2.81162
  1203 192.148 -6.07040 2.81225
  1204 254.854 -1.10159 1.38589
  1205 240.577 -3.02913 3.22247
  1206 12.7694 15.7249 11.3644
  1207 262.575 -0.257199 1.13649
  1208 30.5495 38.2093 37.9111
  1209 234.802 -3.39268 -2.37592
  1210 -0.346722 -5.82508 -5.09056
  1211 165.087 -16.0956 -38.6747
  1212 164.608 -15.7007 38.2763
  1213 262.571 -0.428959 -1.24998
  1214 223.179 -11.7661 -3.49285
  1215 254.643 -0.994097 -1.43550
  1216 202.217 -6.58185 -1.26077
  1217 202.193 -6.55474 1.24243
  1218 236.746 -3.08122 1.75296
  1219 221.580 -10.0440 2.93842
  1220 212.967 -6.84041 -0.350210
  1221 213.046 -6.86218 0.377946
  1222 254.452 -1.02544 -1.17691
  1223 218.942 -22.9798 -37.2579
  1224 248.739 -1.41030 -1.21903
  1225 235.836 -3.49256 2.53605
  1226 162.362 -1.86551 -2.22278
  1227 162.386 -1.84680 2.20803
  1228 182.195 -2.73862 -1.09172
  1229 182.201 -2.71844 1.08533
  1230 298.087 46.3596 16.4864
  1231 250.305 -19.1661 10.4625
  1232 171.165 -0.717958 63.6314
  1233 134.761 -0.256270 2.22351
  1234 134.645 -0.258898 -2.24749
  1235 236.545 -4.33152 16.0389
  1236 226.668 -3.33287 0.575107
  1237 226.680 -3.32042 -0.574724
  1238 258.873 50.6224 5.42603
  1239 238.215 -24.8931 29.2125
  1240 135.350 -1.98755 8.17553
  1241 135.211 -2.00332 -8.24026
  1242 226.268 -5.44686 2.13847
  1243 226.218 -5.48323 -2.08358
  1244 233.637 -6.36383 -5.12513
  1245 213.139 0.0317203 7.48680
  1246 372.880 92.5876 -29.8271
  1247 237.812 -8.64117 -14.3553
  1248 39.6822 9.69513 22.6964
  1249 245.792 -13.0438 19.8678
  1250 195.267 4.18149 -5.61319
  1251 14.4169 10.9448 7.90298
  1252 325.731 35.5545 -1.11229
  1253 239.884 -10.8675 -19.9601
  1254 196.241 2.71789 8.59234
  1255 134.436 -8.50568 26.0953
  1256 243.965 -18.8340 12.2966
  1257 356.524 66.6660 19.1732
  1258 80.7855 12.1465 44.0461
  1259 245.362 -2.81608 -7.20641
  1260 477.741 5.28939 -4.86250
  1261 494.167 7.47025 21.7642
  1262 528.498 18.2074 -51.5600
  1263 237.380 -7.35799 -17.7219
  1264 237.518 -10.7866 15.2486
  1265 241.449 -17.1360 14.4322
  1266 -7.13166 0.767342 4.56386
  1267 -6.50683 0.597349 -4.94792
  1268 235.222 -25.9412 -13.0942
  1269 241.209 -24.3266 -20.0800
  1270 181.391 1.11559 -3.54318
  1271 234.302 -26.4223 20.1102
  1272 250.105 -11.8130 -20.1945
  1273 4.48822 7.26373 0.446734
  1274 202.378 -3.69383 0.602824
  1275 202.395 -3.72214 -0.604430
  1276 249.001 -1.89449 4.94234
  1277 239.070 -3.98812 -3.78829
  1278 224.770 -24.5493 -6.57417
  1279 204.667 -11.1528 2.84191
  1280 203.609 -11.0005 -3.15842
  1281 241.039 -5.01677 11.3794
  1282 246.951 -9.02732 -23.0164
  1283 14.9727 11.4125 -7.59752
</Section>

newXOutput 33

<Section columns = "stress_xx | stress_yy | stress_xy">
  1 276.035 -0.0145552 0.559790
  2 276.052 -0.0110283 -0.561736
  3 146.906 -0.0684496 -0.202954
  4 -1.87700 -1.86252 -2.69724
  5 504.704 194.682 158.818
  6 499.900 202.031 -159.323
  7 -2.17808 -1.77565 2.86201
  8 146.879 -0.0690425 0.202334
  9 278.062 -0.442025 0.177347
  10 277.430 -0.707712 -0.122393
  11 276.718 -0.453100 0.661481
  12 276.009 -0.641423 0.213169
  13 274.495 -0.533154 1.04354
  14 273.128 -0.543111 0.778615
  15 269.968 -0.482237 1.48975
  16 265.517 -0.308392 2.18819
  17 261.533 -0.342977 2.42177
  18 255.681 -0.506399 2.91246
  19 247.632 -0.0152208 4.28513
  20 240.194 -0.374273 4.05593
  21 231.809 -0.502198 5.69162
  22 219.688 0.358502 4.93478
  23 210.978 0.520863 5.81912
  24 199.621 0.890210 4.53991
  25 191.793 0.903553 4.57053
  26 180.444 1.29438 2.32603
  27 178.068 2.04300 2.48878
  28 176.644 1.65774 -0.733061
  29 178.608 0.931062 -1.62029
  30 182.217 0.925707 -1.98431
  31 190.713 1.18404 -3.96745
  32 198.963 0.934197 -5.03328
  33 211.126 0.184387 -5.97766
  34 220.868 -0.133953 -5.46530
  35 231.298 -0.401902 -5.38836
  36 240.766 -0.290545 -3.81542
  37 248.946 -0.297027 -3.27639
  38 255.723 -0.492793 -2.76223
  39 261.820 -0.343287 -1.94258
  40 265.663 -0.398866 -2.06940
  41 269.373 -0.506927 -1.51648
  42 272.911 -0.607135 -0.683497
  43 274.735 -0.483753 -0.790724
  44 275.728 -0.281566 -0.501534
  45 275.089 -0.130601 -0.456516
  46 277.733 -0.718607 0.0762117
  47 278.157 -0.462434 -0.183066
  48 268.685 -0.135985 -0.345697
  49 262.423 -1.02222 -0.611979
  50 254.809 -1.52590 -0.415518
  51 245.547 -2.31065 -0.565052
  52 236.797 -2.54593 -0.708229
  53 227.479 -3.23844 -0.670259
  54 219.249 -3.63234 -0.382070
  55 212.034 -4.10516 -0.155373
  56 203.716 -3.41798 -0.154949
  57 194.133 -3.21569 -0.233987
  58 184.889 -2.55803 -0.0831042
  59 176.123 -1.65156 -0.0359302
  60 167.782 -1.19117 0.00417414
  61 160.449 -0.629237 0.0696410
  62 152.927 -0.183067 -0.234134
  63 147.007 0.202755 0.275220
  64 144.374 0.596352 0.178332
  65 146.234 -0.00285411 0.434084
  66 144.281 -0.0918115 0.519945
  67 142.500 -0.131844 0.649639
  68 140.065 -0.0258198 0.854587
  69 136.990 -0.0152869 1.08213
  70 134.767 -0.200090 2.10915
  71 128.203 0.189209 2.30779
  72 123.616 -0.0198054 2.65548
  73 116.782 -0.129059 3.00860
  74 108.894 -0.213271 3.66666
  75 99.0415 -0.0533826 4.45178
  76 87.0269 0.0520055 4.89761
  77 76.7353 -0.120535 6.99217
  78 56.2525 0.660341 6.57439
  79 42.4002 0.570759 6.96037
  80 25.8938 -0.106809 7.68578
  81 12.2789 1.31249 7.94505
  82 -3.17478 1.93867 4.67912
  83 -14.2954 1.96366 1.55086
  84 -13.6364 1.86814 -0.872659
  85 -12.7415 1.54093 -3.88075
  86 -7.46406 -0.535145 -3.64582
  87 -0.941947 -7.16611 -4.01169
  88 0.659956 -13.2627 -5.06680
  89 1.90308 -21.1955 -2.94441
  90 4.26746 -22.1199 -0.0810236
  91 9.08883 -6.84900 11.6003
  92 27.4304 39.2808 40.5644
  93 164.717 148.051 141.363
  94 609.577 90.4433 102.790
  95 547.688 13.0048 33.6974
  96 507.798 5.33942 10.3121
  97 493.041 4.50549 0.817461
  98 500.753 6.03450 -8.89203
  99 546.229 12.0462 -26.6430
  100 647.862 43.6626 -89.0815
  101 97.3587 150.540 -117.792
  102 20.5636 26.1837 -33.3411
  103 9.90150 -5.85295 -12.0636
  104 3.98029 -22.2608 -1.78106
  105 1.07106 -16.2377 3.40738
  106 1.39144 -16.6914 4.41332
  107 0.0485175 -6.21622 4.43947
  108 -7.78556 -0.365329 3.46851
  109 -13.1497 1.15617 3.39705
  110 -14.3512 2.27473 0.953249
  111 -14.7678 1.93775 -1.42062
  112 -4.19286 1.98712 -4.37143
  113 11.3702 1.32432 -7.56794
  114 24.9644 0.0307989 -7.55885
  115 41.4450 0.617464 -6.97714
  116 55.3844 0.678339 -6.62766
  117 76.0614 -0.123408 -7.05474
  118 86.4487 0.0585276 -4.94803
  119 98.5374 -0.0511215 -4.51058
  120 108.633 -0.235200 -3.69675
  121 116.437 -0.123402 -3.01803
  122 123.356 -0.0112145 -2.68497
  123 127.991 0.186695 -2.33525
  124 134.617 -0.201952 -2.13248
  125 136.872 -0.0164982 -1.09655
  126 139.978 -0.0269584 -0.866484
  127 142.436 -0.133714 -0.659106
  128 144.234 -0.0934108 -0.526585
  129 146.197 -0.00425885 -0.438355
  130 144.343 0.595502 -0.180342
  131 146.978 0.202357 -0.276462
  132 152.898 -0.184692 0.233405
  133 160.420 -0.633295 -0.0712181
  134 167.757 -1.20018 -0.00603254
  135 176.105 -1.66411 0.0341261
  136 184.879 -2.57610 0.0813475
  137 194.133 -3.23840 0.232625
  138 203.728 -3.44413 0.153654
  139 212.054 -4.13415 0.154866
  140 219.275 -3.66114 0.383070
  141 227.514 -3.26464 0.673167
  142 236.826 -2.56419 0.718728
  143 245.566 -2.32695 0.614921
  144 254.852 -1.43599 0.424987
  145 262.610 -0.992603 0.598694
  146 268.724 -0.177397 0.340695
  147 239.226 -22.4635 -2.50645
  148 239.034 -22.1631 2.59277
  149 250.297 36.0316 -12.7728
  150 267.521 15.7995 27.2777
  151 202.525 -19.4099 -43.9563
  152 204.141 -19.3947 42.5091
  153 195.923 -8.41559 5.00569
  154 195.944 -8.53607 -5.01147
  155 284.217 10.1567 -21.2986
  156 238.583 -8.51851 5.90380
  157 238.484 -8.30813 -5.82862
  158 308.427 69.1795 3.61524
  159 243.780 -0.390014 -26.4357
  160 179.699 -14.2876 -19.6000
  161 179.694 -14.1647 19.4175
  162 244.343 -5.50221 23.9622
  163 231.356 16.8372 15.6530
  164 94.9982 15.5033 -52.4249
  165 105.537 14.6701 55.2741
  166 300.691 3.23267 3.86368
  167 245.213 -9.35479 -16.8443
  168 325.363 71.5116 -2.51502
  169 220.510 -6.20146 0.324535
  170 220.461 -6.17958 -0.303600
  171 248.568 -2.88931 -2.59980
  172 249.394 -2.58063 2.25339
  173 171.816 -2.55598 -3.05129
  174 171.834 -2.52863 3.03338
  175 267.824 -7.33774 55.8172
  176 223.757 9.22019 -16.8464
  177 145.834 -11.0028 -31.7283
  178 146.274 -10.9211 31.5088
  179 163.599 -5.49705 -10.2850
  180 163.610 -5.43213 10.2023
  181 246.458 -6.41236 14.3098
  182 223.700 -15.4008 0.120715
  183 222.887 -15.2858 0.253250
  184 255.137 -24.6268 -3.24672
  185 256.433 -23.4604 0.0520307
  186 353.159 83.0111 -10.9875
  187 255.287 41.1194 11.9638
  188 256.090 15.7422 -27.2426
  189 267.029 -2.60564 -65.0862
  190 254.556 -14.3330 -19.4026
  191 256.716 -10.2121 22.6995
  192 213.656 -24.2862 21.1905
  193 213.731 -24.1190 -21.1197
  194 227.795 2.86200 20.2886
  195 103.342 -2.45221 -38.7206
  196 103.608 -2.68165 38.4723
  197 399.322 60.0156 8.55501
  198 240.959 -14.3228 10.7804
  199 250.138 -4.51263 -9.39169
  200 197.092 -4.88121 -2.22226
  201 197.093 -4.85415 2.21390
  202 239.445 -3.09690 -18.4263
  203 273.025 40.1458 -21.9891
  204 227.352 20.3850 -3.14262
  205 146.974 -5.33013 14.5646
  206 146.743 -5.34878 -14.6810
  207 254.170 -2.71729 5.21614
  208 246.595 4.63989 27.1615
  209 200.035 -14.7022 -9.14987
  210 198.625 -13.9239 9.40452
  211 291.475 43.2245 20.4994
  212 344.444 46.2884 5.92719
  213 22.5788 17.9011 -14.1956
  214 20.8585 16.5490 12.0307
  215 140.865 40.0848 93.0796
  216 238.513 -15.8311 -8.44854
  217 255.147 -2.61174 -4.71607
  218 225.115 1.93380 -18.6763
  219 156.647 -1.63543 -4.55010
  220 156.695 -1.61665 4.50674
  221 214.142 -10.0982 -1.53271
  222 214.240 -10.1569 1.40912
  223 241.620 -3.23624 15.7134
  224 279.630 -16.2304 5.05398
  225 276.306 56.7462 -6.42620
  226 216.693 -21.0099 -9.64736
  227 275.020 -4.76456 18.0047
  228 233.891 -3.83888 1.04536
  229 233.896 -3.80527 -1.04366
  230 215.047 -20.9081 10.0672
  231 246.870 -15.6171 15.8817
  232 349.509 44.0110 -20.1482
  233 76.2404 45.4231 -66.9266
  234 207.269 7.19051 3.99938
  235 247.281 21.8199 22.8468
  236 264.303 -1.82214 -24.5519
  237 246.631 -8.84144 -22.5005
  238 129.696 -4.26865 -18.3052
  239 130.160 -4.20267 18.2397
  240 247.110 -2.93125 -12.2223
  241 235.568 -5.88961 3.20203
  242 235.457 -5.87933 -3.10395
  243 48.3653 4.60863 -24.4544
  244 49.1845 4.04229 24.3772
  245 263.269 -22.9957 -19.2992
  246 260.626 -0.822403 0.756080
  247 260.925 -0.839245 -0.810303
  248 241.332 19.9950 -20.8809
  249 211.572 3.99007 12.1700
  250 449.410 72.0086 48.1961
  251 445.893 50.7721 -30.2865
  252 320.424 69.4527 -0.721078
  253 199.866 -9.56371 58.6810
  254 183.232 -6.13260 -61.4249
  255 209.703 -4.30528 -0.694041
  256 209.682 -4.27547 0.687959
  257 173.123 -4.74905 6.20441
  258 173.127 -4.81629 -6.26436
  259 253.680 -2.65637 7.63125
  260 245.894 -17.4737 -13.2187
  261 157.294 -0.335919 -1.05045
  262 157.325 -0.330424 1.04310
  263 242.788 -9.76719 -10.4690
  264 101.321 -3.35416 -25.3383
  265 101.782 -3.36537 25.1461
  266 245.699 -10.6061 18.1422
  267 187.092 -19.8587 35.3266
  268 187.592 -20.2156 -35.2204
  269 210.430 7.97081 -5.66387
  270 181.550 -2.85739 -2.05016
  271 181.563 -2.83681 2.04121
  272 229.532 -0.595949 15.0149
  273 275.023 50.5247 15.2902
  274 145.557 -1.84775 7.77315
  275 145.443 -1.86381 -7.84426
  276 252.703 -21.0496 9.61183
  277 233.935 -26.1953 -23.2177
  278 261.504 -1.16418 2.45151
  279 179.910 -10.8143 -13.3282
  280 179.580 -10.6904 13.2725
  281 323.879 32.4742 82.4471
  282 150.595 -12.1245 42.3015
  283 243.501 34.2474 -1.35847
  284 309.956 33.9916 -14.0857
  285 232.952 -18.0306 3.75276
  286 234.074 -26.9186 20.8364
  287 151.078 -11.9203 -42.8009
  288 27.6570 34.0628 30.6387
  289 242.828 -9.80500 10.6576
  290 319.439 41.4710 11.3652
  291 263.674 -1.03760 -2.12513
  292 237.240 8.27000 -24.0309
  293 234.764 -13.2593 6.02973
  294 229.793 -19.4242 -0.139437
  295 236.314 10.8247 23.1332
  296 251.464 -21.0629 -8.66984
  297 356.942 69.7171 -5.74634
  298 234.699 -12.7413 -5.77515
  299 195.097 55.2606 -114.409
  300 240.209 -25.4422 -3.79304
  301 238.483 -26.1325 6.55142
  302 174.231 -15.8627 -27.7931
  303 155.888 -0.639933 -2.29795
  304 155.928 -0.628868 2.27783
  305 174.296 -15.8725 27.6342
  306 253.805 -0.409618 -27.4399
  307 274.728 -11.3605 -12.3136
  308 208.159 -12.6302 -4.61514
  309 208.011 -12.6584 4.70552
  310 250.362 -21.5448 37.5745
  311 249.199 -1.95358 9.25760
  312 304.227 1.11009 12.2262
  313 203.746 -7.25420 -2.48890
  314 203.757 -7.22726 2.47227
  315 185.030 -4.90836 -4.01413
  316 185.027 -4.86050 4.00666
  317 209.303 2.76051 -11.7744
  318 270.774 19.8429 -26.5018
  319 421.106 113.211 -53.0697
  320 247.097 -2.05919 -0.885377
  321 246.946 -2.03045 0.906687
  322 131.303 -0.114649 52.7800
  323 184.186 -8.48312 -8.71885
  324 183.820 -8.45062 8.73983
  325 131.282 -0.412643 -52.5795
  326 257.651 30.4459 -22.3573
  327 289.442 14.2619 20.3486
  328 250.425 -17.8761 -41.8259
  329 229.415 -8.82797 2.81249
  330 229.175 -8.75970 -2.70877
  331 245.264 -4.99119 -5.17184
  332 229.708 -0.450387 -14.0471
  333 258.608 1.14588 26.9454
  334 258.572 -1.74072 -5.28075
  335 153.826 -9.46953 21.2315
  336 153.658 -9.52482 -21.4049
  337 240.078 -0.551833 25.0666
  338 146.315 -1.25165 -4.59196
  339 146.409 -1.23970 4.54681
  340 247.030 -5.59690 7.92710
  341 296.079 60.6286 -11.5906
  342 245.126 -5.03236 5.35806
  343 260.600 32.7869 22.4636
  344 249.566 -4.61455 26.1477
  345 196.814 -3.72501 0.785068
  346 196.817 -3.74964 -0.791346
  347 235.728 -0.855744 -22.2283
  348 313.172 65.9529 7.84274
  349 259.501 47.7314 0.470432
  350 159.164 18.5645 -78.7364
  351 15.6627 7.16267 -10.3989
  352 17.2635 7.74374 11.2279
  353 -0.993749 1.72352 4.96342
  354 0.0159942 0.902606 -5.16645
  355 461.153 31.9723 11.0792
  356 215.108 -17.5482 -5.43077
  357 247.241 -5.40259 -7.73768
  358 222.607 -3.87096 0.419889
  359 222.581 -3.83788 -0.420969
  360 237.646 26.2519 -11.3007
  361 203.028 -20.7802 17.4154
  362 17.4051 25.7772 -18.7420
  363 203.239 -20.7792 -17.7508
  364 240.829 27.3995 12.0268
  365 246.456 -6.51768 -13.6485
  366 261.731 -14.5599 -16.7432
  367 278.172 58.9978 4.44113
  368 262.386 -16.3315 14.0074
  369 106.632 -2.71943 16.9918
  370 105.967 -2.66741 -17.1091
  371 59.8875 1.53026 -23.4395
  372 60.5612 1.28077 23.3316
  373 212.735 0.641282 11.9230
  374 409.020 118.662 44.8710
  375 255.091 -1.57365 -6.65187
  376 197.655 -16.8231 -13.2824
  377 197.477 -16.7749 13.2632
  378 244.840 -5.61100 -17.1701
  379 279.826 -13.5252 3.13877
  380 215.100 -17.5300 5.61293
  381 307.861 1.87694 -23.8603
  382 171.597 -1.44284 -0.764048
  383 171.619 -1.42996 0.757603
  384 240.538 -1.38439 -10.9045
  385 127.937 -1.90529 -11.1041
  386 128.023 -1.96496 10.9634
  387 288.111 36.7685 -22.6812
  388 155.288 11.0211 73.0527
  389 225.156 -11.8353 1.62439
  390 225.380 -11.8126 -1.63642
  391 264.397 44.8529 -14.2720
  392 250.610 -7.40189 -24.8467
  393 251.890 -25.7006 20.0978
  394 208.959 -5.57243 -1.06176
  395 208.932 -5.54303 1.04861
  396 241.941 -18.6535 9.09666
  397 261.148 -1.19788 3.93806
  398 161.012 -5.99773 -12.9170
  399 161.074 -5.99595 12.8000
  400 245.237 8.22111 -26.7715
  401 231.844 -4.97167 1.59143
  402 231.836 -4.98235 -1.55864
  403 239.479 -2.81024 20.4860
  404 222.484 16.1550 5.39680
  405 248.653 -10.4645 21.7765
  406 360.475 75.6680 12.9239
  407 118.898 -6.41878 -33.9537
  408 119.238 -6.42172 33.6840
  409 52.8800 28.5819 -40.0288
  410 267.571 -0.722890 1.12210
  411 133.359 -1.18155 -7.01934
  412 133.543 -1.15649 6.95547
  413 245.058 -6.35796 16.8410
  414 222.236 -24.1591 11.1435
  415 251.615 -3.03676 3.66972
  416 255.661 12.9973 27.9913
  417 55.5241 30.4331 41.8116
  418 222.582 -24.0286 -10.1955
  419 230.062 -21.4115 -1.41192
  420 73.5900 -1.48188 -21.3001
  421 74.1775 -1.53986 21.1470
  422 176.378 -14.0299 -51.0265
  423 264.385 -3.91407 23.9875
  424 175.670 -14.2521 50.5638
  425 244.081 -13.6776 -14.3067
  426 225.725 15.1697 -11.8518
  427 244.133 -10.5049 13.5481
  428 263.521 -1.11527 -2.68993
  429 7.74677 8.08431 3.26194
  430 52.7175 60.2987 59.4264
  431 234.292 -0.866094 10.4868
  432 195.340 2.61370 5.14356
  433 198.866 3.20181 -6.98725
  434 169.678 -2.88965 -4.37552
  435 169.692 -2.85181 4.34424
  436 240.680 -18.6444 -8.38420
  437 242.871 -4.74014 -22.9699
  438 196.440 3.60903 -1.89853
  439 360.517 85.7610 16.6242
  440 48.8598 16.4735 -29.9420
  441 53.9541 15.1233 32.0512
  442 224.950 -8.00623 1.42431
  443 224.861 -7.98421 -1.36189
  444 300.093 66.6455 -0.943948
  445 188.988 76.1091 116.944
  446 289.697 -4.16228 -5.27023
  447 164.752 -8.71385 -17.5282
  448 164.826 -8.65162 17.3713
  449 165.534 -3.79200 6.86933
  450 165.507 -3.82114 -6.93612
  451 224.441 4.92910 -19.2124
  452 269.011 -0.333602 -0.753071
  453 217.934 9.92983 10.7653
  454 276.989 34.2275 24.3549
  455 230.453 -17.1242 -2.84499
  456 251.528 -2.88377 -3.56212
  457 264.642 -1.00425 2.47866
  458 268.253 -0.353632 0.431237
  459 268.486 -0.405399 -0.322331
  460 145.155 -0.283325 1.68873
  461 145.083 -0.287428 -1.70774
  462 252.358 -15.9984 17.2823
  463 226.636 8.89263 18.6025
  464 237.346 0.948534 -24.4270
  465 248.587 -5.17819 10.1989
  466 361.518 59.0653 -68.7509
  467 249.057 -13.7905 -19.1772
  468 2.01393 4.65418 1.68147
  469 2.00907 4.71410 -0.450148
  470 196.534 -11.2364 7.36812
  471 195.860 -11.0904 -7.28537
  472 311.359 5.21103 36.5669
  473 86.5315 77.7139 -88.2148
  474 245.557 -0.725566 8.19487
  475 279.602 -16.3441 -20.4430
  476 147.198 -8.57474 24.6181
  477 298.770 53.0163 -16.6390
  478 245.460 -13.2566 16.1296
  479 205.450 -9.89144 -3.47555
  480 205.632 -9.72459 3.46336
  481 212.680 1.11251 -10.5338
  482 146.731 -8.54325 -24.7804
  483 218.277 0.0678376 10.6056
  484 210.151 -24.0151 -31.4091
  485 209.616 -24.0518 31.5098
  486 253.566 -1.64451 7.33509
  487 229.241 21.5866 2.23193
  488 234.659 3.79924 79.6707
  489 344.505 70.4305 -0.443248
  490 237.621 -3.92985 1.76364
  491 237.638 -3.91494 -1.81781
  492 181.448 -3.28936 -2.72813
  493 181.458 -3.26085 2.71656
  494 95.5132 4.53435 44.2078
  495 246.516 -11.8444 -18.7233
  496 223.331 -4.82519 0.393677
  497 223.308 -4.80663 -0.388074
  498 194.231 -20.6227 25.7176
  499 97.3914 5.97184 -45.3451
  500 247.002 -20.1044 -9.57478
  501 4.09981 0.576458 2.22072
  502 214.531 11.0094 0.778729
  503 238.538 -2.67439 -0.589048
  504 238.530 -2.71337 0.577529
  505 194.365 -20.5904 -25.9232
  506 279.914 -14.5165 26.4455
  507 276.726 10.0523 24.8953
  508 255.741 -1.64719 -1.79259
  509 246.245 -20.3912 9.69667
  510 152.218 -0.169188 -0.293308
  511 152.249 -0.167727 0.290514
  512 245.704 -9.40975 -19.8880
  513 237.347 17.5544 20.3956
  514 273.293 6.74901 -24.5748
  515 151.303 -0.263478 -0.947455
  516 151.340 -0.259948 0.940362
  517 480.730 69.4125 -62.2846
  518 247.143 29.4715 18.0018
  519 255.975 -1.50683 1.60007
  520 230.583 -21.8804 1.96493
  521 193.016 -6.46116 4.01823
  522 193.018 -6.51249 -4.01012
  523 268.975 -16.3492 8.20803
  524 258.073 -5.12646 -25.1867
  525 288.362 56.9857 13.7895
  526 239.441 4.10643 25.3185
  527 242.174 -4.57924 3.34348
  528 235.460 -25.0774 -30.0934
  529 243.730 -6.00645 19.5262
  530 475.477 21.7591 -8.73912
  531 267.045 -20.1089 -1.42329
  532 254.149 -1.58904 -0.444271
  533 254.208 -1.69788 0.397648
  534 480.398 32.2504 30.7000
  535 233.332 -0.0936886 21.5326
  536 328.759 54.8722 -6.94635
  537 246.387 -6.64234 -9.95293
  538 109.414 -1.05990 -7.60009
  539 109.772 -1.00921 7.51976
  540 165.983 -15.5726 -35.4369
  541 166.106 -15.3106 35.1659
  542 242.043 -4.38396 -3.30939
  543 263.215 9.67083 -27.4475
  544 231.149 -15.7389 3.72550
  545 248.261 28.4900 -18.6982
  546 250.777 -2.86200 9.87604
  547 315.430 15.4510 -2.25600
  548 213.982 -7.35325 -0.793934
  549 213.912 -7.32477 0.780640
  550 232.820 -10.9723 4.56750
  551 344.627 67.8300 -3.63587
  552 244.939 10.7149 26.3069
  553 104.384 26.9191 65.4842
  554 237.611 -14.2798 52.9807
  555 315.218 14.5526 -58.2048
  556 250.456 20.7153 -24.5161
  557 222.788 -19.2061 -45.8800
  558 241.192 -26.4056 -8.41463
  559 252.129 -25.4829 -12.6572
  560 32.6227 41.8830 -39.7359
  561 253.373 -3.12800 -6.17085
  562 382.035 74.4197 -21.2133
  563 234.087 -10.5141 -5.03424
  564 236.093 -7.63493 4.14799
  565 235.871 -7.45651 -3.99070
  566 161.202 -0.981249 -2.07761
  567 161.234 -0.968487 2.06237
  568 22.1444 2.43459 -12.7897
  569 23.4548 2.54955 13.0926
  570 119.903 -5.64371 -25.9313
  571 120.843 -5.67332 25.8833
  572 239.312 -12.9380 -9.19895
  573 244.060 -26.5120 9.15435
  574 250.895 -23.7801 2.44010
  575 204.841 -3.63061 -0.704464
  576 204.828 -3.60304 0.700438
  577 194.684 -20.3840 -39.2914
  578 218.442 -17.8679 48.5900
  579 189.888 -19.1616 39.5269
  580 246.004 -5.44572 -24.7107
  581 152.715 -2.62374 7.78041
  582 152.640 -2.65174 -7.84939
  583 234.019 12.8958 -20.4715
  584 234.476 -0.408922 -9.51847
  585 293.467 63.9925 -6.27779
  586 190.829 -2.93515 -0.718865
  587 190.832 -2.91453 0.715085
  588 250.579 -0.726654 -5.40231
  589 171.818 -5.92688 -8.54904
  590 171.817 -5.90439 8.47022
  591 140.857 6.63719 62.7900
  592 243.885 -11.1818 -13.7039
  593 135.292 -7.09074 45.0684
  594 239.659 -12.3890 9.37906
  595 252.636 -3.48982 6.79977
  596 249.590 -2.18748 -1.59965
  597 173.693 -2.22018 -1.90992
  598 173.712 -2.20131 1.89878
  599 281.397 56.3879 -12.3657
  600 135.198 -6.81231 -45.2472
  601 238.871 -10.2995 -7.55247
  602 215.018 -3.97749 -0.311407
  603 214.995 -3.94646 0.310007
  604 406.749 54.8836 -9.62178
  605 141.082 -0.947170 4.30830
  606 140.958 -0.956574 -4.35105
  607 221.667 5.03071 17.5147
  608 319.601 26.3515 -5.18912
  609 150.199 1.17000 -62.3490
  610 76.0227 2.03433 -33.8172
  611 76.6754 1.58506 33.6364
  612 188.104 -11.1132 10.5173
  613 190.120 -11.4404 -10.1945
  614 322.468 64.8915 6.96560
  615 248.535 -2.27096 1.45739
  616 211.706 5.87905 -10.5629
  617 265.038 47.7877 11.2853
  618 264.042 49.5987 -7.50260
  619 217.017 -12.0788 -1.34950
  620 218.703 -11.7997 0.565992
  621 155.933 33.8338 -89.8458
  622 185.824 -6.46744 -5.79709
  623 185.836 -6.39143 5.77445
  624 477.720 97.7011 73.4904
  625 245.773 -8.02273 21.4167
  626 138.962 -5.02482 -16.6172
  627 384.878 87.3502 57.3718
  628 139.293 -4.99534 16.5490
  629 235.749 -9.05230 -62.0149
  630 164.228 -0.865096 -0.766997
  631 164.255 -0.857512 0.762694
  632 203.842 1.78425 9.20940
  633 91.6760 -1.40278 -14.9339
  634 92.2129 -1.40614 14.8114
  635 214.190 -15.2413 4.07589
  636 224.849 -18.0584 -0.667205
  637 266.090 -0.540031 -2.24930
  638 147.573 -0.261132 1.23715
  639 147.519 -0.265647 -1.25117
  640 201.703 -4.58228 -1.01919
  641 201.693 -4.55477 1.01007
  642 232.537 -25.7545 30.4403
  643 266.760 29.8156 -24.8401
  644 176.481 -8.37311 -11.0321
  645 176.346 -8.23005 10.9480
  646 210.159 -15.2222 -5.90964
  647 332.273 72.5515 1.35345
  648 249.386 -24.0936 -1.04368
  649 215.860 -5.15899 -0.318520
  650 215.826 -5.13145 0.319443
  651 298.085 32.5158 19.3964
  652 249.730 -3.54326 -10.7373
  653 219.586 -0.294296 -8.64318
  654 100.890 -3.43765 -32.5578
  655 101.215 -3.53856 32.2819
  656 209.654 -18.1930 -9.76555
  657 315.184 69.8208 0.200726
  658 243.596 33.0270 -8.10792
  659 160.427 -1.52967 -3.85001
  660 160.462 -1.50810 3.81665
  661 227.777 -6.40095 -1.38860
  662 227.822 -6.41016 1.43972
  663 427.498 55.9158 24.5689
  664 270.506 -0.683140 0.623639
  665 260.780 -0.986150 3.84139
  666 259.698 -1.01276 -4.47977
  667 246.257 -22.8955 4.61711
  668 179.836 -2.15580 -0.954922
  669 179.851 -2.13965 0.950154
  670 262.503 42.1930 17.3421
  671 338.023 75.2805 -3.63984
  672 183.739 -13.8098 -15.6356
  673 183.677 -13.6703 15.5514
  674 230.874 -23.8129 -4.16742
  675 243.039 14.4368 -24.7454
  676 290.001 0.694559 11.4819
  677 190.949 -3.61297 -1.85468
  678 190.952 -3.58828 1.84603
  679 165.185 -14.5573 -32.0014
  680 243.900 -23.5667 -2.33457
  681 202.277 -22.4480 28.3218
  682 96.2969 30.5508 -63.1515
  683 188.509 -17.5719 21.8373
  684 227.279 0.0590460 8.00317
  685 165.332 -14.3899 31.7780
  686 238.728 -10.5038 7.64560
  687 188.583 -17.5009 -22.0463
  688 191.958 2.44573 1.92865
  689 148.327 -4.09454 11.7845
  690 148.193 -4.10024 -11.8728
  691 202.407 -23.0314 -28.6429
  692 250.652 -16.4754 -16.7171
  693 229.707 -3.14949 -0.353471
  694 229.744 -3.18422 0.355033
  695 256.272 -16.2760 16.6219
  696 232.690 -24.3271 5.07819
  697 283.030 25.9494 24.2973
  698 255.086 -4.74383 25.8850
  699 245.448 -8.76066 15.8750
  700 233.679 19.1854 -15.5278
  701 282.021 47.5320 19.1893
  702 243.279 -3.34373 -15.2763
  703 242.767 -7.98747 8.33332
  704 250.220 39.2679 4.38684
  705 246.853 -4.14419 13.3648
  706 77.2696 52.4223 66.1282
  707 229.866 -26.4214 -17.2856
  708 266.177 4.86525 26.3798
  709 268.979 -8.29783 -19.0623
  710 269.104 -0.310261 1.26161
  711 245.354 -8.37219 -12.5713
  712 230.180 -26.6310 15.6432
  713 449.010 39.7429 -6.67067
  714 135.220 -0.609953 4.51216
  715 135.053 -0.616807 -4.55726
  716 249.114 -4.44311 -5.95009
  717 270.755 -0.232126 -1.22477
  718 209.253 -18.4850 9.81911
  719 251.835 -9.33174 23.5616
  720 384.987 90.8926 -26.5796
  721 238.691 -17.2927 7.92428
  722 265.074 -17.4129 -10.2252
  723 242.862 -7.76890 -8.20195
  724 270.748 -0.418168 -0.415157
  725 245.512 -0.00949947 26.7715
  726 11.1370 9.52857 13.6876
  727 278.571 -10.8791 -39.8660
  728 302.687 17.7707 12.6288
  729 251.823 -25.6899 11.1905
  730 177.987 -4.37366 4.76028
  731 177.991 -4.43608 -4.78572
  732 236.892 117.064 -122.867
  733 256.398 -16.9154 -15.4200
  734 191.184 0.937769 -3.68587
  735 224.117 1.20927 17.1080
  736 247.116 -12.3257 19.0426
  737 236.868 -19.9612 4.29443
  738 246.856 -22.4541 -32.7027
  739 235.377 -18.6257 -4.70386
  740 278.858 -13.3622 -4.08688
  741 256.718 -2.01034 3.49484
  742 228.451 -13.7413 2.64418
  743 417.574 83.5233 -44.2143
  744 244.001 -6.45395 6.64297
  745 240.760 3.92482 -26.0094
  746 206.261 -2.35846 69.8391
  747 258.207 20.8197 26.6471
  748 222.063 -17.5384 1.84470
  749 170.734 -13.5755 -23.3386
  750 170.743 -13.5354 23.1399
  751 235.490 26.4751 -3.62368
  752 240.032 -2.76611 23.2749
  753 242.814 -5.75688 -19.9289
  754 228.715 -14.0189 -2.72258
  755 221.044 -19.8729 5.17186
  756 252.178 41.7182 -4.97245
  757 236.572 -20.4739 -3.35942
  758 237.138 -14.9954 7.67728
  759 240.527 -2.99284 1.22932
  760 240.681 -2.90815 -1.22231
  761 323.651 71.3333 2.15136
  762 265.023 -22.5027 -7.03207
  763 246.109 -7.47655 12.5054
  764 256.843 -2.00120 -3.19135
  765 258.898 1.74141 -27.1996
  766 295.476 15.4081 -16.5814
  767 142.498 -0.158942 -2.09586
  768 142.592 -0.156787 2.07337
  769 1.99377 -4.69295 -3.34366
  770 251.200 -0.269508 5.00717
  771 229.449 -0.406591 -18.9560
  772 237.348 -2.21850 16.7741
  773 217.972 26.4555 102.840
  774 270.261 55.7988 -0.603844
  775 191.722 -13.8593 12.0896
  776 32.4311 0.774867 -12.6979
  777 33.4326 0.574278 12.8359
  778 235.149 -1.68033 -18.8954
  779 192.263 -14.0008 -12.0839
  780 255.314 -2.20520 2.68080
  781 128.758 -5.58266 22.1415
  782 127.629 -5.56423 -22.1587
  783 243.993 -6.26288 -6.47270
  784 154.155 -3.99810 -10.2432
  785 154.232 -3.97073 10.1471
  786 254.250 -2.32883 -7.45567
  787 192.924 -5.23192 -3.20526
  788 192.927 -5.19604 3.20600
  789 277.754 -1.77097 -19.1527
  790 249.336 -2.59526 -26.9190
  791 124.950 -0.830395 -5.76908
  792 125.201 -0.822707 5.69928
  793 5.51433 3.16948 -7.59046
  794 6.66016 3.34150 7.99375
  795 200.578 0.941896 -6.69400
  796 227.875 -25.6093 -12.7214
  797 -2.65603 -1.84939 4.55054
  798 -2.31716 -2.16049 -4.50581
  799 237.277 -4.67882 2.60691
  800 257.519 -20.0507 -9.12624
  801 265.264 39.3877 -20.2623
  802 256.453 -1.97591 -2.54465
  803 553.562 110.770 -103.987
  804 237.229 -4.66210 -2.57392
  805 357.892 68.5044 5.28220
  806 253.604 7.39138 -28.0438
  807 280.635 21.1488 -24.8319
  808 45.5760 -0.540417 -11.7731
  809 46.4699 -0.610732 11.7506
  810 156.631 -2.33587 6.04105
  811 156.578 -2.35596 -6.09845
  812 149.049 -0.379983 1.12482
  813 149.006 -0.383886 -1.13460
  814 283.479 47.8001 -19.0540
  815 165.971 -1.09196 -1.64629
  816 165.997 -1.07920 1.63615
  817 240.783 -2.42362 -24.2844
  818 350.368 34.8554 28.5189
  819 215.838 4.75803 -14.7182
  820 73.4731 -0.674238 12.6616
  821 72.8153 -0.680343 -12.7654
  822 282.192 7.18026 73.4894
  823 248.844 -4.48036 6.14139
  824 221.098 14.6141 -6.13450
  825 100.863 -0.178869 8.65934
  826 100.322 -0.131083 -8.72639
  827 152.461 -0.823903 -2.94945
  828 152.515 -0.812053 2.92019
  829 27.1413 24.2618 20.5687
  830 230.940 5.46930 21.9322
  831 257.404 37.8991 -17.3137
  832 277.528 32.2237 -24.5868
  833 181.208 -6.96765 -7.66654
  834 181.096 -6.91287 7.65328
  835 287.199 61.3759 8.71202
  836 248.546 -1.95915 -0.348358
  837 248.558 -1.94410 0.391172
  838 245.465 -7.30805 -15.9763
  839 205.059 -13.7620 6.82430
  840 226.447 -25.4558 12.8049
  841 266.925 -21.8734 20.0433
  842 203.115 -5.94118 -1.77439
  843 203.110 -5.91680 1.76041
  844 232.235 21.4997 9.96124
  845 217.908 2.92634 -15.9091
  846 60.6245 70.1782 68.8343
  847 221.749 -19.7133 -4.62094
  848 222.441 -9.95016 0.882662
  849 222.562 -9.96729 -0.893793
  850 244.737 -3.58645 25.5714
  851 242.981 -15.9376 -12.0913
  852 216.606 -14.4080 -2.39333
  853 499.979 16.1983 -24.9439
  854 205.809 -19.5675 13.6658
  855 205.652 -19.8258 -13.8959
  856 244.571 -2.89667 13.0050
  857 369.784 95.1830 -20.0769
  858 192.897 -17.6464 -17.2739
  859 213.565 -24.0994 16.2352
  860 192.835 -17.4303 17.1149
  861 209.276 -8.47433 -1.98329
  862 209.267 -8.44324 1.96663
  863 30.4065 13.1433 17.9122
  864 262.928 19.6601 -27.0359
  865 200.627 -7.90380 -3.40278
  866 200.661 -7.82165 3.41586
  867 198.016 -3.30887 -0.407267
  868 198.011 -3.28477 0.404206
  869 218.362 -4.31137 0.0899770
  870 218.335 -4.28127 -0.0911285
  871 176.486 -3.54642 -4.12930
  872 176.497 -3.50564 4.11021
  873 201.440 -10.6980 -5.23133
  874 201.464 -10.6214 5.25368
  875 4.73932 -2.27262 -1.97268
  876 305.071 57.2323 14.5594
  877 262.374 -9.16339 -21.8801
  878 213.402 -23.7522 -16.4175
  879 230.689 -7.39118 2.51658
  880 230.585 -7.31190 -2.44964
  881 251.471 0.335915 27.4939
  882 274.343 -19.5799 -10.6044
  883 243.143 16.8260 -89.0867
  884 109.224 -1.68850 43.7756
  885 -4.54659 2.54938 -2.82553
  886 -3.99069 2.87461 3.15221
  887 30.1845 13.9798 -18.2785
  888 246.067 -7.00259 9.90343
  889 259.350 -1.61791 -4.18897
  890 233.038 -22.3671 37.7415
  891 108.959 -1.56596 -43.9566
  892 259.712 -21.2037 6.64051
  893 290.002 -8.77968 32.4624
  894 208.131 0.826221 7.10102
  895 239.555 22.7846 16.9943
  896 128.889 -7.30557 32.2809
  897 128.381 -7.36509 -32.5043
  898 154.725 -7.48640 -18.0747
  899 163.416 -7.90978 -55.9285
  900 259.545 -6.03154 24.4521
  901 357.734 83.5852 11.5603
  902 260.411 10.0396 27.5699
  903 246.177 -5.20416 -14.5511
  904 166.905 -7.08762 57.3261
  905 314.411 57.8480 -11.0392
  906 30.6064 26.1886 -25.4271
  907 226.636 -0.469928 -7.63413
  908 154.888 -7.42320 17.9063
  909 189.421 -4.24247 2.83887
  910 189.418 -4.27310 -2.84616
  911 243.342 -15.8534 12.4706
  912 253.205 -1.50351 1.04450
  913 185.834 1.76574 -69.6287
  914 267.207 -0.550959 1.98633
  915 265.079 -0.447862 -2.52029
  916 195.866 1.66661 -6.14756
  917 255.763 -1.02383 -4.44670
  918 190.145 -9.01182 -7.00398
  919 190.273 -8.87375 7.02413
  920 -6.42335 2.28286 -3.71910
  921 -8.78296 1.37612 3.90508
  922 253.204 -1.38990 -1.05469
  923 82.4016 -1.84200 29.5188
  924 81.8844 -1.65929 -29.6932
  925 269.716 39.4250 21.4284
  926 488.110 8.79872 7.75031
  927 253.642 28.2499 22.3786
  928 288.751 -10.2750 8.39656
  929 250.174 -13.8860 19.2309
  930 311.713 65.4167 -8.39231
  931 191.519 0.770200 4.63147
  932 240.801 -5.57951 -4.08950
  933 249.702 13.4275 -27.0662
  934 303.131 8.75553 -6.16336
  935 234.527 -14.4747 -6.12115
  936 117.977 -0.686347 -6.46741
  937 118.108 -0.662195 6.37316
  938 247.651 -5.74861 -11.4808
  939 7.98120 10.2217 1.79211
  940 237.687 -24.6341 -1.75261
  941 204.385 5.96348 -0.634878
  942 309.431 68.2276 -5.57844
  943 48.3059 35.9916 -42.5494
  944 237.368 -1.76385 -15.0316
  945 163.316 -2.81501 -5.62578
  946 163.345 -2.78113 5.57499
  947 1.33984 -6.87028 5.26279
  948 160.543 -12.0634 -25.9445
  949 242.069 -13.9571 -11.7159
  950 148.443 0.317272 -0.462541
  951 148.475 0.318931 0.459096
  952 243.789 29.6050 -13.6324
  953 263.067 -0.691795 -0.402651
  954 263.069 -0.703309 0.524463
  955 160.610 -12.0280 25.7606
  956 244.756 -0.312284 -5.96023
  957 282.395 2.02388 18.5265
  958 250.409 -3.44011 4.76772
  959 39.1145 10.1378 -22.7808
  960 259.905 -1.49741 3.80336
  961 234.593 1.86150 23.5135
  962 247.442 34.3294 12.1297
  963 247.929 2.87625 -27.7117
  964 169.868 -9.23984 -15.4494
  965 268.228 -9.45850 18.4239
  966 169.976 -9.20172 15.2861
  967 7.57807 8.35703 -0.420732
  968 28.4962 5.05740 16.6782
  969 137.881 -2.51014 10.6717
  970 137.708 -2.51337 -10.7365
  971 240.969 -5.69059 4.29836
  972 258.403 45.0713 6.73986
  973 131.287 12.1507 -65.8153
  974 216.182 -13.5544 2.04182
  975 202.886 -21.2795 -20.7819
  976 296.429 56.9059 14.9586
  977 227.829 -3.96292 0.460560
  978 227.820 -3.93966 -0.461744
  979 250.011 -4.54261 -8.29208
  980 230.016 19.8210 -9.19180
  981 528.789 155.550 105.022
  982 47.0222 2.74482 -22.1049
  983 47.7982 2.28370 22.1582
  984 3.49336 -5.00606 0.913310
  985 230.797 12.7460 18.8665
  986 202.815 -21.4060 20.6220
  987 251.890 -11.8630 -21.7980
  988 274.142 22.4243 26.7834
  989 264.146 -21.3264 -24.8474
  990 386.287 81.3844 26.4497
  991 223.559 -3.56470 -0.0586460
  992 223.530 -3.53330 0.0590035
  993 262.155 -10.6422 20.7835
  994 17.9209 28.6092 30.5444
  995 116.201 -2.50147 15.3103
  996 115.823 -2.46966 -15.4825
  997 139.370 -6.93238 20.8932
  998 138.880 -6.82896 -20.9779
  999 157.214 -6.60053 14.9582
  1000 171.858 -1.42578 -0.752267
  1001 171.880 -1.41482 0.748921
  1002 436.559 137.270 -86.9538
  1003 393.495 98.5265 39.7390
  1004 157.087 -6.63607 -15.0911
  1005 270.069 -1.21452 22.8973
  1006 240.712 24.9810 -16.3769
  1007 170.042 -14.5741 46.3423
  1008 219.040 -25.8665 -24.6321
  1009 250.458 -2.01584 -8.77063
  1010 112.170 7.85791 53.4782
  1011 144.009 -11.0207 37.0391
  1012 220.279 11.2312 -11.7986
  1013 253.150 -4.98484 -26.1599
  1014 326.758 129.554 140.615
  1015 207.682 6.29076 8.38385
  1016 284.276 61.5200 -1.04562
  1017 209.533 8.11742 -79.1871
  1018 212.372 -22.4209 -13.9551
  1019 271.038 -0.238896 -1.00255
  1020 258.780 23.7904 -25.9612
  1021 149.946 -1.01873 3.80821
  1022 149.877 -1.02918 -3.84650
  1023 5.41906 2.08800 -7.52385
  1024 169.936 -7.88842 -12.8640
  1025 143.837 -11.1640 -37.3295
  1026 169.797 -7.86870 12.7145
  1027 247.376 -7.49946 24.1885
  1028 221.786 -13.7437 -0.00748152
  1029 232.547 4.24660 -22.7630
  1030 239.231 29.9026 4.77871
  1031 327.057 19.2240 10.4245
  1032 245.263 -18.6033 11.9535
  1033 153.999 -12.4103 -28.3914
  1034 230.479 8.11390 -21.2827
  1035 171.564 -14.3741 -46.6004
  1036 330.747 72.0956 -1.09681
  1037 223.768 14.6409 10.7332
  1038 284.652 -1.71970 -14.4333
  1039 213.700 -22.4261 12.7835
  1040 245.126 -7.72663 18.7562
  1041 243.640 -12.8240 13.6743
  1042 242.306 -12.1459 11.8925
  1043 299.681 37.9669 -19.8923
  1044 241.696 -3.87408 18.9431
  1045 218.660 -25.9392 24.2231
  1046 233.418 -9.50461 4.13524
  1047 154.093 -12.4319 28.2233
  1048 218.927 -16.1967 -2.53853
  1049 126.450 -6.11299 -39.6209
  1050 181.206 -18.8600 31.3461
  1051 246.322 -1.63543 -10.1543
  1052 239.653 -2.69481 -21.4853
  1053 207.459 -16.5074 -8.39502
  1054 126.670 -6.29570 39.2982
  1055 222.900 0.513736 -14.8719
  1056 165.499 -11.1136 -20.0500
  1057 301.727 64.4544 9.52198
  1058 66.3653 11.1969 -37.4046
  1059 521.532 36.8844 50.5365
  1060 120.220 9.13604 -56.0351
  1061 242.291 -20.0532 -7.58351
  1062 165.539 -11.0159 19.8780
  1063 220.435 2.28463 16.6074
  1064 122.545 -2.54358 12.6703
  1065 122.476 -2.60700 -12.8039
  1066 245.051 -6.79216 -22.4053
  1067 261.613 -1.22503 1.59013
  1068 255.961 -0.542142 4.49997
  1069 252.703 8.40844 27.9639
  1070 236.089 -1.77790 20.1578
  1071 183.627 19.4571 85.6967
  1072 272.845 -0.171656 0.494931
  1073 254.136 34.5036 17.8184
  1074 214.296 3.05169 14.2901
  1075 259.384 -0.951569 4.33295
  1076 164.837 -1.84362 -3.12973
  1077 164.864 -1.82230 3.10757
  1078 104.397 -3.00980 -21.1171
  1079 104.826 -3.11778 20.9645
  1080 214.973 10.6527 5.99080
  1081 328.332 17.0486 -22.6708
  1082 301.636 -0.734378 -44.4689
  1083 238.599 -0.200193 -6.16671
  1084 181.286 -19.0029 -31.5896
  1085 207.893 -15.6988 7.45725
  1086 240.029 -0.539788 6.43802
  1087 251.936 -18.2344 -14.0275
  1088 155.175 -0.392907 1.88037
  1089 155.138 -0.399630 -1.89303
  1090 241.825 -20.6277 7.58049
  1091 229.710 -4.63327 0.887288
  1092 229.672 -4.63714 -0.871241
  1093 223.432 -22.5479 7.81709
  1094 289.217 -9.41308 -2.02041
  1095 128.301 -0.240222 -3.59028
  1096 128.518 -0.231846 3.55021
  1097 196.240 -12.3174 -53.3882
  1098 208.161 -4.97973 0.908049
  1099 208.183 -5.00945 -0.917784
  1100 126.318 67.2575 94.1279
  1101 289.899 23.7022 -22.2743
  1102 41.8830 20.6378 -28.0264
  1103 250.570 -3.63517 -4.60995
  1104 65.9906 22.8999 -42.8734
  1105 137.760 -8.76002 -26.9901
  1106 273.000 -0.248443 0.297882
  1107 273.117 -0.229955 -0.221584
  1108 246.085 -14.0086 -16.5183
  1109 217.957 -24.4155 -34.0632
  1110 66.3977 9.53082 35.6437
  1111 267.594 26.5199 25.3571
  1112 243.307 -2.34253 -0.424772
  1113 243.332 -2.34505 0.448725
  1114 266.468 -17.2585 41.2174
  1115 273.794 55.0480 9.80805
  1116 161.168 -3.98559 -8.07779
  1117 161.206 -3.96569 8.01603
  1118 123.003 14.2016 66.4090
  1119 231.992 1.15273 -22.0439
  1120 72.1687 23.4701 46.1538
  1121 300.358 -5.33999 -12.9665
  1122 293.534 65.2329 3.02921
  1123 201.359 -16.0481 10.3503
  1124 184.127 0.929106 -0.902396
  1125 256.880 -2.18601 5.59440
  1126 266.287 -0.293624 2.18763
  1127 56.3267 0.116057 -10.6013
  1128 57.1492 0.0871805 10.5263
  1129 207.371 3.39436 -10.5730
  1130 214.922 -6.32638 -0.507298
  1131 214.870 -6.29417 0.503322
  1132 22.3807 33.5302 -32.4580
  1133 35.8252 75.0958 -65.8207
  1134 217.743 -8.51886 0.227096
  1135 217.832 -8.52102 -0.238098
  1136 225.185 -5.38497 0.969017
  1137 225.153 -5.37192 -0.948540
  1138 58.4415 37.4319 46.3256
  1139 176.377 -2.24918 -1.48514
  1140 176.395 -2.23218 1.47721
  1141 222.533 16.7615 -0.253536
  1142 287.638 34.9812 -99.0664
  1143 272.660 47.1359 -16.7967
  1144 248.977 -9.52438 -22.9296
  1145 245.304 -12.1897 -16.7082
  1146 201.497 -16.2011 -10.5288
  1147 201.497 0.629347 6.52725
  1148 227.744 14.1458 -15.7641
  1149 224.466 12.0146 15.0436
  1150 233.262 -9.22368 -4.06302
  1151 222.366 -13.4635 -0.154203
  1152 201.726 -13.1525 -7.70781
  1153 240.609 -1.39843 12.0024
  1154 429.176 43.4034 6.07539
  1155 242.332 -5.14515 21.8736
  1156 242.851 15.9443 23.7728
  1157 224.491 -22.1419 -5.68465
  1158 26.9161 4.65437 -16.0739
  1159 228.704 -10.5650 -3.02312
  1160 149.538 -0.263559 -0.0873170
  1161 149.567 -0.262522 0.0861603
  1162 279.560 -7.40947 12.4536
  1163 266.450 -22.4074 8.62874
  1164 383.412 68.9096 16.5262
  1165 89.0539 -0.205709 -8.86687
  1166 89.6204 -0.185993 8.79656
  1167 203.550 -4.14308 -0.794849
  1168 203.538 -4.11543 0.787989
  1169 229.464 -20.2747 0.0361164
  1170 185.832 0.803507 2.95097
  1171 235.062 -16.7337 5.89415
  1172 12.9047 15.3460 -7.06378
  1173 41.4784 20.9096 27.4217
  1174 156.676 -8.41138 51.6264
  1175 271.494 51.9199 -11.9825
  1176 260.368 -0.695174 -3.41908
  1177 274.194 -0.411246 0.211254
  1178 274.480 -0.572305 -0.139620
  1179 155.979 -0.416050 -0.300801
  1180 156.010 -0.412873 0.298217
  1181 250.169 16.0107 27.0438
  1182 372.283 63.9540 -1.35257
  1183 257.570 42.7157 -12.0956
  1184 192.932 -14.0909 53.0421
  1185 155.839 -8.07086 -51.5320
  1186 172.768 -11.7168 -17.9308
  1187 241.076 -6.65490 5.43835
  1188 337.258 74.0811 1.47822
  1189 172.777 -11.6436 17.7815
  1190 246.542 -4.19807 4.11853
  1191 218.391 8.04168 14.3433
  1192 241.622 7.46873 25.9355
  1193 346.025 77.4098 7.29499
  1194 203.958 -5.36256 1.49729
  1195 203.972 -5.39069 -1.50982
  1196 249.666 -4.59308 8.60608
  1197 145.702 -1.62420 5.98562
  1198 145.598 -1.64106 -6.04383
  1199 244.303 -3.21005 -1.90034
  1200 100.026 59.3426 -90.8304
  1201 211.488 -11.8665 -56.7776
  1202 198.219 -6.28948 -2.91855
  1203 198.236 -6.25863 2.91922
  1204 262.767 -1.14201 1.42015
  1205 248.087 -3.13137 3.30071
  1206 13.1935 16.2681 11.7698
  1207 270.715 -0.267534 1.16536
  1208 31.5423 39.4828 39.1751
  1209 242.143 -3.50612 -2.42959
  1210 -0.354126 -6.00267 -5.24657
  1211 170.311 -16.6057 -39.9201
  1212 169.818 -16.1985 39.5097
  1213 270.711 -0.444380 -1.28216
  1214 230.185 -12.1360 -3.55882
  1215 262.551 -1.03129 -1.47005
  1216 208.602 -6.78774 -1.32191
  1217 208.578 -6.75996 1.30301
  1218 244.141 -3.18514 1.79150
  1219 228.537 -10.3604 2.99141
  1220 219.669 -7.05671 -0.335855
  1221 219.751 -7.07898 0.364338
  1222 262.353 -1.06376 -1.20494
  1223 225.785 -23.7022 -38.4752
  1224 256.477 -1.46208 -1.24710
  1225 243.207 -3.60901 2.59443
  1226 167.579 -1.92049 -2.29876
  1227 167.603 -1.90126 2.28362
  1228 187.994 -2.82260 -1.13213
  1229 188.000 -2.80189 1.12557
  1230 307.383 47.8125 16.8999
  1231 258.123 -19.7691 10.7122
  1232 176.544 -0.745526 65.6695
  1233 139.150 -0.262925 2.29586
  1234 139.031 -0.265628 -2.32050
  1235 243.974 -4.46988 16.4929
  1236 233.769 -3.44374 0.583575
  1237 233.782 -3.43096 -0.583188
  1238 267.025 52.2019 5.57934
  1239 245.642 -25.6721 30.1868
  1240 139.735 -2.04762 8.43841
  1241 139.593 -2.06382 -8.50492
  1242 233.360 -5.62247 2.18050
  1243 233.309 -5.66008 -2.12408
  1244 240.950 -6.56874 -5.25007
  1245 219.913 0.0334211 7.70531
  1246 384.432 95.4604 -30.8178
  1247 245.265 -8.91578 -14.7494
  1248 40.9960 10.0005 23.4508
  1249 253.488 -13.4558 20.4127
  1250 201.521 4.32093 -5.77954
  1251 14.9116 11.2979 8.18570
  1252 335.805 36.7002 -1.27254
  1253 247.405 -11.2109 -20.5157
  1254 202.524 2.80949 8.84733
  1255 138.752 -8.77255 26.9328
  1256 251.597 -19.4265 12.6078
  1257 367.522 68.8163 19.9206
  1258 83.3888 12.5244 45.4788
  1259 253.025 -2.91018 -7.40000
  1260 492.254 5.45307 -5.00670
  1261 509.145 7.69395 22.4045
  1262 544.466 18.7439 -53.0870
  1263 244.828 -7.59211 -18.2185
  1264 244.962 -11.1280 15.6650
  1265 249.008 -17.6756 14.8116
  1266 -7.35308 0.794204 4.70320
  1267 -6.70790 0.619247 -5.10013
  1268 242.572 -26.7550 -13.5665
  1269 248.732 -25.0889 -20.7734
  1270 187.242 1.15403 -3.64863
  1271 241.620 -27.2503 20.8004
  1272 257.930 -12.1859 -20.7463
  1273 4.65501 7.50294 0.485486
  1274 208.770 -3.81118 0.623904
  1275 208.787 -3.84028 -0.625566
  1276 256.765 -1.95970 5.07270
  1277 246.537 -4.11999 -3.88023
  1278 231.814 -25.3181 -6.83689
  1279 211.122 -11.5002 2.96335
  1280 210.032 -11.3429 -3.28859
  1281 248.586 -5.17861 11.6924
  1282 254.687 -9.31320 -23.6592
  1283 15.4857 11.7806 -7.87302
</Section>

newXOutput 34

<Section columns = "stress_xx | stress_yy | stress_xy">
  1 284.283 -0.0177308 0.575035
  2 284.301 -0.0140390 -0.577017
  3 151.550 -0.0696192 -0.208461
  4 -1.93514 -1.91991 -2.78086
  5 519.253 200.668 163.548
  6 514.317 208.226 -164.025
  7 -2.24565 -1.83007 2.95113
  8 151.521 -0.0702280 0.207828
  9 286.365 -0.456504 0.181739
  10 285.718 -0.730317 -0.127108
  11 284.989 -0.468793 0.678433
  12 284.265 -0.662478 0.216821
  13 282.715 -0.551095 1.07019
  14 281.317 -0.561106 0.797383
  15 278.078 -0.498079 1.52837
  16 273.513 -0.320260 2.24538
  17 269.427 -0.355111 2.48607
  18 263.421 -0.522507 2.99089
  19 255.157 -0.0172022 4.40201
  20 247.520 -0.386133 4.16781
  21 238.905 -0.517094 5.85029
  22 226.452 0.368942 5.07363
  23 217.498 0.537336 5.98392
  24 205.824 0.917534 4.66948
  25 197.774 0.933248 4.70145
  26 186.106 1.33503 2.39298
  27 183.661 2.10683 2.56073
  28 182.196 1.71060 -0.754372
  29 184.216 0.962606 -1.66684
  30 187.927 0.955706 -2.04150
  31 196.664 1.22139 -4.08134
  32 205.146 0.963722 -5.17680
  33 217.649 0.191634 -6.14743
  34 227.663 -0.137155 -5.61899
  35 238.380 -0.413671 -5.53849
  36 248.106 -0.299849 -3.92088
  37 256.506 -0.307015 -3.36596
  38 263.463 -0.508630 -2.83681
  39 269.721 -0.354925 -1.99372
  40 273.662 -0.413040 -2.12330
  41 277.467 -0.523813 -1.55570
  42 281.093 -0.626941 -0.699685
  43 282.962 -0.499886 -0.810446
  44 283.977 -0.292072 -0.513429
  45 283.316 -0.137305 -0.467412
  46 286.028 -0.741201 0.0796005
  47 286.462 -0.477429 -0.187590
  48 276.735 -0.145148 -0.355161
  49 270.304 -1.05965 -0.629714
  50 262.481 -1.57999 -0.426117
  51 252.964 -2.38876 -0.579835
  52 243.970 -2.63074 -0.726098
  53 234.390 -3.34244 -0.687430
  54 225.928 -3.74677 -0.390862
  55 218.509 -4.23146 -0.157714
  56 209.956 -3.52237 -0.157039
  57 200.101 -3.31238 -0.238804
  58 190.595 -2.63357 -0.0835112
  59 181.582 -1.69894 -0.0354653
  60 173.006 -1.22437 0.00551227
  61 165.468 -0.645509 0.0725688
  62 157.737 -0.186873 -0.240362
  63 151.653 0.209384 0.284068
  64 148.945 0.613817 0.184636
  65 150.854 -0.00237656 0.448383
  66 148.842 -0.0937527 0.537339
  67 147.004 -0.134934 0.671274
  68 144.494 -0.0258107 0.882449
  69 141.324 -0.0152487 1.11699
  70 139.028 -0.204935 2.17530
  71 132.266 0.195102 2.37982
  72 127.537 -0.0199543 2.73737
  73 120.493 -0.132369 3.10164
  74 112.364 -0.219031 3.77973
  75 102.210 -0.0545036 4.58907
  76 89.8276 0.0538478 5.04930
  77 79.2154 -0.123375 7.20910
  78 58.1046 0.680098 6.77982
  79 43.8211 0.587746 7.17802
  80 26.7945 -0.111214 7.92814
  81 12.7445 1.35152 8.19841
  82 -3.20600 1.99779 4.83394
  83 -14.6918 2.02391 1.60904
  84 -14.0314 1.92706 -0.888974
  85 -13.1275 1.59025 -3.99537
  86 -7.69207 -0.549666 -3.75611
  87 -0.968973 -7.38497 -4.13375
  88 0.682996 -13.6638 -5.21777
  89 1.96492 -21.8198 -3.02314
  90 4.40353 -22.7398 -0.0624867
  91 9.37500 -6.93375 11.9926
  92 28.2738 40.6861 41.8569
  93 169.536 152.776 145.615
  94 627.232 93.1013 105.722
  95 563.643 13.3836 34.6441
  96 522.676 5.49802 10.6017
  97 507.522 4.64096 0.839327
  98 515.447 6.21375 -9.14389
  99 562.153 12.4007 -27.3926
  100 666.508 44.9432 -91.5888
  101 100.236 155.400 -121.363
  102 21.1945 27.2303 -34.4184
  103 10.2145 -5.90635 -12.4825
  104 4.10788 -22.8772 -1.86238
  105 1.10860 -16.7097 3.49712
  106 1.43760 -17.1977 4.54368
  107 0.0512227 -6.40475 4.57474
  108 -8.02373 -0.374183 3.57284
  109 -13.5478 1.19321 3.49674
  110 -14.7675 2.34625 0.971716
  111 -15.1766 1.99694 -1.47496
  112 -4.25298 2.04771 -4.51679
  113 11.8106 1.36368 -7.80968
  114 25.8394 0.0305921 -7.79724
  115 42.8392 0.635821 -7.19520
  116 57.2125 0.698599 -6.83459
  117 78.5227 -0.126339 -7.27341
  118 89.2334 0.0605634 -5.10113
  119 101.692 -0.0521946 -4.64953
  120 112.096 -0.241609 -3.81059
  121 120.139 -0.126525 -3.11128
  122 127.270 -0.0111102 -2.76767
  123 132.048 0.192521 -2.40802
  124 138.873 -0.206848 -2.19926
  125 141.202 -0.0164924 -1.13178
  126 144.403 -0.0269806 -0.894659
  127 146.938 -0.136857 -0.680989
  128 148.792 -0.0953966 -0.544151
  129 150.814 -0.00381890 -0.452763
  130 148.912 0.612950 -0.186696
  131 151.623 0.208978 -0.285342
  132 157.706 -0.188540 0.239618
  133 165.438 -0.649674 -0.0741839
  134 172.980 -1.23361 -0.00741467
  135 181.563 -1.71181 0.0336193
  136 190.585 -2.65210 0.0817127
  137 200.101 -3.33568 0.237409
  138 209.968 -3.54920 0.155709
  139 218.530 -4.26123 0.157190
  140 225.955 -3.77634 0.391887
  141 234.427 -3.36935 0.690419
  142 244.000 -2.64948 0.736885
  143 252.984 -2.40549 0.631095
  144 262.525 -1.48736 0.435818
  145 270.496 -1.02914 0.616033
  146 276.776 -0.187815 0.350010
  147 246.479 -23.1453 -2.51832
  148 246.281 -22.8357 2.60719
  149 257.941 37.1272 -13.1286
  150 275.634 16.2762 28.0206
  151 208.675 -20.0044 -45.3335
  152 210.342 -19.9882 43.8431
  153 201.936 -8.66764 5.18141
  154 201.957 -8.79152 -5.18727
  155 292.796 10.4668 -21.8450
  156 245.817 -8.78112 6.04049
  157 245.715 -8.56457 -5.96366
  158 317.779 71.2523 3.69336
  159 251.204 -0.402073 -27.1712
  160 185.223 -14.7176 -20.2208
  161 185.219 -14.5913 20.0332
  162 251.776 -5.67158 24.6216
  163 238.449 17.3559 16.0966
  164 97.9494 15.9691 -54.0696
  165 108.802 15.1120 57.0060
  166 309.720 3.34285 3.87616
  167 252.655 -9.64206 -17.2934
  168 335.188 73.6671 -2.50735
  169 227.225 -6.39206 0.312174
  170 227.175 -6.36967 -0.290710
  171 256.074 -2.98459 -2.65850
  172 256.922 -2.66678 2.30380
  173 177.148 -2.62997 -3.15253
  174 177.167 -2.60187 3.13416
  175 275.847 -7.53943 57.5693
  176 230.632 9.50757 -17.3247
  177 150.346 -11.3386 -32.7147
  178 150.800 -11.2545 32.4891
  179 168.678 -5.65976 -10.6106
  180 168.690 -5.59303 10.5256
  181 253.934 -6.61086 14.6917
  182 230.506 -15.8668 0.0783036
  183 229.670 -15.7484 0.305967
  184 262.841 -25.3746 -3.41922
  185 264.179 -24.1728 0.129429
  186 363.781 85.5142 -11.4060
  187 263.079 42.3660 12.2958
  188 263.879 16.2198 -27.9966
  189 275.019 -2.66006 -67.1144
  190 262.267 -14.7705 -19.9111
  191 264.494 -10.5254 23.3056
  192 220.155 -25.0231 21.8790
  193 220.230 -24.8506 -21.8063
  194 234.777 2.95216 20.8615
  195 106.571 -2.53377 -39.9294
  196 106.845 -2.76975 39.6741
  197 411.260 61.7958 8.81652
  198 248.268 -14.7594 11.0465
  199 257.709 -4.65467 -9.63690
  200 203.142 -5.02771 -2.30452
  201 203.143 -4.99997 2.29594
  202 246.742 -3.19226 -18.9360
  203 281.319 41.3605 -22.5843
  204 234.335 21.0135 -3.23131
  205 151.558 -5.48878 15.0187
  206 151.320 -5.50788 -15.1382
  207 261.841 -2.80618 5.34664
  208 254.105 4.78081 27.9189
  209 206.157 -15.1441 -9.46072
  210 204.707 -14.3422 9.72152
  211 300.296 44.5324 21.0286
  212 354.746 47.7346 6.23967
  213 23.3101 18.4637 -14.6760
  214 21.5357 17.0690 12.4400
  215 145.151 41.3203 95.9522
  216 245.750 -16.3127 -8.64465
  217 262.844 -2.69707 -4.83378
  218 232.023 1.99607 -19.2042
  219 161.544 -1.68194 -4.69508
  220 161.593 -1.66265 4.65058
  221 220.675 -10.4034 -1.61100
  222 220.776 -10.4642 1.48378
  223 248.976 -3.33611 16.1456
  224 288.040 -16.7163 5.29426
  225 284.718 58.4560 -6.59661
  226 223.289 -21.6447 -9.98580
  227 283.323 -4.91029 18.4572
  228 240.983 -3.96154 1.06318
  229 240.989 -3.92698 -1.06146
  230 221.597 -21.5399 10.4173
  231 254.355 -16.0937 16.2915
  232 359.927 45.4018 -20.8900
  233 78.6046 46.8281 -69.0293
  234 213.681 7.41863 4.11437
  235 254.827 22.4842 23.4864
  236 272.307 -1.87975 -25.2096
  237 254.122 -9.11250 -23.1128
  238 133.760 -4.39663 -18.8713
  239 134.238 -4.32876 18.8042
  240 254.610 -3.02359 -12.5532
  241 242.711 -6.07336 3.26950
  242 242.597 -6.06292 -3.16877
  243 49.9183 4.74610 -25.2346
  244 50.7607 4.16273 25.1546
  245 271.195 -23.6907 -19.9556
  246 268.460 -0.854563 0.772260
  247 268.767 -0.871980 -0.828437
  248 248.708 20.6065 -21.4679
  249 218.104 4.11843 12.5174
  250 462.750 74.1432 49.6349
  251 459.115 52.2767 -31.1815
  252 330.123 71.5304 -0.718703
  253 205.926 -9.85835 60.5053
  254 188.802 -6.32701 -63.3309
  255 216.112 -4.43720 -0.725777
  256 216.090 -4.40661 0.719502
  257 178.486 -4.88920 6.40685
  258 178.489 -4.95832 -6.46842
  259 261.350 -2.74200 7.83104
  260 253.348 -18.0059 -13.5486
  261 162.222 -0.343883 -1.08490
  262 162.255 -0.338242 1.07736
  263 250.149 -10.0675 -10.7338
  264 104.515 -3.45734 -26.1251
  265 104.989 -3.46886 25.9276
  266 253.155 -10.9311 18.6269
  267 192.806 -20.4651 36.4357
  268 193.320 -20.8327 -36.3261
  269 216.931 8.22279 -5.82556
  270 187.161 -2.94130 -2.11858
  271 187.174 -2.92018 2.10940
  272 236.561 -0.612676 15.4360
  273 283.389 52.0495 15.7015
  274 150.118 -1.90116 8.01598
  275 150.001 -1.91766 -8.08899
  276 260.349 -21.6903 9.82639
  277 241.013 -26.9914 -23.9786
  278 269.370 -1.20601 2.51074
  279 185.451 -11.1378 -13.7551
  280 185.113 -11.0104 13.6979
  281 333.471 33.5490 85.0064
  282 155.230 -12.4995 43.6194
  283 250.951 35.2915 -1.39609
  284 319.285 35.0343 -14.3980
  285 240.025 -18.5774 3.80987
  286 241.159 -27.7362 21.5256
  287 155.726 -12.2895 -44.1329
  288 28.5341 35.1463 31.6363
  289 250.191 -10.1063 10.9276
  290 329.042 42.7402 11.5907
  291 271.598 -1.07501 -2.17650
  292 244.490 8.52475 -24.7068
  293 241.890 -13.6631 6.16137
  294 236.774 -20.0126 -0.0894419
  295 243.541 11.1572 23.7852
  296 259.075 -21.7036 -8.85768
  297 367.687 71.7939 -5.94426
  298 241.824 -13.1295 -5.90077
  299 200.937 56.9768 -117.906
  300 247.483 -26.2142 -3.97243
  301 245.707 -26.9256 6.81266
  302 179.583 -16.3437 -28.6637
  303 160.770 -0.657149 -2.37242
  304 160.812 -0.645783 2.35178
  305 179.651 -16.3540 28.5003
  306 261.514 -0.423557 -28.1944
  307 283.014 -11.7045 -12.5959
  308 214.519 -13.0103 -4.78889
  309 214.367 -13.0394 4.88227
  310 257.902 -22.1940 38.7749
  311 256.759 -2.01592 9.50786
  312 313.343 1.16832 12.6968
  313 209.984 -7.47258 -2.58654
  314 209.995 -7.44499 2.56944
  315 190.735 -5.05400 -4.15026
  316 190.733 -5.00483 4.14263
  317 215.772 2.84958 -12.1102
  318 278.983 20.4440 -27.2198
  319 433.668 116.616 -54.7253
  320 254.557 -2.12985 -0.904242
  321 254.403 -2.10021 0.926166
  322 135.349 -0.127812 54.4245
  323 189.858 -8.73616 -9.00522
  324 189.482 -8.70293 9.02697
  325 135.327 -0.435518 -54.2177
  326 265.498 31.3700 -22.9761
  327 298.173 14.6967 20.8626
  328 257.962 -18.4137 -43.1546
  329 236.385 -9.09839 2.86142
  330 236.138 -9.02828 -2.75482
  331 252.684 -5.14905 -5.29555
  332 236.741 -0.463113 -14.4407
  333 266.454 1.17766 27.6810
  334 266.372 -1.79836 -5.41747
  335 158.595 -9.75447 21.8942
  336 158.421 -9.81128 -22.0724
  337 247.399 -0.568198 25.7663
  338 150.909 -1.28718 -4.73686
  339 151.006 -1.27490 4.69051
  340 254.507 -5.77231 8.12739
  341 305.058 62.4552 -11.8784
  342 252.543 -5.19127 5.48676
  343 268.533 33.7798 23.0835
  344 257.150 -4.75705 26.8662
  345 202.857 -3.83718 0.816197
  346 202.861 -3.86245 -0.822650
  347 242.927 -0.880998 -22.8499
  348 322.645 67.9386 8.00575
  349 267.420 49.1761 0.483334
  350 164.008 19.1247 -81.1703
  351 16.1932 7.38311 -10.7478
  352 17.8420 7.98249 11.6018
  353 -1.01009 1.78415 5.10196
  354 0.0277749 0.939553 -5.31186
  355 474.779 32.9180 11.3998
  356 221.664 -18.0777 -5.63862
  357 254.723 -5.57234 -7.93295
  358 229.381 -3.99276 0.424020
  359 229.354 -3.95878 -0.425152
  360 244.922 27.0553 -11.6190
  361 209.225 -21.4084 17.9829
  362 17.9655 26.6157 -19.3701
  363 209.441 -21.4072 -18.3279
  364 248.198 28.2369 12.3655
  365 253.930 -6.71962 -14.0113
  366 269.646 -15.0039 -17.1659
  367 286.641 60.7743 4.55824
  368 270.317 -16.8294 14.3473
  369 110.004 -2.80117 17.5181
  370 109.319 -2.74756 -17.6385
  371 61.8133 1.57455 -24.1764
  372 62.5059 1.31775 24.0653
  373 219.300 0.665676 12.2620
  374 421.210 122.263 46.3347
  375 262.805 -1.62523 -6.82874
  376 203.704 -17.3293 -13.7193
  377 203.521 -17.2800 13.6995
  378 252.278 -5.78445 -17.6362
  379 288.248 -13.9328 3.14334
  380 221.656 -18.0591 5.82641
  381 317.066 1.96013 -24.6790
  382 176.927 -1.48370 -0.791683
  383 176.950 -1.47049 0.785077
  384 247.867 -1.42791 -11.2052
  385 131.965 -1.96132 -11.4469
  386 132.054 -2.02284 11.3023
  387 296.829 37.8829 -23.2743
  388 160.023 11.3529 75.3174
  389 232.005 -12.1946 1.63239
  390 232.236 -12.1713 -1.64469
  391 272.453 46.2104 -14.6618
  392 258.219 -7.62907 -25.5241
  393 259.490 -26.4791 20.7732
  394 215.347 -5.74179 -1.11215
  395 215.319 -5.71167 1.09860
  396 249.277 -19.2205 9.30656
  397 269.018 -1.23822 4.03896
  398 166.011 -6.17554 -13.3226
  399 166.075 -6.17383 13.2024
  400 252.712 8.47217 -27.5196
  401 238.881 -5.12786 1.61764
  402 238.871 -5.13894 -1.58400
  403 246.779 -2.89711 21.0540
  404 229.328 16.6560 5.55091
  405 256.200 -10.7852 22.3632
  406 371.322 77.9274 13.3567
  407 122.604 -6.61753 -35.0100
  408 122.954 -6.62048 34.7327
  409 54.5467 29.4642 -41.3102
  410 275.597 -0.750250 1.14826
  411 137.560 -1.21509 -7.23668
  412 137.750 -1.18931 7.17108
  413 252.501 -6.55409 17.2964
  414 228.991 -24.8908 11.5325
  415 259.210 -3.13602 3.75684
  416 263.436 13.3908 28.7671
  417 57.2675 31.3725 43.1443
  418 229.346 -24.7560 -10.5558
  419 237.048 -22.0600 -1.51098
  420 75.9441 -1.52892 -21.9654
  421 76.5480 -1.58856 21.8080
  422 181.759 -14.4645 -52.6153
  423 272.389 -4.03586 24.6275
  424 181.032 -14.6927 52.1392
  425 251.485 -14.0951 -14.6752
  426 232.659 15.6400 -12.1881
  427 251.537 -10.8273 13.9001
  428 271.445 -1.15441 -2.75628
  429 8.00067 8.36302 3.39849
  430 54.3601 62.2165 61.3110
  431 241.453 -0.892160 10.7785
  432 201.418 2.70001 5.29146
  433 205.042 3.30624 -7.18741
  434 174.947 -2.97345 -4.51844
  435 174.962 -2.93457 4.48634
  436 247.979 -19.2109 -8.57374
  437 250.263 -4.88612 -23.6037
  438 202.548 3.72714 -1.95287
  439 371.352 88.3467 17.2140
  440 50.4121 16.9771 -30.9042
  441 55.6610 15.5853 33.0766
  442 231.792 -8.25119 1.43618
  443 231.701 -8.22870 -1.37205
  444 309.204 68.6426 -0.965316
  445 194.607 78.5235 120.519
  446 298.412 -4.28015 -5.33220
  447 169.848 -8.97489 -18.0783
  448 169.925 -8.91097 17.9171
  449 170.678 -3.90312 7.08957
  450 170.649 -3.93304 -7.15816
  451 231.332 5.08455 -19.7568
  452 277.075 -0.348447 -0.770028
  453 224.646 10.2410 11.0724
  454 285.388 35.2623 25.0101
  455 237.454 -17.6435 -2.87845
  456 259.119 -2.97860 -3.64694
  457 272.598 -1.04004 2.53971
  458 276.293 -0.369689 0.440884
  459 276.532 -0.423099 -0.329124
  460 149.729 -0.290528 1.74291
  461 149.655 -0.294743 -1.76241
  462 260.003 -16.4867 17.7284
  463 233.591 9.16922 19.1301
  464 244.593 0.978421 -25.1108
  465 256.115 -5.34049 10.4649
  466 372.208 60.9613 -70.9380
  467 256.610 -14.2117 -19.6842
  468 2.10786 4.80064 1.75341
  469 2.10149 4.86375 -0.484636
  470 202.559 -11.5735 7.62038
  471 201.866 -11.4227 -7.53426
  472 320.653 5.41382 37.7659
  473 89.1608 80.1661 -90.9493
  474 253.022 -0.749660 8.41898
  475 287.995 -16.8299 -21.1441
  476 151.766 -8.83366 25.3835
  477 307.811 54.6199 -17.0538
  478 252.905 -13.6618 16.5513
  479 211.734 -10.1889 -3.60903
  480 211.922 -10.0173 3.59658
  481 219.244 1.14877 -10.8329
  482 151.285 -8.80105 -25.5501
  483 224.997 0.0723896 10.9054
  484 216.537 -24.7464 -32.4074
  485 215.986 -24.7843 32.5123
  486 261.240 -1.69775 7.53079
  487 236.278 22.2515 2.29558
  488 241.705 3.93267 82.1299
  489 354.899 72.5298 -0.456310
  490 244.820 -4.05568 1.79859
  491 244.836 -4.04034 -1.85437
  492 187.054 -3.38602 -2.82096
  493 187.065 -3.35675 2.80910
  494 98.4895 4.66510 45.5960
  495 253.996 -12.2068 -19.2220
  496 230.126 -4.97534 0.389916
  497 230.102 -4.95632 -0.384205
  498 200.165 -21.2484 26.5342
  499 100.424 6.14547 -46.7678
  500 254.485 -20.7160 -9.79322
  501 4.23755 0.622087 2.26397
  502 221.148 11.3547 0.801468
  503 245.760 -2.76307 -0.600093
  504 245.751 -2.80315 0.588231
  505 200.302 -21.2148 -26.7460
  506 288.315 -14.9435 27.3252
  507 285.093 10.3554 25.5553
  508 263.443 -1.70467 -1.83325
  509 253.705 -21.0113 9.91903
  510 157.007 -0.172683 -0.303445
  511 157.040 -0.171182 0.300582
  512 253.165 -9.69812 -20.4248
  513 244.608 18.0921 20.9707
  514 281.559 6.95274 -25.2276
  515 156.063 -0.269932 -0.978049
  516 156.101 -0.266306 0.970772
  517 494.926 71.4643 -64.1113
  518 254.690 30.3683 18.5062
  519 263.684 -1.56039 1.63609
  520 237.584 -22.5432 2.08103
  521 198.948 -6.65428 4.15973
  522 198.949 -6.70699 -4.15133
  523 277.089 -16.8459 8.37019
  524 265.896 -5.28507 -25.8673
  525 297.116 58.7022 14.1472
  526 246.749 4.23271 26.0283
  527 249.503 -4.72470 3.41805
  528 242.576 -25.8397 -31.0624
  529 251.140 -6.19171 20.0595
  530 489.487 22.4041 -8.99392
  531 275.098 -20.7181 -1.38431
  532 261.804 -1.64521 -0.452836
  533 261.865 -1.75726 0.404790
  534 494.554 33.1993 31.5896
  535 240.466 -0.0952693 22.1362
  536 338.639 56.5529 -7.03329
  537 253.850 -6.84885 -10.2090
  538 112.891 -1.09117 -7.83430
  539 113.258 -1.03897 7.75171
  540 171.082 -16.0487 -36.5424
  541 171.209 -15.7787 36.2635
  542 249.368 -4.52370 -3.38347
  543 271.200 9.96273 -28.1970
  544 238.170 -16.2165 3.78600
  545 255.841 29.3577 -19.2206
  546 258.372 -2.95344 10.1392
  547 324.883 15.9429 -2.43634
  548 220.511 -7.57657 -0.843112
  549 220.440 -7.54743 0.829375
  550 239.889 -11.3071 4.66122
  551 354.964 69.9045 -3.87179
  552 252.408 11.0414 27.0436
  553 107.599 27.7431 67.5302
  554 244.769 -14.7083 54.6396
  555 324.594 15.0471 -60.0437
  556 258.090 21.3459 -25.1998
  557 229.523 -19.7911 -47.3210
  558 248.491 -27.2073 -8.73409
  559 259.739 -26.2561 -13.1093
  560 33.6465 43.2312 -41.0124
  561 261.025 -3.22934 -6.32713
  562 393.490 76.6408 -21.8881
  563 241.193 -10.8358 -5.14245
  564 243.254 -7.87073 4.23751
  565 243.025 -7.68715 -4.07598
  566 166.238 -1.00814 -2.14571
  567 166.270 -0.995036 2.13008
  568 22.9010 2.50740 -13.2008
  569 24.2493 2.62601 13.5129
  570 123.657 -5.81547 -26.7359
  571 124.624 -5.84607 26.6870
  572 246.572 -13.3331 -9.42198
  573 251.442 -27.3170 9.49744
  574 258.482 -24.5028 2.44080
  575 211.113 -3.74155 -0.731013
  576 211.099 -3.71326 0.726865
  577 200.612 -21.0075 -40.5239
  578 225.052 -18.4126 50.1121
  579 195.678 -19.7483 40.7658
  580 253.485 -5.61314 -25.3905
  581 157.486 -2.70003 8.02561
  582 157.409 -2.72880 -8.09642
  583 241.184 13.2934 -21.0498
  584 241.641 -0.421577 -9.78312
  585 302.381 65.9143 -6.43527
  586 196.704 -3.02246 -0.743915
  587 196.707 -3.00131 0.740031
  588 258.180 -0.750137 -5.54897
  589 177.138 -6.10217 -8.82403
  590 177.137 -6.07914 8.74303
  591 145.175 6.83068 64.7422
  592 251.282 -11.5243 -14.0593
  593 139.467 -7.31445 46.4731
  594 246.928 -12.7675 9.60788
  595 260.270 -3.60176 6.97319
  596 257.122 -2.26186 -1.63487
  597 179.081 -2.28433 -1.97439
  598 179.101 -2.26496 1.96296
  599 289.952 58.0871 -12.6909
  600 139.370 -7.02805 -46.6568
  601 246.116 -10.6155 -7.73268
  602 221.578 -4.10075 -0.326157
  603 221.554 -4.06889 0.324703
  604 418.889 56.5112 -9.91437
  605 145.522 -0.974203 4.44289
  606 145.394 -0.983864 -4.48678
  607 228.481 5.18921 18.0122
  608 329.185 27.1745 -5.22545
  609 154.795 1.19572 -64.2854
  610 78.4216 2.09030 -34.8812
  611 79.0932 1.62800 34.6948
  612 193.885 -11.4458 10.8618
  613 195.959 -11.7829 -10.5302
  614 332.193 66.8547 7.07743
  615 256.037 -2.34786 1.48865
  616 218.242 6.06629 -10.8642
  617 273.116 49.2326 11.5938
  618 272.093 51.0978 -7.70782
  619 223.632 -12.4439 -1.42733
  620 225.367 -12.1569 0.620621
  621 160.662 34.8713 -92.6173
  622 191.549 -6.65961 -5.99097
  623 191.561 -6.58148 5.96777
  624 491.857 100.599 75.6776
  625 253.239 -8.26911 21.9987
  626 143.306 -5.17473 -17.1326
  627 396.275 90.1060 59.2699
  628 143.646 -5.14448 17.0627
  629 242.845 -9.32081 -63.9447
  630 169.352 -0.888379 -0.792051
  631 169.381 -0.880597 0.787639
  632 210.159 1.84294 9.47253
  633 94.5976 -1.44502 -15.3958
  634 95.1495 -1.44850 15.2698
  635 220.722 -15.7011 4.23982
  636 231.686 -18.6046 -0.737098
  637 274.090 -0.559467 -2.30618
  638 152.221 -0.267809 1.27761
  639 152.165 -0.272448 -1.29200
  640 207.884 -4.72093 -1.06209
  641 207.874 -4.69271 1.05272
  642 239.571 -26.5374 31.4182
  643 274.865 30.7190 -25.5197
  644 181.929 -8.62258 -11.3859
  645 181.791 -8.47539 11.2994
  646 216.574 -15.6805 -6.12658
  647 342.308 74.7262 1.44931
  648 256.929 -24.8255 -1.00388
  649 222.444 -5.31776 -0.344986
  650 222.409 -5.28952 0.345890
  651 307.078 33.5045 19.8783
  652 257.296 -3.65556 -11.0233
  653 226.342 -0.301458 -8.88708
  654 104.057 -3.54617 -33.5717
  655 104.391 -3.64993 33.2880
  656 216.050 -18.7417 -10.1018
  657 324.734 71.9080 0.201473
  658 251.048 34.0341 -8.33511
  659 165.434 -1.57299 -3.97406
  660 165.470 -1.55083 3.93981
  661 234.699 -6.59892 -1.40469
  662 234.745 -6.60824 1.45717
  663 440.217 57.5714 25.3020
  664 278.609 -0.707578 0.638018
  665 268.644 -1.01949 3.94088
  666 267.534 -1.04634 -4.59766
  667 253.713 -23.5912 4.68671
  668 185.399 -2.21859 -0.987110
  669 185.415 -2.20202 0.982220
  670 270.500 43.4696 17.8190
  671 348.219 77.5389 -3.81338
  672 189.385 -14.2244 -16.1365
  673 189.322 -14.0810 16.0500
  674 237.881 -24.5344 -4.35112
  675 250.458 14.8779 -25.4397
  676 298.730 0.719796 11.7292
  677 196.826 -3.72059 -1.92092
  678 196.829 -3.69526 1.91204
  679 170.268 -15.0006 -32.9994
  680 251.287 -24.2823 -2.33728
  681 208.439 -23.1308 29.2220
  682 99.2707 31.4833 -65.1274
  683 194.283 -18.1034 22.5322
  684 234.249 0.0610519 8.22742
  685 170.420 -14.8283 32.7697
  686 245.969 -10.8257 7.82804
  687 194.358 -18.0300 -22.7471
  688 197.940 2.52623 1.98406
  689 152.959 -4.21542 12.1526
  690 152.821 -4.22119 -12.2432
  691 208.571 -23.7318 -29.5528
  692 258.247 -16.9778 -17.1479
  693 236.681 -3.25134 -0.358181
  694 236.719 -3.28703 0.359771
  695 264.028 -16.7728 17.0447
  696 239.749 -25.0646 5.29081
  697 291.591 26.7349 24.9380
  698 262.825 -4.89097 26.5901
  699 252.895 -9.03040 16.2975
  700 240.839 19.7752 -15.9665
  701 290.580 48.9670 19.6982
  702 250.678 -3.44727 -15.6947
  703 250.123 -8.23443 8.54008
  704 257.866 40.4611 4.50939
  705 254.345 -4.27343 13.7253
  706 79.6569 54.0518 68.2037
  707 236.832 -27.2235 -17.8656
  708 274.241 5.01011 27.0925
  709 277.107 -8.55092 -19.5505
  710 277.176 -0.323457 1.29196
  711 252.792 -8.63066 -12.8995
  712 237.157 -27.4394 16.1734
  713 462.310 40.9214 -6.86716
  714 139.483 -0.627116 4.65284
  715 139.312 -0.634151 -4.69916
  716 256.644 -4.58417 -6.09744
  717 278.872 -0.242385 -1.25467
  718 215.637 -19.0426 10.1571
  719 259.475 -9.61816 24.1984
  720 396.453 93.6874 -27.5275
  721 245.933 -17.8183 8.10317
  722 273.079 -17.9422 -10.4504
  723 250.221 -8.00945 -8.40529
  724 278.856 -0.434896 -0.423777
  725 252.987 -0.0110976 27.5151
  726 11.4919 9.89466 14.1510
  727 286.917 -11.1910 -41.1485
  728 311.793 18.3194 12.9014
  729 259.426 -26.4689 11.5995
  730 183.491 -4.50262 4.91848
  731 183.495 -4.56678 -4.94457
  732 243.861 120.764 -126.621
  733 264.157 -17.4310 -15.8070
  734 197.144 0.972116 -3.79185
  735 230.997 1.24877 17.5913
  736 254.613 -12.7028 19.5490
  737 244.054 -20.5668 4.36342
  738 254.297 -23.1351 -33.7539
  739 242.521 -19.1909 -4.78763
  740 287.255 -13.7641 -4.12064
  741 264.456 -2.07800 3.57975
  742 235.395 -14.1582 2.67773
  743 430.038 86.0120 -45.5590
  744 251.390 -6.65527 6.80494
  745 248.105 4.04563 -26.7377
  746 212.495 -2.42588 72.0038
  747 266.060 21.4504 27.3847
  748 228.821 -18.0688 1.94837
  749 175.992 -13.9853 -24.0704
  750 176.002 -13.9442 23.8661
  751 242.706 27.2867 -3.72553
  752 247.348 -2.85148 23.9211
  753 250.200 -5.93384 -20.4750
  754 235.667 -14.4445 -2.75808
  755 227.770 -20.4737 5.37720
  756 259.881 42.9842 -5.10975
  757 243.749 -21.0952 -3.40022
  758 244.334 -15.4518 7.85324
  759 247.805 -3.09112 1.25403
  760 247.964 -3.00395 -1.24677
  761 333.440 73.4690 2.16986
  762 273.009 -23.1839 -7.32341
  763 253.569 -7.70774 12.8329
  764 264.582 -2.06881 -3.26799
  765 266.753 1.79217 -27.9425
  766 304.378 15.8825 -16.9781
  767 146.990 -0.162384 -2.16217
  768 147.087 -0.160169 2.13908
  769 2.06208 -4.81674 -3.42972
  770 258.818 -0.279625 5.14269
  771 236.476 -0.416535 -19.4885
  772 244.589 -2.28652 17.2396
  773 224.506 27.2950 105.994
  774 278.498 57.4815 -0.620375
  775 197.603 -14.2754 12.4858
  776 33.5198 0.796945 -13.1008
  777 34.5497 0.590327 13.2430
  778 242.331 -1.73124 -19.4224
  779 198.159 -14.4209 -12.4802
  780 263.008 -2.27941 2.74373
  781 132.785 -5.75152 22.8277
  782 131.623 -5.73245 -22.8449
  783 251.380 -6.45853 -6.63031
  784 158.961 -4.11555 -10.5644
  785 159.040 -4.08747 10.4657
  786 261.936 -2.40470 -7.65131
  787 198.854 -5.38795 -3.31863
  788 198.857 -5.35112 3.31942
  789 286.138 -1.82397 -19.6379
  790 256.915 -2.67571 -27.6616
  791 128.901 -0.854516 -5.94751
  792 129.160 -0.846601 5.87578
  793 5.74385 3.26684 -7.84084
  794 6.92267 3.44435 8.25676
  795 206.804 0.972765 -6.88492
  796 234.789 -26.3858 -13.1619
  797 -2.73363 -1.90237 4.68635
  798 -2.38589 -2.22437 -4.64174
  799 244.468 -4.82696 2.66158
  800 265.304 -20.6606 -9.32342
  801 273.336 40.5802 -20.8172
  802 264.178 -2.04296 -2.60463
  803 569.722 114.073 -107.022
  804 244.418 -4.80985 -2.62782
  805 368.666 70.5441 5.46398
  806 261.314 7.61503 -28.8199
  807 289.124 21.7903 -25.4903
  808 47.0814 -0.557943 -12.1432
  809 48.0003 -0.630342 12.1201
  810 161.522 -2.40373 6.23288
  811 161.466 -2.42436 -6.29180
  812 153.743 -0.389991 1.16104
  813 153.699 -0.394003 -1.17107
  814 292.080 49.2447 -19.5568
  815 171.142 -1.12219 -1.70057
  816 171.169 -1.10910 1.69017
  817 248.121 -2.49764 -24.9595
  818 360.793 35.9801 29.5071
  819 222.489 4.90970 -15.1372
  820 75.8405 -0.694879 13.0558
  821 75.1643 -0.701181 -13.1625
  822 290.610 7.43514 75.7696
  823 256.368 -4.62254 6.29347
  824 227.901 15.0682 -6.30888
  825 104.077 -0.183270 8.92657
  826 103.520 -0.134032 -8.99545
  827 157.242 -0.846588 -3.04405
  828 157.298 -0.834414 3.01401
  829 28.0080 25.0286 21.2490
  830 238.013 5.63959 22.5517
  831 265.252 39.0486 -17.7929
  832 285.942 33.2001 -25.2478
  833 186.798 -7.17468 -7.91753
  834 186.683 -7.11847 7.90407
  835 295.928 63.2216 8.93659
  836 256.046 -2.02688 -0.355466
  837 256.058 -2.01134 0.399489
  838 252.914 -7.53389 -16.4047
  839 211.328 -14.1762 7.06564
  840 233.320 -26.2277 13.2466
  841 274.957 -22.5315 20.7253
  842 209.335 -6.12034 -1.84718
  843 209.331 -6.09538 1.83282
  844 239.356 22.1607 10.2436
  845 224.616 3.02040 -16.3609
  846 62.4870 72.4631 70.9953
  847 228.495 -20.3091 -4.80996
  848 229.212 -10.2526 0.873763
  849 229.336 -10.2705 -0.885319
  850 252.184 -3.69720 26.2785
  851 250.350 -16.4233 -12.3921
  852 223.208 -14.8427 -2.50624
  853 514.663 16.6731 -25.6592
  854 212.091 -20.1583 14.1195
  855 211.928 -20.4240 -14.3565
  856 252.005 -2.98678 13.3602
  857 380.875 98.0663 -20.7901
  858 198.803 -18.1784 -17.8308
  859 220.065 -24.8293 16.7735
  860 198.740 -17.9560 17.6671
  861 215.671 -8.73014 -2.06967
  862 215.662 -8.69831 2.05250
  863 31.3870 13.5493 18.5017
  864 270.915 20.2558 -27.7784
  865 206.774 -8.14122 -3.52959
  866 206.810 -8.05679 3.54308
  867 204.094 -3.40880 -0.422830
  868 204.089 -3.38407 0.419684
  869 225.016 -4.44563 0.0808697
  870 224.988 -4.41473 -0.0820857
  871 181.950 -3.65031 -4.26558
  872 181.961 -3.60841 4.24600
  873 207.608 -11.0189 -5.41840
  874 207.633 -10.9402 5.44159
  875 4.89591 -2.29676 -2.06471
  876 314.295 58.9626 14.9078
  877 270.314 -9.44410 -22.4570
  878 219.896 -24.4714 -16.9610
  879 237.695 -7.61900 2.56075
  880 237.587 -7.53753 -2.49203
  881 259.114 0.344100 28.2530
  882 282.595 -20.1684 -11.0087
  883 250.424 17.3702 -91.8305
  884 112.619 -1.74826 45.1440
  885 -4.64463 2.62843 -2.92835
  886 -4.07312 2.96399 3.26480
  887 31.1598 14.4115 -18.8809
  888 253.520 -7.22007 10.1574
  889 267.166 -1.67273 -4.29474
  890 240.078 -23.0470 38.9392
  891 112.347 -1.62251 -45.3301
  892 267.557 -21.8488 6.76167
  893 298.686 -9.02350 33.5261
  894 214.570 0.852935 7.30309
  895 246.883 23.4816 17.4733
  896 132.899 -7.52991 33.2832
  897 132.376 -7.59123 -33.5128
  898 159.529 -7.71047 -18.6385
  899 168.410 -8.15954 -57.6679
  900 267.409 -6.21784 25.1100
  901 368.462 86.1335 12.0345
  902 268.317 10.3419 28.3270
  903 253.649 -5.36580 -14.9436
  904 172.001 -7.31134 59.1083
  905 323.899 59.6028 -11.2715
  906 31.5825 27.0106 -26.2617
  907 233.588 -0.483126 -7.84804
  908 159.697 -7.64548 18.4655
  909 195.253 -4.36885 2.93808
  910 195.249 -4.40027 -2.94554
  911 250.721 -16.3364 12.7824
  912 260.836 -1.55740 1.06701
  913 191.471 1.81458 -71.7839
  914 275.238 -0.570539 2.03614
  915 273.058 -0.464174 -2.58513
  916 201.959 1.72101 -6.32369
  917 263.501 -1.05612 -4.56623
  918 195.990 -9.28102 -7.23965
  919 196.122 -9.13906 7.26059
  920 -6.60532 2.35655 -3.82242
  921 -9.03868 1.42060 4.01634
  922 260.834 -1.44027 -1.07790
  923 85.0068 -1.90229 30.4434
  924 84.4750 -1.71430 -30.6229
  925 277.915 40.6170 22.0117
  926 502.459 9.05894 7.96968
  927 261.373 29.1075 23.0017
  928 297.423 -10.5745 8.74202
  929 257.759 -14.3104 19.7383
  930 321.143 67.3878 -8.57009
  931 197.490 0.797827 4.76439
  932 248.093 -5.75500 -4.18189
  933 257.308 13.8361 -27.8209
  934 312.238 9.03616 -6.24230
  935 241.647 -14.9149 -6.25293
  936 121.715 -0.706105 -6.66660
  937 121.850 -0.681247 6.56967
  938 255.154 -5.92792 -11.7823
  939 8.24724 10.5538 1.87866
  940 244.891 -25.3813 -1.86868
  941 210.716 6.15474 -0.652982
  942 318.806 70.2765 -5.69607
  943 49.8251 37.1183 -43.9134
  944 244.609 -1.81796 -15.4487
  945 168.401 -2.89675 -5.80606
  946 168.431 -2.86194 5.75390
  947 1.38827 -7.07021 5.41302
  948 165.501 -12.4281 -26.7531
  949 249.411 -14.3831 -12.0091
  950 153.126 0.327406 -0.477767
  951 153.160 0.329106 0.474234
  952 251.243 30.5083 -14.0146
  953 270.965 -0.719517 -0.412641
  954 270.968 -0.731308 0.537797
  955 165.570 -12.3919 26.5641
  956 252.202 -0.323657 -6.12370
  957 290.914 2.08572 18.9896
  958 257.973 -3.55114 4.88369
  959 40.3739 10.4465 -23.5166
  960 267.735 -1.54846 3.89873
  961 241.765 1.92058 24.1744
  962 255.003 35.3740 12.4695
  963 255.474 2.96335 -28.4819
  964 175.117 -9.51621 -15.9371
  965 276.333 -9.74832 18.8932
  966 175.229 -9.47713 15.7693
  967 7.83357 8.62967 -0.463623
  968 29.4337 5.21057 17.2182
  969 142.205 -2.58391 11.0031
  970 142.027 -2.58715 -11.0696
  971 248.266 -5.86917 4.39644
  972 266.289 46.4366 6.92610
  973 135.315 12.5132 -67.8627
  974 222.772 -13.9637 2.14262
  975 209.073 -21.9239 -21.4520
  976 305.411 58.6218 15.3353
  977 234.750 -4.08815 0.462712
  978 234.742 -4.06427 -0.463964
  979 257.574 -4.68609 -8.50516
  980 237.073 20.4320 -9.45214
  981 544.247 160.217 108.166
  982 48.5448 2.82563 -22.8067
  983 49.3427 2.35072 22.8614
  984 3.60674 -5.11710 0.966948
  985 237.871 13.1400 19.4009
  986 209.002 -22.0544 21.2876
  987 259.529 -12.2258 -22.3813
  988 282.448 23.1017 27.5065
  989 272.093 -21.9684 -25.6726
  990 397.866 83.8155 27.2868
  991 230.360 -3.67748 -0.0644327
  992 230.330 -3.64523 0.0647860
  993 270.087 -10.9682 21.3279
  994 18.4814 29.6041 31.5372
  995 119.867 -2.57620 15.7834
  996 119.479 -2.54342 -15.9603
  997 143.715 -7.14081 21.5421
  998 143.211 -7.03411 -21.6290
  999 162.097 -6.79757 15.4272
  1000 177.197 -1.46601 -0.776451
  1001 177.220 -1.45476 0.773018
  1002 449.415 141.478 -89.6749
  1003 405.277 101.483 41.0002
  1004 161.965 -6.83404 -15.5638
  1005 278.237 -1.25413 23.5002
  1006 248.074 25.7446 -16.8372
  1007 175.245 -15.0241 47.7862
  1008 225.689 -26.6525 -25.4285
  1009 258.050 -2.07998 -9.00726
  1010 115.640 8.08848 55.1502
  1011 148.458 -11.3596 38.1925
  1012 227.058 11.5815 -12.1345
  1013 260.834 -5.13877 -26.8744
  1014 336.291 133.670 144.876
  1015 214.105 6.49044 8.62408
  1016 292.926 63.3700 -1.07296
  1017 215.850 8.37147 -81.6323
  1018 218.841 -23.0988 -14.4222
  1019 279.159 -0.250146 -1.02673
  1020 266.652 24.5121 -26.6793
  1021 154.651 -1.04721 3.92893
  1022 154.579 -1.05795 -3.96824
  1023 5.59576 2.22525 -7.79507
  1024 175.192 -8.12364 -13.2716
  1025 148.281 -11.5073 -38.4910
  1026 175.050 -8.10348 13.1179
  1027 254.892 -7.72988 24.8495
  1028 228.538 -14.1597 -0.0499409
  1029 239.663 4.37879 -23.4043
  1030 246.556 30.8164 4.91326
  1031 336.831 19.8462 10.8592
  1032 252.697 -19.1694 12.2454
  1033 158.758 -12.7870 -29.2760
  1034 237.540 8.36564 -21.8846
  1035 176.809 -14.8184 -48.0513
  1036 340.745 74.2492 -1.15034
  1037 230.646 15.0948 11.0388
  1038 293.230 -1.76807 -14.7726
  1039 220.208 -23.1044 13.2166
  1040 252.570 -7.96450 19.2632
  1041 251.029 -13.2158 14.0259
  1042 249.654 -12.5172 12.1940
  1043 308.726 39.1208 -20.3902
  1044 249.053 -3.99378 19.4649
  1045 225.299 -26.7274 25.0069
  1046 240.503 -9.79597 4.22033
  1047 158.856 -12.8094 29.1033
  1048 225.594 -16.6854 -2.65943
  1049 130.372 -6.30497 -40.8539
  1050 186.755 -19.4342 32.3302
  1051 253.805 -1.68779 -10.4311
  1052 246.957 -2.77771 -22.0816
  1053 213.794 -17.0047 -8.68728
  1054 130.599 -6.49293 40.5221
  1055 229.746 0.531632 -15.2918
  1056 170.611 -11.4478 -20.6790
  1057 310.875 66.3909 9.75367
  1058 68.4579 11.5338 -38.5897
  1059 536.815 37.9624 51.9895
  1060 123.929 9.40409 -57.7831
  1061 249.636 -20.6625 -7.74624
  1062 170.653 -11.3473 20.5023
  1063 227.214 2.35862 17.0785
  1064 126.407 -2.61957 13.0622
  1065 126.335 -2.68484 -13.1996
  1066 252.500 -7.00066 -23.0189
  1067 269.478 -1.26874 1.62653
  1068 263.704 -0.560991 4.62034
  1069 260.388 8.66219 28.7393
  1070 243.296 -1.83215 20.7197
  1071 189.184 20.0552 88.3387
  1072 281.014 -0.179566 0.505944
  1073 261.888 35.5509 18.3139
  1074 220.904 3.14990 14.6971
  1075 267.216 -0.982984 4.44782
  1076 169.972 -1.89600 -3.23154
  1077 170.000 -1.87409 3.20880
  1078 107.694 -3.10130 -21.7714
  1079 108.135 -3.21259 21.6148
  1080 221.603 10.9865 6.16204
  1081 338.128 17.6047 -23.4650
  1082 310.640 -0.723399 -45.8947
  1083 245.878 -0.207178 -6.33726
  1084 186.837 -19.5813 -32.5808
  1085 214.241 -16.1719 7.72113
  1086 247.348 -0.556995 6.61586
  1087 259.566 -18.7901 -14.3758
  1088 160.042 -0.402664 1.94038
  1089 160.004 -0.409569 -1.95337
  1090 249.156 -21.2545 7.74303
  1091 236.686 -4.77898 0.897312
  1092 236.646 -4.78304 -0.880871
  1093 230.224 -23.2302 8.10534
  1094 297.905 -9.69045 -2.17622
  1095 132.359 -0.246989 -3.70160
  1096 132.583 -0.238377 3.66044
  1097 202.198 -12.6984 -55.0506
  1098 214.526 -5.13148 0.950261
  1099 214.548 -5.16196 -0.960293
  1100 130.152 69.3487 97.0330
  1101 298.653 24.4234 -22.8482
  1102 43.2151 21.2758 -28.9355
  1103 258.138 -3.75206 -4.72183
  1104 68.0614 23.5983 -44.2336
  1105 142.045 -9.02591 -27.8283
  1106 281.167 -0.259540 0.305392
  1107 281.287 -0.240498 -0.226992
  1108 253.549 -14.4365 -16.9496
  1109 224.564 -25.1592 -35.1457
  1110 68.4919 9.81764 36.7729
  1111 275.720 27.3223 26.0499
  1112 250.661 -2.42173 -0.433717
  1113 250.687 -2.42427 0.458319
  1114 274.467 -17.7684 42.5338
  1115 282.130 56.7076 10.0718
  1116 166.183 -4.10269 -8.33437
  1117 166.223 -4.08228 8.27098
  1118 126.785 14.6279 68.4768
  1119 239.090 1.18988 -22.6637
  1120 74.4247 24.1876 47.6134
  1121 309.358 -5.48472 -13.4550
  1122 302.454 67.1892 3.10576
  1123 207.518 -16.5310 10.6992
  1124 189.889 0.961779 -0.928340
  1125 264.635 -2.25696 5.73857
  1126 274.298 -0.305507 2.24350
  1127 58.1725 0.118774 -10.9320
  1128 59.0179 0.0890746 10.8549
  1129 213.785 3.50453 -10.8752
  1130 221.478 -6.51922 -0.544392
  1131 221.425 -6.48621 0.540252
  1132 23.0817 34.7144 -33.5166
  1133 36.9279 77.6048 -67.8970
  1134 224.379 -8.77774 0.263421
  1135 224.471 -8.77976 -0.274847
  1136 232.033 -5.55197 0.977973
  1137 232.000 -5.53864 -0.956986
  1138 60.2690 38.5944 47.8000
  1139 181.842 -2.31444 -1.53518
  1140 181.861 -2.29700 1.52705
  1141 229.378 17.2811 -0.260420
  1142 296.183 36.1223 -102.110
  1143 280.954 48.5608 -17.2491
  1144 256.535 -9.81613 -23.5508
  1145 252.746 -12.5627 -17.1489
  1146 207.658 -16.6883 -10.8832
  1147 207.750 0.650935 6.71377
  1148 234.733 14.5834 -16.2111
  1149 231.362 12.3875 15.4713
  1150 240.343 -9.50676 -4.14631
  1151 229.134 -13.8713 -0.116950
  1152 207.899 -13.5474 -7.97320
  1153 247.940 -1.44219 12.3334
  1154 441.936 44.6878 6.25358
  1155 249.708 -5.30337 22.4762
  1156 250.266 16.4308 24.4403
  1157 231.314 -22.8116 -5.90937
  1158 27.8073 4.79487 -16.5953
  1159 235.655 -10.8872 -3.07424
  1160 154.254 -0.269927 -0.0905573
  1161 154.284 -0.268860 0.0893724
  1162 287.986 -7.63366 12.7365
  1163 274.478 -23.0845 8.96924
  1164 394.911 70.9584 17.0445
  1165 91.9094 -0.210806 -9.14095
  1166 92.4917 -0.190489 9.06872
  1167 209.784 -4.26892 -0.827835
  1168 209.772 -4.24056 0.820774
  1169 236.434 -20.8886 -0.0172371
  1170 191.643 0.831180 3.03608
  1171 242.198 -17.2420 6.01547
  1172 13.3249 15.8450 -7.32310
  1173 42.7957 21.5569 28.3102
  1174 161.478 -8.67636 53.2322
  1175 279.761 53.4872 -12.3060
  1176 268.226 -0.717981 -3.50996
  1177 282.395 -0.425515 0.215806
  1178 282.687 -0.591289 -0.142231
  1179 160.873 -0.426237 -0.311003
  1180 160.905 -0.422975 0.308354
  1181 257.790 16.4969 27.7984
  1182 383.463 65.8510 -1.39308
  1183 265.428 44.0102 -12.4296
  1184 198.797 -14.5256 54.6940
  1185 160.615 -8.32612 -53.1346
  1186 178.096 -12.0685 -18.4968
  1187 248.379 -6.86214 5.56606
  1188 347.414 76.3265 1.62510
  1189 178.105 -11.9933 18.3434
  1190 253.995 -4.33238 4.21501
  1191 225.115 8.29403 14.7521
  1192 248.996 7.69744 26.6628
  1193 356.451 79.7332 7.58947
  1194 210.204 -5.52473 1.55824
  1195 210.217 -5.55356 -1.57113
  1196 257.220 -4.73835 8.82766
  1197 150.273 -1.67106 6.17389
  1198 150.166 -1.68838 -6.23366
  1199 251.688 -3.31487 -1.94056
  1200 103.091 61.1773 -93.6476
  1201 217.886 -12.2290 -58.5471
  1202 204.299 -6.47802 -3.02639
  1203 204.318 -6.44639 3.02711
  1204 270.662 -1.18270 1.45383
  1205 255.582 -3.23386 3.37748
  1206 13.6183 16.8135 12.1776
  1207 278.836 -0.277984 1.19380
  1208 32.5353 40.7587 40.4414
  1209 249.469 -3.61977 -2.48194
  1210 -0.361301 -6.17962 -5.40209
  1211 175.528 -17.1152 -41.1653
  1212 175.021 -16.6957 40.7428
  1213 278.831 -0.459889 -1.31387
  1214 237.178 -12.5054 -3.62211
  1215 270.441 -1.06877 -1.50394
  1216 214.979 -6.99324 -1.38421
  1217 214.953 -6.96480 1.36476
  1218 251.522 -3.28929 1.82902
  1219 235.483 -10.6763 3.04200
  1220 226.360 -7.27272 -0.320040
  1221 226.444 -7.29549 0.349262
  1222 270.235 -1.10237 -1.23242
  1223 232.615 -24.4236 -39.6933
  1224 264.198 -1.51421 -1.27453
  1225 250.564 -3.72565 2.65147
  1226 172.793 -1.97516 -2.37497
  1227 172.819 -1.95541 2.35944
  1228 193.788 -2.90632 -1.17282
  1229 193.795 -2.88507 1.16609
  1230 316.658 49.2630 17.3065
  1231 265.925 -20.3712 10.9568
  1232 181.915 -0.773348 67.7067
  1233 143.542 -0.269485 2.36823
  1234 143.419 -0.272262 -2.39354
  1235 251.390 -4.60815 16.9432
  1236 240.857 -3.55479 0.591470
  1237 240.870 -3.54166 -0.591079
  1238 275.164 53.7782 5.73137
  1239 253.053 -26.4497 31.1629
  1240 144.122 -2.10745 8.70120
  1241 143.975 -2.12408 -8.76948
  1242 240.441 -5.79803 2.22099
  1243 240.388 -5.83690 -2.16306
  1244 248.249 -6.77362 -5.37268
  1245 226.681 0.0351619 7.92246
  1246 395.956 98.3263 -31.8099
  1247 252.705 -9.19013 -15.1394
  1248 42.3118 10.3055 24.2064
  1249 261.169 -13.8673 20.9519
  1250 207.772 4.46065 -5.94501
  1251 15.4081 11.6510 8.47009
  1252 345.853 37.8458 -1.43995
  1253 254.913 -11.5540 -21.0661
  1254 208.803 2.90132 9.10100
  1255 143.065 -9.03896 27.7699
  1256 259.214 -20.0180 12.9141
  1257 378.489 70.9667 20.6753
  1258 85.9917 12.9015 46.9121
  1259 260.673 -3.00445 -7.59135
  1260 506.714 5.61633 -5.15017
  1261 524.067 7.91665 23.0412
  1262 560.371 19.2774 -54.6060
  1263 252.264 -7.82603 -18.7108
  1264 252.393 -11.4690 16.0770
  1265 256.552 -18.2144 15.1860
  1266 -7.57398 0.821193 4.84206
  1267 -6.90843 0.641303 -5.25188
  1268 249.908 -27.5675 -14.0416
  1269 256.238 -25.8498 -21.4695
  1270 193.092 1.19261 -3.75355
  1271 248.923 -28.0769 21.4930
  1272 265.741 -12.5584 -21.2922
  1273 4.82313 7.74244 0.525706
  1274 215.153 -3.92841 0.645073
  1275 215.170 -3.95828 -0.646790
  1276 264.511 -2.02513 5.20140
  1277 253.990 -4.25202 -3.97044
  1278 238.846 -26.0855 -7.10252
  1279 217.568 -11.8469 3.08647
  1280 216.447 -11.6846 -3.42036
  1281 256.119 -5.34042 12.0022
  1282 262.409 -9.59873 -24.2962
  1283 16.0005 12.1487 -8.15034
</Section>

newXOutput 35

<Section columns = "stress_xx | stress_yy | stress_xy">
  1 292.510 -0.0210536 0.590154
  2 292.527 -0.0171940 -0.592171
  3 156.197 -0.0707334 -0.213921
  4 -1.99325 -1.97725 -2.86444
  5 533.733 206.648 168.264
  6 528.667 214.414 -168.711
  7 -2.31318 -1.88444 3.04023
  8 156.166 -0.0713579 0.213276
  9 294.645 -0.471015 0.186069
  10 293.983 -0.752945 -0.131870
  11 293.239 -0.484566 0.695180
  12 292.499 -0.683586 0.220311
  13 290.915 -0.569103 1.09651
  14 289.485 -0.579156 0.815846
  15 286.169 -0.513963 1.56654
  16 281.491 -0.332251 2.30195
  17 277.305 -0.367325 2.54973
  18 271.147 -0.538631 3.06861
  19 262.669 -0.0192695 4.51793
  20 254.835 -0.398001 4.27885
  21 245.992 -0.531945 6.00787
  22 233.209 0.379337 5.21159
  23 224.013 0.553821 6.14775
  24 212.024 0.944829 4.79834
  25 203.754 0.963027 4.83168
  26 191.768 1.37568 2.45959
  27 189.256 2.17066 2.63233
  28 187.750 1.76352 -0.775591
  29 189.825 0.994293 -1.71315
  30 193.639 0.985767 -2.09840
  31 202.613 1.25875 -4.19465
  32 211.328 0.993266 -5.31952
  33 224.168 0.198966 -6.31623
  34 234.450 -0.140300 -5.77171
  35 245.452 -0.425396 -5.68758
  36 255.435 -0.309165 -4.02557
  37 264.054 -0.317042 -3.45481
  38 271.189 -0.524490 -2.91073
  39 277.605 -0.366615 -2.04433
  40 281.643 -0.427308 -2.17661
  41 285.542 -0.540754 -1.59447
  42 289.255 -0.646790 -0.715591
  43 291.168 -0.516072 -0.829895
  44 292.204 -0.302669 -0.525117
  45 291.523 -0.144152 -0.478124
  46 294.301 -0.763798 0.0830423
  47 294.745 -0.492451 -0.192048
  48 284.766 -0.154576 -0.364549
  49 278.166 -1.09738 -0.647368
  50 270.136 -1.63442 -0.436583
  51 260.365 -2.46717 -0.594457
  52 251.129 -2.71582 -0.743730
  53 241.290 -3.44658 -0.704391
  54 232.597 -3.86122 -0.399479
  55 224.975 -4.35762 -0.159916
  56 216.188 -3.62659 -0.158978
  57 206.063 -3.40883 -0.243483
  58 196.298 -2.70884 -0.0837979
  59 187.039 -1.74607 -0.0349136
  60 178.229 -1.25732 0.00691626
  61 170.487 -0.661585 0.0755372
  62 162.549 -0.190569 -0.246529
  63 156.301 0.216031 0.292929
  64 153.519 0.631214 0.190978
  65 155.475 -0.00186646 0.462719
  66 153.404 -0.0956408 0.554793
  67 151.511 -0.137966 0.692979
  68 148.925 -0.0257549 0.910369
  69 145.660 -0.0151806 1.15189
  70 143.291 -0.209699 2.24146
  71 136.331 0.200994 2.45183
  72 131.462 -0.0200757 2.81920
  73 124.208 -0.135636 3.19462
  74 115.838 -0.224738 3.89269
  75 105.382 -0.0555913 4.72624
  76 92.6329 0.0557042 5.20090
  77 81.7001 -0.126159 7.42592
  78 59.9622 0.699805 6.98523
  79 45.2474 0.604686 7.39565
  80 27.7005 -0.115677 8.17061
  81 13.2149 1.39044 8.45205
  82 -3.23323 2.05683 4.98926
  83 -15.0852 2.08410 1.66779
  84 -14.4247 1.98601 -0.904645
  85 -13.5128 1.63964 -4.10960
  86 -7.91976 -0.564057 -3.86619
  87 -0.995857 -7.60353 -4.25561
  88 0.706178 -14.0642 -5.36831
  89 2.02690 -22.4418 -3.10108
  90 4.53975 -23.3554 -0.0427161
  91 9.66126 -7.01094 12.3864
  92 29.1163 42.1015 43.1507
  93 174.336 157.506 149.856
  94 644.808 95.7498 108.637
  95 579.531 13.7609 35.5849
  96 537.497 5.65614 10.8896
  97 521.950 4.77613 0.860991
  98 530.087 6.39247 -9.39432
  99 578.013 12.7540 -28.1376
  100 685.064 46.2191 -94.0807
  101 103.104 160.267 -124.926
  102 21.8246 28.2901 -35.4976
  103 10.5277 -5.95217 -12.9038
  104 4.23566 -23.4889 -1.94520
  105 1.14638 -17.1795 3.58587
  106 1.48391 -17.7032 4.67360
  107 0.0539978 -6.59294 4.70980
  108 -8.26159 -0.382887 3.67693
  109 -13.9452 1.23030 3.59605
  110 -15.1818 2.41778 0.989519
  111 -15.5824 2.05605 -1.52988
  112 -4.30894 2.10820 -4.66266
  113 12.2560 1.40293 -8.05172
  114 26.7199 0.0303214 -8.03575
  115 44.2392 0.654126 -7.41324
  116 59.0460 0.718807 -7.04149
  117 80.9888 -0.129214 -7.49195
  118 92.0227 0.0626128 -5.25412
  119 104.850 -0.0532358 -4.78834
  120 115.563 -0.247963 -3.92433
  121 123.844 -0.129604 -3.20446
  122 131.187 -0.0109791 -2.85028
  123 136.107 0.198347 -2.48077
  124 143.132 -0.211662 -2.26603
  125 145.534 -0.0164565 -1.16707
  126 148.831 -0.0269559 -0.922890
  127 151.442 -0.139940 -0.702939
  128 153.353 -0.0973290 -0.561775
  129 155.434 -0.00334606 -0.467207
  130 153.485 0.630331 -0.193087
  131 156.269 0.215616 -0.294234
  132 162.516 -0.192279 0.245770
  133 170.456 -0.665857 -0.0771897
  134 178.202 -1.26680 -0.00886192
  135 187.019 -1.75927 0.0330263
  136 196.287 -2.72783 0.0819582
  137 206.063 -3.43272 0.242056
  138 216.200 -3.65411 0.157613
  139 224.996 -4.38817 0.159376
  140 232.624 -3.89156 0.400530
  141 241.328 -3.47419 0.707460
  142 251.160 -2.73504 0.754803
  143 260.386 -2.48434 0.647099
  144 270.182 -1.53907 0.446513
  145 278.364 -1.06596 0.633291
  146 284.808 -0.198497 0.359250
  147 253.719 -23.8259 -2.52648
  148 253.515 -23.5071 2.61788
  149 265.575 38.2210 -13.4819
  150 283.732 16.7520 28.7573
  151 214.814 -20.5983 -46.7108
  152 216.531 -20.5810 45.1774
  153 207.941 -8.91904 5.35817
  154 207.963 -9.04630 -5.36410
  155 301.357 10.7766 -22.3847
  156 253.038 -9.04349 6.17452
  157 252.933 -8.82080 -6.09608
  158 327.113 73.3200 3.76951
  159 258.618 -0.414103 -27.9015
  160 190.741 -15.1467 -20.8421
  161 190.737 -15.0169 20.6494
  162 259.196 -5.84078 25.2759
  163 245.533 17.8742 16.5375
  164 100.899 16.4338 -55.7145
  165 112.066 15.5530 58.7381
  166 318.728 3.45361 3.88255
  167 260.083 -9.92901 -17.7382
  168 344.993 75.8180 -2.49488
  169 233.930 -6.58245 0.298576
  170 233.878 -6.55956 -0.276590
  171 263.564 -3.08014 -2.71596
  172 264.435 -2.75321 2.35311
  173 182.479 -2.70360 -3.25408
  174 182.498 -2.67477 3.23526
  175 283.851 -7.73949 59.3216
  176 237.499 9.79490 -17.8002
  177 154.856 -11.6739 -33.7007
  178 155.323 -11.5875 33.4692
  179 173.755 -5.82194 -10.9364
  180 173.767 -5.75340 10.8492
  181 261.396 -6.80924 15.0700
  182 237.301 -16.3318 0.0333341
  183 236.442 -16.2100 0.361165
  184 270.530 -26.1210 -3.59570
  185 271.909 -24.8840 0.211075
  186 374.379 88.0119 -11.8286
  187 270.859 43.6104 12.6254
  188 271.655 16.6965 -28.7450
  189 282.988 -2.71289 -69.1421
  190 269.963 -15.2075 -20.4141
  191 272.258 -10.8383 23.9059
  192 226.642 -25.7587 22.5689
  193 226.719 -25.5808 -22.4943
  194 241.752 3.04237 21.4309
  195 109.799 -2.61561 -41.1381
  196 110.080 -2.85810 40.8758
  197 423.166 63.5706 9.07765
  198 255.564 -15.1954 11.3085
  199 265.265 -4.79675 -9.87941
  200 209.185 -5.17385 -2.38748
  201 209.186 -5.14543 2.37868
  202 254.028 -3.28752 -19.4421
  203 289.598 42.5729 -23.1743
  204 241.310 21.6416 -3.31946
  205 156.141 -5.64696 15.4726
  206 155.896 -5.66651 -15.5952
  207 269.497 -2.89528 5.47533
  208 261.603 4.92151 28.6711
  209 212.271 -15.5849 -9.77292
  210 210.782 -14.7595 10.0398
  211 309.100 45.8380 21.5515
  212 365.021 49.1808 6.55920
  213 24.0429 19.0264 -15.1585
  214 22.2143 17.5892 12.8513
  215 149.430 42.5548 98.8225
  216 252.974 -16.7936 -8.83696
  217 270.525 -2.78259 -4.94984
  218 238.922 2.05844 -19.7288
  219 166.440 -1.72818 -4.84020
  220 166.491 -1.70838 4.79456
  221 227.198 -10.7080 -1.69097
  222 227.302 -10.7708 1.56011
  223 256.320 -3.43590 16.5745
  224 296.431 -17.2009 5.53915
  225 293.117 60.1620 -6.76530
  226 229.875 -22.2782 -10.3263
  227 291.608 -5.05579 18.9034
  228 248.063 -4.08431 1.08019
  229 248.069 -4.04882 -1.07845
  230 228.136 -22.1705 10.7693
  231 261.826 -16.5696 16.6965
  232 370.317 46.7935 -21.6380
  233 80.9675 48.2322 -71.1324
  234 220.089 7.64694 4.22878
  235 262.361 23.1475 24.1217
  236 280.296 -1.93735 -25.8611
  237 261.601 -9.38322 -23.7198
  238 137.825 -4.52429 -19.4370
  239 138.316 -4.45454 19.3684
  240 262.097 -3.11597 -12.8812
  241 249.842 -6.25707 3.33517
  242 249.725 -6.24647 -3.23182
  243 51.4736 4.88320 -26.0156
  244 52.3390 4.28282 25.9328
  245 279.103 -24.3843 -20.6150
  246 276.276 -0.887070 0.788032
  247 276.590 -0.905063 -0.846177
  248 256.074 21.2172 -22.0513
  249 224.631 4.24701 12.8629
  250 476.049 76.2711 51.0697
  251 472.295 53.7765 -32.0735
  252 339.804 73.6028 -0.714947
  253 211.975 -10.1527 62.3290
  254 194.363 -6.52157 -65.2360
  255 222.512 -4.56895 -0.758061
  256 222.490 -4.53760 0.751592
  257 183.845 -5.02887 6.60972
  258 183.848 -5.09986 -6.67291
  259 269.004 -2.82776 8.02867
  260 260.788 -18.5373 -13.8739
  261 167.151 -0.351702 -1.11942
  262 167.185 -0.345917 1.11169
  263 257.496 -10.3675 -10.9952
  264 107.711 -3.56041 -26.9116
  265 108.198 -3.57224 26.7088
  266 260.599 -11.2557 19.1069
  267 198.512 -21.0705 37.5449
  268 199.040 -21.4490 -37.4319
  269 223.427 8.47493 -5.98638
  270 192.768 -3.02489 -2.18723
  271 192.782 -3.00324 2.17782
  272 243.581 -0.629293 15.8544
  273 291.740 53.5712 16.1091
  274 154.680 -1.95432 8.25876
  275 154.560 -1.97124 -8.33366
  276 267.981 -22.3300 10.0361
  277 248.077 -27.7862 -24.7414
  278 277.219 -1.24812 2.56901
  279 190.988 -11.4605 -14.1824
  280 190.640 -11.3296 14.1238
  281 343.033 34.6274 87.5645
  282 159.860 -12.8743 44.9369
  283 258.392 36.3340 -1.43344
  284 328.593 36.0758 -14.7031
  285 247.085 -19.1232 3.86361
  286 248.231 -28.5525 22.2168
  287 160.369 -12.6584 -45.4645
  288 29.4118 36.2310 32.6363
  289 257.539 -10.4072 11.1940
  290 338.623 44.0079 11.8089
  291 279.503 -1.11269 -2.22705
  292 251.731 8.77930 -25.3785
  293 249.005 -14.0662 6.28985
  294 243.743 -20.5999 -0.0364255
  295 250.758 11.4893 24.4332
  296 266.671 -22.3432 -9.04083
  297 378.408 73.8648 -6.14315
  298 248.936 -13.5172 -6.02332
  299 206.762 58.6922 -121.398
  300 254.744 -26.9848 -4.15521
  301 252.918 -27.7174 7.07704
  302 184.930 -16.8239 -29.5343
  303 165.653 -0.674204 -2.44702
  304 165.697 -0.662540 2.42586
  305 185.000 -16.8347 29.3665
  306 269.209 -0.437529 -28.9430
  307 291.282 -12.0477 -12.8725
  308 220.869 -13.3895 -4.96424
  309 220.714 -13.4195 5.06064
  310 265.425 -22.8418 39.9767
  311 264.305 -2.07833 9.75592
  312 322.436 1.22795 13.1722
  313 216.214 -7.69046 -2.68525
  314 216.226 -7.66224 2.66770
  315 196.436 -5.19919 -4.28695
  316 196.433 -5.14873 4.27918
  317 222.235 2.93880 -12.4441
  318 287.178 21.0440 -27.9315
  319 446.195 120.013 -56.3803
  320 262.002 -2.20084 -0.922624
  321 261.844 -2.17030 0.945159
  322 139.392 -0.141528 56.0686
  323 195.524 -8.98850 -9.29231
  324 195.138 -8.95454 9.31485
  325 139.369 -0.458968 -55.8555
  326 273.333 32.2924 -23.5903
  327 306.885 15.1308 21.3697
  328 265.481 -18.9500 -44.4845
  329 243.344 -9.36846 2.90821
  330 243.090 -9.29653 -2.79874
  331 260.090 -5.30699 -5.41716
  332 243.766 -0.475761 -14.8317
  333 274.286 1.20925 28.4105
  334 274.155 -1.85618 -5.55263
  335 163.362 -10.0388 22.5567
  336 163.183 -10.0971 -22.7396
  337 254.710 -0.584497 26.4613
  338 155.503 -1.32249 -4.88181
  339 155.604 -1.30989 4.83427
  340 261.970 -5.94772 8.32505
  341 314.021 64.2779 -12.1619
  342 259.946 -5.35025 5.61331
  343 276.454 34.7710 23.6987
  344 264.720 -4.89942 27.5791
  345 208.895 -3.94909 0.847685
  346 208.898 -3.97499 -0.854310
  347 250.116 -0.906155 -23.4673
  348 332.100 69.9201 8.16416
  349 275.328 50.6181 0.496129
  350 168.843 19.6837 -83.6025
  351 16.7260 7.60335 -11.0980
  352 18.4228 8.22105 11.9771
  353 -1.02558 1.84518 5.23953
  354 0.0402179 0.977012 -5.45633
  355 488.359 33.8606 11.7189
  356 228.210 -18.6061 -5.84858
  357 262.191 -5.74213 -8.12563
  358 236.144 -4.11458 0.427656
  359 236.117 -4.07971 -0.428842
  360 252.190 27.8578 -11.9352
  361 215.414 -22.0355 18.5515
  362 18.5268 27.4561 -20.0006
  363 215.635 -22.0339 -18.9061
  364 255.557 29.0733 12.7019
  365 261.391 -6.92144 -14.3705
  366 277.545 -15.4471 -17.5829
  367 295.096 62.5469 4.67410
  368 278.231 -17.3265 14.6816
  369 113.377 -2.88272 18.0441
  370 112.674 -2.82751 -18.1676
  371 63.7421 1.61863 -24.9135
  372 64.4534 1.35456 24.7992
  373 225.860 0.690321 12.5991
  374 433.365 125.858 47.8015
  375 270.504 -1.67694 -7.00387
  376 209.744 -17.8344 -14.1573
  377 209.557 -17.7840 14.1370
  378 259.703 -5.95778 -18.0984
  379 296.651 -14.3393 3.14267
  380 228.202 -18.5871 6.04197
  381 326.246 2.04478 -25.5016
  382 182.256 -1.52432 -0.819519
  383 182.280 -1.51078 0.812756
  384 255.184 -1.47145 -11.5037
  385 135.996 -2.01714 -11.7895
  386 136.087 -2.08051 11.6410
  387 305.530 38.9952 -23.8609
  388 164.751 11.6839 77.5810
  389 238.843 -12.5531 1.63803
  390 239.080 -12.5293 -1.65058
  391 280.497 47.5653 -15.0483
  392 265.815 -7.85597 -26.1959
  393 267.073 -27.2562 21.4512
  394 221.725 -5.91086 -1.16348
  395 221.697 -5.88002 1.14954
  396 256.599 -19.7865 9.51228
  397 276.870 -1.27872 4.13864
  398 171.008 -6.35279 -13.7283
  399 171.074 -6.35115 13.6049
  400 260.176 8.72292 -28.2626
  401 245.905 -5.28407 1.64254
  402 245.895 -5.29556 -1.60808
  403 254.067 -2.98392 21.6179
  404 236.164 17.1568 5.70419
  405 263.733 -11.1056 22.9447
  406 382.143 80.1808 13.7910
  407 126.309 -6.81615 -36.0660
  408 126.670 -6.81911 35.7812
  409 56.2140 30.3458 -42.5933
  410 283.604 -0.777867 1.17393
  411 141.763 -1.24842 -7.45387
  412 141.958 -1.22194 7.38656
  413 259.931 -6.75006 17.7477
  414 235.734 -25.6212 11.9238
  415 266.788 -3.23551 3.84244
  416 271.198 13.7836 29.5372
  417 59.0112 32.3112 44.4786
  418 236.098 -25.4821 -10.9184
  419 244.022 -22.7072 -1.61309
  420 78.3012 -1.57599 -22.6307
  421 78.9214 -1.63728 22.4689
  422 187.132 -14.8989 -54.2036
  423 280.378 -4.15758 25.2613
  424 186.387 -15.1330 53.7143
  425 258.875 -14.5120 -15.0393
  426 239.585 16.1100 -12.5224
  427 258.928 -11.1494 14.2481
  428 279.352 -1.19379 -2.82164
  429 8.25525 8.64326 3.53706
  430 56.0022 64.1362 63.1971
  431 248.604 -0.918168 11.0682
  432 207.494 2.78659 5.43862
  433 211.216 3.41091 -7.38651
  434 180.214 -3.05687 -4.66168
  435 180.229 -3.01695 4.62877
  436 255.265 -19.7765 -8.75921
  437 257.642 -5.03196 -24.2327
  438 208.654 3.84556 -2.00692
  439 382.162 90.9270 17.8076
  440 51.9659 17.4800 -31.8679
  441 57.3691 16.0467 34.1033
  442 238.623 -8.49582 1.44624
  443 238.530 -8.47288 -1.38042
  444 318.300 70.6346 -0.986231
  445 200.210 80.9400 124.089
  446 307.106 -4.39725 -5.38840
  447 174.942 -9.23528 -18.6284
  448 175.021 -9.16967 18.4629
  449 175.820 -4.01382 7.31008
  450 175.790 -4.04449 -7.38045
  451 238.215 5.24009 -20.2981
  452 285.119 -0.363531 -0.786626
  453 231.352 10.5522 11.3779
  454 293.772 36.2951 25.6593
  455 244.444 -18.1618 -2.90882
  456 266.694 -3.07367 -3.73030
  457 280.535 -1.07608 2.59985
  458 284.313 -0.386015 0.450321
  459 284.558 -0.441070 -0.335737
  460 154.305 -0.297636 1.79715
  461 154.229 -0.301963 -1.81715
  462 267.632 -16.9742 18.1693
  463 240.538 9.44573 19.6545
  464 251.829 1.00834 -25.7902
  465 263.629 -5.50280 10.7280
  466 382.863 62.8601 -73.1269
  467 264.148 -14.6324 -20.1860
  468 2.20360 4.94715 1.82648
  469 2.19563 5.01354 -0.520317
  470 208.578 -11.9097 7.87382
  471 207.865 -11.7542 -7.78430
  472 329.922 5.61896 38.9680
  473 91.7857 82.6195 -93.6822
  474 260.474 -0.773833 8.64129
  475 296.368 -17.3141 -21.8487
  476 156.333 -9.09204 26.1486
  477 316.834 56.2205 -17.4626
  478 260.336 -14.0663 16.9685
  479 218.010 -10.4857 -3.74388
  480 218.203 -10.3093 3.73115
  481 225.802 1.18511 -11.1302
  482 155.837 -9.05832 -26.3195
  483 231.711 0.0770812 11.2035
  484 222.912 -25.4767 -33.4066
  485 222.345 -25.5156 33.5156
  486 268.900 -1.75108 7.72460
  487 243.307 22.9158 2.35888
  488 248.733 4.06699 84.5871
  489 365.271 74.6232 -0.469329
  490 252.005 -4.18165 1.83243
  491 252.021 -4.16589 -1.88981
  492 192.657 -3.48232 -2.91420
  493 192.667 -3.45231 2.90206
  494 101.465 4.79521 46.9844
  495 261.462 -12.5688 -19.7159
  496 236.910 -5.12543 0.385273
  497 236.886 -5.10595 -0.379458
  498 206.091 -21.8730 27.3515
  499 103.455 6.31834 -48.1907
  500 261.953 -21.3267 -10.0071
  501 4.37586 0.669334 2.30569
  502 227.760 11.7001 0.824113
  503 252.968 -2.85201 -0.610734
  504 252.959 -2.89319 0.598530
  505 206.231 -21.8382 -27.5693
  506 296.696 -15.3689 28.2078
  507 293.443 10.6580 26.2087
  508 271.129 -1.76246 -1.87307
  509 261.151 -21.6303 10.1369
  510 161.798 -0.176075 -0.313633
  511 161.831 -0.174535 0.310701
  512 260.612 -9.98615 -20.9568
  513 251.860 18.6291 21.5421
  514 289.809 7.15611 -25.8738
  515 160.824 -0.276283 -1.00869
  516 160.863 -0.272562 1.00123
  517 509.074 73.5094 -65.9311
  518 262.227 31.2637 19.0072
  519 271.376 -1.61429 1.67133
  520 244.573 -23.2049 2.20018
  521 204.873 -6.84687 4.30209
  522 204.874 -6.90096 -4.29339
  523 285.187 -17.3418 8.52704
  524 273.704 -5.44354 -26.5418
  525 305.855 60.4149 14.5007
  526 254.047 4.35888 26.7334
  527 256.818 -4.87027 3.49096
  528 249.678 -26.6007 -32.0330
  529 258.538 -6.37681 20.5883
  530 503.447 23.0471 -9.24767
  531 283.133 -21.3262 -1.34065
  532 269.442 -1.70172 -0.461109
  533 269.505 -1.81698 0.411643
  534 508.662 34.1448 32.4751
  535 247.591 -0.0967637 22.7359
  536 348.495 58.2318 -7.11295
  537 261.299 -7.05528 -10.4620
  538 116.371 -1.12234 -8.06829
  539 116.748 -1.06862 7.98347
  540 176.175 -16.5241 -37.6477
  541 176.306 -16.2462 37.3610
  542 256.679 -4.66358 -3.45592
  543 279.170 10.2541 -28.9404
  544 245.180 -16.6932 3.84338
  545 263.409 30.2240 -19.7394
  546 265.954 -3.04499 10.3999
  547 334.312 16.4354 -2.62283
  548 227.031 -7.79949 -0.893626
  549 226.958 -7.76971 0.879445
  550 246.946 -11.6414 4.75221
  551 365.276 71.9764 -4.11449
  552 259.865 11.3675 27.7755
  553 110.812 28.5660 69.5761
  554 251.911 -15.1357 56.2986
  555 333.943 15.5440 -61.8836
  556 265.713 21.9756 -25.8789
  557 236.245 -20.3752 -48.7622
  558 255.777 -28.0075 -9.05669
  559 267.332 -27.0280 -13.5645
  560 34.6704 44.5816 -42.2909
  561 268.662 -3.33086 -6.48137
  562 404.916 78.8559 -22.5635
  563 248.286 -11.1571 -5.24793
  564 250.401 -8.10634 4.32481
  565 250.167 -7.91762 -4.15908
  566 171.272 -1.03482 -2.21397
  567 171.306 -1.02137 2.19795
  568 23.6613 2.58002 -13.6126
  569 25.0473 2.70229 13.9339
  570 127.411 -5.98696 -27.5401
  571 128.405 -6.01854 27.4904
  572 253.819 -13.7278 -9.64140
  573 258.810 -28.1206 9.84370
  574 266.055 -25.2243 2.43725
  575 217.376 -3.85232 -0.757807
  576 217.362 -3.82332 0.753538
  577 206.532 -21.6302 -41.7566
  578 231.649 -18.9566 51.6344
  579 201.459 -20.3343 42.0047
  580 260.952 -5.78038 -26.0652
  581 162.257 -2.77599 8.27088
  582 162.178 -2.80553 -8.34352
  583 248.339 13.6907 -21.6245
  584 248.796 -0.434224 -10.0459
  585 311.280 67.8317 -6.59057
  586 202.573 -3.10950 -0.769102
  587 202.577 -3.08782 0.765116
  588 265.767 -0.773663 -5.69440
  589 182.454 -6.27688 -9.09941
  590 182.454 -6.25331 9.01625
  591 149.488 7.02337 66.6936
  592 258.666 -11.8665 -14.4107
  593 143.639 -7.53827 47.8776
  594 254.185 -13.1454 9.83311
  595 267.888 -3.71384 7.14444
  596 264.637 -2.33656 -1.66927
  597 184.467 -2.34818 -2.03911
  598 184.487 -2.32831 2.02740
  599 298.492 59.7826 -13.0127
  600 143.539 -7.24394 -48.0660
  601 253.348 -10.9311 -7.90977
  602 228.128 -4.22394 -0.341181
  603 228.103 -4.19125 0.339671
  604 430.995 58.1338 -10.2065
  605 149.963 -1.00109 4.57745
  606 149.831 -1.01100 -4.62248
  607 235.288 5.34777 18.5069
  608 338.745 27.9974 -5.25473
  609 159.385 1.22081 -66.2209
  610 80.8216 2.14584 -35.9455
  611 81.5121 1.67056 35.7536
  612 199.660 -11.7777 11.2071
  613 201.791 -12.1245 -10.8667
  614 341.898 68.8143 7.18333
  615 263.524 -2.42507 1.51912
  616 224.773 6.25372 -11.1640
  617 281.182 50.6747 11.8998
  618 280.133 52.5940 -7.91138
  619 230.237 -12.8082 -1.50712
  620 232.020 -12.5133 0.677287
  621 165.383 35.9076 -95.3866
  622 197.268 -6.85119 -6.18552
  623 197.281 -6.77097 6.16177
  624 505.948 103.488 77.8583
  625 260.693 -8.51523 22.5759
  626 147.649 -5.32423 -17.6478
  627 407.636 92.8631 61.1734
  628 147.998 -5.29321 17.5761
  629 249.925 -9.58847 -65.8739
  630 174.476 -0.911445 -0.817161
  631 174.505 -0.903467 0.812639
  632 216.472 1.90179 9.73424
  633 97.5222 -1.48716 -15.8573
  634 98.0891 -1.49075 15.7280
  635 227.244 -16.1600 4.40575
  636 238.513 -19.1498 -0.809712
  637 282.072 -0.579043 -2.36233
  638 156.870 -0.274401 1.31817
  639 156.813 -0.279164 -1.33292
  640 214.059 -4.85930 -1.10560
  641 214.049 -4.83039 1.09597
  642 246.592 -27.3189 32.3975
  643 282.956 31.6207 -26.1939
  644 187.373 -8.87133 -11.7401
  645 187.231 -8.72003 11.6513
  646 222.979 -16.1378 -6.34528
  647 352.323 76.8956 1.54811
  648 264.458 -25.5561 -0.960017
  649 229.017 -5.47636 -0.372356
  650 228.981 -5.44744 0.373238
  651 316.052 34.4917 20.3531
  652 264.848 -3.76793 -11.3064
  653 233.092 -0.308504 -9.12948
  654 107.225 -3.65473 -34.5854
  655 107.567 -3.76134 34.2938
  656 222.436 -19.2891 -10.4398
  657 334.267 73.9897 0.201909
  658 258.489 35.0396 -8.56080
  659 170.440 -1.61604 -4.09829
  660 170.478 -1.59330 4.06317
  661 241.609 -6.79673 -1.41928
  662 241.657 -6.80618 1.47310
  663 452.899 59.2219 26.0330
  664 286.692 -0.732179 0.652117
  665 276.491 -1.05297 4.03923
  666 275.354 -1.08002 -4.71432
  667 261.154 -24.2856 4.75212
  668 190.959 -2.28111 -1.01942
  669 190.975 -2.26413 1.01441
  670 278.485 44.7437 18.2922
  671 358.394 79.7918 -3.99021
  672 195.025 -14.6381 -16.6380
  673 194.961 -14.4907 16.5493
  674 244.876 -25.2544 -4.53779
  675 257.865 15.3185 -26.1295
  676 307.439 0.745296 11.9703
  677 202.697 -3.82789 -1.98760
  678 202.701 -3.80193 1.97849
  679 175.345 -15.4433 -33.9972
  680 258.660 -24.9967 -2.33606
  681 214.592 -23.8125 30.1230
  682 102.242 32.4144 -67.1033
  683 200.050 -18.6338 23.2278
  684 241.211 0.0630666 8.45020
  685 175.503 -15.2660 33.7612
  686 253.197 -11.1472 8.00733
  687 200.127 -18.5581 -23.4485
  688 203.920 2.60696 2.03919
  689 157.591 -4.33588 12.5206
  690 157.448 -4.34173 -12.6136
  691 214.727 -24.4311 -30.4635
  692 265.828 -17.4795 -17.5735
  693 243.643 -3.35335 -0.362543
  694 243.682 -3.39000 0.364159
  695 271.770 -17.2688 17.4620
  696 246.796 -25.8008 5.50642
  697 300.136 27.5190 25.5719
  698 270.550 -5.03800 27.2893
  699 260.329 -9.29989 16.7158
  700 247.989 20.3645 -16.4025
  701 299.124 50.3990 20.2021
  702 258.064 -3.55074 -16.1097
  703 257.466 -8.48120 8.74384
  704 265.502 41.6523 4.63112
  705 261.823 -4.40265 14.0825
  706 82.0424 55.6807 70.2795
  707 243.785 -28.0243 -18.4478
  708 282.291 5.15460 27.7989
  709 285.220 -8.80362 -20.0326
  710 285.229 -0.336843 1.32182
  711 260.216 -8.88892 -13.2240
  712 244.121 -28.2463 16.7059
  713 475.566 42.0963 -7.06295
  714 143.749 -0.644168 4.79349
  715 143.572 -0.651383 -4.84100
  716 264.160 -4.72533 -6.24265
  717 286.970 -0.252807 -1.28411
  718 222.013 -19.5990 10.4968
  719 267.101 -9.90424 24.8295
  720 407.886 96.4795 -28.4818
  721 253.161 -18.3430 8.27820
  722 281.066 -18.4706 -10.6703
  723 257.566 -8.24985 -8.60567
  724 286.944 -0.451820 -0.432161
  725 260.449 -0.0127474 28.2534
  726 11.8473 10.2647 14.6164
  727 295.243 -11.5012 -42.4330
  728 320.878 18.8679 13.1670
  729 267.015 -27.2464 12.0117
  730 188.991 -4.63112 5.07718
  731 188.995 -4.69700 -5.10392
  732 250.805 124.466 -130.370
  733 271.901 -17.9458 -16.1886
  734 203.102 1.00676 -3.89729
  735 237.870 1.28838 18.0717
  736 262.097 -13.0795 20.0505
  737 251.227 -21.1713 4.42876
  738 261.722 -23.8149 -34.8067
  739 249.652 -19.7552 -4.86788
  740 295.632 -14.1651 -4.14912
  741 272.177 -2.14591 3.66332
  742 242.327 -14.5744 2.70856
  743 442.467 88.4936 -46.9013
  744 258.764 -6.85655 6.96438
  745 255.440 4.16635 -27.4611
  746 218.716 -2.49292 74.1673
  747 273.901 22.0799 28.1169
  748 235.568 -18.5982 2.05459
  749 181.245 -14.3942 -24.8022
  750 181.256 -14.3521 24.5924
  751 249.915 28.0974 -3.82672
  752 254.654 -2.93677 24.5627
  753 257.575 -6.11062 -21.0167
  754 242.606 -14.8694 -2.79083
  755 234.484 -21.0733 5.58494
  756 267.574 44.2481 -5.24602
  757 250.914 -21.7153 -3.43743
  758 251.518 -15.9074 8.02562
  759 255.069 -3.18964 1.27799
  760 255.232 -3.10001 -1.27048
  761 343.209 75.5994 2.18564
  762 280.978 -23.8637 -7.61875
  763 261.016 -7.93876 13.1569
  764 272.305 -2.13669 -3.34335
  765 274.594 1.84275 -28.6792
  766 313.260 16.3566 -17.3680
  767 151.484 -0.165738 -2.22851
  768 151.584 -0.163465 2.20483
  769 2.13074 -4.93918 -3.51469
  770 266.423 -0.289838 5.27705
  771 243.493 -0.426314 -20.0177
  772 251.820 -2.35445 17.7018
  773 231.024 28.1354 109.144
  774 286.722 59.1607 -0.636776
  775 203.477 -14.6905 12.8831
  776 34.6129 0.818901 -13.5040
  777 35.6710 0.606269 13.6503
  778 249.502 -1.78205 -19.9457
  779 204.048 -14.8400 -12.8775
  780 270.686 -2.35389 2.80551
  781 136.811 -5.92004 23.5135
  782 135.617 -5.90032 -23.5306
  783 258.754 -6.65415 -6.78544
  784 163.766 -4.23257 -10.8856
  785 163.847 -4.20377 10.7843
  786 269.606 -2.48074 -7.84486
  787 204.778 -5.54353 -3.43271
  788 204.782 -5.50577 3.43356
  789 294.505 -1.87679 -20.1168
  790 264.481 -2.75610 -28.3985
  791 132.855 -0.878529 -6.12581
  792 133.121 -0.870388 6.05216
  793 5.97670 3.36410 -8.09199
  794 7.18835 3.54710 8.52054
  795 213.027 1.00372 -7.07480
  796 241.690 -27.1610 -13.6049
  797 -2.81090 -1.95507 4.82177
  798 -2.45439 -2.28804 -4.77738
  799 251.645 -4.97519 2.71477
  800 273.074 -21.2695 -9.51565
  801 281.396 41.7705 -21.3676
  802 271.886 -2.11029 -2.66353
  803 585.815 117.366 -110.045
  804 251.593 -4.95769 -2.68025
  805 379.415 72.5779 5.64664
  806 269.011 7.83829 -29.5903
  807 297.597 22.4307 -26.1420
  808 48.5914 -0.575502 -12.5134
  809 49.5353 -0.649978 12.4896
  810 166.412 -2.47129 6.42484
  811 166.354 -2.49245 -6.48528
  812 158.439 -0.399892 1.19731
  813 158.393 -0.404011 -1.20759
  814 300.665 50.6864 -20.0542
  815 176.312 -1.15220 -1.75500
  816 176.340 -1.13877 1.74434
  817 255.448 -2.57155 -25.6299
  818 371.188 37.1069 30.5005
  819 229.134 5.06154 -15.5538
  820 78.2118 -0.715490 13.4498
  821 77.5175 -0.721990 -13.5594
  822 299.006 7.69181 78.0487
  823 263.877 -4.76482 6.44334
  824 234.698 15.5223 -6.48225
  825 107.293 -0.187600 9.19358
  826 106.722 -0.136913 -9.26426
  827 162.024 -0.869097 -3.13876
  828 162.082 -0.856600 3.10796
  829 28.8756 25.7958 21.9316
  830 245.077 5.80985 23.1673
  831 273.088 40.1960 -18.2685
  832 294.340 34.1747 -25.9027
  833 192.383 -7.38108 -8.16911
  834 192.265 -7.32346 8.15546
  835 304.642 65.0630 9.15845
  836 263.530 -2.09496 -0.362368
  837 263.543 -2.07893 0.407592
  838 260.351 -7.75957 -16.8291
  839 217.589 -14.5894 7.30849
  840 240.181 -26.9983 13.6906
  841 282.971 -23.1881 21.4103
  842 215.548 -6.29911 -1.92093
  843 215.544 -6.27358 1.90617
  844 246.469 22.8211 10.5244
  845 231.318 3.11460 -16.8100
  846 64.3475 74.7532 73.1566
  847 235.230 -20.9036 -5.00145
  848 235.972 -10.5546 0.862848
  849 236.100 -10.5732 -0.874835
  850 259.620 -3.80786 26.9803
  851 257.706 -16.9082 -12.6885
  852 229.800 -15.2766 -2.62126
  853 529.293 17.1462 -26.3709
  854 218.364 -20.7478 14.5746
  855 218.195 -21.0210 -14.8185
  856 259.428 -3.07686 13.7125
  857 391.939 100.944 -21.5080
  858 204.702 -18.7093 -18.3885
  859 226.556 -25.5578 17.3135
  860 204.638 -18.4807 18.2202
  861 222.057 -8.98542 -2.15738
  862 222.048 -8.95284 2.13971
  863 32.3693 13.9550 19.0930
  864 278.887 20.8505 -28.5150
  865 212.915 -8.37808 -3.65751
  866 212.952 -8.29138 3.67141
  867 210.166 -3.50852 -0.438547
  868 210.160 -3.48317 0.435316
  869 231.660 -4.57983 0.0711087
  870 231.631 -4.54814 -0.0723909
  871 187.410 -3.75380 -4.40224
  872 187.422 -3.71079 4.38218
  873 213.769 -11.3390 -5.60675
  874 213.794 -11.2583 5.63079
  875 5.05299 -2.31816 -2.15852
  876 323.501 60.6895 15.2503
  877 278.239 -9.72445 -23.0278
  878 226.380 -25.1893 -17.5061
  879 244.688 -7.84662 2.60301
  880 244.578 -7.76296 -2.53253
  881 266.745 0.352181 29.0064
  882 290.828 -20.7555 -11.4171
  883 257.687 17.9155 -94.5717
  884 116.013 -1.80842 46.5124
  885 -4.74008 2.70745 -3.03202
  886 -4.15307 3.05334 3.37822
  887 32.1368 14.8429 -19.4850
  888 260.959 -7.43745 10.4083
  889 274.964 -1.72779 -4.39913
  890 247.105 -23.7257 40.1378
  891 115.732 -1.67950 -46.7036
  892 275.386 -22.4928 6.87797
  893 307.348 -9.26551 34.5926
  894 221.005 0.879699 7.50403
  895 254.201 24.1777 17.9494
  896 136.907 -7.75401 34.2852
  897 136.369 -7.81711 -34.5209
  898 164.331 -7.93395 -19.2022
  899 173.397 -8.40943 -59.4067
  900 275.259 -6.40397 25.7619
  901 379.163 88.6781 12.5148
  902 276.210 10.6437 29.0783
  903 261.108 -5.52737 -15.3326
  904 177.091 -7.53517 60.8899
  905 333.367 61.3546 -11.4974
  906 32.5598 27.8329 -27.0985
  907 240.531 -0.496240 -8.06055
  908 164.504 -7.86720 19.0246
  909 201.079 -4.49486 3.03784
  910 201.076 -4.52707 -3.04548
  911 258.087 -16.8187 13.0898
  912 268.450 -1.61166 1.08897
  913 197.097 1.86306 -73.9379
  914 283.250 -0.590248 2.08528
  915 281.019 -0.480614 -2.64920
  916 208.049 1.77554 -6.49889
  917 271.224 -1.08843 -4.68467
  918 201.829 -9.54948 -7.47622
  919 201.965 -9.40366 7.49795
  920 -6.78618 2.43037 -3.92499
  921 -9.29329 1.46516 4.12696
  922 268.448 -1.49102 -1.10059
  923 87.6136 -1.96272 31.3682
  924 87.0673 -1.76949 -31.5525
  925 286.100 41.8067 22.5901
  926 516.756 9.31832 8.18776
  927 269.092 29.9637 23.6203
  928 306.074 -10.8728 9.09213
  929 265.330 -14.7342 20.2404
  930 330.556 69.3547 -8.74313
  931 203.460 0.825659 4.89663
  932 255.372 -5.93053 -4.27232
  933 264.901 14.2442 -28.5704
  934 321.323 9.31725 -6.31486
  935 248.755 -15.3545 -6.38140
  936 125.456 -0.725764 -6.86559
  937 125.595 -0.700202 6.76600
  938 262.643 -6.10720 -12.0807
  939 8.51423 10.8866 1.96699
  940 252.082 -26.1272 -1.98816
  941 217.044 6.34627 -0.670987
  942 328.164 72.3205 -5.81053
  943 51.3447 38.2450 -45.2794
  944 251.840 -1.87200 -15.8628
  945 173.484 -2.97813 -5.98655
  946 173.515 -2.94240 5.93305
  947 1.43707 -7.26927 5.56242
  948 170.455 -12.7921 -27.5614
  949 256.740 -14.8085 -12.2983
  950 157.811 0.337554 -0.493033
  951 157.846 0.339293 0.489413
  952 258.686 31.4103 -14.3943
  953 278.845 -0.747566 -0.422489
  954 278.848 -0.759629 0.550963
  955 170.526 -12.7550 27.3675
  956 259.635 -0.335121 -6.28589
  957 299.415 2.14754 19.4461
  958 265.522 -3.66235 4.99784
  959 41.6355 10.7547 -24.2538
  960 275.548 -1.59973 3.99280
  961 248.926 1.97973 24.8311
  962 262.554 36.4169 12.8072
  963 263.008 3.05031 -29.2467
  964 180.362 -9.79185 -16.4250
  965 284.422 -10.0378 19.3564
  966 180.477 -9.75182 16.2527
  967 8.09015 8.90298 -0.508250
  968 30.3739 5.36345 17.7593
  969 146.530 -2.65741 11.3344
  970 146.346 -2.66065 -11.4025
  971 255.551 -6.04777 4.49251
  972 274.164 47.7994 7.11093
  973 139.339 12.8748 -69.9094
  974 229.353 -14.3722 2.24546
  975 215.252 -22.5670 -22.1233
  976 314.376 60.3340 15.7069
  977 241.660 -4.21343 0.464192
  978 241.651 -4.18894 -0.465514
  979 265.122 -4.82964 -8.71568
  980 244.123 21.0424 -9.71095
  981 559.643 164.873 111.301
  982 50.0705 2.90614 -23.5091
  983 50.8901 2.41749 23.5652
  984 3.72037 -5.22547 1.02205
  985 244.936 13.5336 19.9322
  986 215.180 -22.7015 21.9543
  987 267.153 -12.5881 -22.9591
  988 290.738 23.7778 28.2232
  989 280.021 -22.6089 -26.5005
  990 409.415 86.2400 28.1243
  991 237.150 -3.79031 -0.0704353
  992 237.119 -3.75721 0.0707836
  993 278.004 -11.2939 21.8665
  994 19.0420 30.6049 32.5320
  995 123.534 -2.65072 16.2562
  996 123.135 -2.61697 -16.4377
  997 148.059 -7.34876 22.1907
  998 147.541 -7.23876 -22.2797
  999 166.977 -6.99408 15.8963
  1000 182.533 -1.50598 -0.800668
  1001 182.557 -1.49445 0.797149
  1002 462.227 145.681 -92.3954
  1003 417.029 104.432 42.2621
  1004 166.842 -7.03146 -16.0365
  1005 286.388 -1.29378 24.0967
  1006 255.426 26.5071 -17.2947
  1007 180.441 -15.4738 49.2297
  1008 232.325 -27.4371 -26.2263
  1009 265.629 -2.14418 -9.24178
  1010 119.107 8.31817 56.8221
  1011 152.903 -11.6983 39.3455
  1012 233.829 11.9318 -12.4685
  1013 268.505 -5.29256 -27.5830
  1014 345.785 137.789 149.129
  1015 220.525 6.69028 8.86304
  1016 301.561 65.2157 -1.09999
  1017 222.153 8.62556 -84.0757
  1018 225.299 -23.7753 -14.8910
  1019 287.261 -0.261601 -1.05052
  1020 274.511 25.2325 -27.3920
  1021 159.356 -1.07549 4.04973
  1022 159.282 -1.08651 -4.09005
  1023 5.77287 2.36671 -8.06838
  1024 180.445 -8.35820 -13.6793
  1025 152.721 -11.8503 -39.6522
  1026 180.300 -8.33762 13.5216
  1027 262.395 -7.96004 25.5050
  1028 235.279 -14.5749 -0.0947353
  1029 246.770 4.51095 -24.0417
  1030 253.872 31.7290 5.04696
  1031 346.579 20.4697 11.2999
  1032 260.118 -19.7347 12.5328
  1033 163.515 -13.1630 -30.1603
  1034 244.593 8.61729 -22.4828
  1035 182.048 -15.2623 -49.5017
  1036 350.724 76.3971 -1.20493
  1037 237.517 15.5485 11.3427
  1038 301.789 -1.81607 -15.1056
  1039 226.706 -23.7814 13.6516
  1040 260.002 -8.20216 19.7658
  1041 258.406 -13.6070 14.3733
  1042 256.990 -12.8881 12.4916
  1043 317.754 40.2729 -20.8810
  1044 256.398 -4.11338 19.9827
  1045 231.926 -27.5142 25.7922
  1046 247.576 -10.0870 4.30296
  1047 163.616 -13.1862 29.9832
  1048 232.251 -17.1730 -2.78262
  1049 134.292 -6.49699 -42.0864
  1050 192.298 -20.0075 33.3144
  1051 261.275 -1.74021 -10.7055
  1052 254.250 -2.86051 -22.6737
  1053 220.120 -17.5009 -8.98116
  1054 134.525 -6.69017 41.7456
  1055 236.585 0.549634 -15.7091
  1056 175.720 -11.7811 -21.3081
  1057 320.006 68.3229 9.98163
  1058 70.5514 11.8699 -39.7756
  1059 552.040 39.0362 53.4353
  1060 127.635 9.67113 -59.5308
  1061 256.968 -21.2709 -7.90481
  1062 175.764 -11.6780 21.1267
  1063 233.986 2.43276 17.5470
  1064 130.270 -2.69535 13.4539
  1065 130.197 -2.76247 -13.5950
  1066 259.936 -7.20891 -23.6276
  1067 277.326 -1.31274 1.66221
  1068 271.433 -0.579947 4.73958
  1069 268.061 8.91546 29.5091
  1070 250.494 -1.88632 21.2778
  1071 194.730 20.6527 90.9785
  1072 289.163 -0.187614 0.516714
  1073 269.628 36.5964 18.8060
  1074 227.507 3.24827 15.1019
  1075 275.032 -1.01449 4.56155
  1076 175.106 -1.94807 -3.33355
  1077 175.134 -1.92559 3.31024
  1078 110.992 -3.19265 -22.4254
  1079 111.445 -3.30724 22.2647
  1080 228.227 11.3204 6.33236
  1081 347.896 18.1623 -24.2638
  1082 319.618 -0.710418 -47.3225
  1083 253.147 -0.214205 -6.50655
  1084 192.381 -20.1588 -33.5721
  1085 220.580 -16.6439 7.98669
  1086 254.656 -0.574219 6.79238
  1087 267.181 -19.3449 -14.7190
  1088 164.909 -0.412276 2.00044
  1089 164.870 -0.419362 -2.01377
  1090 256.474 -21.8802 7.90140
  1091 243.649 -4.92473 0.906362
  1092 243.608 -4.92896 -0.889535
  1093 237.005 -23.9111 8.39601
  1094 306.572 -9.96679 -2.33722
  1095 136.420 -0.253712 -3.81285
  1096 136.650 -0.244866 3.77062
  1097 208.146 -13.0791 -56.7125
  1098 220.882 -5.28299 0.993228
  1099 220.905 -5.31422 -1.00356
  1100 133.979 71.4392 99.9358
  1101 307.389 25.1435 -23.4152
  1102 44.5485 21.9134 -29.8466
  1103 265.690 -3.86912 -4.83192
  1104 70.1326 24.2957 -45.5949
  1105 146.328 -9.29134 -28.6662
  1106 289.313 -0.270817 0.312803
  1107 289.436 -0.251223 -0.232318
  1108 261.000 -14.8638 -17.3761
  1109 231.160 -25.9017 -36.2292
  1110 70.5871 10.1038 37.9029
  1111 283.832 28.1233 26.7369
  1112 258.001 -2.50124 -0.442424
  1113 258.028 -2.50381 0.467670
  1114 282.447 -18.2766 43.8516
  1115 290.453 58.3637 10.3331
  1116 171.197 -4.21935 -8.59113
  1117 171.238 -4.19845 8.52612
  1118 130.563 15.0531 70.5441
  1119 246.178 1.22710 -23.2796
  1120 76.6807 24.9042 49.0738
  1121 318.335 -5.62812 -13.9481
  1122 311.358 69.1409 3.18128
  1123 213.668 -17.0128 11.0495
  1124 195.650 0.994663 -0.954153
  1125 272.373 -2.32806 5.88104
  1126 282.291 -0.317540 2.29867
  1127 60.0231 0.121440 -11.2627
  1128 60.8913 0.0909235 11.1834
  1129 220.195 3.61493 -11.1757
  1130 228.025 -6.71176 -0.582651
  1131 227.971 -6.67797 0.578345
  1132 23.7828 35.9065 -34.5777
  1133 38.0294 80.1230 -69.9741
  1134 231.006 -9.03617 0.301354
  1135 231.100 -9.03804 -0.313208
  1136 238.870 -5.71887 0.985756
  1137 238.835 -5.70526 -0.964265
  1138 62.0964 39.7564 49.2758
  1139 187.304 -2.37941 -1.58542
  1140 187.324 -2.36154 1.57708
  1141 236.216 17.8004 -0.267247
  1142 304.702 37.2662 -105.151
  1143 289.235 49.9829 -17.6975
  1144 264.079 -10.1075 -24.1666
  1145 260.175 -12.9353 -17.5850
  1146 213.811 -17.1745 -11.2391
  1147 214.000 0.672633 6.89927
  1148 241.714 15.0208 -16.6556
  1149 238.250 12.7604 15.8967
  1150 247.411 -9.78952 -4.22718
  1151 235.892 -14.2783 -0.0773704
  1152 214.064 -13.9414 -8.23992
  1153 255.259 -1.48596 12.6620
  1154 454.658 45.9681 6.43110
  1155 257.072 -5.46142 23.0742
  1156 257.671 16.9167 25.1034
  1157 238.126 -23.4799 -6.13670
  1158 28.7014 4.93508 -17.1177
  1159 242.594 -11.2090 -3.12295
  1160 158.971 -0.276188 -0.0938250
  1161 159.003 -0.275092 0.0926123
  1162 296.394 -7.85736 13.0135
  1163 282.488 -23.7602 9.31370
  1164 406.381 73.0013 17.5628
  1165 94.7688 -0.215824 -9.41483
  1166 95.3669 -0.194907 9.34070
  1167 216.011 -4.39455 -0.861264
  1168 215.998 -4.36547 0.854003
  1169 243.393 -21.5014 -0.0736203
  1170 197.453 0.859002 3.12077
  1171 249.321 -17.7494 6.13328
  1172 13.7460 16.3450 -7.58467
  1173 44.1142 22.2039 29.2003
  1174 166.275 -8.94145 54.8375
  1175 288.015 55.0512 -12.6265
  1176 276.069 -0.740847 -3.59994
  1177 290.574 -0.439857 0.220247
  1178 290.873 -0.610330 -0.144747
  1179 165.768 -0.436262 -0.321247
  1180 165.800 -0.432917 0.318535
  1181 265.398 16.9823 28.5479
  1182 394.616 67.7421 -1.43350
  1183 273.275 45.3023 -12.7611
  1184 204.652 -14.9599 56.3454
  1185 165.386 -8.58155 -54.7367
  1186 183.418 -12.4192 -19.0632
  1187 255.669 -7.06931 5.69142
  1188 357.548 78.5678 1.77756
  1189 183.428 -12.3421 18.9057
  1190 261.434 -4.46684 4.30972
  1191 231.833 8.54644 15.1586
  1192 256.358 7.92591 27.3854
  1193 366.854 82.0511 7.88759
  1194 216.442 -5.68656 1.61996
  1195 216.455 -5.71610 -1.63321
  1196 264.759 -4.88371 9.04661
  1197 154.844 -1.71769 6.36220
  1198 154.734 -1.73547 -6.42351
  1199 259.059 -3.41992 -1.97972
  1200 106.151 63.0108 -96.4634
  1201 224.272 -12.5910 -60.3162
  1202 210.373 -6.66608 -3.13513
  1203 210.392 -6.63368 3.13590
  1204 278.538 -1.22365 1.48691
  1205 263.061 -3.33659 3.45279
  1206 14.0439 17.3610 12.5877
  1207 286.938 -0.288548 1.22180
  1208 33.5287 42.0370 41.7100
  1209 256.781 -3.73362 -2.53300
  1210 -0.368246 -6.35595 -5.55710
  1211 180.739 -17.6241 -42.4103
  1212 180.219 -17.1925 41.9758
  1213 286.932 -0.475485 -1.34513
  1214 244.160 -12.8741 -3.68274
  1215 278.313 -1.10653 -1.53717
  1216 221.347 -7.19834 -1.44766
  1217 221.321 -7.16924 1.42765
  1218 258.888 -3.39368 1.86552
  1219 242.417 -10.9917 3.09021
  1220 233.041 -7.48845 -0.302779
  1221 233.128 -7.51170 0.332730
  1222 278.099 -1.14127 -1.25933
  1223 239.431 -25.1437 -40.9122
  1224 271.902 -1.56668 -1.30133
  1225 257.906 -3.84248 2.70718
  1226 178.006 -2.02951 -2.45141
  1227 178.033 -2.00925 2.43549
  1228 199.576 -2.98976 -1.21381
  1229 199.584 -2.96798 1.20690
  1230 325.915 50.7110 17.7063
  1231 273.712 -20.9723 11.1963
  1232 187.276 -0.801422 69.7428
  1233 147.935 -0.275949 2.44063
  1234 147.808 -0.278801 -2.46659
  1235 258.795 -4.74632 17.3898
  1236 247.933 -3.66600 0.598797
  1237 247.946 -3.65254 -0.598403
  1238 283.292 55.3512 5.88213
  1239 260.449 -27.2258 32.1408
  1240 148.509 -2.16704 8.96390
  1241 148.358 -2.18409 -9.03392
  1242 247.508 -5.97357 2.25995
  1243 247.454 -6.01368 -2.20053
  1244 255.534 -6.97844 -5.49300
  1245 233.442 0.0369428 8.13826
  1246 407.451 101.185 -32.8034
  1247 260.132 -9.46420 -15.5255
  1248 43.6295 10.6100 24.9633
  1249 268.836 -14.2782 21.4856
  1250 214.019 4.60063 -6.10961
  1251 15.9063 12.0041 8.75613
  1252 355.875 38.9915 -1.61447
  1253 262.408 -11.8966 -21.6114
  1254 215.078 2.99338 9.35335
  1255 147.377 -9.30491 28.6067
  1256 266.817 -20.6086 13.2154
  1257 389.425 73.1170 21.4372
  1258 88.5942 13.2777 48.3461
  1259 268.305 -3.09891 -7.78048
  1260 521.122 5.77919 -5.29291
  1261 538.932 8.13834 23.6743
  1262 576.212 19.8080 -56.1171
  1263 259.687 -8.05973 -19.1987
  1264 259.810 -11.8097 16.4846
  1265 264.083 -18.7524 15.5555
  1266 -7.79435 0.848310 4.98045
  1267 -7.10843 0.663518 -5.40319
  1268 257.229 -28.3785 -14.5196
  1269 263.729 -26.6093 -22.1681
  1270 198.942 1.23133 -3.85794
  1271 256.212 -28.9019 22.1878
  1272 273.537 -12.9303 -21.8324
  1273 4.99257 7.98223 0.567389
  1274 221.527 -4.04550 0.666330
  1275 221.545 -4.07614 -0.668103
  1276 272.242 -2.09079 5.32844
  1277 261.428 -4.38422 -4.05893
  1278 245.865 -26.8514 -7.37103
  1279 224.005 -12.1927 3.21126
  1280 222.852 -12.0255 -3.55371
  1281 263.637 -5.50222 12.3090
  1282 270.117 -9.88391 -24.9274
  1283 16.5172 12.5168 -8.42947
</Section>

newXOutput 36

<Section columns = "stress_xx | stress_yy | stress_xy">
  1 300.715 -0.0245222 0.605150
  2 300.732 -0.0204920 -0.607201
  3 160.846 -0.0717925 -0.219334
  4 -2.05133 -2.03454 -2.94798
  5 548.144 212.622 172.967
  6 542.948 220.595 -173.380
  7 -2.38068 -1.93874 3.12930
  8 160.814 -0.0724326 0.218677
  9 302.904 -0.485560 0.190335
  10 302.227 -0.775595 -0.136677
  11 301.468 -0.500419 0.711724
  12 300.712 -0.704744 0.223639
  13 299.095 -0.587178 1.12251
  14 297.634 -0.597259 0.834007
  15 294.242 -0.529887 1.60428
  16 289.451 -0.344365 2.35790
  17 285.166 -0.379617 2.61276
  18 278.859 -0.554771 3.14564
  19 270.169 -0.0214223 4.63290
  20 262.140 -0.409877 4.38905
  21 253.069 -0.546749 6.16436
  22 239.960 0.389690 5.34869
  23 230.524 0.570316 6.31061
  24 218.221 0.972096 4.92649
  25 209.733 0.992891 4.96122
  26 197.431 1.41635 2.52587
  27 194.851 2.23449 2.70360
  28 193.305 1.81650 -0.796717
  29 195.435 1.02612 -1.75922
  30 199.350 1.01589 -2.15503
  31 208.562 1.29614 -4.30738
  32 217.506 1.02283 -5.46146
  33 230.681 0.206383 -6.48406
  34 241.231 -0.143389 -5.92346
  35 252.516 -0.437077 -5.83564
  36 262.753 -0.318495 -4.12948
  37 271.588 -0.327109 -3.54295
  38 278.901 -0.540375 -2.98400
  39 285.473 -0.378355 -2.09442
  40 289.606 -0.441670 -2.22933
  41 293.598 -0.557752 -1.63280
  42 297.397 -0.666684 -0.731216
  43 299.353 -0.532310 -0.849073
  44 300.411 -0.313357 -0.536601
  45 299.708 -0.151139 -0.488654
  46 302.551 -0.786398 0.0865365
  47 303.005 -0.507499 -0.196441
  48 292.776 -0.164267 -0.373863
  49 286.010 -1.13539 -0.664942
  50 277.775 -1.68918 -0.446917
  51 267.752 -2.54589 -0.608921
  52 258.275 -2.80116 -0.761127
  53 248.178 -3.55084 -0.721144
  54 239.256 -3.97570 -0.407923
  55 231.432 -4.48365 -0.161982
  56 222.413 -3.73066 -0.160767
  57 212.019 -3.50505 -0.248026
  58 201.996 -2.78385 -0.0839653
  59 192.492 -1.79296 -0.0342758
  60 183.451 -1.29005 0.00838549
  61 175.506 -0.677468 0.0785457
  62 167.361 -0.194156 -0.252635
  63 160.952 0.222694 0.301800
  64 158.096 0.648546 0.197358
  65 160.099 -0.00132397 0.477092
  66 157.969 -0.0974760 0.572306
  67 156.019 -0.140939 0.714753
  68 153.358 -0.0256527 0.938346
  69 149.999 -0.0150828 1.18685
  70 147.557 -0.214383 2.30761
  71 140.399 0.206885 2.52382
  72 135.389 -0.0201695 2.90094
  73 127.926 -0.138861 3.28753
  74 119.315 -0.230391 4.00555
  75 108.559 -0.0566458 4.86328
  76 95.4425 0.0575747 5.35241
  77 84.1894 -0.128888 7.64262
  78 61.8251 0.719463 7.19062
  79 46.6793 0.621580 7.61328
  80 28.6118 -0.120197 8.41318
  81 13.6901 1.42924 8.70598
  82 -3.25648 2.11578 5.14508
  83 -15.4756 2.14423 1.72710
  84 -14.8160 2.04500 -0.919672
  85 -13.8973 1.68910 -4.22344
  86 -8.14714 -0.578318 -3.97604
  87 -1.02260 -7.82178 -4.37728
  88 0.729502 -14.4637 -5.51841
  89 2.08901 -23.0616 -3.17824
  90 4.67613 -23.9668 -0.0217156
  91 9.94764 -7.08061 12.7820
  92 29.9579 43.5270 44.4456
  93 179.118 162.241 154.087
  94 662.305 98.3887 111.537
  95 595.354 14.1367 36.5198
  96 552.261 5.81379 11.1757
  97 536.325 4.91100 0.882454
  98 544.672 6.57066 -9.64331
  99 593.807 13.1060 -28.8780
  100 703.529 47.4903 -96.5572
  101 105.961 165.143 -128.482
  102 22.4539 29.3630 -36.5786
  103 10.8411 -5.99045 -13.3275
  104 4.36362 -24.0960 -2.02951
  105 1.18439 -17.6473 3.67364
  106 1.53038 -18.2077 4.80307
  107 0.0568424 -6.78079 4.84465
  108 -8.49915 -0.391440 3.78078
  109 -14.3418 1.26744 3.69498
  110 -15.5942 2.48935 1.00666
  111 -15.9850 2.11509 -1.58538
  112 -4.36075 2.16860 -4.80903
  113 12.7063 1.44206 -8.29405
  114 27.6059 0.0299874 -8.27436
  115 45.6448 0.672380 -7.63127
  116 60.8851 0.738961 -7.24836
  117 83.4596 -0.132033 -7.71037
  118 94.8166 0.0646756 -5.40701
  119 108.013 -0.0542451 -4.92702
  120 119.033 -0.254261 -4.03795
  121 127.552 -0.132641 -3.29757
  122 135.107 -0.0108215 -2.93282
  123 140.169 0.204172 -2.55349
  124 147.394 -0.216395 -2.33280
  125 149.869 -0.0163906 -1.20240
  126 153.262 -0.0268845 -0.951175
  127 155.948 -0.142964 -0.724955
  128 157.916 -0.0992083 -0.579456
  129 160.056 -0.00284048 -0.481686
  130 158.061 0.647648 -0.199517
  131 160.919 0.222271 -0.303137
  132 167.328 -0.195908 0.251862
  133 175.474 -0.681845 -0.0802349
  134 183.423 -1.29975 -0.0103737
  135 192.471 -1.80647 0.0323481
  136 201.984 -2.80329 0.0820850
  137 212.019 -3.52952 0.246566
  138 222.425 -3.75885 0.159367
  139 231.454 -4.51495 0.161425
  140 239.284 -4.00680 0.408999
  141 248.217 -3.57914 0.724293
  142 258.307 -2.82086 0.772484
  143 267.773 -2.56348 0.662934
  144 277.822 -1.59112 0.457074
  145 286.213 -1.10308 0.650470
  146 292.820 -0.209438 0.368415
  147 260.946 -24.5053 -2.53095
  148 260.735 -24.1773 2.62487
  149 273.198 39.3130 -13.8327
  150 291.816 17.2268 29.4878
  151 220.942 -21.1914 -48.0881
  152 222.710 -21.1730 46.5119
  153 213.940 -9.16980 5.53597
  154 213.962 -9.30042 -5.54196
  155 309.900 11.0860 -22.9177
  156 260.246 -9.30563 6.30591
  157 260.137 -9.07683 -6.22590
  158 336.430 75.3825 3.84372
  159 266.019 -0.426103 -28.6266
  160 196.254 -15.5748 -21.4637
  161 196.250 -15.4415 21.2660
  162 266.605 -6.00981 25.9251
  163 252.609 18.3921 16.9758
  164 103.848 16.8974 -57.3598
  165 115.327 15.9930 60.4704
  166 327.714 3.56497 3.88290
  167 267.499 -10.2157 -18.1787
  168 354.778 77.9643 -2.47765
  169 240.624 -6.77263 0.283752
  170 240.571 -6.74925 -0.261251
  171 271.039 -3.17593 -2.77219
  172 271.932 -2.83993 2.40133
  173 187.806 -2.77690 -3.35594
  174 187.827 -2.74734 3.33667
  175 291.834 -7.93792 61.0742
  176 244.358 10.0822 -18.2730
  177 159.363 -12.0088 -34.6864
  178 159.843 -11.9200 34.4489
  179 178.829 -5.98358 -11.2623
  180 178.843 -5.91326 11.1730
  181 268.845 -7.00749 15.4446
  182 244.085 -16.7960 -0.0141739
  183 243.203 -16.6707 0.418822
  184 278.204 -26.8662 -3.77613
  185 279.624 -25.5940 0.296940
  186 384.952 90.5044 -12.2553
  187 278.629 44.8526 12.9526
  188 279.418 17.1724 -29.4879
  189 290.937 -2.76413 -71.1693
  190 277.645 -15.6438 -20.9116
  191 280.007 -11.1508 24.5004
  192 233.119 -26.4930 23.2602
  193 233.196 -26.3098 -23.1837
  194 248.718 3.13263 21.9969
  195 113.028 -2.69773 -42.3466
  196 113.316 -2.94668 42.0773
  197 435.041 65.3399 9.33840
  198 262.846 -15.6308 11.5667
  199 272.807 -4.93888 -10.1192
  200 215.222 -5.31962 -2.47112
  201 215.223 -5.29053 2.46210
  202 261.303 -3.38269 -19.9444
  203 297.864 43.7831 -23.7590
  204 248.277 22.2692 -3.40706
  205 160.723 -5.80468 15.9264
  206 160.472 -5.82467 -16.0521
  207 277.138 -2.98458 5.60223
  208 269.090 5.06200 29.4181
  209 218.377 -16.0247 -10.0864
  210 216.850 -15.1758 10.3592
  211 317.887 47.1410 22.0681
  212 375.269 50.6271 6.88573
  213 24.7772 19.5893 -15.6431
  214 22.8944 18.1095 13.2645
  215 153.701 43.7883 101.691
  216 260.185 -17.2737 -9.02550
  217 278.190 -2.86831 -5.06428
  218 245.814 2.12092 -20.2503
  219 171.335 -1.77416 -4.98545
  220 171.388 -1.75385 4.93867
  221 233.712 -11.0120 -1.77259
  222 233.819 -11.0768 1.63812
  223 263.652 -3.53561 17.0001
  224 304.803 -17.6842 5.78862
  225 301.503 61.8644 -6.93227
  226 236.450 -22.9104 -10.6687
  227 299.877 -5.20105 19.3434
  228 255.130 -4.20721 1.09638
  229 255.136 -4.17079 -1.09463
  230 234.666 -22.7998 11.1232
  231 269.284 -17.0448 17.0967
  232 380.677 48.1861 -22.3921
  233 83.3291 49.6354 -73.2360
  234 226.492 7.87545 4.34262
  235 269.885 23.8098 24.7528
  236 288.271 -1.99494 -26.5064
  237 269.066 -9.65362 -24.3218
  238 141.889 -4.65162 -20.0023
  239 142.394 -4.58001 19.9322
  240 269.571 -3.20839 -13.2063
  241 256.960 -6.44073 3.39906
  242 256.839 -6.42999 -3.29310
  243 53.0312 5.01992 -26.7975
  244 53.9195 4.40257 26.7119
  245 286.994 -25.0765 -21.2773
  246 284.073 -0.919920 0.803400
  247 284.395 -0.938491 -0.863527
  248 263.430 21.8272 -22.6308
  249 231.154 4.37580 13.2065
  250 489.307 78.3924 52.5005
  251 485.433 55.2717 -32.9625
  252 349.467 75.6699 -0.709821
  253 218.013 -10.4468 64.1520
  254 199.915 -6.71628 -67.1403
  255 228.904 -4.70052 -0.790888
  256 228.881 -4.66841 0.784225
  257 189.200 -5.16806 6.81303
  258 189.204 -5.24090 -6.87782
  259 276.644 -2.91366 8.22417
  260 268.215 -19.0679 -14.1945
  261 172.080 -0.359375 -1.15402
  262 172.116 -0.353447 1.14612
  263 264.830 -10.6673 -11.2532
  264 110.907 -3.66337 -27.6977
  265 111.407 -3.67552 27.4896
  266 268.029 -11.5800 19.5823
  267 204.211 -21.6752 38.6544
  268 204.752 -22.0644 -38.5379
  269 229.918 8.72723 -6.14631
  270 198.371 -3.10816 -2.25611
  271 198.385 -3.08598 2.24647
  272 250.592 -0.645798 16.2700
  273 300.078 55.0897 16.5128
  274 159.242 -2.00723 8.50149
  275 159.118 -2.02458 -8.57827
  276 275.598 -22.9687 10.2410
  277 255.128 -28.5796 -25.5061
  278 285.049 -1.29053 2.62634
  279 196.519 -11.7823 -14.6103
  280 196.163 -11.6479 14.5503
  281 352.564 35.7092 90.1214
  282 164.486 -13.2489 46.2541
  283 265.823 37.3750 -1.47051
  284 337.880 37.1163 -15.0011
  285 254.134 -19.6679 3.91403
  286 255.289 -29.3673 22.9100
  287 165.008 -13.0271 -46.7956
  288 30.2902 37.3167 33.6384
  289 264.875 -10.7079 11.4569
  290 348.181 45.2742 12.0199
  291 287.391 -1.15063 -2.27677
  292 258.963 9.03365 -26.0458
  293 256.106 -14.4688 6.41518
  294 250.699 -21.1861 0.0195898
  295 257.966 11.8210 25.0772
  296 274.253 -22.9818 -9.21935
  297 389.104 75.9299 -6.34302
  298 256.036 -13.9043 -6.14284
  299 212.571 60.4071 -124.885
  300 261.991 -27.7541 -4.34135
  301 260.115 -28.5078 7.34455
  302 190.271 -17.3031 -30.4049
  303 170.536 -0.691100 -2.52176
  304 170.581 -0.679139 2.50008
  305 190.344 -17.3144 30.2327
  306 276.891 -0.451532 -29.6859
  307 299.532 -12.3902 -13.1433
  308 227.211 -13.7679 -5.14119
  309 227.052 -13.7988 5.24062
  310 272.932 -23.4881 41.1799
  311 271.837 -2.14081 10.0018
  312 331.507 1.28900 13.6526
  313 222.436 -7.90785 -2.78504
  314 222.448 -7.87899 2.76703
  315 202.131 -5.34392 -4.42421
  316 202.129 -5.29217 4.41628
  317 228.694 3.02819 -12.7762
  318 295.357 21.6429 -28.6370
  319 458.688 123.403 -58.0348
  320 269.432 -2.27215 -0.940527
  321 269.270 -2.24071 0.963669
  322 143.432 -0.155794 57.7123
  323 201.185 -9.24013 -9.58013
  324 200.790 -9.20546 9.60346
  325 143.408 -0.482991 -57.4929
  326 281.155 33.2133 -24.2000
  327 315.579 15.5644 21.8699
  328 272.984 -19.4851 -45.8155
  329 250.291 -9.63820 2.95285
  330 250.030 -9.56446 -2.84054
  331 267.481 -5.46502 -5.53669
  332 250.782 -0.488331 -15.2202
  333 282.104 1.24064 29.1341
  334 281.922 -1.91417 -5.68622
  335 168.126 -10.3224 23.2191
  336 167.941 -10.3822 -23.4068
  337 262.009 -0.600728 27.1515
  338 160.098 -1.35760 -5.02682
  339 160.202 -1.34468 4.97809
  340 269.418 -6.12314 8.52009
  341 322.967 66.0967 -12.4413
  342 267.334 -5.50930 5.73773
  343 284.361 35.7604 24.3092
  344 272.278 -5.04166 28.2864
  345 214.925 -4.06075 0.879527
  346 214.929 -4.08727 -0.886323
  347 257.294 -0.931216 -24.0805
  348 341.536 71.8972 8.31798
  349 283.225 52.0574 0.508819
  350 173.671 20.2416 -86.0330
  351 17.2613 7.82339 -11.4496
  352 19.0058 8.45942 12.3536
  353 -1.04020 1.90660 5.37613
  354 0.0533215 1.01498 -5.59985
  355 501.895 34.8002 12.0365
  356 234.747 -19.1334 -6.06061
  357 269.644 -5.91194 -8.31574
  358 242.897 -4.23642 0.430802
  359 242.868 -4.20066 -0.432044
  360 259.448 28.6592 -12.2495
  361 221.593 -22.6613 19.1214
  362 19.0890 28.2985 -20.6335
  363 221.819 -22.6594 -19.4855
  364 262.906 29.9085 13.0363
  365 268.839 -7.12314 -14.7262
  366 285.428 -15.8897 -17.9942
  367 303.538 64.3155 4.78874
  368 286.130 -17.8229 15.0105
  369 116.752 -2.96407 18.5698
  370 116.030 -2.90727 -18.6963
  371 65.6740 1.66252 -25.6507
  372 66.4039 1.39119 25.5334
  373 232.415 0.715215 12.9342
  374 445.486 129.446 49.2713
  375 278.188 -1.72879 -7.17729
  376 215.776 -18.3383 -14.5965
  377 215.585 -18.2869 14.5757
  378 267.115 -6.13098 -18.5566
  379 305.036 -14.7450 3.13677
  380 234.738 -19.1140 6.25961
  381 335.403 2.13089 -26.3283
  382 187.582 -1.56469 -0.847555
  383 187.607 -1.55082 0.840636
  384 262.490 -1.51499 -11.8000
  385 140.027 -2.07275 -12.1318
  386 140.121 -2.13797 11.9793
  387 314.214 40.1056 -24.4409
  388 169.472 12.0143 79.8433
  389 245.669 -12.9111 1.64131
  390 245.913 -12.8867 -1.65411
  391 288.529 48.9177 -15.4316
  392 273.398 -8.08260 -26.8621
  393 274.640 -28.0319 22.1318
  394 228.095 -6.07964 -1.21575
  395 228.066 -6.04808 1.20141
  396 263.909 -20.3516 9.71386
  397 284.705 -1.31938 4.23710
  398 176.002 -6.52947 -14.1340
  399 176.071 -6.52792 14.0075
  400 267.629 8.97334 -29.0006
  401 252.916 -5.44029 1.66616
  402 252.906 -5.45220 -1.63088
  403 261.344 -3.07065 22.1777
  404 242.994 17.6574 5.85663
  405 271.253 -11.4256 23.5209
  406 392.940 82.4281 14.2268
  407 130.014 -7.01466 -37.1216
  408 130.384 -7.01762 36.8293
  409 57.8821 31.2267 -43.8780
  410 291.592 -0.805736 1.19912
  411 145.968 -1.28156 -7.67091
  412 146.168 -1.25438 7.60191
  413 267.348 -6.94586 18.1951
  414 242.466 -26.3503 12.3173
  415 274.351 -3.33522 3.92653
  416 278.947 14.1757 30.3017
  417 60.7553 33.2492 45.8142
  418 242.840 -26.2067 -11.2832
  419 250.984 -23.3532 -1.71824
  420 80.6613 -1.62310 -23.2959
  421 81.2977 -1.68603 23.1298
  422 192.497 -15.3330 -55.7915
  423 288.351 -4.27922 25.8889
  424 191.733 -15.5730 55.2889
  425 266.252 -14.9284 -15.3991
  426 246.504 16.5797 -12.8547
  427 266.305 -11.4711 14.5920
  428 287.240 -1.23340 -2.88604
  429 8.51051 8.92501 3.67764
  430 57.6438 66.0576 65.0844
  431 255.745 -0.944119 11.3558
  432 213.568 2.87343 5.58503
  433 217.387 3.51583 -7.58457
  434 185.478 -3.13991 -4.80524
  435 185.494 -3.09897 4.77152
  436 262.538 -20.3411 -8.94066
  437 265.010 -5.17765 -24.8570
  438 214.757 3.96429 -2.06068
  439 392.946 93.5018 18.4050
  440 53.5210 17.9823 -32.8331
  441 59.0783 16.5074 35.1313
  442 245.443 -8.74012 1.45452
  443 245.347 -8.71674 -1.38701
  444 327.380 72.6218 -1.00670
  445 205.795 83.3585 127.655
  446 315.781 -4.51360 -5.43886
  447 180.031 -9.49500 -19.1785
  448 180.113 -9.42772 19.0088
  449 180.960 -4.12408 7.53086
  450 180.928 -4.15551 -7.60299
  451 245.091 5.39570 -20.8361
  452 293.144 -0.378851 -0.802868
  453 238.052 10.8635 11.6817
  454 302.140 37.3260 26.3025
  455 251.422 -18.6792 -2.93613
  456 274.254 -3.16899 -3.81222
  457 288.454 -1.11235 2.65910
  458 292.314 -0.402608 0.459551
  459 292.565 -0.459309 -0.342173
  460 158.883 -0.304650 1.85146
  461 158.804 -0.309088 -1.87195
  462 275.248 -17.4610 18.6049
  463 247.477 9.72216 20.1759
  464 259.055 1.03828 -26.4650
  465 271.128 -5.66511 10.9881
  466 393.483 64.7618 -75.3176
  467 271.674 -15.0524 -20.6826
  468 2.30115 5.09372 1.90068
  469 2.29151 5.16345 -0.557190
  470 214.589 -12.2450 8.12843
  471 213.857 -12.0848 -8.03547
  472 339.165 5.82644 40.1730
  473 94.4060 85.0742 -96.4135
  474 267.915 -0.798085 8.86181
  475 304.722 -17.7969 -22.5567
  476 160.897 -9.34988 26.9134
  477 325.840 57.8180 -17.8656
  478 267.754 -14.4704 17.3810
  479 224.278 -10.7818 -3.88007
  480 224.477 -10.6006 3.86708
  481 232.355 1.22154 -11.4258
  482 160.387 -9.31504 -27.0885
  483 238.418 0.0819116 11.4997
  484 229.276 -26.2057 -34.4066
  485 228.694 -26.2458 34.5199
  486 276.544 -1.80451 7.91656
  487 250.328 23.5795 2.42183
  488 255.745 4.20217 87.0425
  489 375.621 76.7108 -0.482303
  490 259.176 -4.30776 1.86517
  491 259.193 -4.29159 -1.92415
  492 198.255 -3.57827 -3.00784
  493 198.266 -3.54750 2.99541
  494 104.440 4.92468 48.3732
  495 268.916 -12.9303 -20.2050
  496 243.683 -5.27545 0.379756
  497 243.658 -5.25553 -0.373840
  498 212.009 -22.4964 28.1694
  499 106.486 6.49046 -49.6139
  500 269.408 -21.9363 -10.2165
  501 4.51473 0.718194 2.34588
  502 234.367 12.0456 0.846665
  503 260.162 -2.94121 -0.620975
  504 260.154 -2.98348 0.608428
  505 212.151 -22.4605 -28.3932
  506 305.056 -15.7927 29.0933
  507 301.777 10.9599 26.8554
  508 278.798 -1.82058 -1.91206
  509 268.583 -22.2483 10.3502
  510 166.589 -0.179366 -0.323872
  511 166.624 -0.177787 0.320873
  512 268.046 -10.2738 -21.4840
  513 259.102 19.1655 22.1100
  514 298.043 7.35911 -26.5135
  515 165.586 -0.282533 -1.03938
  516 165.627 -0.278717 1.03174
  517 523.174 75.5477 -67.7439
  518 269.754 32.1577 19.5049
  519 279.050 -1.66854 1.70581
  520 251.550 -23.8653 2.32234
  521 210.792 -7.03893 4.44530
  522 210.793 -7.09439 -4.43630
  523 293.267 -17.8368 8.67861
  524 281.498 -5.60189 -27.2103
  525 314.578 62.1239 14.8501
  526 261.334 4.48496 27.4339
  527 264.120 -5.01594 3.56223
  528 256.765 -27.3604 -33.0051
  529 265.923 -6.56176 21.1129
  530 517.360 23.6882 -9.50039
  531 291.151 -21.9330 -1.29234
  532 277.063 -1.75858 -0.469095
  533 277.128 -1.87702 0.418210
  534 522.720 35.0869 33.3566
  535 254.706 -0.0981714 23.3317
  536 358.329 59.9087 -7.18540
  537 268.734 -7.26163 -10.7120
  538 119.854 -1.15339 -8.30206
  539 120.241 -1.09816 8.21501
  540 181.263 -16.9989 -38.7528
  541 181.399 -16.7130 38.4583
  542 263.976 -4.80358 -3.52676
  543 287.127 10.5449 -29.6777
  544 252.178 -17.1691 3.89767
  545 270.968 31.0891 -20.2547
  546 273.522 -3.13664 10.6580
  547 343.718 16.9284 -2.81541
  548 233.542 -8.02202 -0.945465
  549 233.467 -7.99161 0.930838
  550 253.991 -11.9753 4.84051
  551 375.562 74.0457 -4.36392
  552 267.312 11.6931 28.5024
  553 114.021 29.3879 71.6218
  554 259.037 -15.5622 57.9576
  555 343.265 16.0432 -63.7245
  556 273.324 22.6043 -26.5532
  557 242.953 -20.9583 -50.2038
  558 263.049 -28.8064 -9.38242
  559 274.911 -27.7986 -14.0229
  560 35.6945 45.9342 -43.5712
  561 276.283 -3.43257 -6.63361
  562 416.313 81.0650 -23.2393
  563 255.367 -11.4780 -5.35070
  564 257.536 -8.34176 4.40990
  565 257.295 -8.14793 -4.24002
  566 176.307 -1.06128 -2.28240
  567 176.342 -1.04749 2.26599
  568 24.4253 2.65245 -14.0250
  569 25.8489 2.77838 14.3554
  570 131.165 -6.15816 -28.3439
  571 132.187 -6.19073 28.2934
  572 261.053 -14.1218 -9.85725
  573 266.164 -28.9228 10.1931
  574 273.612 -25.9446 2.42950
  575 223.632 -3.96293 -0.784844
  576 223.618 -3.93322 0.780453
  577 212.442 -22.2522 -42.9894
  578 238.233 -19.4997 53.1567
  579 207.231 -20.9196 43.2438
  580 268.408 -5.94743 -26.7346
  581 167.028 -2.85162 8.51622
  582 166.946 -2.88191 -8.59066
  583 255.485 14.0876 -22.1956
  584 255.941 -0.446864 -10.3069
  585 320.163 69.7446 -6.74369
  586 208.436 -3.19627 -0.794426
  587 208.440 -3.17408 0.790338
  588 273.341 -0.797230 -5.83859
  589 187.767 -6.45102 -9.37518
  590 187.767 -6.42692 9.28987
  591 153.797 7.21525 68.6444
  592 266.037 -12.2082 -14.7579
  593 147.808 -7.76221 49.2818
  594 261.429 -13.5227 10.0548
  595 275.492 -3.82606 7.31353
  596 272.137 -2.41157 -1.70287
  597 189.849 -2.41171 -2.10408
  598 189.871 -2.39136 2.09209
  599 307.018 61.4745 -13.3310
  600 147.705 -7.45999 -49.4749
  601 260.567 -11.2464 -8.08378
  602 234.668 -4.34703 -0.356475
  603 234.643 -4.31353 0.354910
  604 443.069 59.7514 -10.4980
  605 154.405 -1.02782 4.71198
  606 154.270 -1.03799 -4.75813
  607 242.087 5.50641 18.9987
  608 348.282 28.8204 -5.27701
  609 163.969 1.24528 -68.1556
  610 83.2228 2.20094 -37.0102
  611 83.9321 1.71274 36.8128
  612 205.429 -12.1087 11.5533
  613 207.617 -12.4653 -11.2042
  614 351.582 70.7701 7.28334
  615 270.995 -2.50258 1.54882
  616 231.298 6.44135 -11.4620
  617 289.236 52.1140 12.2033
  618 288.160 54.0871 -8.11328
  619 236.832 -13.1719 -1.58886
  620 238.663 -12.8692 0.735972
  621 170.095 36.9428 -98.1537
  622 202.983 -7.04220 -6.38073
  623 202.997 -6.95989 6.35644
  624 519.994 106.368 80.0324
  625 268.134 -8.76106 23.1481
  626 151.991 -5.47330 -18.1626
  627 418.961 95.6216 63.0822
  628 152.351 -5.44152 18.0893
  629 256.990 -9.85528 -67.8025
  630 179.598 -0.934295 -0.842324
  631 179.628 -0.926123 0.837696
  632 222.781 1.96081 9.99453
  633 100.450 -1.52920 -16.3186
  634 101.032 -1.53291 16.1859
  635 233.756 -16.6179 4.57367
  636 245.328 -19.6938 -0.885025
  637 290.036 -0.598756 -2.41774
  638 161.522 -0.280908 1.35882
  639 161.462 -0.285793 -1.37393
  640 220.226 -4.99739 -1.14971
  641 220.215 -4.96779 1.13982
  642 253.599 -28.0991 33.3782
  643 291.034 32.5207 -26.8626
  644 192.813 -9.11938 -12.0948
  645 192.667 -8.96397 12.0036
  646 229.376 -16.5941 -6.56572
  647 362.317 79.0597 1.64985
  648 271.973 -26.2854 -0.912125
  649 235.581 -5.63479 -0.400622
  650 235.544 -5.60520 0.401480
  651 325.008 35.4774 20.8209
  652 272.386 -3.88037 -11.5868
  653 239.835 -0.315433 -9.37038
  654 110.393 -3.76335 -35.5987
  655 110.745 -3.87278 35.2995
  656 228.813 -19.8355 -10.7795
  657 343.781 76.0659 0.202035
  658 265.921 36.0437 -8.78500
  659 175.446 -1.65884 -4.22269
  660 175.485 -1.63551 4.18672
  661 248.508 -6.99440 -1.43237
  662 248.557 -7.00396 1.48753
  663 465.544 60.8670 26.7619
  664 294.755 -0.756943 0.665940
  665 284.321 -1.08658 4.13644
  666 283.158 -1.11381 -4.82976
  667 268.582 -24.9790 4.81338
  668 196.515 -2.34336 -1.05186
  669 196.532 -2.32597 1.04672
  670 286.458 46.0155 18.7617
  671 368.547 82.0394 -4.17030
  672 200.659 -15.0507 -17.1401
  673 200.594 -14.8995 17.0491
  674 251.859 -25.9732 -4.72742
  675 265.262 15.7585 -26.8148
  676 316.128 0.771061 12.2051
  677 208.562 -3.93487 -2.05472
  678 208.567 -3.90829 2.04539
  679 180.418 -15.8852 -34.9948
  680 266.019 -25.7099 -2.33093
  681 220.735 -24.4931 31.0247
  682 105.211 33.3442 -69.0792
  683 205.810 -19.1631 23.9239
  684 248.165 0.0650900 8.67152
  685 180.580 -15.7031 34.7525
  686 260.412 -11.4684 8.18349
  687 205.888 -19.0851 -24.1505
  688 209.899 2.68792 2.09404
  689 162.221 -4.45593 12.8885
  690 162.075 -4.46184 -12.9838
  691 220.872 -25.1293 -31.3750
  692 273.395 -17.9805 -17.9939
  693 250.593 -3.45552 -0.366560
  694 250.633 -3.49313 0.368201
  695 279.497 -17.7641 17.8738
  696 253.830 -26.5357 5.72500
  697 308.664 28.3017 26.1992
  698 278.261 -5.18494 27.9827
  699 267.750 -9.56912 17.1301
  700 255.131 20.9531 -16.8359
  701 307.653 51.8282 20.7008
  702 265.439 -3.65414 -16.5215
  703 264.795 -8.72780 8.94464
  704 273.127 42.8415 4.75201
  705 269.288 -4.53184 14.4365
  706 84.4261 57.3091 72.3557
  707 250.725 -28.8237 -19.0322
  708 290.325 5.29872 28.4989
  709 293.316 -9.05590 -20.5087
  710 293.263 -0.350417 1.35119
  711 267.627 -9.14699 -13.5449
  712 251.073 -29.0519 17.2407
  713 488.781 43.2676 -7.25806
  714 148.016 -0.661111 4.93409
  715 147.835 -0.668504 -4.98279
  716 271.660 -4.86659 -6.38574
  717 295.048 -0.263391 -1.31309
  718 228.379 -20.1543 10.8381
  719 274.713 -10.1900 25.4550
  720 419.286 99.2690 -29.4424
  721 260.377 -18.8669 8.44941
  722 289.038 -18.9981 -10.8849
  723 264.898 -8.49010 -8.80313
  724 295.012 -0.468939 -0.440310
  725 267.899 -0.0144466 28.9865
  726 12.2030 10.6387 15.0838
  727 303.548 -11.8098 -43.7195
  728 329.942 19.4160 13.4258
  729 274.587 -28.0225 12.4272
  730 194.488 -4.75918 5.23636
  731 194.491 -4.82677 -5.26375
  732 257.725 128.170 -134.114
  733 279.631 -18.4598 -16.5650
  734 209.059 1.04168 -4.00219
  735 244.735 1.32810 18.5491
  736 269.567 -13.4557 20.5469
  737 258.387 -21.7748 4.49048
  738 269.131 -24.4934 -35.8611
  739 256.770 -20.3185 -4.94462
  740 303.991 -14.5652 -4.17234
  741 279.882 -2.21408 3.74557
  742 249.248 -14.9898 2.73668
  743 454.861 90.9683 -48.2412
  744 266.124 -7.05778 7.12130
  745 262.764 4.28698 -28.1798
  746 224.925 -2.55958 76.3296
  747 281.729 22.7084 28.8438
  748 242.304 -19.1265 2.16333
  749 186.494 -14.8023 -25.5341
  750 186.506 -14.7592 25.3188
  751 257.114 28.9072 -3.92727
  752 261.947 -3.02198 25.1997
  753 264.937 -6.28721 -21.5541
  754 249.535 -15.2936 -2.82084
  755 241.188 -21.6716 5.79508
  756 275.256 45.5097 -5.38127
  757 258.065 -22.3344 -3.47109
  758 258.688 -16.3623 8.19445
  759 262.320 -3.28840 1.30121
  760 262.487 -3.19631 -1.29344
  761 352.959 77.7244 2.19872
  762 288.929 -24.5423 -7.91806
  763 268.449 -8.16963 13.4774
  764 280.010 -2.20484 -3.41746
  765 282.420 1.89317 -29.4099
  766 322.124 16.8303 -17.7511
  767 155.980 -0.169005 -2.29488
  768 156.082 -0.166674 2.27061
  769 2.19974 -5.06028 -3.59859
  770 274.015 -0.300147 5.41023
  771 250.502 -0.435930 -20.5434
  772 259.040 -2.42231 18.1608
  773 237.526 28.9765 112.290
  774 294.933 60.8363 -0.653047
  775 209.344 -15.1046 13.2812
  776 35.7103 0.840738 -13.9075
  777 36.7965 0.622104 14.0580
  778 256.663 -1.83277 -20.4655
  779 209.930 -15.2581 -13.2758
  780 278.347 -2.42866 2.86615
  781 140.838 -6.08823 24.1989
  782 139.610 -6.06786 -24.2159
  783 266.113 -6.84974 -6.93811
  784 168.569 -4.34916 -11.2068
  785 168.653 -4.31964 11.1030
  786 277.262 -2.55695 -8.03636
  787 210.697 -5.69866 -3.54749
  788 210.701 -5.65998 3.54841
  789 302.854 -1.92941 -20.5892
  790 272.035 -2.83642 -29.1298
  791 136.811 -0.902435 -6.30398
  792 137.084 -0.894069 6.22842
  793 6.21289 3.46126 -8.34389
  794 7.45720 3.64975 8.78508
  795 219.247 1.03475 -7.26363
  796 248.580 -27.9348 -14.0502
  797 -2.88786 -2.00748 4.95682
  798 -2.52268 -2.35149 -4.91273
  799 258.809 -5.12350 2.76649
  800 280.829 -21.8774 -9.70295
  801 289.443 42.9586 -21.9136
  802 279.578 -2.17790 -2.72137
  803 601.844 120.650 -113.056
  804 258.755 -5.10561 -2.73123
  805 390.141 74.6060 5.83017
  806 276.696 8.06115 -30.3549
  807 306.053 23.0700 -26.7871
  808 50.1061 -0.593092 -12.8837
  809 51.0747 -0.669639 12.8593
  810 171.301 -2.53856 6.61693
  811 171.241 -2.56024 -6.67887
  812 163.137 -0.409686 1.23363
  813 163.089 -0.413912 -1.24416
  814 309.235 52.1253 -20.5464
  815 181.480 -1.18198 -1.80957
  816 181.510 -1.16822 1.79866
  817 262.764 -2.64534 -26.2955
  818 381.552 38.2358 31.4993
  819 235.773 5.21355 -15.9681
  820 80.5872 -0.736073 13.8437
  821 79.8748 -0.742770 -13.9562
  822 307.378 7.95026 80.3267
  823 271.371 -4.90719 6.59101
  824 241.488 15.9762 -6.65464
  825 110.513 -0.191860 9.46036
  826 109.926 -0.139725 -9.53284
  827 166.807 -0.891429 -3.23358
  828 166.866 -0.878612 3.20203
  829 29.7443 26.5635 22.6162
  830 252.132 5.98009 23.7792
  831 280.913 41.3415 -18.7406
  832 302.724 35.1476 -26.5515
  833 197.963 -7.58685 -8.42127
  834 197.843 -7.52784 8.40745
  835 313.341 66.9003 9.37762
  836 270.999 -2.16338 -0.369064
  837 271.012 -2.14686 0.415482
  838 267.775 -7.98509 -17.2496
  839 223.841 -15.0017 7.55286
  840 247.030 -27.7674 14.1369
  841 290.966 -23.8432 22.0983
  842 221.754 -6.47749 -1.99560
  843 221.749 -6.45140 1.98046
  844 253.574 23.4808 10.8035
  845 238.013 3.20895 -17.2566
  846 66.2058 77.0484 75.3182
  847 241.954 -21.4970 -5.19538
  848 242.721 -10.8560 0.849935
  849 242.852 -10.8754 -0.862357
  850 267.044 -3.91841 27.6770
  851 265.048 -17.3924 -12.9807
  852 236.382 -15.7095 -2.73835
  853 543.869 17.6174 -27.0791
  854 224.628 -21.3361 15.0311
  855 224.454 -21.6167 -15.2818
  856 266.838 -3.16692 14.0619
  857 402.975 103.817 -22.2304
  858 210.593 -19.2390 -18.9470
  859 233.036 -26.2850 17.8551
  860 210.529 -19.0042 18.7742
  861 228.434 -9.24015 -2.24642
  862 228.425 -9.20685 2.22825
  863 33.3533 14.3605 19.6859
  864 286.847 21.4441 -29.2459
  865 219.048 -8.61437 -3.78653
  866 219.086 -8.52542 3.80085
  867 216.230 -3.60802 -0.454417
  868 216.225 -3.58205 0.451100
  869 238.294 -4.71398 0.0606997
  870 238.264 -4.68150 -0.0620497
  871 192.867 -3.85688 -4.53927
  872 192.880 -3.81277 4.51873
  873 219.921 -11.6583 -5.79637
  874 219.948 -11.5756 5.82125
  875 5.21056 -2.33682 -2.25410
  876 332.688 62.4132 15.5869
  877 286.148 -10.0044 -23.5927
  878 232.854 -25.9058 -18.0529
  879 251.670 -8.07403 2.64339
  880 251.557 -7.98821 -2.57117
  881 274.362 0.360161 29.7542
  882 299.042 -21.3412 -11.8295
  883 264.932 18.4619 -97.3104
  884 119.405 -1.86898 47.8807
  885 -4.83295 2.78643 -3.13653
  886 -4.23054 3.14267 3.49245
  887 33.1157 15.2740 -20.0909
  888 268.385 -7.65474 10.6561
  889 282.746 -1.78307 -4.50214
  890 254.117 -24.4034 41.3373
  891 119.117 -1.73693 -48.0770
  892 283.199 -23.1358 6.98944
  893 315.988 -9.50572 35.6617
  894 227.436 0.906514 7.70383
  895 261.510 24.8729 18.4225
  896 140.914 -7.97787 35.2866
  897 140.361 -8.04275 -35.5285
  898 169.131 -8.15685 -19.7658
  899 178.378 -8.65946 -61.1449
  900 283.094 -6.58993 26.4077
  901 389.838 91.2191 13.0013
  902 284.089 10.9448 29.8236
  903 268.553 -5.68886 -15.7181
  904 182.173 -7.75913 62.6708
  905 342.816 63.1034 -11.7171
  906 33.5381 28.6554 -27.9377
  907 247.467 -0.509269 -8.27166
  908 169.308 -8.08835 19.5837
  909 206.901 -4.62050 3.13816
  910 206.896 -4.65349 -3.14597
  911 265.440 -17.3003 13.3929
  912 276.048 -1.66628 1.11037
  913 202.714 1.91118 -76.0905
  914 291.243 -0.610083 2.13375
  915 288.963 -0.497179 -2.71251
  916 214.138 1.83020 -6.67317
  917 278.931 -1.12075 -4.80204
  918 207.662 -9.81722 -7.71367
  919 207.802 -9.66756 7.73621
  920 -6.96594 2.50433 -4.02680
  921 -9.54680 1.50981 4.23695
  922 276.045 -1.54213 -1.12274
  923 90.2220 -2.02331 32.2929
  924 89.6613 -1.82485 -32.4822
  925 294.272 42.9941 23.1635
  926 531.002 9.57685 8.40457
  927 276.800 30.8184 24.2346
  928 314.705 -11.1698 9.44684
  929 272.888 -15.1574 20.7372
  930 339.950 71.3174 -8.91147
  931 209.429 0.853696 5.02819
  932 262.637 -6.10609 -4.36081
  933 272.483 14.6516 -29.3147
  934 330.386 9.59880 -6.38108
  935 255.851 -15.7933 -6.50657
  936 129.200 -0.745324 -7.06440
  937 129.342 -0.719061 6.96216
  938 270.118 -6.28645 -12.3758
  939 8.78219 11.2201 2.05709
  940 259.260 -26.8717 -2.11105
  941 223.367 6.53808 -0.688894
  942 337.504 74.3598 -5.92184
  943 52.8647 39.3718 -46.6472
  944 259.060 -1.92598 -16.2739
  945 178.566 -3.05915 -6.16725
  946 178.598 -3.02251 6.11241
  947 1.48627 -7.46745 5.71099
  948 175.405 -13.1554 -28.3696
  949 264.055 -15.2333 -12.5834
  950 162.497 0.347713 -0.508337
  951 162.535 0.349493 0.504632
  952 266.120 32.3110 -14.7716
  953 286.706 -0.775938 -0.432194
  954 286.709 -0.788270 0.563961
  955 175.479 -13.1174 28.1706
  956 267.056 -0.346677 -6.44680
  957 307.898 2.20933 19.8961
  958 273.055 -3.77374 5.11017
  959 42.8991 11.0625 -24.9923
  960 283.344 -1.65122 4.08559
  961 256.078 2.03893 25.4836
  962 270.095 37.4581 13.1426
  963 270.529 3.13714 -30.0061
  964 185.603 -10.0668 -16.9131
  965 292.495 -10.3268 19.8137
  966 185.722 -10.0258 16.7363
  967 8.34782 9.17696 -0.554607
  968 31.3169 5.51605 18.3015
  969 150.855 -2.73063 11.6654
  970 150.666 -2.73388 -11.7352
  971 262.821 -6.22638 4.58659
  972 282.027 49.1596 7.29438
  973 143.358 13.2353 -71.9554
  974 235.923 -14.7799 2.35032
  975 221.422 -23.2089 -22.7957
  976 323.324 62.0427 16.0734
  977 248.558 -4.33876 0.465006
  978 248.549 -4.31366 -0.466399
  979 272.655 -4.97326 -8.92365
  980 251.164 21.6523 -9.96821
  981 574.978 169.517 114.429
  982 51.5992 2.98637 -24.2122
  983 52.4404 2.48401 24.2696
  984 3.83424 -5.33118 1.07861
  985 251.993 13.9271 20.4603
  986 221.349 -23.3475 22.6221
  987 274.764 -12.9500 -23.5313
  988 299.013 24.4525 28.9334
  989 287.931 -23.2480 -27.3311
  990 420.936 88.6580 28.9621
  991 243.929 -3.90319 -0.0766518
  992 243.897 -3.86925 0.0769943
  993 285.905 -11.6191 22.3991
  994 19.6025 31.6114 33.5289
  995 127.204 -2.72503 16.7286
  996 126.794 -2.69032 -16.9147
  997 152.403 -7.55622 22.8391
  998 151.870 -7.44292 -22.9302
  999 171.855 -7.19004 16.3654
  1000 187.868 -1.54570 -0.824917
  1001 187.892 -1.53390 0.821312
  1002 474.993 149.879 -95.1155
  1003 428.750 107.375 43.5248
  1004 171.716 -7.22833 -16.5091
  1005 294.524 -1.33348 24.6869
  1006 262.769 27.2687 -17.7492
  1007 185.631 -15.9231 50.6729
  1008 238.951 -28.2205 -27.0256
  1009 273.193 -2.20844 -9.47423
  1010 122.572 8.54698 58.4940
  1011 157.346 -12.0366 40.4982
  1012 240.594 12.2821 -12.8006
  1013 276.162 -5.44620 -28.2858
  1014 355.242 141.912 153.374
  1015 226.940 6.89031 9.10075
  1016 310.182 67.0573 -1.12672
  1017 228.442 8.87969 -86.5173
  1018 231.747 -24.4505 -15.3614
  1019 295.342 -0.273259 -1.07392
  1020 282.358 25.9516 -28.0994
  1021 164.063 -1.10358 4.17059
  1022 163.986 -1.11488 -4.21191
  1023 5.95042 2.51237 -8.34378
  1024 185.694 -8.59210 -14.0874
  1025 157.158 -12.1929 -40.8130
  1026 185.545 -8.57110 13.9256
  1027 269.886 -8.18995 26.1553
  1028 242.009 -14.9893 -0.141846
  1029 253.868 4.64309 -24.6750
  1030 261.178 32.6403 5.17981
  1031 356.302 21.0946 11.7466
  1032 267.525 -20.2991 12.8155
  1033 168.268 -13.5384 -31.0443
  1034 251.637 8.86883 -23.0774
  1035 187.280 -15.7060 -50.9517
  1036 360.683 78.5392 -1.26057
  1037 244.381 16.0019 11.6449
  1038 310.330 -1.86371 -15.4324
  1039 233.194 -24.4571 14.0884
  1040 267.421 -8.43958 20.2639
  1041 265.769 -13.9978 14.7164
  1042 264.313 -13.2584 12.7853
  1043 326.762 41.4231 -21.3650
  1044 263.732 -4.23290 20.4966
  1045 238.542 -28.2997 26.5790
  1046 254.637 -10.3776 4.38317
  1047 168.372 -13.5624 30.8629
  1048 238.898 -17.6597 -2.90809
  1049 138.210 -6.68905 -43.3186
  1050 197.834 -20.5799 34.2988
  1051 268.732 -1.79270 -10.9778
  1052 261.532 -2.94323 -23.2615
  1053 226.437 -17.9961 -9.27666
  1054 138.450 -6.88743 42.9688
  1055 243.416 0.567744 -16.1239
  1056 180.825 -12.1137 -21.9373
  1057 329.121 70.2504 10.2059
  1058 72.6458 12.2053 -40.9624
  1059 567.206 40.1057 54.8739
  1060 131.338 9.93715 -61.2783
  1061 264.286 -21.8782 -8.05924
  1062 180.871 -12.0078 21.7512
  1063 240.750 2.50706 18.0127
  1064 134.135 -2.77092 13.8453
  1065 134.060 -2.83988 -13.9901
  1066 267.360 -7.41693 -24.2315
  1067 285.155 -1.35702 1.69716
  1068 279.147 -0.599009 4.85770
  1069 275.721 9.16823 30.2732
  1070 257.681 -1.94040 21.8320
  1071 200.266 21.2496 93.6161
  1072 297.291 -0.195797 0.527244
  1073 277.358 37.6401 19.2946
  1074 234.104 3.34680 15.5044
  1075 282.832 -1.04609 4.67414
  1076 180.238 -1.99984 -3.43575
  1077 180.268 -1.97678 3.41188
  1078 114.291 -3.28383 -23.0789
  1079 114.757 -3.40173 22.9142
  1080 234.845 11.6543 6.50175
  1081 357.638 18.7213 -25.0674
  1082 328.573 -0.695441 -48.7521
  1083 260.405 -0.221274 -6.67460
  1084 197.918 -20.7354 -34.5636
  1085 226.911 -17.1149 8.25392
  1086 261.953 -0.591462 6.96758
  1087 274.781 -19.8989 -15.0572
  1088 169.778 -0.421743 2.06057
  1089 169.737 -0.429008 -2.07422
  1090 263.778 -22.5049 8.05562
  1091 250.600 -5.07049 0.914448
  1092 250.558 -5.07490 -0.897239
  1093 243.774 -24.5908 8.68909
  1094 315.219 -10.2421 -2.50338
  1095 140.483 -0.260391 -3.92404
  1096 140.719 -0.251313 3.88074
  1097 214.083 -13.4596 -58.3740
  1098 227.231 -5.43426 1.03694
  1099 227.254 -5.46623 -1.04757
  1100 137.800 73.5291 102.836
  1101 316.108 25.8626 -23.9753
  1102 45.8832 22.5506 -30.7595
  1103 273.226 -3.98635 -4.94026
  1104 72.2041 24.9920 -46.9573
  1105 150.609 -9.55629 -29.5036
  1106 297.439 -0.282271 0.320115
  1107 297.564 -0.262125 -0.237560
  1108 268.437 -15.2905 -17.7978
  1109 237.743 -26.6431 -37.3135
  1110 72.6834 10.3893 39.0337
  1111 291.931 28.9228 27.4183
  1112 265.326 -2.58105 -0.450894
  1113 265.354 -2.58365 0.476779
  1114 290.408 -18.7830 45.1709
  1115 298.763 60.0164 10.5920
  1116 176.209 -4.33558 -8.84807
  1117 176.251 -4.31418 8.78147
  1118 134.337 15.4773 72.6107
  1119 253.258 1.26439 -23.8915
  1120 78.9365 25.6199 50.5352
  1121 327.291 -5.77019 -14.4459
  1122 320.247 71.0877 3.25577
  1123 219.810 -17.4935 11.4011
  1124 201.412 1.02776 -0.979835
  1125 280.095 -2.39929 6.02181
  1126 290.267 -0.329721 2.35317
  1127 61.8786 0.124057 -11.5932
  1128 62.7694 0.0927277 11.5119
  1129 226.600 3.72557 -11.4746
  1130 234.563 -6.90399 -0.622064
  1131 234.507 -6.86943 0.617589
  1132 24.4838 37.1064 -35.6412
  1133 39.1298 82.6503 -72.0519
  1134 237.623 -9.29416 0.340880
  1135 237.719 -9.29587 -0.353168
  1136 245.695 -5.88566 0.992374
  1137 245.660 -5.87179 -0.970388
  1138 63.9237 40.9180 50.7530
  1139 192.763 -2.44409 -1.63584
  1140 192.783 -2.42578 1.62730
  1141 243.047 18.3195 -0.274017
  1142 313.195 38.4128 -108.189
  1143 297.501 51.4022 -18.1417
  1144 271.610 -10.3985 -24.7770
  1145 267.591 -13.3073 -18.0166
  1146 219.957 -17.6596 -11.5962
  1147 220.248 0.694440 7.08378
  1148 248.687 15.4579 -17.0974
  1149 245.132 13.1330 16.3196
  1150 254.468 -10.0720 -4.30565
  1151 242.639 -14.6845 -0.0354834
  1152 220.221 -14.3344 -8.50795
  1153 262.567 -1.52972 12.9880
  1154 467.341 47.2443 6.60793
  1155 264.425 -5.61930 23.6677
  1156 265.065 17.4019 25.7623
  1157 244.926 -24.1470 -6.36662
  1158 29.5984 5.07501 -17.6412
  1159 249.521 -11.5303 -3.16929
  1160 163.691 -0.282343 -0.0971198
  1161 163.724 -0.281218 0.0958799
  1162 304.784 -8.08059 13.2845
  1163 290.480 -24.4346 9.66210
  1164 417.823 75.0381 18.0810
  1165 97.6323 -0.220763 -9.68851
  1166 98.2459 -0.199247 9.61249
  1167 222.230 -4.51994 -0.895132
  1168 222.217 -4.49016 0.887672
  1169 250.340 -22.1129 -0.133011
  1170 203.264 0.886971 3.20505
  1171 256.431 -18.2559 6.24761
  1172 14.1681 16.8462 -7.84846
  1173 45.4338 22.8504 30.0923
  1174 171.065 -9.20665 56.4423
  1175 296.256 56.6121 -12.9442
  1176 283.896 -0.763772 -3.68904
  1177 298.732 -0.454273 0.224577
  1178 299.038 -0.629425 -0.147169
  1179 170.663 -0.446126 -0.331533
  1180 170.697 -0.442699 0.328757
  1181 272.996 17.4669 29.2922
  1182 405.742 69.6274 -1.47381
  1183 281.110 46.5920 -13.0901
  1184 210.497 -15.3939 57.9964
  1185 170.152 -8.83715 -56.3383
  1186 188.737 -12.7692 -19.6297
  1187 262.945 -7.27641 5.81446
  1188 367.659 80.8051 1.93555
  1189 188.747 -12.6901 19.4682
  1190 268.858 -4.60146 4.40265
  1191 238.544 8.79891 15.5629
  1192 263.710 8.15412 28.1033
  1193 377.234 84.3635 8.18930
  1194 222.672 -5.84806 1.68245
  1195 222.685 -5.87829 -1.69605
  1196 272.284 -5.02915 9.26294
  1197 159.416 -1.76410 6.55054
  1198 159.303 -1.78233 -6.61338
  1199 266.415 -3.52520 -2.01783
  1200 109.208 64.8431 -99.2778
  1201 230.646 -12.9526 -62.0849
  1202 216.440 -6.85367 -3.24476
  1203 216.459 -6.82050 3.24558
  1204 286.396 -1.26486 1.51942
  1205 270.526 -3.43955 3.52667
  1206 14.4701 17.9106 13.0001
  1207 295.019 -0.299223 1.24936
  1208 34.5224 43.3176 42.9809
  1209 264.079 -3.84767 -2.58276
  1210 -0.374963 -6.53166 -5.71162
  1211 185.943 -18.1325 -43.6550
  1212 185.410 -17.6886 43.2086
  1213 295.013 -0.491167 -1.37593
  1214 251.130 -13.2423 -3.74072
  1215 286.166 -1.14456 -1.56974
  1216 227.706 -7.40303 -1.51225
  1217 227.679 -7.37329 1.49168
  1218 266.240 -3.49830 1.90102
  1219 249.339 -11.3066 3.13606
  1220 239.712 -7.70389 -0.284082
  1221 239.801 -7.72761 0.314755
  1222 285.945 -1.18045 -1.28569
  1223 246.234 -25.8627 -42.1319
  1224 279.588 -1.61948 -1.32750
  1225 265.234 -3.95950 2.76158
  1226 183.217 -2.08356 -2.52807
  1227 183.245 -2.06278 2.51177
  1228 205.360 -3.07293 -1.25507
  1229 205.368 -3.05063 1.24800
  1230 335.152 52.1566 18.0993
  1231 281.483 -21.5725 11.4307
  1232 192.629 -0.829747 71.7780
  1233 152.331 -0.282319 2.51305
  1234 152.200 -0.285244 -2.53965
  1235 266.186 -4.88440 17.8327
  1236 254.996 -3.77738 0.605562
  1237 255.009 -3.76358 -0.605165
  1238 291.407 56.9211 6.03161
  1239 267.830 -28.0004 33.1204
  1240 152.897 -2.22638 9.22650
  1241 152.742 -2.24385 -9.29826
  1242 254.563 -6.14906 2.29740
  1243 254.508 -6.19044 -2.23651
  1244 262.806 -7.18321 -5.61104
  1245 240.196 0.0387633 8.35272
  1246 418.917 104.038 -33.7983
  1247 267.546 -9.73801 -15.9076
  1248 44.9491 10.9141 25.7216
  1249 276.490 -14.6886 22.0138
  1250 220.263 4.74089 -6.27333
  1251 16.4064 12.3572 9.04382
  1252 365.871 40.1372 -1.79605
  1253 269.890 -12.2387 -22.1516
  1254 221.351 3.08567 9.60438
  1255 151.688 -9.57040 29.4432
  1256 274.405 -21.1982 13.5118
  1257 400.332 75.2673 22.2062
  1258 91.1964 13.6531 49.7806
  1259 275.923 -3.19354 -7.96740
  1260 535.476 5.94163 -5.43493
  1261 553.741 8.35903 24.3039
  1262 591.991 20.3356 -57.6204
  1263 267.097 -8.29322 -19.6822
  1264 267.215 -12.1499 16.8878
  1265 271.600 -19.2895 15.9199
  1266 -8.01420 0.875554 5.11835
  1267 -7.30788 0.685891 -5.55405
  1268 264.536 -29.1881 -15.0004
  1269 271.205 -27.3675 -22.8693
  1270 204.791 1.27020 -3.96180
  1271 263.486 -29.7255 22.8850
  1272 281.318 -13.3017 -22.3668
  1273 5.16333 8.22232 0.610533
  1274 227.893 -4.16247 0.687675
  1275 227.911 -4.19386 -0.689504
  1276 279.956 -2.15667 5.45384
  1277 268.851 -4.51657 -4.14572
  1278 252.872 -27.6160 -7.64240
  1279 230.433 -12.5379 3.33771
  1280 229.249 -12.3656 -3.68864
  1281 271.143 -5.66401 12.6126
  1282 277.811 -10.1687 -25.5528
  1283 17.0356 12.8849 -8.71042
</Section>

newXOutput 37

<Section columns = "stress_xx | stress_yy | stress_xy">
  1 308.898 -0.0281353 0.620024
  2 308.915 -0.0239314 -0.622107
  3 165.497 -0.0727968 -0.224701
  4 -2.10938 -2.09179 -3.03148
  5 562.486 218.590 177.655
  6 557.162 226.768 -178.033
  7 -2.44815 -1.99298 3.21836
  8 165.464 -0.0734522 0.224032
  9 311.141 -0.500136 0.194540
  10 310.448 -0.798267 -0.141530
  11 309.675 -0.516352 0.728067
  12 308.904 -0.725953 0.226808
  13 307.254 -0.605319 1.14818
  14 305.763 -0.615416 0.851870
  15 302.296 -0.545851 1.64158
  16 297.394 -0.356600 2.41325
  17 293.011 -0.391987 2.67517
  18 286.555 -0.570926 3.22197
  19 277.656 -0.0236602 4.74693
  20 269.433 -0.421760 4.49843
  21 260.138 -0.561509 6.31978
  22 246.704 0.399999 5.48491
  23 237.030 0.586822 6.47249
  24 224.416 0.999336 5.05394
  25 215.711 1.02284 5.09008
  26 203.095 1.45703 2.59182
  27 200.448 2.29833 2.77452
  28 198.861 1.86955 -0.817752
  29 201.046 1.05809 -1.80505
  30 205.062 1.04608 -2.21137
  31 214.509 1.33355 -4.41952
  32 223.682 1.05241 -5.60260
  33 237.190 0.213884 -6.65091
  34 248.005 -0.146422 -6.07425
  35 259.570 -0.448715 -5.98267
  36 270.061 -0.327837 -4.23263
  37 279.110 -0.337216 -3.63037
  38 286.597 -0.556283 -3.05662
  39 293.324 -0.390145 -2.14398
  40 297.552 -0.456125 -2.28146
  41 301.635 -0.574804 -1.67068
  42 305.519 -0.686620 -0.746564
  43 307.518 -0.548601 -0.867981
  44 308.596 -0.324135 -0.547882
  45 307.873 -0.158265 -0.499001
  46 310.780 -0.809000 0.0900826
  47 311.244 -0.522572 -0.200769
  48 300.767 -0.174217 -0.383103
  49 293.836 -1.17369 -0.682435
  50 285.396 -1.74428 -0.457121
  51 275.123 -2.62491 -0.623227
  52 265.408 -2.88677 -0.778292
  53 255.054 -3.65523 -0.737691
  54 245.904 -4.09019 -0.416196
  55 237.881 -4.60954 -0.163912
  56 228.630 -3.83457 -0.162407
  57 217.969 -3.60104 -0.252433
  58 207.689 -2.85859 -0.0840144
  59 197.942 -1.83960 -0.0335528
  60 188.671 -1.32254 0.00991937
  61 180.525 -0.693158 0.0815939
  62 172.175 -0.197635 -0.258681
  63 165.605 0.229374 0.310684
  64 162.676 0.665812 0.203777
  65 164.725 -0.000749261 0.491501
  66 162.536 -0.0992588 0.589877
  67 160.531 -0.143853 0.736594
  68 157.794 -0.0255043 0.966380
  69 154.340 -0.0149555 1.22186
  70 151.825 -0.218986 2.37377
  71 144.470 0.212776 2.59579
  72 139.320 -0.0202359 2.98261
  73 131.647 -0.142043 3.38037
  74 122.796 -0.235990 4.11831
  75 111.739 -0.0576672 5.00020
  76 98.2567 0.0594595 5.50382
  77 86.6832 -0.131560 7.85921
  78 63.6934 0.739072 7.39598
  79 48.1166 0.638428 7.83089
  80 29.5284 -0.124774 8.65587
  81 14.1700 1.46794 8.96018
  82 -3.27576 2.17464 5.30138
  83 -15.8631 2.20429 1.78698
  84 -15.2056 2.10401 -0.934059
  85 -14.2811 1.73863 -4.33688
  86 -8.37421 -0.592451 -4.08568
  87 -1.04920 -8.03973 -4.49875
  88 0.752966 -14.8624 -5.66807
  89 2.15127 -23.6792 -3.25461
  90 4.81266 -24.5739 0.000511099
  91 10.2341 -7.14276 13.1792
  92 30.7985 44.9625 45.7418
  93 183.881 166.980 158.307
  94 679.724 101.018 114.421
  95 611.111 14.5109 37.4489
  96 566.970 5.97097 11.4600
  97 550.648 5.04556 0.903719
  98 559.203 6.74832 -9.89090
  99 609.537 13.4568 -29.6139
  100 721.906 48.7568 -99.0185
  101 108.810 170.026 -132.032
  102 23.0825 30.4489 -37.6614
  103 11.1547 -6.02120 -13.7536
  104 4.49176 -24.6985 -2.11532
  105 1.22264 -18.1130 3.76043
  106 1.57701 -18.7114 4.93210
  107 0.0597563 -6.96831 4.97930
  108 -8.73640 -0.399844 3.88440
  109 -14.7377 1.30463 3.79353
  110 -16.0048 2.56093 1.02313
  111 -16.3845 2.17404 -1.64146
  112 -4.40841 2.22892 -4.95591
  113 13.1615 1.48107 -8.53667
  114 28.4973 0.0295905 -8.51308
  115 47.0560 0.690582 -7.84927
  116 62.7297 0.759063 -7.45520
  117 85.9351 -0.134796 -7.92866
  118 97.6151 0.0667522 -5.55979
  119 111.180 -0.0552225 -5.06557
  120 122.507 -0.260503 -4.15146
  121 131.264 -0.135634 -3.39060
  122 139.030 -0.0106373 -3.01528
  123 144.234 0.209997 -2.62618
  124 151.657 -0.221048 -2.39957
  125 154.207 -0.0162949 -1.23778
  126 157.695 -0.0267667 -0.979513
  127 160.457 -0.145930 -0.747036
  128 162.482 -0.101035 -0.597194
  129 164.681 -0.00230232 -0.496201
  130 162.639 0.664899 -0.205983
  131 165.570 0.228942 -0.312051
  132 172.140 -0.199428 0.257894
  133 180.491 -0.697638 -0.0833193
  134 188.642 -1.33246 -0.0119494
  135 197.921 -1.85342 0.0315853
  136 207.677 -2.87849 0.0820942
  137 217.969 -3.62608 0.250941
  138 228.642 -3.86342 0.160973
  139 237.903 -4.64159 0.163338
  140 245.933 -4.12205 0.417297
  141 255.094 -3.68422 0.740919
  142 265.440 -2.90693 0.789930
  143 275.145 -2.64292 0.678603
  144 285.445 -1.64351 0.467501
  145 294.044 -1.14048 0.667570
  146 300.812 -0.220638 0.377507
  147 268.160 -25.1836 -2.53175
  148 267.943 -24.8463 2.62820
  149 280.810 40.4032 -14.1811
  150 299.885 17.7007 30.2121
  151 227.060 -21.7838 -49.4656
  152 228.879 -21.7643 47.8466
  153 219.932 -9.41991 5.71478
  154 219.954 -9.55388 -5.72083
  155 318.426 11.3951 -23.4441
  156 267.441 -9.56753 6.43469
  157 267.329 -9.33265 -6.35314
  158 345.731 77.4399 3.91600
  159 273.410 -0.438071 -29.3467
  160 201.761 -16.0019 -22.0857
  161 201.758 -15.8652 21.8829
  162 274.001 -6.17866 26.5694
  163 259.676 18.9095 17.4115
  164 106.796 17.3599 -59.0053
  165 118.586 16.4320 62.2028
  166 336.679 3.67692 3.87726
  167 274.901 -10.5020 -18.6148
  168 364.542 80.1061 -2.45569
  169 247.308 -6.96259 0.267712
  170 247.254 -6.93874 -0.244704
  171 278.500 -3.27198 -2.82720
  172 279.414 -2.92693 2.44847
  173 193.131 -2.84985 -3.45809
  174 193.153 -2.81957 3.43838
  175 299.798 -8.13475 62.8271
  176 251.211 10.3694 -18.7430
  177 163.867 -12.3432 -35.6716
  178 164.360 -12.2520 35.4282
  179 183.901 -6.14471 -11.5884
  180 183.915 -6.07260 11.4969
  181 276.281 -7.20561 15.8156
  182 250.858 -17.2592 -0.0642006
  183 249.953 -17.1305 0.478920
  184 285.861 -27.6100 -3.96048
  185 287.323 -26.3027 0.386996
  186 395.501 92.9916 -12.6860
  187 286.387 46.0925 13.2775
  188 287.169 17.6476 -30.2254
  189 298.865 -2.81379 -73.1960
  190 285.313 -16.0795 -21.4036
  191 287.742 -11.4629 25.0890
  192 239.585 -27.2260 23.9529
  193 239.663 -27.0374 -23.8745
  194 255.676 3.22294 22.5593
  195 116.255 -2.78012 -43.5549
  196 116.551 -3.03550 43.2787
  197 446.884 67.1037 9.59876
  198 270.116 -16.0654 11.8209
  199 280.335 -5.08104 -10.3564
  200 221.252 -5.46503 -2.55544
  201 221.253 -5.43529 2.54621
  202 268.566 -3.47777 -20.4430
  203 306.115 44.9910 -24.3387
  204 255.237 22.8963 -3.49413
  205 165.304 -5.96194 16.3801
  206 165.046 -5.98236 -16.5089
  207 284.762 -3.07409 5.72737
  208 276.565 5.20228 30.1599
  209 224.475 -16.4635 -10.4013
  210 222.910 -15.5911 10.6799
  211 326.658 48.4417 22.5784
  212 385.490 52.0735 7.21921
  213 25.5129 20.1523 -16.1299
  214 23.5759 18.6300 13.6796
  215 157.966 45.0207 104.556
  216 267.383 -17.7530 -9.21029
  217 285.839 -2.95422 -5.17711
  218 252.699 2.18352 -20.7686
  219 176.230 -1.81987 -5.13081
  220 176.285 -1.79906 5.08292
  221 240.217 -11.3154 -1.85585
  222 240.327 -11.3821 1.71777
  223 270.972 -3.63524 17.4224
  224 313.156 -18.1663 6.04264
  225 309.876 63.5632 -7.09754
  226 243.015 -23.5414 -11.0132
  227 308.128 -5.34607 19.7773
  228 262.185 -4.33023 1.11178
  229 262.190 -4.29288 -1.11001
  230 241.185 -23.4278 11.4791
  231 276.728 -17.5194 17.4921
  232 391.008 49.5796 -23.1522
  233 85.6895 51.0378 -75.3400
  234 232.892 8.10414 4.45588
  235 277.397 24.4711 25.3796
  236 296.230 -2.05252 -27.1456
  237 276.519 -9.92369 -24.9187
  238 145.955 -4.77864 -20.5671
  239 146.473 -4.70517 20.4956
  240 277.032 -3.30083 -13.5287
  241 264.065 -6.62435 3.46117
  242 263.941 -6.61346 -3.35263
  243 54.5912 5.15625 -27.5803
  244 55.5022 4.52198 27.4918
  245 294.867 -25.7673 -21.9425
  246 291.853 -0.953109 0.818368
  247 292.182 -0.972260 -0.880491
  248 270.775 22.4364 -23.2067
  249 237.671 4.50479 13.5482
  250 502.524 80.5071 53.9273
  251 498.531 56.7622 -33.8485
  252 359.110 77.7316 -0.703334
  253 224.039 -10.7407 65.9743
  254 205.457 -6.91113 -69.0436
  255 235.287 -4.83193 -0.824252
  256 235.263 -4.79906 0.817395
  257 194.553 -5.30677 7.01677
  258 194.556 -5.38144 -7.08313
  259 284.268 -2.99970 8.41754
  260 275.628 -19.5976 -14.5105
  261 177.009 -0.366904 -1.18871
  262 177.046 -0.360835 1.18062
  263 272.151 -10.9667 -11.5077
  264 114.105 -3.76623 -28.4835
  265 114.618 -3.77869 28.2702
  266 275.447 -11.9038 20.0531
  267 209.901 -22.2790 39.7640
  268 210.456 -22.6790 -39.6440
  269 236.405 8.97969 -6.30537
  270 203.970 -3.19111 -2.32520
  271 203.985 -3.16841 2.31534
  272 257.595 -0.662194 16.6829
  273 308.403 56.6051 16.9128
  274 163.805 -2.05989 8.74418
  275 163.677 -2.07765 -8.82281
  276 283.200 -23.6064 10.4412
  277 262.165 -29.3717 -26.2727
  278 292.863 -1.33322 2.68272
  279 202.046 -12.1033 -15.0386
  280 201.681 -11.9654 14.9772
  281 362.066 36.7944 92.6770
  282 169.107 -13.6232 47.5710
  283 273.244 38.4145 -1.50731
  284 347.147 38.1558 -15.2919
  285 261.170 -20.2117 3.96114
  286 262.333 -30.1808 23.6053
  287 169.642 -13.3956 -48.1264
  288 31.1693 38.4034 34.6428
  289 272.197 -11.0082 11.7163
  290 357.717 46.5389 12.2237
  291 295.260 -1.18883 -2.32568
  292 266.184 9.28780 -26.7089
  293 263.195 -14.8707 6.53740
  294 257.644 -21.7713 0.0785815
  295 265.164 12.1524 25.7171
  296 281.820 -23.6193 -9.39325
  297 399.776 77.9891 -6.54384
  298 263.123 -14.2908 -6.25936
  299 218.366 62.1213 -128.367
  300 269.224 -28.5220 -4.53085
  301 267.299 -29.2968 7.61515
  302 195.606 -17.7816 -31.2755
  303 175.420 -0.707836 -2.59662
  304 175.466 -0.695581 2.57443
  305 195.682 -17.7934 31.0989
  306 284.560 -0.465561 -30.4229
  307 307.765 -12.7321 -13.4083
  308 233.543 -14.1454 -5.31973
  309 233.381 -14.1772 5.42219
  310 280.422 -24.1331 42.3844
  311 279.356 -2.20336 10.2455
  312 340.554 1.35145 14.1378
  313 228.650 -8.12473 -2.88589
  314 228.663 -8.09527 2.86742
  315 207.822 -5.48819 -4.56202
  316 207.820 -5.43517 4.55395
  317 235.149 3.11773 -13.1065
  318 303.522 22.2408 -29.3362
  319 471.145 126.785 -59.6887
  320 276.847 -2.34379 -0.957954
  321 276.681 -2.31144 0.981700
  322 147.468 -0.170607 59.3556
  323 206.841 -9.49106 -9.86865
  324 206.436 -9.45570 9.89278
  325 147.443 -0.507585 -59.1299
  326 288.966 34.1327 -24.8052
  327 324.255 15.9975 22.3634
  328 280.470 -20.0190 -47.1476
  329 257.226 -9.90760 2.99537
  330 256.958 -9.83207 -2.88024
  331 274.858 -5.62312 -5.65415
  332 257.789 -0.500822 -15.6061
  333 289.908 1.27185 29.8516
  334 289.673 -1.97233 -5.81827
  335 172.887 -10.6054 23.8814
  336 172.698 -10.6667 -24.0737
  337 269.298 -0.616890 27.8371
  338 164.695 -1.39250 -5.17187
  339 164.801 -1.37926 5.12198
  340 276.852 -6.29857 8.71253
  341 331.898 67.9116 -12.7165
  342 274.708 -5.66841 5.86003
  343 292.256 36.7479 24.9151
  344 279.822 -5.18376 28.9882
  345 220.950 -4.17214 0.911720
  346 220.953 -4.19928 -0.918686
  347 264.463 -0.956180 -24.6897
  348 350.953 73.8699 8.46726
  349 291.110 53.4940 0.521404
  350 178.491 20.7983 -88.4618
  351 17.7988 8.04323 -11.8026
  352 19.5911 8.69759 12.7315
  353 -1.05396 1.96842 5.51175
  354 0.0670838 1.05346 -5.74244
  355 515.386 35.7368 12.3528
  356 241.273 -19.6596 -6.27470
  357 277.083 -6.08178 -8.50330
  358 249.639 -4.35828 0.433462
  359 249.609 -4.32164 -0.434760
  360 266.698 29.4597 -12.5618
  361 227.764 -23.2858 19.6925
  362 19.6521 29.1426 -21.2689
  363 227.995 -23.2836 -20.0661
  364 270.246 30.7427 13.3686
  365 276.273 -7.32473 -15.0783
  366 293.296 -16.3316 -18.3999
  367 311.966 66.0803 4.90216
  368 294.012 -18.3185 15.3339
  369 120.130 -3.04523 19.0952
  370 119.389 -2.98683 -19.2247
  371 67.6089 1.70620 -26.3882
  372 68.3572 1.42766 26.2677
  373 238.964 0.740356 13.2675
  374 457.573 133.029 50.7441
  375 285.857 -1.78076 -7.34900
  376 221.801 -18.8411 -15.0368
  377 221.606 -18.7886 15.0155
  378 274.515 -6.30406 -19.0109
  379 313.402 -15.1498 3.12569
  380 241.264 -19.6398 6.47931
  381 344.535 2.21847 -27.1589
  382 192.905 -1.60482 -0.875789
  383 192.931 -1.59062 0.868717
  384 269.785 -1.55855 -12.0940
  385 144.060 -2.12816 -12.4738
  386 144.156 -2.19523 12.3175
  387 322.881 41.2141 -25.0145
  388 174.186 12.3439 82.1045
  389 252.484 -13.2684 1.64227
  390 252.735 -13.2435 -1.65531
  391 296.548 50.2675 -15.8117
  392 280.967 -8.30896 -27.5227
  393 282.191 -28.8062 22.8150
  394 234.457 -6.24812 -1.26893
  395 234.427 -6.21586 1.25420
  396 271.205 -20.9157 9.91133
  397 292.523 -1.36018 4.33435
  398 180.994 -6.70560 -14.5398
  399 181.065 -6.70414 14.4102
  400 275.071 9.22345 -29.7336
  401 259.916 -5.59652 1.68851
  402 259.905 -5.60886 -1.65242
  403 268.610 -3.15732 22.7335
  404 249.817 18.1577 6.00824
  405 278.759 -11.7452 24.0919
  406 403.713 84.6694 14.6641
  407 133.718 -7.21305 -38.1768
  408 134.098 -7.21600 37.8770
  409 59.5509 32.1070 -45.1645
  410 299.561 -0.833857 1.22383
  411 150.174 -1.31451 -7.88780
  412 150.380 -1.28663 7.81712
  413 274.752 -7.14149 18.6386
  414 249.186 -27.0780 12.7130
  415 281.899 -3.43516 4.00913
  416 286.684 14.5672 31.0606
  417 62.4997 34.1865 47.1512
  418 249.570 -26.9300 -11.6503
  419 257.934 -23.9980 -1.82639
  420 83.0243 -1.67024 -23.9610
  421 83.6768 -1.73480 23.7907
  422 197.854 -15.7668 -57.3790
  423 296.309 -4.40077 26.5104
  424 197.072 -16.0127 56.8631
  425 273.616 -15.3441 -15.7545
  426 253.415 17.0492 -13.1851
  427 273.670 -11.7924 14.9321
  428 295.111 -1.27323 -2.94947
  429 8.76645 9.20826 3.82022
  430 59.2848 67.9809 66.9731
  431 262.876 -0.970012 11.6414
  432 219.640 2.96053 5.73070
  433 223.555 3.62100 -7.78159
  434 190.740 -3.22258 -4.94910
  435 190.757 -3.18062 4.91459
  436 269.798 -20.9047 -9.11809
  437 272.366 -5.32320 -25.4766
  438 220.858 4.08331 -2.11416
  439 403.706 96.0711 19.0060
  440 55.0775 18.4839 -33.7997
  441 60.7886 16.9675 36.1606
  442 252.252 -8.98409 1.46102
  443 252.154 -8.96029 -1.39185
  444 336.443 74.6040 -1.02671
  445 211.364 85.7790 131.216
  446 324.436 -4.62918 -5.48362
  447 185.118 -9.75407 -19.7287
  448 185.203 -9.68513 19.5547
  449 186.097 -4.23391 7.75190
  450 186.065 -4.26609 -7.82578
  451 251.959 5.55140 -21.3710
  452 301.149 -0.394405 -0.818756
  453 244.745 11.1748 11.9839
  454 310.494 38.3548 26.9398
  455 258.387 -19.1957 -2.96040
  456 281.798 -3.26454 -3.89269
  457 296.355 -1.14886 2.71746
  458 300.295 -0.419465 0.468575
  459 300.551 -0.477813 -0.348433
  460 163.462 -0.311570 1.90583
  461 163.381 -0.316118 -1.92681
  462 282.849 -17.9471 19.0352
  463 254.409 9.99852 20.6942
  464 266.271 1.06826 -27.1353
  465 278.613 -5.82744 11.2454
  466 404.068 66.6664 -77.5100
  467 279.185 -15.4719 -21.1740
  468 2.40051 5.24035 1.97600
  469 2.38911 5.31350 -0.595248
  470 220.594 -12.5796 8.38421
  471 219.843 -12.4147 -8.28776
  472 348.384 6.03626 41.3811
  473 97.0217 87.5300 -99.1433
  474 275.342 -0.822416 9.08055
  475 313.055 -18.2781 -23.2681
  476 165.459 -9.60719 27.6778
  477 334.829 59.4125 -18.2627
  478 275.159 -14.8739 17.7889
  479 230.538 -11.0772 -4.01759
  480 230.742 -10.8913 4.00434
  481 238.903 1.25806 -11.7197
  482 164.935 -9.57121 -27.8571
  483 245.118 0.0868801 11.7941
  484 235.629 -26.9337 -35.4074
  485 235.032 -26.9748 35.5250
  486 284.175 -1.85804 8.10667
  487 257.342 24.2427 2.48443
  488 262.740 4.33823 89.4960
  489 385.949 78.7925 -0.495234
  490 266.335 -4.43401 1.89681
  491 266.352 -4.41742 -1.95738
  492 203.848 -3.67385 -3.10187
  493 203.860 -3.64235 3.08917
  494 107.414 5.05352 49.7622
  495 276.356 -13.2913 -20.6892
  496 250.445 -5.42540 0.373372
  497 250.419 -5.40504 -0.367359
  498 217.918 -23.1188 28.9879
  499 109.515 6.66183 -51.0372
  500 276.849 -22.5450 -10.4215
  501 4.65415 0.768662 2.38454
  502 240.968 12.3911 0.869122
  503 267.343 -3.03066 -0.630817
  504 267.335 -3.07402 0.617930
  505 218.063 -23.0816 -29.2178
  506 313.396 -16.2149 29.9817
  507 310.094 11.2613 27.4955
  508 286.450 -1.87900 -1.95021
  509 276.001 -22.8653 10.5590
  510 171.382 -0.182556 -0.334161
  511 171.418 -0.180938 0.331095
  512 275.468 -10.5611 -22.0066
  513 266.335 19.7012 22.6744
  514 306.261 7.56176 -27.1467
  515 170.349 -0.288681 -1.07012
  516 170.392 -0.284772 1.06230
  517 537.227 77.5793 -69.5499
  518 277.269 33.0503 19.9993
  519 286.709 -1.72312 1.73954
  520 258.515 -24.5245 2.44750
  521 216.705 -7.23048 4.58934
  522 216.706 -7.28730 -4.58005
  523 301.330 -18.3310 8.82494
  524 289.277 -5.76009 -27.8729
  525 323.287 63.8293 15.1954
  526 268.611 4.61092 28.1298
  527 271.407 -5.16172 3.63188
  528 263.839 -28.1189 -33.9787
  529 273.296 -6.74654 21.6331
  530 531.223 24.3272 -9.75207
  531 299.152 -22.5388 -1.23940
  532 284.668 -1.81576 -0.476795
  533 284.735 -1.93739 0.424493
  534 536.730 36.0257 34.2342
  535 261.812 -0.0994921 23.9236
  536 368.140 61.5837 -7.25066
  537 276.155 -7.46790 -10.9589
  538 123.339 -1.18433 -8.53561
  539 123.736 -1.12760 8.44636
  540 186.345 -17.4730 -39.8576
  541 186.486 -17.1793 39.5554
  542 271.260 -4.94370 -3.59601
  543 295.069 10.8351 -30.4089
  544 259.164 -17.6442 3.94890
  545 278.515 31.9529 -20.7665
  546 281.075 -3.22839 10.9137
  547 353.101 17.4221 -3.01405
  548 240.043 -8.24416 -0.998617
  549 239.966 -8.21313 0.983543
  550 261.024 -12.3086 4.92612
  551 385.824 76.1124 -4.62001
  552 274.748 12.0183 29.2246
  553 117.227 30.2089 73.6673
  554 266.148 -15.9875 59.6167
  555 352.559 16.5447 -65.5662
  556 280.924 23.2320 -27.2229
  557 249.648 -21.5406 -51.6456
  558 270.306 -29.6039 -9.71123
  559 282.473 -28.5678 -14.4843
  560 36.7188 47.2890 -44.8534
  561 283.888 -3.53446 -6.78384
  562 427.683 83.2681 -23.9157
  563 262.436 -11.7984 -5.45078
  564 264.659 -8.57700 4.49280
  565 264.411 -8.37807 -4.31880
  566 181.340 -1.08752 -2.35098
  567 181.376 -1.07340 2.33419
  568 25.1931 2.72469 -14.4380
  569 26.6540 2.85429 14.7776
  570 134.919 -6.32909 -29.1473
  571 135.968 -6.36265 29.0960
  572 268.274 -14.5153 -10.0695
  573 273.503 -29.7236 10.5456
  574 281.155 -26.6636 2.41756
  575 229.880 -4.07337 -0.812122
  576 229.865 -4.04296 0.807609
  577 218.343 -22.8733 -44.2224
  578 244.804 -20.0420 54.6791
  579 212.995 -21.5042 44.4829
  580 275.851 -6.11430 -27.3989
  581 171.798 -2.92692 8.76163
  582 171.714 -2.95797 -8.83785
  583 262.622 14.4842 -22.7633
  584 263.077 -0.459498 -10.5660
  585 329.031 71.6529 -6.89466
  586 214.295 -3.28278 -0.819884
  587 214.299 -3.26007 0.815696
  588 280.901 -0.820840 -5.98156
  589 193.076 -6.62457 -9.65132
  590 193.077 -6.59996 9.56388
  591 158.100 7.40632 70.5944
  592 273.394 -12.5495 -15.1012
  593 151.973 -7.98625 50.6856
  594 268.660 -13.8996 10.2729
  595 283.080 -3.93843 7.48049
  596 279.622 -2.48689 -1.73568
  597 195.229 -2.47495 -2.16929
  598 195.252 -2.45411 2.15703
  599 315.529 63.1628 -13.6458
  600 151.867 -7.67620 -50.8835
  601 267.773 -11.5613 -8.25472
  602 241.199 -4.47004 -0.372038
  603 241.173 -4.43573 0.370416
  604 455.109 61.3640 -10.7891
  605 158.849 -1.05441 4.84648
  606 158.709 -1.06483 -4.89375
  607 248.880 5.66513 19.4877
  608 357.795 29.6434 -5.29234
  609 168.548 1.26912 -70.0895
  610 85.6252 2.25560 -38.0752
  611 86.3531 1.75455 37.8722
  612 211.192 -12.4388 11.9003
  613 213.436 -12.8051 -11.5425
  614 361.245 72.7223 7.37751
  615 278.451 -2.58040 1.57774
  616 237.819 6.62918 -11.7584
  617 297.277 53.5504 12.5042
  618 296.176 55.5774 -8.31353
  619 243.417 -13.5348 -1.67253
  620 245.296 -13.2243 0.796661
  621 174.798 37.9768 -100.918
  622 208.692 -7.23262 -6.57659
  623 208.707 -7.14825 6.55178
  624 533.994 109.238 82.2001
  625 275.562 -9.00663 23.7155
  626 156.334 -5.62196 -18.6772
  627 430.249 98.3814 64.9963
  628 156.703 -5.58943 18.6022
  629 264.038 -10.1212 -69.7305
  630 184.719 -0.956930 -0.867541
  631 184.751 -0.948566 0.862807
  632 229.087 2.02000 10.2534
  633 103.381 -1.57114 -16.7795
  634 103.977 -1.57497 16.6435
  635 240.259 -17.0748 4.74357
  636 252.132 -20.2368 -0.963016
  637 297.982 -0.618606 -2.47243
  638 166.175 -0.287331 1.39956
  639 166.113 -0.292337 -1.41503
  640 226.385 -5.13520 -1.19441
  641 226.375 -5.10491 1.18426
  642 260.592 -28.8781 34.3602
  643 299.098 33.4192 -27.5259
  644 198.248 -9.36671 -12.4499
  645 198.099 -9.20723 12.3564
  646 235.763 -17.0494 -6.78790
  647 372.291 81.2185 1.75450
  648 279.473 -27.0135 -0.860230
  649 242.135 -5.79306 -0.429776
  650 242.098 -5.76280 0.430608
  651 333.944 36.4616 21.2818
  652 279.910 -3.99290 -11.8645
  653 246.571 -0.322246 -9.60981
  654 113.562 -3.87203 -36.6118
  655 113.922 -3.98425 36.3048
  656 235.180 -20.3806 -11.1208
  657 353.278 78.1368 0.201855
  658 273.343 37.0463 -9.00771
  659 180.450 -1.70138 -4.34728
  660 180.491 -1.67747 4.31045
  661 255.395 -7.19192 -1.44398
  662 255.445 -7.20158 1.50046
  663 478.152 62.5070 27.4888
  664 302.798 -0.781868 0.679487
  665 292.135 -1.12034 4.23253
  666 290.945 -1.14770 -4.94399
  667 275.995 -25.6711 4.87050
  668 202.068 -2.40534 -1.08441
  669 202.086 -2.38755 1.07916
  670 294.418 47.2848 19.2275
  671 378.679 84.2815 -4.35363
  672 206.288 -15.4624 -17.6428
  673 206.221 -15.3073 17.5496
  674 258.830 -26.6906 -4.91997
  675 272.649 16.1979 -27.4957
  676 324.798 0.797097 12.4337
  677 214.422 -4.04154 -2.12227
  678 214.427 -4.01435 2.11272
  679 185.486 -16.3265 -35.9921
  680 273.364 -26.4218 -2.32193
  681 226.869 -25.1726 31.9272
  682 108.178 34.2727 -71.0550
  683 211.563 -19.6914 24.6207
  684 255.111 0.0671221 8.89138
  685 185.653 -16.1395 35.7437
  686 267.614 -11.7891 8.35656
  687 211.642 -19.6111 -24.8531
  688 215.876 2.76912 2.14860
  689 166.852 -4.57557 13.2564
  690 166.701 -4.58154 -13.3540
  691 227.008 -25.8264 -32.2871
  692 280.948 -18.4806 -18.4093
  693 257.531 -3.55786 -0.370236
  694 257.572 -3.59641 0.371900
  695 287.209 -18.2587 18.2803
  696 260.851 -27.2693 5.94653
  697 317.175 29.0830 26.8199
  698 285.959 -5.33176 28.6702
  699 275.158 -9.83810 17.5403
  700 262.265 21.5412 -17.2666
  701 316.167 53.2544 21.1944
  702 272.801 -3.75749 -16.9299
  703 272.111 -8.97422 9.14249
  704 280.742 44.0287 4.87207
  705 276.740 -4.66101 14.7873
  706 86.8080 58.9369 74.4321
  707 257.653 -29.6216 -19.6187
  708 298.344 5.44249 29.1927
  709 301.395 -9.30777 -20.9788
  710 301.277 -0.364177 1.38007
  711 275.024 -9.40484 -13.8622
  712 258.012 -29.8561 17.7776
  713 501.953 44.4353 -7.45248
  714 152.285 -0.677944 5.07464
  715 152.099 -0.685513 -5.12452
  716 279.146 -5.00795 -6.52673
  717 303.107 -0.274135 -1.34163
  718 234.736 -20.7084 11.1811
  719 282.312 -10.4754 26.0749
  720 430.654 102.056 -30.4091
  721 267.580 -19.3899 8.61683
  722 296.993 -19.5246 -11.0942
  723 272.216 -8.73019 -8.99767
  724 303.060 -0.486250 -0.448227
  725 275.338 -0.0161932 29.7143
  726 12.5591 11.0167 15.5532
  727 311.832 -12.1167 -45.0078
  728 338.986 19.9638 13.6778
  729 282.144 -28.7972 12.8460
  730 199.980 -4.88678 5.39603
  731 199.983 -4.95607 -5.42405
  732 264.619 131.876 -137.852
  733 287.345 -18.9731 -16.9360
  734 215.014 1.07690 -4.10657
  735 251.592 1.36791 19.0236
  736 277.025 -13.8315 21.0384
  737 265.535 -22.3771 4.54861
  738 276.524 -25.1708 -36.9170
  739 263.877 -20.8808 -5.01788
  740 312.332 -14.9643 -4.19036
  741 287.570 -2.28249 3.82649
  742 256.157 -15.4045 2.76212
  743 467.222 93.4360 -49.5789
  744 273.471 -7.25896 7.27572
  745 270.077 4.40753 -28.8936
  746 231.121 -2.62586 78.4908
  747 289.544 23.3357 29.5652
  748 249.029 -19.6537 2.27458
  749 191.738 -15.2096 -26.2659
  750 191.751 -15.1655 26.0453
  751 264.305 29.7161 -4.02716
  752 269.230 -3.10712 25.8321
  753 272.287 -6.46361 -22.0872
  754 256.451 -15.7170 -2.84815
  755 247.881 -22.2688 6.00759
  756 282.927 46.7692 -5.51549
  757 265.204 -22.9524 -3.50121
  758 265.847 -16.8165 8.35976
  759 269.557 -3.38739 1.32368
  760 269.727 -3.29286 -1.31565
  761 362.690 79.8440 2.20913
  762 296.863 -25.2195 -8.22132
  763 275.868 -8.40033 13.7945
  764 287.699 -2.27326 -3.49031
  765 290.233 1.94341 -30.1346
  766 330.968 17.3037 -18.1274
  767 160.478 -0.172186 -2.36128
  768 160.583 -0.169797 2.33643
  769 2.26910 -5.18005 -3.68140
  770 281.592 -0.310550 5.54226
  771 257.502 -0.445383 -21.0657
  772 266.249 -2.49008 18.6164
  773 244.012 29.8183 115.433
  774 303.132 62.5084 -0.669189
  775 215.205 -15.5178 13.6803
  776 36.8120 0.862455 -14.3113
  777 37.9261 0.637834 14.4660
  778 263.814 -1.88338 -20.9817
  779 215.805 -15.6751 -13.6750
  780 285.991 -2.50369 2.92566
  781 144.865 -6.25608 24.8839
  782 143.604 -6.23506 -24.9007
  783 273.459 -7.04530 -7.08833
  784 173.372 -4.46531 -11.5280
  785 173.458 -4.43509 11.4216
  786 284.902 -2.63332 -8.22580
  787 216.609 -5.85336 -3.66296
  788 216.613 -5.81377 3.66395
  789 311.186 -1.98184 -21.0553
  790 279.576 -2.91666 -29.8556
  791 140.769 -0.926234 -6.48201
  792 141.049 -0.917643 6.40456
  793 6.45239 3.55832 -8.59655
  794 7.72920 3.75232 9.05037
  795 225.464 1.06587 -7.45141
  796 255.457 -28.7072 -14.4978
  797 -2.96450 -2.05961 5.09150
  798 -2.59075 -2.41473 -5.04780
  799 265.959 -5.27188 2.81676
  800 288.568 -22.4843 -9.88537
  801 297.477 44.1445 -22.4552
  802 287.252 -2.24578 -2.77815
  803 617.808 123.925 -116.055
  804 265.904 -5.25362 -2.78077
  805 400.842 76.6283 6.01456
  806 284.368 8.28363 -31.1140
  807 314.492 23.7083 -27.4256
  808 51.6253 -0.610713 -13.2540
  809 52.6185 -0.689325 13.2291
  810 176.189 -2.60552 6.80915
  811 176.128 -2.62773 -6.87257
  812 167.836 -0.419375 1.27000
  813 167.787 -0.423706 -1.28078
  814 317.789 53.5614 -21.0335
  815 186.648 -1.21153 -1.86429
  816 186.679 -1.19745 1.85313
  817 270.068 -2.71901 -26.9564
  818 391.886 39.3668 32.5032
  819 242.407 5.36572 -16.3800
  820 82.9664 -0.756625 14.2374
  821 82.2361 -0.763521 -14.3528
  822 315.727 8.21050 82.6036
  823 278.850 -5.04967 6.73651
  824 248.271 16.4299 -6.82604
  825 113.736 -0.196048 9.72692
  826 113.135 -0.142469 -9.80118
  827 171.589 -0.913587 -3.32852
  828 171.651 -0.900452 3.29621
  829 30.6140 27.3317 23.3030
  830 259.178 6.15029 24.3874
  831 288.726 42.4849 -19.2092
  832 311.092 36.1188 -27.1943
  833 203.539 -7.79200 -8.67401
  834 203.416 -7.73161 8.66002
  835 322.026 68.7335 9.59411
  836 278.452 -2.23213 -0.375556
  837 278.466 -2.21512 0.423161
  838 275.186 -8.21045 -17.6661
  839 230.085 -15.4131 7.79873
  840 253.868 -28.5352 14.5854
  841 298.944 -24.4968 22.7894
  842 227.951 -6.65548 -2.07121
  843 227.947 -6.62883 2.05568
  844 260.670 24.1400 11.0809
  845 244.703 3.30346 -17.7005
  846 68.0619 79.3487 77.4800
  847 248.667 -22.0892 -5.39174
  848 249.460 -11.1569 0.835040
  849 249.595 -11.1772 -0.847902
  850 274.455 -4.02886 28.3685
  851 272.378 -17.8758 -13.2686
  852 242.954 -16.1415 -2.85752
  853 558.391 18.0869 -27.7837
  854 230.883 -21.9232 15.4891
  855 230.703 -22.2112 -15.7466
  856 274.235 -3.25694 14.4085
  857 413.985 106.684 -22.9574
  858 216.478 -19.7676 -19.5065
  859 239.505 -27.0108 18.3984
  860 216.412 -19.5267 19.3291
  861 234.803 -9.49435 -2.33676
  862 234.793 -9.46034 2.31809
  863 34.3390 14.7656 20.2806
  864 294.792 22.0366 -29.9710
  865 225.173 -8.85009 -3.91664
  866 225.213 -8.75890 3.93137
  867 222.288 -3.70730 -0.470436
  868 222.283 -3.68073 0.467036
  869 244.918 -4.84807 0.0496483
  870 244.887 -4.81481 -0.0510677
  871 198.320 -3.95955 -4.67666
  872 198.334 -3.91436 4.65566
  873 226.066 -11.9768 -5.98725
  874 226.093 -11.8922 6.01298
  875 5.36862 -2.35274 -2.35144
  876 341.857 64.1335 15.9175
  877 294.043 -10.2840 -24.1516
  878 239.318 -26.6209 -18.6013
  879 258.640 -8.30123 2.68189
  880 258.524 -8.21325 -2.60794
  881 281.967 0.368044 30.4963
  882 307.238 -21.9255 -12.2459
  883 272.158 19.0094 -100.047
  884 122.796 -1.92993 49.2490
  885 -4.92325 2.86537 -3.24189
  886 -4.30555 3.23197 3.60750
  887 34.0963 15.7048 -20.6985
  888 275.796 -7.87192 10.9008
  889 290.512 -1.83857 -4.60377
  890 261.114 -25.0799 42.5378
  891 122.500 -1.79479 -49.4503
  892 290.996 -23.7777 7.09612
  893 324.606 -9.74414 36.7335
  894 233.862 0.933379 7.90250
  895 268.810 25.5673 18.8926
  896 144.919 -8.20149 36.2876
  897 144.351 -8.26814 -36.5355
  898 173.928 -8.37917 -20.3292
  899 183.352 -8.90963 -62.8825
  900 290.915 -6.77572 27.0477
  901 400.487 93.7564 13.4938
  902 291.954 11.2454 30.5630
  903 275.986 -5.85029 -16.1002
  904 187.248 -7.98319 64.4511
  905 352.245 64.8492 -11.9306
  906 34.5175 29.4780 -28.7791
  907 254.394 -0.522215 -8.48138
  908 174.111 -8.30892 20.1425
  909 212.716 -4.74577 3.23903
  910 212.712 -4.77953 -3.24700
  911 272.780 -17.7811 13.6916
  912 283.630 -1.72127 1.13123
  913 208.321 1.95894 -78.2417
  914 299.218 -0.630045 2.18155
  915 296.889 -0.513869 -2.77506
  916 220.224 1.88500 -6.84653
  917 286.624 -1.15308 -4.91833
  918 213.489 -10.0842 -7.95200
  919 213.633 -9.93075 7.97535
  920 -7.14460 2.57842 -4.12786
  921 -9.79920 1.55455 4.34631
  922 283.626 -1.59360 -1.14436
  923 92.8319 -2.08404 33.2178
  924 92.2570 -1.88038 -33.4119
  925 302.430 44.1792 23.7322
  926 545.196 9.83456 8.62012
  927 284.496 31.6717 24.8446
  928 323.315 -11.4654 9.80613
  929 280.432 -15.5800 21.2288
  930 349.325 73.2760 -9.07512
  931 215.396 0.881937 5.15907
  932 269.889 -6.28169 -4.44737
  933 280.053 15.0585 -30.0538
  934 339.429 9.88083 -6.44099
  935 262.934 -16.2314 -6.62847
  936 132.947 -0.764784 -7.26301
  937 133.092 -0.737824 7.15814
  938 277.580 -6.46565 -12.6679
  939 9.05110 11.5544 2.14897
  940 266.425 -27.6149 -2.23730
  941 229.687 6.73017 -0.706704
  942 346.827 76.3942 -6.03001
  943 54.3851 40.4987 -48.0169
  944 266.270 -1.97990 -16.6821
  945 183.646 -3.13981 -6.34815
  946 183.680 -3.10226 6.29200
  947 1.53584 -7.66478 5.85872
  948 180.351 -13.5180 -29.1775
  949 271.358 -15.6575 -12.8645
  950 167.186 0.357886 -0.523680
  951 167.225 0.359704 0.519890
  952 273.543 33.2105 -15.1463
  953 294.548 -0.804630 -0.441759
  954 294.552 -0.817225 0.576792
  955 180.428 -13.4791 28.9736
  956 274.465 -0.358322 -6.60644
  957 316.362 2.27112 20.3396
  958 280.573 -3.88530 5.22071
  959 44.1648 11.3697 -25.7321
  960 291.123 -1.70294 4.17710
  961 263.221 2.09820 26.1319
  962 277.626 38.4978 13.4757
  963 278.039 3.22383 -30.7601
  964 190.841 -10.3410 -17.4014
  965 300.551 -10.6155 20.2649
  966 190.964 -10.2991 17.2202
  967 8.60657 9.45159 -0.602689
  968 32.2624 5.66837 18.8448
  969 155.180 -2.80358 11.9963
  970 154.987 -2.80683 -12.0677
  971 270.078 -6.40501 4.67869
  972 289.879 50.5174 7.47644
  973 147.373 13.5948 -74.0008
  974 242.484 -15.1867 2.45719
  975 227.583 -23.8495 -23.4691
  976 332.256 63.7479 16.4348
  977 255.445 -4.46414 0.465159
  978 255.435 -4.43843 -0.466625
  979 280.173 -5.11694 -9.12910
  980 258.198 22.2618 -10.2239
  981 590.252 174.151 117.548
  982 53.1309 3.06632 -24.9158
  983 53.9935 2.55028 24.9745
  984 3.94835 -5.43425 1.13663
  985 259.042 14.3203 20.9853
  986 227.509 -23.9922 23.2909
  987 282.361 -13.3113 -24.0981
  988 307.273 25.1260 29.6372
  989 295.823 -23.8856 -28.1643
  990 432.428 91.0696 29.8003
  991 250.697 -4.01612 -0.0830803
  992 250.664 -3.98135 0.0834161
  993 293.791 -11.9440 22.9258
  994 20.1629 32.6237 34.5279
  995 130.875 -2.79914 17.2006
  996 130.455 -2.76347 -17.3913
  997 156.745 -7.76320 23.4871
  998 156.198 -7.64660 -23.5802
  999 176.732 -7.38546 16.8346
  1000 193.199 -1.58517 -0.849197
  1001 193.225 -1.57309 0.845508
  1002 487.714 154.072 -97.8350
  1003 440.442 110.310 44.7883
  1004 176.588 -7.42465 -16.9818
  1005 302.643 -1.37321 25.2708
  1006 270.102 28.0293 -18.2007
  1007 190.814 -16.3721 52.1157
  1008 245.564 -29.0025 -27.8262
  1009 280.744 -2.27276 -9.70460
  1010 126.035 8.77493 60.1658
  1011 161.785 -12.3746 41.6505
  1012 247.353 12.6323 -13.1309
  1013 283.805 -5.59970 -28.9829
  1014 364.659 146.037 157.610
  1015 233.351 7.09050 9.33721
  1016 318.789 68.8947 -1.15316
  1017 234.718 9.13386 -88.9570
  1018 238.186 -25.1243 -15.8335
  1019 303.403 -0.285118 -1.09694
  1020 290.192 26.6696 -28.8016
  1021 168.769 -1.13148 4.29153
  1022 168.691 -1.14306 -4.33384
  1023 6.12838 2.66221 -8.62124
  1024 190.940 -8.82534 -14.4957
  1025 161.591 -12.5352 -41.9733
  1026 190.788 -8.80393 14.3298
  1027 277.364 -8.41961 26.8001
  1028 248.729 -15.4028 -0.191255
  1029 260.956 4.77521 -25.3044
  1030 268.476 33.5505 5.31182
  1031 365.999 21.7207 12.1993
  1032 274.918 -20.8625 13.0938
  1033 173.018 -13.9131 -31.9282
  1034 258.672 9.12027 -23.6684
  1035 192.504 -16.1493 -52.4012
  1036 370.622 80.6756 -1.31726
  1037 251.237 16.4551 11.9454
  1038 318.852 -1.91098 -15.7529
  1039 239.672 -25.1315 14.5270
  1040 274.827 -8.67678 20.7576
  1041 273.119 -14.3879 15.0554
  1042 271.622 -13.6283 13.0752
  1043 335.752 42.5715 -21.8420
  1044 271.054 -4.35233 21.0065
  1045 245.146 -29.0839 27.3671
  1046 261.685 -10.6679 4.46096
  1047 173.125 -13.9379 31.7424
  1048 245.534 -18.1453 -3.03582
  1049 142.126 -6.88116 -44.5504
  1050 203.363 -21.1514 35.2833
  1051 276.177 -1.84526 -11.2477
  1052 268.802 -3.02586 -23.8451
  1053 232.745 -18.4901 -9.57375
  1054 142.373 -7.08471 44.1917
  1055 250.240 0.585960 -16.5362
  1056 185.927 -12.4455 -22.5665
  1057 338.219 72.1735 10.4265
  1058 74.7412 12.5399 -42.1500
  1059 582.315 41.1710 56.3055
  1060 135.037 10.2022 -63.0254
  1061 271.591 -22.4845 -8.20956
  1062 185.974 -12.3370 22.3757
  1063 247.508 2.58150 18.4756
  1064 138.001 -2.84629 14.2364
  1065 137.924 -2.91708 -14.3849
  1066 274.772 -7.62470 -24.8305
  1067 292.967 -1.40159 1.73140
  1068 286.845 -0.618175 4.97470
  1069 283.369 9.42052 31.0318
  1070 264.858 -1.99440 22.3824
  1071 205.791 21.8460 96.2514
  1072 305.398 -0.204116 0.537536
  1073 285.076 38.6821 19.7797
  1074 240.696 3.44549 15.9047
  1075 290.615 -1.07777 4.78560
  1076 185.369 -2.05131 -3.53816
  1077 185.400 -2.02768 3.51373
  1078 117.593 -3.37487 -23.7321
  1079 118.070 -3.49606 23.5634
  1080 241.458 11.9883 6.67023
  1081 367.352 19.2816 -25.8756
  1082 337.503 -0.678471 -50.1836
  1083 267.652 -0.228385 -6.84142
  1084 203.448 -21.3111 -35.5552
  1085 233.232 -17.5849 8.52279
  1086 269.239 -0.608724 7.14149
  1087 282.368 -20.4520 -15.3903
  1088 174.646 -0.431067 2.12074
  1089 174.604 -0.438509 -2.13471
  1090 271.070 -23.1285 8.20574
  1091 257.539 -5.21627 0.921577
  1092 257.496 -5.22087 -0.903992
  1093 250.532 -25.2692 8.98456
  1094 323.846 -10.5164 -2.67467
  1095 144.548 -0.267028 -4.03515
  1096 144.791 -0.257719 3.99080
  1097 220.011 -13.8398 -60.0350
  1098 233.570 -5.58528 1.08140
  1099 233.594 -5.61798 -1.09232
  1100 141.613 75.6183 105.734
  1101 324.808 26.5806 -24.5286
  1102 47.2191 23.1874 -31.6743
  1103 280.748 -4.10373 -5.04684
  1104 74.2760 25.6873 -48.3208
  1105 154.889 -9.82078 -30.3406
  1106 305.543 -0.293900 0.327329
  1107 305.671 -0.273205 -0.242721
  1108 275.861 -15.7166 -18.2149
  1109 244.314 -27.3834 -38.3987
  1110 74.7806 10.6742 40.1654
  1111 300.015 29.7208 28.0941
  1112 272.636 -2.66117 -0.459131
  1113 272.665 -2.66379 0.485649
  1114 298.349 -19.2877 46.4917
  1115 307.059 61.6655 10.8485
  1116 181.220 -4.45138 -9.10519
  1117 181.263 -4.42949 9.03700
  1118 138.108 15.9005 74.6768
  1119 260.328 1.30176 -24.4995
  1120 81.1922 26.3346 51.9975
  1121 336.223 -5.91092 -14.9482
  1122 329.121 73.0299 3.32925
  1123 225.945 -17.9732 11.7541
  1124 207.173 1.06106 -1.00539
  1125 287.801 -2.47065 6.16091
  1126 298.224 -0.342050 2.40698
  1127 63.7388 0.126626 -11.9237
  1128 64.6521 0.0944874 11.8403
  1129 233.001 3.83644 -11.7719
  1130 241.091 -7.09592 -0.662621
  1131 241.033 -7.06060 0.657975
  1132 25.1848 38.3141 -36.7071
  1133 40.2291 85.1867 -74.1306
  1134 244.229 -9.55171 0.381987
  1135 244.328 -9.55324 -0.394713
  1136 252.509 -6.05236 0.997838
  1137 252.473 -6.03822 -0.975365
  1138 65.7509 42.0791 52.2316
  1139 198.219 -2.50847 -1.68645
  1140 198.240 -2.48973 1.67772
  1141 249.871 18.8383 -0.280731
  1142 321.662 39.5623 -111.223
  1143 305.755 52.8187 -18.5819
  1144 279.128 -10.6892 -25.3821
  1145 274.994 -13.6789 -18.4436
  1146 226.093 -18.1435 -11.9548
  1147 226.492 0.716357 7.26728
  1148 255.652 15.8948 -17.5367
  1149 252.006 13.5056 16.7401
  1150 261.512 -10.3541 -4.38173
  1151 249.375 -15.0900 0.00869275
  1152 226.370 -14.7264 -8.77727
  1153 269.864 -1.57349 13.3116
  1154 479.987 48.5164 6.78410
  1155 271.766 -5.77702 24.2566
  1156 272.448 17.8865 26.4169
  1157 251.714 -24.8127 -6.59910
  1158 30.4982 5.21464 -18.1658
  1159 256.437 -11.8512 -3.21325
  1160 168.412 -0.288392 -0.100442
  1161 168.447 -0.287239 0.0991747
  1162 313.155 -8.30333 13.5495
  1163 298.455 -25.1076 10.0144
  1164 429.237 77.0690 18.5993
  1165 100.500 -0.225622 -9.96198
  1166 101.129 -0.203508 9.88410
  1167 228.442 -4.64510 -0.929435
  1168 228.429 -4.61462 0.921775
  1169 257.275 -22.7234 -0.195386
  1170 209.074 0.915088 3.28892
  1171 263.530 -18.7616 6.35847
  1172 14.5912 17.3485 -8.11447
  1173 46.7545 23.4967 30.9860
  1174 175.850 -9.47196 58.0465
  1175 304.484 58.1698 -13.2590
  1176 291.706 -0.786754 -3.77726
  1177 306.868 -0.468761 0.228798
  1178 307.182 -0.648575 -0.149498
  1179 175.558 -0.455831 -0.341859
  1180 175.594 -0.452322 0.339022
  1181 280.581 17.9507 30.0315
  1182 416.842 71.5070 -1.51403
  1183 288.934 47.8794 -13.4167
  1184 216.333 -15.8275 59.6470
  1185 174.911 -9.09291 -57.9393
  1186 194.051 -13.1183 -20.1965
  1187 270.207 -7.48345 5.93519
  1188 377.748 83.0384 2.09904
  1189 194.062 -13.0373 20.0309
  1190 276.268 -4.73622 4.49383
  1191 245.249 9.05143 15.9649
  1192 271.051 8.38207 28.8165
  1193 387.591 86.6705 8.49458
  1194 228.894 -6.00924 1.74569
  1195 228.908 -6.04014 -1.75965
  1196 279.794 -5.17466 9.47666
  1197 163.989 -1.81027 6.73891
  1198 163.872 -1.82895 -6.80326
  1199 273.756 -3.63070 -2.05491
  1200 112.260 66.6742 -102.091
  1201 237.007 -13.3136 -63.8531
  1202 222.500 -7.04078 -3.35527
  1203 222.520 -7.00686 3.35615
  1204 294.235 -1.30634 1.55134
  1205 277.975 -3.54274 3.59911
  1206 14.8970 18.4623 13.4147
  1207 303.082 -0.310010 1.27650
  1208 35.5164 44.6006 44.2541
  1209 271.363 -3.96192 -2.63125
  1210 -0.381453 -6.70673 -5.86563
  1211 191.141 -18.6403 -44.8995
  1212 190.595 -18.1843 44.4412
  1213 303.075 -0.506935 -1.40628
  1214 258.088 -13.6099 -3.79609
  1215 294.001 -1.18287 -1.60167
  1216 234.056 -7.60732 -1.57796
  1217 234.030 -7.57695 1.55684
  1218 273.577 -3.60315 1.93551
  1219 256.250 -11.6211 3.17957
  1220 246.373 -7.91904 -0.263962
  1221 246.464 -7.94323 0.295347
  1222 293.772 -1.21991 -1.31150
  1223 253.024 -26.5806 -43.3524
  1224 287.258 -1.67262 -1.35305
  1225 272.547 -4.07671 2.81468
  1226 188.427 -2.13729 -2.60495
  1227 188.455 -2.11601 2.58828
  1228 211.138 -3.15584 -1.29662
  1229 211.147 -3.13302 1.28938
  1230 344.369 53.5997 18.4855
  1231 289.238 -22.1717 11.6601
  1232 197.974 -0.858320 73.8122
  1233 156.728 -0.288594 2.58548
  1234 156.594 -0.291592 -2.61273
  1235 273.566 -5.02239 18.2721
  1236 262.046 -3.88891 0.611769
  1237 262.059 -3.87479 -0.611369
  1238 299.509 58.4878 6.17984
  1239 275.195 -28.7736 34.1018
  1240 157.286 -2.28549 9.48900
  1241 157.126 -2.30337 -9.56247
  1242 261.606 -6.32451 2.33335
  1243 261.549 -6.36715 -2.27099
  1244 270.064 -7.38793 -5.72682
  1245 246.943 0.0406234 8.56583
  1246 430.354 106.883 -34.7946
  1247 274.946 -10.0116 -16.2858
  1248 46.2707 11.2177 26.4810
  1249 284.129 -15.0984 22.5364
  1250 226.504 4.88140 -6.43619
  1251 16.9081 12.7103 9.33315
  1252 375.841 41.2829 -1.98464
  1253 277.358 -12.5804 -22.6868
  1254 227.619 3.17819 9.85410
  1255 155.997 -9.83543 30.2793
  1256 281.978 -21.7869 13.8033
  1257 411.209 77.4177 22.9823
  1258 93.7983 14.0276 51.2158
  1259 283.525 -3.28834 -8.15214
  1260 549.778 6.10366 -5.57623
  1261 568.494 8.57872 24.9299
  1262 607.706 20.8604 -59.1158
  1263 274.494 -8.52650 -20.1615
  1264 274.606 -12.4897 17.2868
  1265 279.103 -19.8259 16.2795
  1266 -8.23352 0.902924 5.25578
  1267 -7.50680 0.708422 -5.70446
  1268 271.828 -29.9964 -15.4840
  1269 278.664 -28.1244 -23.5731
  1270 210.639 1.30922 -4.06514
  1271 270.746 -30.5477 23.5845
  1272 289.084 -13.6725 -22.8955
  1273 5.33541 8.46269 0.655131
  1274 234.250 -4.27930 0.709105
  1275 234.269 -4.31144 -0.710991
  1276 287.655 -2.22277 5.57761
  1277 276.259 -4.64908 -4.23082
  1278 259.866 -28.3792 -7.91661
  1279 236.852 -12.8823 3.46580
  1280 235.636 -12.7050 -3.82513
  1281 278.634 -5.82577 12.9132
  1282 285.491 -10.4532 -26.1724
  1283 17.5558 13.2530 -8.99316
</Section>

newXOutput 38

<Section columns = "stress_xx | stress_yy | stress_xy">
  1 317.060 -0.0318913 0.634775
  2 317.077 -0.0275111 -0.636889
  3 170.151 -0.0737465 -0.230022
  4 -2.16739 -2.14899 -3.11493
  5 576.761 224.551 182.329
  6 571.309 232.933 -182.670
  7 -2.51559 -2.04715 3.30739
  8 170.116 -0.0744172 0.229342
  9 319.355 -0.514743 0.198684
  10 318.648 -0.820959 -0.146427
  11 317.861 -0.532362 0.744209
  12 317.075 -0.747212 0.229819
  13 315.393 -0.623526 1.17353
  14 313.871 -0.633625 0.869437
  15 310.331 -0.561855 1.67846
  16 305.320 -0.368956 2.46799
  17 300.840 -0.404434 2.73696
  18 294.237 -0.587097 3.29761
  19 285.131 -0.0259827 4.86001
  20 276.716 -0.433650 4.60699
  21 267.198 -0.576223 6.47412
  22 253.442 0.410265 5.62027
  23 243.531 0.603339 6.63342
  24 230.608 1.02655 5.18068
  25 221.687 1.05287 5.21825
  26 208.759 1.49772 2.65743
  27 206.046 2.36216 2.84512
  28 204.418 1.92266 -0.838696
  29 206.658 1.09020 -1.85065
  30 210.774 1.07632 -2.26744
  31 220.455 1.37097 -4.53108
  32 229.855 1.08202 -5.74296
  33 243.693 0.221469 -6.81680
  34 254.773 -0.149400 -6.22407
  35 266.616 -0.460308 -6.12869
  36 277.357 -0.337191 -4.33501
  37 286.619 -0.347361 -3.71709
  38 294.279 -0.572215 -3.12860
  39 301.159 -0.401985 -2.19303
  40 305.481 -0.470672 -2.33300
  41 309.654 -0.591911 -1.70811
  42 313.621 -0.706598 -0.761636
  43 315.663 -0.564944 -0.886624
  44 316.760 -0.335002 -0.558962
  45 316.016 -0.165528 -0.509169
  46 318.987 -0.831605 0.0936798
  47 319.461 -0.537670 -0.205034
  48 308.738 -0.184426 -0.392269
  49 301.643 -1.21227 -0.699849
  50 293.001 -1.79970 -0.467196
  51 282.480 -2.70422 -0.637377
  52 272.527 -2.97263 -0.795226
  53 261.919 -3.75974 -0.754032
  54 252.542 -4.20470 -0.424298
  55 244.320 -4.73528 -0.165707
  56 234.839 -3.93831 -0.163899
  57 223.913 -3.69679 -0.256705
  58 213.377 -2.93307 -0.0839462
  59 203.390 -1.88599 -0.0327453
  60 193.889 -1.35479 0.0115173
  61 185.543 -0.708655 0.0846814
  62 176.990 -0.201006 -0.264667
  63 170.261 0.236070 0.319578
  64 167.259 0.683013 0.210233
  65 169.353 -0.000142492 0.505945
  66 167.106 -0.100989 0.607505
  67 165.044 -0.146710 0.758501
  68 162.232 -0.0253100 0.994470
  69 158.684 -0.0147987 1.25691
  70 156.096 -0.223510 2.43992
  71 148.544 0.218666 2.66775
  72 143.253 -0.0202749 3.06421
  73 135.371 -0.145184 3.47313
  74 126.281 -0.241537 4.23097
  75 114.923 -0.0586553 5.13700
  76 101.075 0.0613584 5.65513
  77 89.1815 -0.134176 8.07568
  78 65.5669 0.758632 7.60132
  79 49.5593 0.655230 8.04849
  80 30.4502 -0.129407 8.89866
  81 14.6547 1.50652 9.21467
  82 -3.29109 2.23343 5.45818
  83 -16.2476 2.26428 1.84743
  84 -15.5933 2.16306 -0.947806
  85 -14.6642 1.78822 -4.44994
  86 -8.60097 -0.606455 -4.19511
  87 -1.07566 -8.25738 -4.62002
  88 0.776570 -15.2604 -5.81729
  89 2.21366 -24.2944 -3.33021
  90 4.94934 -25.1769 0.0239603
  91 10.5207 -7.19744 13.5781
  92 31.6383 46.4080 47.0390
  93 188.625 171.724 162.518
  94 697.065 103.638 117.289
  95 626.804 14.8836 38.3721
  96 581.622 6.12769 11.7425
  97 564.918 5.17982 0.924786
  98 573.680 6.92547 -10.1371
  99 625.203 13.8063 -30.3453
  100 740.194 50.0187 -101.465
  101 111.649 174.917 -135.574
  102 23.7104 31.5477 -38.7461
  103 11.4684 -6.04444 -14.1820
  104 4.62008 -25.2963 -2.20260
  105 1.26113 -18.5767 3.84624
  106 1.62379 -19.2141 5.06068
  107 0.0627395 -7.15548 5.11375
  108 -8.97334 -0.408098 3.98777
  109 -15.1328 1.34188 3.89170
  110 -16.4134 2.63254 1.03895
  111 -16.7810 2.23292 -1.69812
  112 -4.45195 2.28916 -5.10329
  113 13.6216 1.51997 -8.77958
  114 29.3942 0.0291315 -8.75191
  115 48.4729 0.708734 -8.06726
  116 64.5797 0.779114 -7.66200
  117 88.4152 -0.137502 -8.14682
  118 100.418 0.0688424 -5.71246
  119 114.350 -0.0561679 -5.20399
  120 125.985 -0.266690 -4.26487
  121 134.978 -0.138585 -3.48356
  122 142.956 -0.0104267 -3.09765
  123 148.302 0.215823 -2.69885
  124 155.924 -0.225620 -2.46632
  125 158.547 -0.0161694 -1.27320
  126 162.131 -0.0266027 -1.00790
  127 164.968 -0.148837 -0.769181
  128 167.049 -0.102809 -0.614987
  129 169.308 -0.00173176 -0.510750
  130 167.220 0.682085 -0.212487
  131 170.224 0.235630 -0.320976
  132 176.954 -0.202841 0.263867
  133 185.508 -0.713239 -0.0864425
  134 193.859 -1.36494 -0.0135885
  135 203.367 -1.90012 0.0307387
  136 213.365 -2.95341 0.0819867
  137 223.913 -3.72240 0.255182
  138 234.852 -3.96782 0.162431
  139 244.342 -4.76809 0.165116
  140 252.572 -4.23731 0.425424
  141 261.960 -3.78941 0.757339
  142 272.561 -2.99326 0.807142
  143 282.503 -2.72265 0.694107
  144 293.051 -1.69623 0.477794
  145 301.857 -1.17817 0.684591
  146 308.785 -0.232093 0.386526
  147 275.361 -25.8606 -2.52891
  148 275.137 -25.5141 2.62787
  149 288.412 41.4917 -14.5270
  150 307.939 18.1737 30.9303
  151 233.167 -22.3754 -50.8432
  152 235.036 -22.3548 49.1814
  153 225.918 -9.66938 5.89461
  154 225.940 -9.80667 -5.90070
  155 326.934 11.7038 -23.9638
  156 274.622 -9.82920 6.56087
  157 274.508 -9.58825 -6.47782
  158 355.014 79.4922 3.98636
  159 280.788 -0.450005 -30.0616
  160 207.262 -16.4280 -22.7081
  161 207.260 -16.2880 22.5003
  162 281.385 -6.34734 27.2086
  163 266.735 19.4265 17.8447
  164 109.742 17.8214 -60.6510
  165 121.843 16.8701 63.9353
  166 345.622 3.78947 3.86565
  167 282.290 -10.7880 -19.0467
  168 374.287 82.2434 -2.42903
  169 253.982 -7.15235 0.250466
  170 253.926 -7.12802 -0.226958
  171 285.944 -3.36827 -2.88100
  172 286.880 -3.01421 2.49453
  173 198.454 -2.92246 -3.56054
  174 198.476 -2.89147 3.54039
  175 307.741 -8.32996 64.5802
  176 258.056 10.6566 -19.2103
  177 168.368 -12.6771 -36.6565
  178 168.875 -12.5835 36.4072
  179 188.971 -6.30530 -11.9147
  180 188.986 -6.23143 11.8211
  181 283.704 -7.40361 16.1830
  182 257.620 -17.7216 -0.116726
  183 256.693 -17.5894 0.541439
  184 293.503 -28.3526 -4.14872
  185 295.006 -27.0102 0.481215
  186 406.026 95.4736 -13.1206
  187 294.133 47.3302 13.5999
  188 294.907 18.1220 -30.9573
  189 306.772 -2.86187 -75.2223
  190 292.967 -16.5146 -21.8902
  191 295.463 -11.7747 25.6720
  192 246.041 -27.9577 24.6469
  193 246.120 -27.7638 -24.5667
  194 262.626 3.31329 23.1184
  195 119.483 -2.86278 -44.7631
  196 119.786 -3.12456 44.4800
  197 458.695 68.8622 9.85874
  198 277.373 -16.4995 12.0712
  199 287.848 -5.22324 -10.5910
  200 227.275 -5.61008 -2.64044
  201 227.277 -5.57969 2.63099
  202 275.819 -3.57276 -20.9379
  203 314.352 46.1966 -24.9131
  204 262.189 23.5229 -3.58065
  205 169.885 -6.11874 16.8337
  206 169.620 -6.13958 -16.9654
  207 292.371 -3.16380 5.85074
  208 284.029 5.34235 30.8966
  209 230.566 -16.9012 -10.7174
  210 228.962 -16.0054 11.0018
  211 335.411 49.7400 23.0826
  212 395.685 53.5198 7.55958
  213 26.2500 20.7155 -16.6187
  214 24.2588 19.1506 14.0967
  215 162.224 46.2522 107.420
  216 274.568 -18.2315 -9.39136
  217 293.472 -3.04031 -5.28833
  218 259.575 2.24622 -21.2838
  219 181.125 -1.86532 -5.27629
  220 181.181 -1.84401 5.22729
  221 246.712 -11.6182 -1.94074
  222 246.825 -11.6869 1.79907
  223 278.281 -3.73478 17.8414
  224 321.489 -18.6471 6.30117
  225 318.235 65.2582 -7.26111
  226 249.569 -24.1711 -11.3596
  227 316.362 -5.49084 20.2050
  228 269.226 -4.45336 1.12638
  229 269.232 -4.41509 -1.12459
  230 247.694 -24.0546 11.8368
  231 284.158 -17.9932 17.8827
  232 401.310 50.9740 -23.9183
  233 88.0485 52.4392 -77.4445
  234 239.287 8.33302 4.56857
  235 284.899 25.1314 26.0023
  236 304.174 -2.11009 -27.7787
  237 283.959 -10.1934 -25.5105
  238 150.020 -4.90534 -21.1316
  239 150.552 -4.83002 21.0586
  240 284.480 -3.39331 -13.8482
  241 271.158 -6.80791 3.52152
  242 271.031 -6.79689 -3.41043
  243 56.1534 5.29222 -28.3639
  244 57.0870 4.64106 28.2726
  245 302.723 -26.4567 -22.6106
  246 299.616 -0.986633 0.832940
  247 299.952 -1.00637 -0.897071
  248 278.111 23.0448 -23.7789
  249 244.183 4.63399 13.8880
  250 515.700 82.6152 55.3500
  251 511.588 58.2480 -34.7315
  252 368.736 79.7881 -0.695498
  253 230.055 -11.0343 67.7959
  254 210.990 -7.10613 -70.9460
  255 241.661 -4.96315 -0.858149
  256 241.637 -4.92954 0.851098
  257 199.902 -5.44499 7.22092
  258 199.905 -5.52149 -7.28886
  259 291.878 -3.08587 8.60880
  260 283.027 -20.1265 -14.8218
  261 181.939 -0.374289 -1.22347
  262 181.977 -0.368080 1.21520
  263 279.458 -11.2658 -11.7588
  264 117.305 -3.86899 -29.2689
  265 117.830 -3.88175 29.0504
  266 282.851 -12.2273 20.5194
  267 215.584 -22.8819 40.8738
  268 216.151 -23.2926 -40.7503
  269 242.887 9.23231 -6.46356
  270 209.564 -3.27374 -2.39452
  271 209.580 -3.25053 2.38443
  272 264.589 -0.678479 17.0931
  273 316.713 58.1175 17.3091
  274 168.367 -2.11230 8.98680
  275 168.236 -2.13048 -9.06727
  276 290.787 -24.2431 10.6366
  277 269.189 -30.1625 -27.0412
  278 300.658 -1.37619 2.73818
  279 207.567 -12.4235 -15.4674
  280 207.194 -12.2821 15.4047
  281 371.536 37.8831 95.2312
  282 173.724 -13.9973 48.8875
  283 280.656 39.4524 -1.54385
  284 356.392 39.1942 -15.5757
  285 268.194 -20.7546 4.00496
  286 269.364 -30.9929 24.3027
  287 174.272 -13.7638 -49.4567
  288 32.0490 39.4912 35.6494
  289 279.506 -11.3082 11.9723
  290 367.232 47.8023 12.4204
  291 303.112 -1.22729 -2.37379
  292 273.396 9.54175 -27.3678
  293 270.272 -15.2719 6.65652
  294 264.577 -22.3553 0.140527
  295 272.352 12.4836 26.3531
  296 289.373 -24.2558 -9.56257
  297 410.425 80.0425 -6.74561
  298 270.198 -14.6767 -6.37288
  299 224.146 63.8348 -131.845
  300 276.444 -29.2886 -4.72366
  301 274.469 -30.0844 7.88882
  302 200.936 -18.2591 -32.1462
  303 180.303 -0.724413 -2.67161
  304 180.351 -0.711866 2.64892
  305 201.015 -18.2714 31.9652
  306 292.216 -0.479615 -31.1542
  307 315.981 -13.0732 -13.6677
  308 239.868 -14.5220 -5.49983
  309 239.702 -14.5548 5.60534
  310 287.896 -24.7766 43.5902
  311 286.862 -2.26598 10.4871
  312 349.580 1.41531 14.6278
  313 234.857 -8.34113 -2.98780
  314 234.870 -8.31105 2.96887
  315 213.508 -5.63201 -4.70038
  316 213.507 -5.57773 4.69216
  317 241.598 3.20743 -13.4349
  318 311.671 22.8376 -30.0294
  319 483.568 130.159 -61.3420
  320 284.247 -2.41574 -0.974911
  321 284.077 -2.38250 0.999257
  322 151.500 -0.185967 60.9985
  323 212.492 -9.74128 -10.1579
  324 212.077 -9.70524 10.1828
  325 151.474 -0.532748 -60.7665
  326 296.764 35.0504 -25.4059
  327 332.913 16.4300 22.8500
  328 287.939 -20.5517 -48.4807
  329 264.149 -10.1767 3.03579
  330 263.875 -10.0994 -2.91785
  331 282.221 -5.78129 -5.76956
  332 264.787 -0.513235 -15.9894
  333 297.698 1.30288 30.5632
  334 297.408 -2.03066 -5.94878
  335 177.646 -10.8878 24.5436
  336 177.451 -10.9505 -24.7404
  337 276.576 -0.632983 28.5179
  338 169.291 -1.42720 -5.31696
  339 169.401 -1.41364 5.26591
  340 284.273 -6.47400 8.90239
  341 340.812 69.7226 -12.9876
  342 282.069 -5.82759 5.98024
  343 300.139 37.7337 25.5164
  344 287.354 -5.32573 29.6845
  345 226.967 -4.28327 0.944260
  346 226.971 -4.31101 -0.951396
  347 271.621 -0.981046 -25.2947
  348 360.352 75.8385 8.61201
  349 298.984 54.9278 0.533884
  350 183.304 21.3539 -90.8889
  351 18.3388 8.26288 -12.1570
  352 20.1786 8.93558 13.1107
  353 -1.06686 2.03063 5.64641
  354 0.0815030 1.09245 -5.88408
  355 528.832 36.6703 12.6675
  356 247.790 -20.1847 -6.49083
  357 284.508 -6.25165 -8.68833
  358 256.369 -4.48014 0.435640
  359 256.339 -4.44263 -0.436995
  360 273.938 30.2592 -12.8721
  361 233.927 -23.9092 20.2648
  362 20.2162 29.9886 -21.9066
  363 234.162 -23.9065 -20.6478
  364 277.576 31.5757 13.6987
  365 283.694 -7.52619 -15.4270
  366 301.149 -16.7729 -18.8001
  367 320.381 67.8412 5.01436
  368 301.880 -18.8133 15.6519
  369 123.509 -3.12619 19.6203
  370 122.749 -3.06620 -19.7527
  371 69.5468 1.74969 -27.1259
  372 70.3134 1.46395 27.0023
  373 245.507 0.765744 13.5988
  374 469.625 136.605 52.2198
  375 293.511 -1.83286 -7.51902
  376 227.818 -19.3428 -15.4783
  377 227.618 -19.2893 15.4564
  378 281.902 -6.47702 -19.4613
  379 321.749 -15.5536 3.10945
  380 247.780 -20.1646 6.70105
  381 353.643 2.30752 -27.9934
  382 198.227 -1.64470 -0.904219
  383 198.254 -1.63018 0.896995
  384 277.069 -1.60212 -12.3857
  385 148.095 -2.18336 -12.8155
  386 148.193 -2.25227 12.6553
  387 331.532 42.3206 -25.5816
  388 178.893 12.6727 84.3645
  389 259.288 -13.6250 1.64092
  390 259.545 -13.5996 -1.65419
  391 304.555 51.6148 -16.1887
  392 288.524 -8.53504 -28.1779
  393 289.727 -29.5789 23.5007
  394 240.810 -6.41630 -1.32304
  395 240.780 -6.38335 1.30791
  396 278.487 -21.4789 10.1047
  397 300.325 -1.40114 4.43040
  398 185.984 -6.88116 -14.9455
  399 186.057 -6.87980 14.8129
  400 282.501 9.47325 -30.4616
  401 266.903 -5.75276 1.70959
  402 266.892 -5.76553 -1.67270
  403 275.865 -3.24392 23.2853
  404 256.633 18.6578 6.15902
  405 286.253 -12.0644 24.6576
  406 414.461 86.9047 15.1028
  407 137.421 -7.41131 -39.2316
  408 137.811 -7.41426 38.9245
  409 61.2203 32.9866 -46.4526
  410 307.510 -0.862226 1.24806
  411 154.381 -1.34726 -8.10453
  412 154.592 -1.31869 8.03219
  413 282.144 -7.33697 19.0781
  414 255.896 -27.8043 13.1108
  415 289.431 -3.53531 4.09024
  416 294.407 14.9579 31.8139
  417 64.2444 35.1231 48.4897
  418 256.289 -27.6519 -12.0197
  419 264.873 -24.6415 -1.93753
  420 85.3904 -1.71741 -24.6260
  421 86.0588 -1.78360 24.4515
  422 203.203 -16.2004 -58.9659
  423 304.252 -4.52225 27.1258
  424 202.404 -16.4521 58.4370
  425 280.966 -15.7593 -16.1055
  426 260.319 17.5185 -13.5136
  427 281.021 -12.1133 15.2682
  428 302.964 -1.31328 -3.01196
  429 9.02307 9.49302 3.96479
  430 60.9254 69.9059 68.8632
  431 269.998 -0.995848 11.9250
  432 225.709 3.04790 5.87563
  433 229.720 3.72642 -7.97756
  434 195.999 -3.30487 -5.09327
  435 196.017 -3.26190 5.05797
  436 277.045 -21.4674 -9.29155
  437 279.710 -5.46860 -26.0915
  438 226.957 4.20264 -2.16736
  439 414.440 98.6351 19.6107
  440 56.6354 18.9848 -34.7678
  441 62.5000 17.4269 37.1912
  442 259.050 -9.22774 1.46577
  443 258.949 -9.20352 -1.39494
  444 345.491 76.5813 -1.04628
  445 216.917 88.2015 134.772
  446 333.071 -4.74401 -5.52271
  447 190.201 -10.0125 -20.2789
  448 190.288 -9.94189 20.1007
  449 191.232 -4.34332 7.97320
  450 191.199 -4.37624 -8.04880
  451 258.820 5.70719 -21.9028
  452 309.134 -0.410192 -0.834295
  453 251.433 11.4862 12.2843
  454 318.832 39.3818 27.5711
  455 265.341 -19.7112 -2.98166
  456 289.326 -3.36033 -3.97174
  457 304.237 -1.18559 2.77494
  458 308.257 -0.436583 0.477395
  459 308.518 -0.496579 -0.354519
  460 168.043 -0.318397 1.96026
  461 167.959 -0.323053 -1.98173
  462 290.437 -18.4325 19.4604
  463 261.332 10.2748 21.2094
  464 273.477 1.09826 -27.8012
  465 286.084 -5.98977 11.4998
  466 414.619 68.5738 -79.7041
  467 286.683 -15.8908 -21.6603
  468 2.50166 5.38703 2.05245
  469 2.48842 5.46369 -0.634490
  470 226.591 -12.9133 8.64113
  471 225.821 -12.7436 -8.54115
  472 357.577 6.24841 42.5921
  473 99.6330 89.9871 -101.871
  474 282.758 -0.846824 9.29752
  475 321.368 -18.7579 -23.9829
  476 170.018 -9.86397 28.4420
  477 343.800 61.0041 -18.6540
  478 282.550 -15.2768 18.1923
  479 236.789 -11.3719 -4.15643
  480 236.999 -11.1813 4.14292
  481 245.445 1.29466 -12.0119
  482 169.481 -9.82685 -28.6254
  483 251.813 0.0919860 12.0868
  484 241.972 -27.6606 -36.4091
  485 241.359 -27.7028 36.5310
  486 291.790 -1.91166 8.29495
  487 264.348 24.9052 2.54668
  488 269.719 4.47515 91.9475
  489 396.255 80.8685 -0.508122
  490 273.480 -4.56039 1.92737
  491 273.497 -4.54338 -1.98953
  492 209.438 -3.76907 -3.19629
  493 209.451 -3.73684 3.18331
  494 110.388 5.18173 51.1516
  495 283.783 -13.6519 -21.1687
  496 257.196 -5.57529 0.366128
  497 257.170 -5.55449 -0.360022
  498 223.820 -23.7401 29.8071
  499 112.544 6.83244 -52.4608
  500 284.276 -23.1526 -10.6219
  501 4.79414 0.820733 2.42169
  502 247.563 12.7367 0.891487
  503 274.511 -3.12036 -0.640266
  504 274.502 -3.16480 0.627038
  505 223.967 -23.7016 -30.0429
  506 321.716 -16.6356 30.8729
  507 318.395 11.5622 28.1290
  508 294.085 -1.93773 -1.98754
  509 283.405 -23.4813 10.7634
  510 176.176 -0.185645 -0.344499
  511 176.214 -0.183988 0.341368
  512 282.876 -10.8481 -22.5244
  513 273.558 20.2364 23.2352
  514 314.463 7.76406 -27.7736
  515 175.114 -0.294729 -1.10090
  516 175.158 -0.290727 1.09291
  517 551.232 79.6043 -71.3491
  518 284.775 33.9414 20.4905
  519 294.350 -1.77803 1.77252
  520 265.468 -25.1824 2.57564
  521 222.612 -7.42152 4.73422
  522 222.612 -7.47967 -4.72462
  523 309.377 -18.8242 8.96605
  524 297.043 -5.91816 -28.5295
  525 331.980 65.5310 15.5366
  526 275.878 4.73679 28.8211
  527 278.681 -5.30760 3.69991
  528 270.898 -28.8762 -34.9538
  529 280.657 -6.93117 22.1491
  530 545.039 24.9643 -10.0027
  531 307.137 -23.1434 -1.18187
  532 292.256 -1.87329 -0.484212
  533 292.325 -1.99808 0.430495
  534 550.691 36.9611 35.1079
  535 268.908 -0.100726 24.5116
  536 377.927 63.2568 -7.30881
  537 283.562 -7.67408 -11.2028
  538 126.828 -1.21516 -8.76894
  539 127.235 -1.15693 8.67749
  540 191.422 -17.9465 -40.9623
  541 191.568 -17.6449 40.6523
  542 278.529 -5.08395 -3.66367
  543 302.997 11.1248 -31.1341
  544 266.137 -18.1184 3.99708
  545 286.052 32.8153 -21.2748
  546 288.615 -3.32024 11.1668
  547 362.460 17.9163 -3.21871
  548 246.535 -8.46590 -1.05307
  549 246.457 -8.43426 1.03755
  550 268.045 -12.6415 5.00907
  551 396.060 78.1766 -4.88273
  552 282.172 12.3430 29.9419
  553 120.431 31.0288 75.7127
  554 273.243 -16.4119 61.2759
  555 361.826 17.0486 -67.4088
  556 288.512 23.8588 -27.8880
  557 256.330 -22.1220 -53.0877
  558 277.550 -30.4000 -10.0431
  559 290.020 -29.3356 -14.9488
  560 37.7432 48.6460 -46.1374
  561 291.478 -3.63653 -6.93209
  562 439.024 85.4652 -24.5925
  563 269.492 -12.1185 -5.54819
  564 271.768 -8.81204 4.57353
  565 271.514 -8.60804 -4.39546
  566 186.373 -1.11354 -2.41971
  567 186.411 -1.09909 2.40255
  568 25.9645 2.79675 -14.8517
  569 27.4626 2.93001 15.2005
  570 138.673 -6.49975 -29.9503
  571 139.749 -6.53429 29.8982
  572 275.483 -14.9083 -10.2783
  573 280.828 -30.5231 10.9013
  574 288.683 -27.3815 2.40148
  575 236.120 -4.18364 -0.839637
  576 236.105 -4.15254 0.835002
  577 224.235 -23.4936 -45.4555
  578 251.362 -20.5836 56.2016
  579 218.750 -22.0880 45.7221
  580 283.282 -6.28097 -28.0580
  581 176.568 -3.00189 9.00709
  582 176.482 -3.03369 -9.08509
  583 269.750 14.8805 -23.3276
  584 270.202 -0.472125 -10.8233
  585 337.883 73.5569 -7.04348
  586 220.147 -3.36903 -0.845477
  587 220.152 -3.34581 0.841189
  588 288.447 -0.844491 -6.12331
  589 198.383 -6.79756 -9.92783
  590 198.384 -6.77243 9.83828
  591 162.398 7.59660 72.5438
  592 280.739 -12.8903 -15.4404
  593 156.135 -8.21041 52.0891
  594 275.878 -14.2759 10.4875
  595 290.653 -4.05094 7.64532
  596 287.091 -2.56251 -1.76769
  597 200.607 -2.53788 -2.23474
  598 200.630 -2.51655 2.22222
  599 324.027 64.8475 -13.9573
  600 156.026 -7.89255 -52.2917
  601 274.966 -11.8758 -8.42262
  602 247.720 -4.59296 -0.387866
  603 247.694 -4.55785 0.386187
  604 467.116 62.9716 -11.0797
  605 163.294 -1.08085 4.98095
  606 163.151 -1.09152 -5.02932
  607 255.666 5.82392 19.9739
  608 367.286 30.4664 -5.30076
  609 173.120 1.29236 -72.0226
  610 88.0288 2.30983 -39.1406
  611 88.7753 1.79598 38.9321
  612 216.949 -12.7681 12.2480
  613 219.250 -13.1441 -11.8817
  614 370.887 74.6708 7.46588
  615 285.891 -2.65852 1.60590
  616 244.334 6.81721 -12.0532
  617 305.306 54.9842 12.8027
  618 304.179 57.0647 -8.51215
  619 249.992 -13.8970 -1.75812
  620 251.919 -13.5787 0.859338
  621 179.493 39.0097 -103.681
  622 214.396 -7.42246 -6.77311
  623 214.411 -7.33604 6.74778
  624 547.948 112.100 84.3613
  625 282.977 -9.25192 24.2780
  626 160.676 -5.77020 -19.1914
  627 441.502 101.143 66.9156
  628 161.054 -5.73693 19.1148
  629 271.071 -10.3864 -71.6578
  630 189.839 -0.979350 -0.892811
  631 189.872 -0.970797 0.887971
  632 235.389 2.07936 10.5109
  633 106.314 -1.61299 -17.2400
  634 106.926 -1.61693 17.1007
  635 246.752 -17.5308 4.91542
  636 258.925 -20.7788 -1.04366
  637 305.909 -0.638592 -2.52639
  638 170.829 -0.293670 1.44039
  639 170.765 -0.298796 -1.45621
  640 232.537 -5.27273 -1.23969
  641 232.527 -5.24177 1.22929
  642 267.572 -29.6558 35.3437
  643 307.148 34.3161 -28.1837
  644 203.679 -9.61333 -12.8055
  645 203.527 -9.44980 12.7097
  646 242.142 -17.5037 -7.01179
  647 382.244 83.3719 1.86203
  648 286.958 -27.7404 -0.804360
  649 248.680 -5.95116 -0.459812
  650 248.642 -5.92024 0.460613
  651 342.862 37.4443 21.7358
  652 287.420 -4.10549 -12.1395
  653 253.301 -0.328944 -9.84775
  654 116.731 -3.98075 -37.6246
  655 117.101 -4.09576 37.3100
  656 241.539 -20.9246 -11.4638
  657 362.758 80.2022 0.201369
  658 280.755 38.0475 -9.22895
  659 185.454 -1.74366 -4.47204
  660 185.496 -1.71918 4.43436
  661 262.270 -7.38928 -1.45413
  662 262.322 -7.39904 1.51192
  663 490.722 64.1417 28.2137
  664 310.820 -0.806950 0.692763
  665 299.932 -1.15422 4.32751
  666 298.717 -1.18169 -5.05701
  667 283.395 -26.3621 4.92352
  668 207.617 -2.46706 -1.11709
  669 207.635 -2.44886 1.11171
  670 302.365 48.5518 19.6896
  671 388.789 86.5182 -4.54018
  672 211.911 -15.8730 -18.1461
  673 211.843 -15.7142 18.0507
  674 265.788 -27.4067 -5.11542
  675 280.025 16.6367 -28.1720
  676 333.449 0.823406 12.6561
  677 220.276 -4.14789 -2.19026
  678 220.281 -4.12009 2.18049
  679 190.549 -16.7671 -36.9893
  680 280.695 -27.1325 -2.30907
  681 232.994 -25.8510 32.8304
  682 111.143 35.1999 -73.0309
  683 217.309 -20.2187 25.3180
  684 262.048 0.0691629 9.10979
  685 190.721 -16.5752 36.7347
  686 274.804 -12.1094 8.52654
  687 217.389 -20.1360 -25.5562
  688 221.852 2.85055 2.20289
  689 171.481 -4.69480 13.6242
  690 171.326 -4.70082 -13.7240
  691 233.135 -26.5223 -33.2000
  692 288.487 -18.9801 -18.8196
  693 264.457 -3.66035 -0.373572
  694 264.499 -3.69984 0.375259
  695 294.906 -18.7526 18.6814
  696 267.861 -28.0015 6.17099
  697 325.670 29.8629 27.4339
  698 293.643 -5.47848 29.3519
  699 282.552 -10.1068 17.9464
  700 269.389 22.1288 -17.6946
  701 324.665 54.6778 21.6829
  702 280.152 -3.86077 -17.3351
  703 279.413 -9.22047 9.33741
  704 288.347 45.2140 4.99131
  705 284.178 -4.79014 15.1350
  706 89.1880 60.5641 76.5089
  707 264.567 -30.4182 -20.2074
  708 306.349 5.58589 29.8802
  709 309.459 -9.55923 -21.4429
  710 309.271 -0.378121 1.40846
  711 282.408 -9.66250 -14.1759
  712 264.938 -30.6588 18.3168
  713 515.084 45.5994 -7.64621
  714 156.556 -0.694668 5.21515
  715 156.365 -0.702411 -5.26620
  716 286.617 -5.14941 -6.66562
  717 311.145 -0.285038 -1.36971
  718 241.084 -21.2613 11.5258
  719 289.897 -10.7605 26.6893
  720 441.990 104.840 -31.3820
  721 274.770 -19.9120 8.78047
  722 304.932 -20.0503 -11.2983
  723 279.520 -8.97013 -9.18933
  724 311.087 -0.503752 -0.455914
  725 282.765 -0.0179851 30.4368
  726 12.9155 11.3986 16.0247
  727 320.095 -12.4219 -46.2981
  728 348.009 20.5114 13.9231
  729 289.686 -29.5706 13.2680
  730 205.469 -5.01393 5.55617
  731 205.472 -5.08491 -5.58482
  732 271.489 135.584 -141.585
  733 295.045 -19.4855 -17.3018
  734 220.968 1.11241 -4.21042
  735 258.442 1.40782 19.4952
  736 284.469 -14.2067 21.5250
  737 272.670 -22.9784 4.60317
  738 283.901 -25.8470 -37.9745
  739 270.970 -21.4420 -5.08769
  740 320.654 -15.3624 -4.20319
  741 295.242 -2.35116 3.90611
  742 263.054 -15.8184 2.78490
  743 479.549 95.8968 -50.9141
  744 280.804 -7.46009 7.42767
  745 277.380 4.52799 -29.6027
  746 237.305 -2.69176 80.6508
  747 297.347 23.9619 30.2813
  748 255.744 -20.1800 2.38832
  749 196.977 -15.6160 -26.9979
  750 196.991 -15.5709 26.7718
  751 271.487 30.5240 -4.12642
  752 276.502 -3.19217 26.4600
  753 279.626 -6.63983 -22.6160
  754 263.356 -16.1396 -2.87276
  755 254.564 -22.8648 6.22245
  756 290.587 48.0264 -5.64870
  757 272.331 -23.5693 -3.52782
  758 272.992 -17.2699 8.52158
  759 276.779 -3.48661 1.34542
  760 276.954 -3.38965 -1.33713
  761 372.402 81.9583 2.21688
  762 304.780 -25.8954 -8.52849
  763 283.274 -8.63087 14.1080
  764 295.372 -2.34193 -3.56192
  765 298.032 1.99350 -30.8533
  766 339.792 17.7767 -18.4970
  767 164.977 -0.175281 -2.42771
  768 165.085 -0.172835 2.40228
  769 2.33880 -5.29848 -3.76315
  770 289.156 -0.321047 5.67314
  771 264.494 -0.454673 -21.5847
  772 273.448 -2.55777 19.0687
  773 250.482 30.6609 118.573
  774 311.319 64.1769 -0.685204
  775 221.059 -15.9299 14.0804
  776 37.9180 0.884053 -14.7154
  777 39.0598 0.653459 14.8743
  778 270.956 -1.93390 -21.4943
  779 221.673 -16.0911 -14.0752
  780 293.620 -2.57899 2.98405
  781 148.891 -6.42361 25.5685
  782 147.597 -6.40192 -25.5851
  783 280.791 -7.24083 -7.23613
  784 178.173 -4.58102 -11.8492
  785 178.262 -4.55011 11.7403
  786 292.527 -2.70985 -8.41320
  787 222.515 -6.00762 -3.77912
  788 222.520 -5.96712 3.78018
  789 319.501 -2.03407 -21.5152
  790 287.104 -2.99684 -30.5759
  791 144.729 -0.949927 -6.65990
  792 145.017 -0.941112 6.58058
  793 6.69520 3.65529 -8.84996
  794 8.00435 3.85479 9.31641
  795 231.678 1.09707 -7.63815
  796 262.321 -29.4781 -14.9478
  797 -3.04082 -2.11146 5.22579
  798 -2.65860 -2.47776 -5.18257
  799 273.097 -5.42034 2.86558
  800 296.292 -23.0902 -10.0629
  801 305.498 45.3282 -22.9924
  802 294.910 -2.31394 -2.83388
  803 633.708 127.191 -119.041
  804 273.040 -5.40170 -2.82887
  805 411.519 78.6448 6.19981
  806 292.027 8.50573 -31.8674
  807 322.916 24.3456 -28.0575
  808 53.1492 -0.628366 -13.6245
  809 54.1668 -0.709035 13.5990
  810 181.077 -2.67219 7.00149
  811 181.014 -2.69492 -7.06639
  812 172.536 -0.428958 1.30642
  813 172.486 -0.433394 -1.31744
  814 326.329 54.9947 -21.5153
  815 191.814 -1.24087 -1.91914
  816 191.846 -1.22646 1.90774
  817 277.362 -2.79256 -27.6127
  818 402.191 40.4998 33.5122
  819 249.034 5.51807 -16.7897
  820 85.3496 -0.777147 14.6311
  821 84.6015 -0.784242 -14.7492
  822 324.054 8.47251 84.8793
  823 286.315 -5.19224 6.87985
  824 255.048 16.8835 -6.99645
  825 116.963 -0.200166 9.99325
  826 116.346 -0.145145 -10.0693
  827 176.373 -0.935569 -3.42356
  828 176.436 -0.922120 3.39052
  829 31.4847 28.1003 23.9919
  830 266.215 6.32046 24.9918
  831 296.527 43.6264 -19.6744
  832 319.445 37.0883 -27.8311
  833 209.111 -7.99653 -8.92732
  834 208.985 -7.93478 8.91318
  835 330.696 70.5625 9.80795
  836 285.889 -2.30122 -0.381846
  837 285.904 -2.28370 0.430631
  838 282.583 -8.43563 -18.0788
  839 236.321 -15.8235 8.04608
  840 260.693 -29.3016 15.0361
  841 306.903 -25.1489 23.4835
  842 234.141 -6.83308 -2.14773
  843 234.137 -6.80588 2.13182
  844 267.758 24.7984 11.3567
  845 251.385 3.39811 -18.1419
  846 69.9160 81.6540 79.6420
  847 255.370 -22.6802 -5.59050
  848 256.188 -11.4573 0.818179
  849 256.326 -11.4784 -0.831485
  850 281.855 -4.13921 29.0548
  851 279.694 -18.3585 -13.5523
  852 249.516 -16.5726 -2.97873
  853 572.861 18.5547 -28.4847
  854 237.128 -22.5091 15.9484
  855 236.944 -22.8044 -16.2127
  856 281.621 -3.34693 14.7523
  857 424.967 109.547 -23.6888
  858 222.355 -20.2951 -20.0667
  859 245.965 -27.7352 18.9433
  860 222.288 -20.0480 19.8849
  861 241.162 -9.74801 -2.42841
  862 241.153 -9.71330 2.40923
  863 35.3263 15.1705 20.8769
  864 302.724 22.6282 -30.6903
  865 231.291 -9.08525 -4.04783
  866 231.332 -8.99183 4.06298
  867 228.340 -3.80636 -0.486604
  868 228.334 -3.77919 0.483121
  869 251.532 -4.98210 0.0379601
  870 251.500 -4.94807 -0.0394506
  871 203.770 -4.06183 -4.81441
  872 203.784 -4.01555 4.79295
  873 232.204 -12.2945 -6.17936
  874 232.232 -12.2080 6.20596
  875 5.52717 -2.36594 -2.45053
  876 351.008 65.8506 16.2422
  877 301.922 -10.5632 -24.7045
  878 245.771 -27.3347 -19.1512
  879 265.598 -8.52822 2.71853
  880 265.479 -8.43810 -2.64288
  881 289.560 0.375831 31.2328
  882 315.415 -22.5084 -12.6664
  883 279.366 19.5580 -102.780
  884 126.186 -1.99128 50.6171
  885 -5.01098 2.94429 -3.34809
  886 -4.37809 3.32125 3.72336
  887 35.0788 16.1353 -21.3079
  888 283.194 -8.08899 11.1425
  889 298.260 -1.89430 -4.70405
  890 268.098 -25.7554 43.7392
  891 125.882 -1.85308 -50.8235
  892 298.777 -24.4186 7.19803
  893 333.202 -9.98077 37.8079
  894 240.283 0.960294 8.10004
  895 276.100 26.2607 19.3598
  896 148.924 -8.42486 37.2882
  897 148.340 -8.49329 -37.5421
  898 178.724 -8.60091 -20.8925
  899 188.319 -9.15993 -64.6195
  900 298.721 -6.96133 27.6816
  901 411.109 96.2900 13.9924
  902 299.806 11.5453 31.2966
  903 283.406 -6.01164 -16.4788
  904 192.316 -8.20738 66.2307
  905 361.654 66.5920 -12.1378
  906 35.4979 30.3008 -29.6227
  907 261.314 -0.535077 -8.68971
  908 178.911 -8.52893 20.7013
  909 218.527 -4.87067 3.34045
  910 218.522 -4.90520 -3.34858
  911 280.106 -18.2612 13.9861
  912 291.195 -1.77660 1.15154
  913 213.917 2.00636 -80.3917
  914 307.175 -0.650131 2.22870
  915 304.797 -0.530683 -2.83686
  916 226.308 1.93993 -7.01898
  917 294.302 -1.18543 -5.03356
  918 219.311 -10.3505 -8.19120
  919 219.458 -10.1932 8.21536
  920 -7.32216 2.65265 -4.22816
  921 -10.0505 1.59937 4.45504
  922 291.190 -1.64542 -1.16547
  923 95.4434 -2.14492 34.1426
  924 94.8543 -1.93608 -34.3416
  925 310.575 45.3620 24.2959
  926 559.339 10.0914 8.83441
  927 292.181 32.5236 25.4503
  928 331.905 -11.7598 10.1700
  929 287.962 -16.0020 21.7152
  930 358.683 75.2303 -9.23414
  931 221.361 0.910381 5.28927
  932 277.127 -6.45732 -4.53202
  933 287.612 15.4647 -30.7878
  934 348.450 10.1633 -6.49465
  935 270.005 -16.6688 -6.74712
  936 136.696 -0.784146 -7.46142
  937 136.844 -0.756490 7.35393
  938 285.027 -6.64482 -12.9567
  939 9.32097 11.8894 2.24260
  940 273.577 -28.3568 -2.36690
  941 236.003 6.92253 -0.724416
  942 356.132 78.4239 -6.13507
  943 55.9060 41.6256 -49.3884
  944 273.469 -2.03375 -17.0874
  945 188.725 -3.22011 -6.52926
  946 188.759 -3.18166 6.47180
  947 1.58579 -7.86123 6.00561
  948 185.294 -13.8798 -29.9852
  949 278.647 -16.0811 -13.1416
  950 171.877 0.368071 -0.539061
  951 171.917 0.369927 0.535187
  952 280.957 34.1088 -15.5186
  953 302.372 -0.833638 -0.451184
  954 302.377 -0.846492 0.589458
  955 185.373 -13.8401 29.7763
  956 281.862 -0.370057 -6.76483
  957 324.810 2.33289 20.7766
  958 288.077 -3.99704 5.32946
  959 45.4325 11.6765 -26.4732
  960 298.885 -1.75488 4.26734
  961 270.354 2.15753 26.7761
  962 285.146 39.5357 13.8067
  963 285.536 3.31040 -31.5087
  964 196.075 -10.6144 -17.8899
  965 308.591 -10.9038 20.7103
  966 196.201 -10.5716 17.7042
  967 8.86639 9.72689 -0.652490
  968 33.2107 5.82040 19.3891
  969 159.506 -2.87626 12.3271
  970 159.308 -2.87950 -12.4001
  971 277.321 -6.58364 4.76884
  972 297.720 51.8726 7.65712
  973 151.383 13.9534 -76.0454
  974 249.035 -15.5927 2.56604
  975 233.734 -24.4890 -24.1436
  976 341.171 65.4495 16.7911
  977 262.320 -4.58956 0.464658
  978 262.310 -4.56325 -0.466199
  979 287.677 -5.26068 -9.33204
  980 265.223 22.8707 -10.4782
  981 605.466 178.773 120.659
  982 54.6655 3.14598 -25.6201
  983 55.5494 2.61631 25.6800
  984 4.06271 -5.53468 1.19610
  985 266.082 14.7132 21.5072
  986 233.660 -24.6357 23.9609
  987 289.945 -13.6722 -24.6595
  988 315.517 25.7982 30.3347
  989 303.698 -24.5218 -29.0001
  990 443.891 93.4748 30.6389
  991 257.454 -4.12908 -0.0897189
  992 257.420 -4.09349 0.0900472
  993 301.662 -12.2684 23.4467
  994 20.7233 33.6417 35.5289
  995 134.548 -2.87304 17.6722
  996 134.117 -2.83641 -17.8674
  997 161.087 -7.96970 24.1347
  998 160.525 -7.84979 -24.2300
  999 181.606 -7.58034 17.3037
  1000 198.529 -1.62439 -0.873507
  1001 198.556 -1.61204 0.869735
  1002 500.390 158.261 -100.554
  1003 452.103 113.238 46.0524
  1004 181.458 -7.62042 -17.4544
  1005 310.747 -1.41298 25.8484
  1006 277.426 28.7889 -18.6494
  1007 195.990 -16.8208 53.5581
  1008 252.166 -29.7832 -28.6283
  1009 288.281 -2.33714 -9.93291
  1010 129.495 9.00201 61.8376
  1011 166.221 -12.7123 42.8025
  1012 254.105 12.9825 -13.4593
  1013 291.436 -5.75305 -29.6742
  1014 374.039 150.166 161.838
  1015 239.757 7.29087 9.57242
  1016 327.382 70.7279 -1.17931
  1017 240.980 9.38806 -91.3949
  1018 244.614 -25.7968 -16.3072
  1019 311.444 -0.297177 -1.11957
  1020 298.013 27.3863 -29.4986
  1021 173.477 -1.15919 4.41253
  1022 173.396 -1.17104 -4.45582
  1023 6.30676 2.81622 -8.90077
  1024 196.182 -9.05792 -14.9042
  1025 166.022 -12.8772 -43.1333
  1026 196.027 -9.03612 14.7344
  1027 284.830 -8.64900 27.4397
  1028 255.438 -15.8156 -0.242943
  1029 268.036 4.90731 -25.9298
  1030 275.764 34.4594 5.44298
  1031 375.670 22.3482 12.6579
  1032 282.298 -21.4251 13.3676
  1033 177.764 -14.2871 -32.8117
  1034 265.699 9.37161 -24.2559
  1035 197.722 -16.5924 -53.8503
  1036 380.540 82.8064 -1.37498
  1037 258.087 16.9082 12.2442
  1038 327.356 -1.95788 -16.0672
  1039 246.140 -25.8046 14.9674
  1040 282.220 -8.91375 21.2469
  1041 280.455 -14.7775 15.3901
  1042 278.918 -13.9976 13.3612
  1043 344.723 43.7182 -22.3121
  1044 278.364 -4.47166 21.5126
  1045 251.739 -29.8668 28.1567
  1046 268.721 -10.9579 4.53636
  1047 177.875 -14.3128 32.6216
  1048 252.160 -18.6299 -3.16578
  1049 146.040 -7.07330 -45.7817
  1050 208.885 -21.7220 36.2680
  1051 283.609 -1.89789 -11.5154
  1052 276.062 -3.10840 -24.4245
  1053 239.044 -18.9831 -9.87242
  1054 146.293 -7.28200 45.4142
  1055 257.057 0.604283 -16.9459
  1056 191.024 -12.7765 -23.1957
  1057 347.300 74.0922 10.6434
  1058 76.8375 12.8737 -43.3385
  1059 597.367 42.2321 57.7300
  1060 138.734 10.4662 -64.7722
  1061 278.882 -23.0897 -8.35580
  1062 191.073 -12.6653 23.0003
  1063 254.260 2.65609 18.9359
  1064 141.868 -2.92145 14.6272
  1065 141.790 -2.99407 -14.7794
  1066 282.172 -7.83224 -25.4247
  1067 300.761 -1.44644 1.76493
  1068 294.529 -0.637446 5.09059
  1069 291.004 9.67233 31.7849
  1070 272.025 -2.04831 22.9289
  1071 211.305 22.4418 98.8846
  1072 313.486 -0.212568 0.547591
  1073 292.782 39.7222 20.2614
  1074 247.281 3.54434 16.3027
  1075 298.383 -1.10955 4.89594
  1076 190.498 -2.10248 -3.64075
  1077 190.530 -2.07829 3.61577
  1078 120.896 -3.46574 -24.3848
  1079 121.385 -3.59022 24.2123
  1080 248.066 12.3223 6.83779
  1081 377.040 19.8434 -26.6884
  1082 346.409 -0.659514 -51.6169
  1083 274.889 -0.235537 -7.00700
  1084 208.972 -21.8858 -36.5469
  1085 239.545 -18.0539 8.79330
  1086 276.514 -0.626004 7.31410
  1087 289.940 -21.0043 -15.7185
  1088 179.515 -0.440247 2.18098
  1089 179.472 -0.447866 -2.19526
  1090 278.348 -23.7511 8.35176
  1091 264.466 -5.36207 0.927756
  1092 264.422 -5.36685 -0.909803
  1093 257.278 -25.9462 9.28239
  1094 332.452 -10.7897 -2.85105
  1095 148.616 -0.273622 -4.14620
  1096 148.865 -0.264083 4.10080
  1097 225.927 -14.2198 -61.6955
  1098 239.902 -5.73606 1.12659
  1099 239.926 -5.76948 -1.13781
  1100 145.420 77.7068 108.630
  1101 333.491 27.2976 -25.0751
  1102 48.5562 23.8237 -32.5910
  1103 288.254 -4.22127 -5.15168
  1104 76.3482 26.3817 -49.6854
  1105 159.167 -10.0848 -31.1773
  1106 313.627 -0.305703 0.334447
  1107 313.757 -0.284459 -0.247800
  1108 283.272 -16.1421 -18.6272
  1109 250.874 -28.1225 -39.4849
  1110 76.8787 10.9585 41.2978
  1111 308.086 30.5173 28.7643
  1112 279.932 -2.74159 -0.467136
  1113 279.963 -2.74423 0.494281
  1114 306.272 -19.7907 47.8139
  1115 315.343 63.3111 11.1026
  1116 186.229 -4.56674 -9.36248
  1117 186.274 -4.54438 9.29273
  1118 141.875 16.3227 76.7424
  1119 267.389 1.33920 -25.1036
  1120 83.4477 27.0483 53.4606
  1121 345.134 -6.05033 -15.4550
  1122 337.980 74.9673 3.40172
  1123 232.071 -18.4518 12.1084
  1124 212.934 1.09457 -1.03081
  1125 295.491 -2.54215 6.29835
  1126 306.163 -0.354524 2.46013
  1127 65.6039 0.129146 -12.2542
  1128 66.5395 0.0962032 12.1687
  1129 239.398 3.94754 -12.0676
  1130 247.609 -7.28755 -0.704312
  1131 247.551 -7.25148 0.699493
  1132 25.8859 39.5296 -37.7753
  1133 41.3272 87.7320 -76.2099
  1134 250.826 -9.80881 0.424661
  1135 250.926 -9.81015 -0.437830
  1136 259.312 -6.21894 1.00216
  1137 259.275 -6.20456 -0.979204
  1138 67.5781 43.2397 53.7117
  1139 203.671 -2.57255 -1.73724
  1140 203.693 -2.55339 1.72832
  1141 256.689 19.3568 -0.287389
  1142 330.104 40.7145 -114.254
  1143 313.994 54.2325 -19.0180
  1144 286.633 -10.9795 -25.9818
  1145 282.383 -14.0500 -18.8662
  1146 232.222 -18.6264 -12.3146
  1147 232.733 0.738383 7.44978
  1148 262.610 16.3314 -17.9734
  1149 258.873 13.8779 17.1582
  1150 268.543 -10.6359 -4.45544
  1151 256.100 -15.4947 0.0551399
  1152 232.512 -15.1175 -9.04789
  1153 277.149 -1.61726 13.6327
  1154 492.596 49.7844 6.95958
  1155 279.095 -5.93457 24.8410
  1156 279.821 18.3704 27.0672
  1157 258.492 -25.4772 -6.83412
  1158 31.4008 5.35400 -18.6915
  1159 263.341 -12.1715 -3.25487
  1160 173.136 -0.294336 -0.103790
  1161 173.171 -0.293155 0.102497
  1162 321.509 -8.52558 13.8087
  1163 306.413 -25.7793 10.3706
  1164 440.623 79.0939 19.1174
  1165 103.371 -0.230402 -10.2352
  1166 104.015 -0.207691 10.1555
  1167 234.645 -4.77004 -0.964168
  1168 234.632 -4.73887 0.956310
  1169 264.198 -23.3327 -0.260723
  1170 214.883 0.943351 3.37238
  1171 270.616 -19.2664 6.46590
  1172 15.0152 17.8520 -8.38269
  1173 48.0763 24.1425 31.8815
  1174 180.630 -9.73738 59.6502
  1175 312.699 59.7243 -13.5709
  1176 299.500 -0.809794 -3.86462
  1177 314.984 -0.483320 0.232911
  1178 315.304 -0.667778 -0.151734
  1179 180.454 -0.465377 -0.352226
  1180 180.491 -0.461787 0.349328
  1181 288.155 18.4337 30.7656
  1182 427.915 73.3807 -1.55416
  1183 296.747 49.1645 -13.7407
  1184 222.158 -16.2608 61.2971
  1185 179.665 -9.34883 -59.5397
  1186 199.360 -13.4665 -20.7635
  1187 277.456 -7.69041 6.05364
  1188 387.814 85.2678 2.26797
  1189 199.372 -13.3836 20.5940
  1190 283.663 -4.87112 4.58328
  1191 251.948 9.30401 16.3647
  1192 278.382 8.60978 29.5249
  1193 397.926 88.9719 8.80339
  1194 235.109 -6.17008 1.80968
  1195 235.123 -6.20165 -1.82400
  1196 287.290 -5.32025 9.68781
  1197 168.562 -1.85623 6.92731
  1198 168.442 -1.87536 -6.99315
  1199 281.083 -3.73641 -2.09095
  1200 115.309 68.5041 -104.902
  1201 243.356 -13.6741 -65.6210
  1202 228.552 -7.22741 -3.46666
  1203 228.574 -7.19276 3.46759
  1204 302.057 -1.34807 1.58269
  1205 285.409 -3.64617 3.67013
  1206 15.3247 19.0162 13.8317
  1207 311.124 -0.320908 1.30320
  1208 36.5107 45.8859 45.5296
  1209 278.633 -4.07636 -2.67848
  1210 -0.387715 -6.88119 -6.01916
  1211 196.333 -19.1476 -46.1438
  1212 195.773 -18.6794 45.6735
  1213 311.118 -0.522786 -1.43618
  1214 265.035 -13.9768 -3.84886
  1215 301.819 -1.22146 -1.63295
  1216 240.399 -7.81121 -1.64479
  1217 240.371 -7.78022 1.62312
  1218 280.900 -3.70823 1.96902
  1219 263.150 -11.9350 3.22076
  1220 253.024 -8.13391 -0.242432
  1221 253.117 -8.15855 0.274521
  1222 301.581 -1.25965 -1.33677
  1223 259.800 -27.2974 -44.5736
  1224 294.911 -1.72610 -1.37799
  1225 279.847 -4.19410 2.86648
  1226 193.634 -2.19072 -2.68205
  1227 193.664 -2.16894 2.66501
  1228 216.912 -3.23847 -1.33844
  1229 216.921 -3.21515 1.33104
  1230 353.568 55.0403 18.8649
  1231 296.979 -22.7699 11.8846
  1232 203.309 -0.887141 75.8454
  1233 161.127 -0.294775 2.65794
  1234 160.990 -0.297846 -2.68581
  1235 280.933 -5.16028 18.7078
  1236 269.083 -4.00061 0.617422
  1237 269.097 -3.98615 -0.617021
  1238 307.599 60.0514 6.32680
  1239 282.544 -29.5453 35.0849
  1240 161.675 -2.34435 9.75140
  1241 161.512 -2.36264 -9.82657
  1242 268.636 -6.49992 2.36781
  1243 268.577 -6.54383 -2.30400
  1244 277.309 -7.59259 -5.84035
  1245 253.684 0.0425228 8.77762
  1246 441.763 109.722 -35.7921
  1247 282.333 -10.2848 -16.6601
  1248 47.5942 11.5209 27.2418
  1249 291.754 -15.5077 23.0535
  1250 232.741 5.02218 -6.59818
  1251 17.4116 13.0634 9.62412
  1252 385.785 42.4285 -2.18018
  1253 284.814 -12.9217 -23.2169
  1254 233.884 3.27094 10.1025
  1255 160.304 -10.1000 31.1151
  1256 289.538 -22.3747 14.0900
  1257 422.056 79.5680 23.7655
  1258 96.3998 14.4013 52.6516
  1259 291.112 -3.38331 -8.33471
  1260 564.028 6.26529 -5.71682
  1261 583.191 8.79743 25.5525
  1262 623.359 21.3822 -60.6035
  1263 281.879 -8.75957 -20.6366
  1264 281.983 -12.8291 17.6815
  1265 286.591 -20.3614 16.6341
  1266 -8.45231 0.930420 5.39273
  1267 -7.70518 0.731110 -5.85441
  1268 279.106 -30.8032 -15.9704
  1269 286.109 -28.8798 -24.2793
  1270 216.487 1.34838 -4.16795
  1271 277.991 -31.3684 24.2863
  1272 296.836 -14.0429 -23.4185
  1273 5.50879 8.70335 0.701179
  1274 240.599 -4.39600 0.730621
  1275 240.618 -4.42888 -0.732563
  1276 295.337 -2.28909 5.69977
  1277 283.653 -4.78174 -4.31425
  1278 266.848 -29.1409 -8.19364
  1279 243.261 -13.2259 3.59552
  1280 242.015 -13.0437 -3.96316
  1281 286.111 -5.98752 13.2107
  1282 293.157 -10.7373 -26.7864
  1283 18.0777 13.6211 -9.27770
</Section>

newXOutput 39

<Section columns = "stress_xx | stress_yy | stress_xy">
  1 325.201 -0.0357890 0.649405
  2 325.218 -0.0312295 -0.651549
  3 174.807 -0.0746420 -0.235297
  4 -2.22538 -2.20613 -3.19835
  5 590.968 230.505 186.989
  6 585.389 239.091 -187.290
  7 -2.58300 -2.10126 3.39640
  8 174.771 -0.0753278 0.234606
  9 327.548 -0.529382 0.202767
  10 326.827 -0.843672 -0.151369
  11 326.025 -0.548449 0.760153
  12 325.225 -0.768520 0.232673
  13 323.511 -0.641796 1.19857
  14 321.961 -0.651886 0.886710
  15 318.347 -0.577898 1.71491
  16 313.228 -0.381431 2.52212
  17 308.653 -0.416957 2.79814
  18 301.905 -0.603283 3.37257
  19 292.592 -0.0283894 4.97217
  20 283.988 -0.445547 4.71472
  21 274.248 -0.590892 6.62740
  22 260.173 0.420489 5.75477
  23 250.027 0.619867 6.79338
  24 236.797 1.05373 5.30673
  25 227.662 1.08298 5.34575
  26 214.424 1.53842 2.72271
  27 211.644 2.42600 2.91538
  28 209.976 1.97583 -0.859549
  29 212.270 1.12245 -1.89602
  30 216.486 1.10663 -2.32322
  31 226.399 1.40842 -4.64207
  32 236.026 1.11164 -5.88254
  33 250.192 0.229138 -6.98174
  34 261.533 -0.152322 -6.37294
  35 273.653 -0.471859 -6.27370
  36 284.642 -0.346558 -4.43663
  37 294.114 -0.357545 -3.80311
  38 301.946 -0.588169 -3.19994
  39 308.978 -0.413875 -2.24156
  40 313.392 -0.485310 -2.38397
  41 317.654 -0.609071 -1.74511
  42 321.704 -0.726619 -0.776435
  43 323.787 -0.581337 -0.905001
  44 324.904 -0.345957 -0.569843
  45 324.139 -0.172929 -0.519159
  46 327.173 -0.854211 0.0973276
  47 327.655 -0.552793 -0.209235
  48 316.689 -0.194889 -0.401362
  49 309.432 -1.25112 -0.717183
  50 300.589 -1.85544 -0.477142
  51 289.821 -2.78382 -0.651372
  52 279.633 -3.05875 -0.811931
  53 268.772 -3.86437 -0.770171
  54 259.170 -4.31923 -0.432232
  55 250.750 -4.86088 -0.167369
  56 241.040 -4.04189 -0.165245
  57 229.851 -3.79231 -0.260844
  58 219.062 -3.00729 -0.0837617
  59 208.834 -1.93213 -0.0318540
  60 199.106 -1.38682 0.0131787
  61 190.561 -0.723961 0.0878077
  62 181.806 -0.204270 -0.270593
  63 174.918 0.242783 0.328483
  64 171.844 0.700149 0.216727
  65 173.983 0.000496176 0.520425
  66 171.678 -0.102668 0.625190
  67 169.560 -0.149509 0.780474
  68 166.673 -0.0250699 1.02261
  69 163.030 -0.0146126 1.29201
  70 160.369 -0.227955 2.50607
  71 152.621 0.224555 2.73968
  72 147.189 -0.0202867 3.14573
  73 139.099 -0.148282 3.56583
  74 129.769 -0.247030 4.34352
  75 118.112 -0.0596102 5.27368
  76 103.898 0.0632717 5.80634
  77 91.6843 -0.136736 8.29203
  78 67.4457 0.778144 7.80664
  79 51.0075 0.671987 8.26608
  80 31.3773 -0.134096 9.14156
  81 15.1440 1.54498 9.46943
  82 -3.30246 2.29213 5.61547
  83 -16.6292 2.32421 1.90844
  84 -15.9792 2.22213 -0.960915
  85 -15.0465 1.83788 -4.56260
  86 -8.82742 -0.620330 -4.30432
  87 -1.10198 -8.47473 -4.74110
  88 0.800315 -15.6576 -5.96609
  89 2.27618 -24.9075 -3.40503
  90 5.08617 -25.7758 0.0486283
  91 10.8073 -7.24466 13.9787
  92 32.4771 47.8633 48.3374
  93 193.351 176.472 166.718
  94 714.328 106.248 120.141
  95 642.431 15.2548 39.2896
  96 596.220 6.28395 12.0232
  97 579.136 5.31378 0.945658
  98 588.104 7.10210 -10.3819
  99 640.806 14.1547 -31.0722
  100 758.394 51.2761 -103.896
  101 114.478 179.815 -139.109
  102 24.3374 32.6594 -39.8325
  103 11.7824 -6.06021 -14.6128
  104 4.74859 -25.8894 -2.29137
  105 1.29985 -19.0382 3.93107
  106 1.67072 -19.7159 5.18882
  107 0.0657917 -7.34232 5.24798
  108 -9.20998 -0.416203 4.09090
  109 -15.5272 1.37917 3.98949
  110 -16.8202 2.70418 1.05411
  111 -17.1744 2.29172 -1.75535
  112 -4.49137 2.34930 -5.25117
  113 14.0867 1.55876 -9.02277
  114 30.2965 0.0286109 -8.99084
  115 49.8954 0.726835 -8.28522
  116 66.4352 0.799112 -7.86876
  117 90.8999 -0.140153 -8.36485
  118 103.225 0.0709463 -5.86503
  119 117.525 -0.0570814 -5.34227
  120 129.466 -0.272822 -4.37815
  121 138.696 -0.141493 -3.57643
  122 146.885 -0.0101897 -3.17994
  123 152.373 0.221648 -2.77149
  124 160.192 -0.230113 -2.53307
  125 162.889 -0.0160143 -1.30867
  126 166.568 -0.0263927 -1.03635
  127 169.482 -0.151686 -0.791389
  128 171.619 -0.104530 -0.632835
  129 173.936 -0.00112896 -0.525333
  130 171.804 0.699206 -0.219028
  131 174.881 0.242335 -0.329911
  132 181.768 -0.206145 0.269780
  133 190.525 -0.728646 -0.0896039
  134 199.074 -1.39719 -0.0152903
  135 208.811 -1.94656 0.0298090
  136 219.049 -3.02807 0.0817636
  137 229.851 -3.81848 0.259290
  138 241.053 -4.07205 0.163743
  139 250.773 -4.89443 0.166761
  140 259.200 -4.35258 0.433382
  141 268.814 -3.89471 0.773554
  142 279.668 -3.07984 0.824124
  143 289.845 -2.80266 0.709445
  144 300.641 -1.74927 0.487956
  145 309.651 -1.21614 0.701534
  146 316.738 -0.243800 0.395472
  147 282.548 -26.5365 -2.52246
  148 282.318 -26.1808 2.62392
  149 296.003 42.5785 -14.8705
  150 315.979 18.6457 31.6424
  151 239.264 -22.9664 -52.2208
  152 241.184 -22.9446 50.5165
  153 231.896 -9.91821 6.07543
  154 231.919 -10.0588 -6.08157
  155 335.425 12.0121 -24.4769
  156 281.791 -10.0906 6.68447
  157 281.673 -9.84364 -6.59997
  158 364.280 81.5395 4.05481
  159 288.156 -0.461905 -30.7716
  160 212.758 -16.8532 -23.3309
  161 212.756 -16.7098 23.1181
  162 288.757 -6.51585 27.8430
  163 273.786 19.9431 18.2752
  164 112.687 18.2817 -62.2970
  165 125.098 17.3072 65.6680
  166 354.545 3.90262 3.84813
  167 289.667 -11.0737 -19.4743
  168 384.011 84.3762 -2.39772
  169 260.645 -7.34189 0.232026
  170 260.588 -7.31710 -0.208024
  171 293.374 -3.46481 -2.93359
  172 294.331 -3.10176 2.53953
  173 203.773 -2.99474 -3.66328
  174 203.797 -2.96303 3.64270
  175 315.664 -8.52357 66.3337
  176 264.893 10.9438 -19.6748
  177 172.866 -13.0106 -37.6409
  178 173.386 -12.9146 37.3859
  179 194.039 -6.46537 -12.2411
  180 194.054 -6.38975 12.1454
  181 291.113 -7.60148 16.5469
  182 264.371 -18.1830 -0.171731
  183 263.422 -18.0474 0.606361
  184 301.130 -29.0938 -4.34083
  185 302.674 -27.7165 0.579568
  186 416.527 97.9505 -13.5592
  187 301.869 48.5657 13.9200
  188 302.633 18.5955 -31.6839
  189 314.659 -2.90837 -77.2480
  190 300.606 -16.9490 -22.3714
  191 303.169 -12.0860 26.2492
  192 252.487 -28.6881 25.3423
  193 252.565 -28.4889 -25.2602
  194 269.567 3.40369 23.6740
  195 122.710 -2.94572 -45.9711
  196 123.021 -3.21385 45.6812
  197 470.476 70.6153 10.1183
  198 284.617 -16.9328 12.3177
  199 295.347 -5.36548 -10.8229
  200 233.291 -5.75476 -2.72610
  201 233.293 -5.72373 2.71644
  202 283.060 -3.66766 -21.4292
  203 322.575 47.4000 -25.4825
  204 269.134 24.1489 -3.66665
  205 174.464 -6.27507 17.2871
  206 174.193 -6.29633 -17.4218
  207 299.964 -3.25370 5.97237
  208 291.481 5.48222 31.6282
  209 236.649 -17.3379 -11.0349
  210 235.007 -16.4188 11.3249
  211 344.148 51.0359 23.5806
  212 405.853 54.9662 7.90680
  213 26.9886 21.2789 -17.1097
  214 24.9431 19.6714 14.5156
  215 166.474 47.4827 110.281
  216 281.741 -18.7092 -9.56873
  217 301.089 -3.12658 -5.39796
  218 266.443 2.30903 -21.7958
  219 186.019 -1.91051 -5.42189
  220 186.077 -1.88870 5.37179
  221 253.197 -11.9203 -2.02724
  222 253.314 -11.9911 1.88199
  223 285.579 -3.83425 18.2572
  224 329.804 -19.1266 6.56419
  225 326.581 66.9497 -7.42299
  226 256.113 -24.7995 -11.7080
  227 324.580 -5.63536 20.6267
  228 276.255 -4.57661 1.14019
  229 276.261 -4.53742 -1.13839
  230 254.193 -24.6801 12.1964
  231 291.576 -18.4664 18.2685
  232 411.583 52.3694 -24.6904
  233 90.4063 53.8398 -79.5495
  234 245.677 8.56210 4.68069
  235 292.390 25.7907 26.6208
  236 312.103 -2.16764 -28.4057
  237 291.386 -10.4628 -26.0973
  238 154.086 -5.03171 -21.6957
  239 154.631 -4.95456 21.6212
  240 291.914 -3.48582 -14.1649
  241 278.238 -6.99142 3.58013
  242 278.107 -6.98028 -3.46651
  243 57.7179 5.42780 -29.1484
  244 58.6740 4.75979 29.0542
  245 310.561 -27.1447 -23.2815
  246 307.360 -1.02049 0.847118
  247 307.703 -1.04081 -0.913271
  248 285.437 23.6525 -24.3474
  249 250.689 4.76340 14.2260
  250 528.837 84.7167 56.7688
  251 524.604 59.7293 -35.6116
  252 378.342 81.8393 -0.686323
  253 236.060 -11.3276 69.6169
  254 216.514 -7.30127 -72.8475
  255 248.027 -5.09420 -0.892574
  256 248.002 -5.05986 0.885328
  257 205.249 -5.58274 7.42549
  258 205.251 -5.66106 -7.49498
  259 299.472 -3.17217 8.79796
  260 290.413 -20.6546 -15.1287
  261 186.869 -0.381532 -1.25831
  262 186.908 -0.375184 1.24987
  263 286.753 -11.5646 -12.0065
  264 120.506 -3.97164 -30.0539
  265 121.044 -3.98470 29.8303
  266 290.243 -12.5504 20.9812
  267 221.259 -23.4840 41.9837
  268 221.839 -23.9055 -41.8568
  269 249.363 9.48508 -6.62089
  270 215.155 -3.35606 -2.46405
  271 215.172 -3.33234 2.45375
  272 271.574 -0.694654 17.5006
  273 325.010 59.6267 17.7017
  274 172.930 -2.16447 9.22937
  275 172.796 -2.18305 -9.31167
  276 298.360 -24.8787 10.8274
  277 276.199 -30.9520 -27.8115
  278 308.436 -1.41945 2.79270
  279 213.084 -12.7428 -15.8968
  280 212.702 -12.5980 15.8326
  281 380.977 38.9752 97.7842
  282 178.337 -14.3712 50.2036
  283 288.058 40.4888 -1.58011
  284 365.617 40.2315 -15.8525
  285 275.207 -21.2964 4.04553
  286 276.381 -31.8036 25.0020
  287 178.897 -14.1319 -50.7866
  288 32.9294 40.5801 36.6583
  289 286.801 -11.6079 12.2249
  290 376.724 49.0641 12.6100
  291 310.945 -1.26601 -2.42109
  292 280.597 9.79550 -28.0224
  293 277.337 -15.6726 6.77256
  294 271.499 -22.9383 0.205405
  295 279.531 12.8143 26.9850
  296 296.911 -24.8913 -9.72733
  297 421.049 82.0902 -6.94831
  298 277.261 -15.0620 -6.48344
  299 229.911 65.5478 -135.318
  300 283.650 -30.0538 -4.91976
  301 281.626 -30.8707 8.16554
  302 206.260 -18.7358 -33.0168
  303 185.186 -0.740832 -2.74672
  304 185.236 -0.727997 2.72353
  305 206.342 -18.7486 32.8315
  306 299.859 -0.493690 -31.8798
  307 324.179 -13.4137 -13.9215
  308 246.183 -14.8978 -5.68149
  309 246.014 -14.9315 5.79005
  310 295.353 -25.4188 44.7974
  311 294.354 -2.32866 10.7265
  312 358.582 1.48057 15.1226
  313 241.056 -8.55703 -3.09074
  314 241.070 -8.52636 3.07137
  315 219.190 -5.77538 -4.83928
  316 219.188 -5.71985 4.83092
  317 248.043 3.29729 -13.7615
  318 319.806 23.4334 -30.7164
  319 495.957 133.526 -62.9947
  320 291.631 -2.48801 -0.991399
  321 291.458 -2.45386 1.01634
  322 155.529 -0.201870 62.6410
  323 218.138 -9.99081 -10.4478
  324 217.713 -9.95411 10.4735
  325 155.502 -0.558476 -62.4027
  326 304.551 35.9667 -26.0022
  327 341.552 16.8619 23.3300
  328 295.391 -21.0831 -49.8149
  329 271.061 -10.4454 3.07412
  330 270.780 -10.3663 -2.95340
  331 289.570 -5.93954 -5.88294
  332 271.776 -0.525571 -16.3702
  333 305.474 1.33373 31.2689
  334 305.126 -2.08915 -6.07777
  335 182.403 -11.1695 25.2055
  336 182.202 -11.2337 -25.4070
  337 283.843 -0.649004 29.1941
  338 173.889 -1.46169 -5.46210
  339 174.001 -1.44782 5.40990
  340 291.679 -6.64943 9.08968
  341 349.710 71.5298 -13.2546
  342 289.414 -5.98682 6.09836
  343 308.009 38.7176 26.1131
  344 294.874 -5.46757 30.3753
  345 232.979 -4.39414 0.977145
  346 232.982 -4.42249 -0.984449
  347 278.770 -1.00581 -25.8957
  348 369.733 77.8027 8.75228
  349 306.847 56.3590 0.546258
  350 188.108 21.9083 -93.3143
  351 18.8811 8.48232 -12.5127
  352 20.7683 9.17337 13.4912
  353 -1.07891 2.09323 5.78011
  354 0.0965774 1.13195 -6.02480
  355 542.233 37.6009 12.9809
  356 254.296 -20.7086 -6.70900
  357 291.919 -6.42153 -8.87084
  358 263.089 -4.60202 0.437340
  359 263.059 -4.56364 -0.438753
  360 281.169 31.0577 -13.1804
  361 240.080 -24.5313 20.8382
  362 20.7812 30.8365 -22.5467
  363 240.320 -24.5282 -21.2306
  364 284.897 32.4077 14.0267
  365 291.102 -7.72753 -15.7722
  366 308.986 -17.2134 -19.1947
  367 328.783 69.5983 5.12535
  368 309.731 -19.3073 15.9646
  369 126.891 -3.20696 20.1450
  370 126.112 -3.14538 -20.2803
  371 71.4877 1.79298 -27.8637
  372 72.2725 1.50008 27.7370
  373 252.046 0.791378 13.9282
  374 481.643 140.174 53.6984
  375 301.149 -1.88508 -7.68735
  376 233.828 -19.8433 -15.9208
  377 233.624 -19.7888 15.8984
  378 289.277 -6.64985 -19.9078
  379 330.077 -15.9565 3.08809
  380 254.287 -20.6882 6.92480
  381 362.728 2.39802 -28.8318
  382 203.546 -1.68434 -0.932843
  383 203.574 -1.66950 0.925469
  384 284.341 -1.64570 -12.6753
  385 152.131 -2.23835 -13.1570
  386 152.231 -2.30912 12.9929
  387 340.166 43.4252 -26.1424
  388 183.592 13.0009 86.6233
  389 266.082 -13.9811 1.63727
  390 266.345 -13.9551 -1.65077
  391 312.550 52.9595 -16.5626
  392 296.067 -8.76084 -28.8275
  393 297.246 -30.3503 24.1890
  394 247.154 -6.58418 -1.37804
  395 247.123 -6.55056 1.36252
  396 285.757 -22.0411 10.2940
  397 308.109 -1.44225 4.52526
  398 190.972 -7.05617 -15.3514
  399 191.047 -7.05492 15.2156
  400 289.920 9.72273 -31.1846
  401 273.878 -5.90902 1.72942
  402 273.867 -5.92221 -1.69174
  403 283.109 -3.33046 23.8330
  404 263.442 19.1577 6.30897
  405 293.733 -12.3832 25.2182
  406 425.185 89.1340 15.5429
  407 141.123 -7.60945 -40.2861
  408 141.523 -7.61239 39.9716
  409 62.8904 33.8655 -47.7423
  410 315.440 -0.890840 1.27182
  411 158.591 -1.37981 -8.32112
  412 158.807 -1.35056 8.24713
  413 289.523 -7.53227 19.5137
  414 262.594 -28.5293 13.5109
  415 296.947 -3.63567 4.16987
  416 302.119 15.3480 32.5617
  417 65.9895 36.0590 49.8295
  418 262.996 -28.3725 -12.3912
  419 271.799 -25.2839 -2.05163
  420 87.7594 -1.76461 -25.2910
  421 88.4436 -1.83242 25.1122
  422 208.545 -16.6338 -60.5524
  423 312.181 -4.64363 27.7350
  424 207.728 -16.8912 60.0104
  425 288.304 -16.1739 -16.4523
  426 267.215 17.9876 -13.8401
  427 288.359 -12.4339 15.6004
  428 310.799 -1.35356 -3.07350
  429 9.28035 9.77927 4.11135
  430 62.5653 71.8327 70.7545
  431 277.110 -1.02163 12.2066
  432 231.776 3.13553 6.01983
  433 235.882 3.83209 -8.17250
  434 201.256 -3.38679 -5.23773
  435 201.275 -3.34282 5.20165
  436 284.279 -22.0291 -9.46106
  437 287.042 -5.61385 -26.7017
  438 233.053 4.32227 -2.22026
  439 425.148 101.194 20.2190
  440 58.1946 19.4851 -35.7374
  441 64.2124 17.8858 38.2230
  442 265.837 -9.47106 1.46877
  443 265.734 -9.44643 -1.39630
  444 354.524 78.5537 -1.06542
  445 222.453 90.6259 138.323
  446 341.687 -4.85807 -5.55618
  447 195.281 -10.2702 -20.8291
  448 195.371 -10.1980 20.6468
  449 196.365 -4.45230 8.19474
  450 196.331 -4.48596 -8.27206
  451 265.673 5.86305 -22.4313
  452 317.100 -0.426207 -0.849487
  453 258.114 11.7975 12.5832
  454 327.156 40.4068 28.1965
  455 272.284 -20.2258 -2.99992
  456 296.838 -3.45635 -4.04937
  457 312.102 -1.22256 2.83155
  458 316.199 -0.453960 0.486014
  459 316.465 -0.515605 -0.360433
  460 172.625 -0.325130 2.01476
  461 172.539 -0.329895 -2.03670
  462 298.010 -18.9171 19.8804
  463 268.248 10.5510 21.7216
  464 280.672 1.12830 -28.4626
  465 293.542 -6.15210 11.7513
  466 425.135 70.4840 -81.8998
  467 294.168 -16.3091 -22.1416
  468 2.60460 5.53377 2.13002
  469 2.58945 5.61400 -0.674911
  470 232.582 -13.2462 8.89918
  471 231.793 -13.0718 -8.79563
  472 366.745 6.46287 43.8060
  473 102.240 92.4453 -104.598
  474 290.161 -0.871310 9.51274
  475 329.662 -19.2363 -24.7010
  476 174.576 -10.1202 29.2058
  477 352.754 62.5926 -19.0394
  478 289.929 -15.6792 18.5912
  479 243.033 -11.6659 -4.29657
  480 243.247 -11.4706 4.28282
  481 251.982 1.33135 -12.3024
  482 174.025 -10.0819 -29.3933
  483 258.500 0.0972288 12.3777
  484 248.303 -28.3863 -37.4115
  485 247.675 -28.4296 37.5379
  486 299.391 -1.96538 8.48140
  487 271.345 25.5673 2.60858
  488 276.680 4.61294 94.3972
  489 406.539 82.9387 -0.520967
  490 280.611 -4.68691 1.95686
  491 280.629 -4.66948 -2.02060
  492 215.024 -3.86394 -3.29109
  493 215.037 -3.83098 3.27784
  494 113.361 5.30932 52.5411
  495 291.197 -14.0120 -21.6434
  496 263.937 -5.72510 0.358033
  497 263.910 -5.70388 -0.351837
  498 229.713 -24.3603 30.6268
  499 115.572 7.00231 -53.8846
  500 291.689 -23.7593 -10.8180
  501 4.93468 0.874403 2.45732
  502 254.153 13.0823 0.913759
  503 281.664 -3.21031 -0.649323
  504 281.656 -3.25582 0.635756
  505 229.863 -24.3205 -30.8686
  506 330.017 -17.0548 31.7670
  507 326.679 11.8624 28.7559
  508 301.704 -1.99677 -2.02406
  509 290.796 -24.0963 10.9634
  510 180.972 -0.188633 -0.354887
  511 181.011 -0.186939 0.351691
  512 290.272 -11.1347 -23.0376
  513 280.771 20.7709 23.7926
  514 322.649 7.96601 -28.3940
  515 179.880 -0.300676 -1.13172
  516 179.926 -0.296583 1.12356
  517 565.190 81.6227 -73.1414
  518 292.270 34.8313 20.9783
  519 301.975 -1.83328 1.80476
  520 272.409 -25.8391 2.70672
  521 228.512 -7.61203 4.87992
  522 228.513 -7.67152 -4.87002
  523 317.406 -19.3167 9.10198
  524 304.794 -6.07608 -29.1802
  525 340.658 67.2290 15.8738
  526 283.134 4.86257 29.5078
  527 285.940 -5.45357 3.76635
  528 277.943 -29.6322 -35.9303
  529 288.006 -7.11564 22.6608
  530 558.807 25.5994 -10.2524
  531 315.104 -23.7468 -1.11977
  532 299.828 -1.93113 -0.491348
  533 299.899 -2.05908 0.436219
  534 564.603 37.8933 35.9777
  535 275.995 -0.101872 25.0957
  536 387.692 64.9280 -7.35988
  537 290.955 -7.88018 -11.4438
  538 130.320 -1.24589 -9.00205
  539 130.736 -1.18616 8.90842
  540 196.494 -18.4194 -42.0667
  541 196.644 -18.1099 41.7490
  542 285.785 -5.22431 -3.72977
  543 310.911 11.4140 -31.8532
  544 273.099 -18.5918 4.04223
  545 293.578 33.6765 -21.7796
  546 296.140 -3.41219 11.4175
  547 371.796 18.4112 -3.42933
  548 253.017 -8.68725 -1.10882
  549 252.937 -8.65501 1.09284
  550 275.054 -12.9739 5.08938
  551 406.271 80.2382 -5.15202
  552 289.586 12.6672 30.6545
  553 123.631 31.8476 77.7579
  554 280.323 -16.8352 62.9351
  555 371.066 17.5548 -69.2523
  556 296.089 24.4847 -28.5484
  557 262.998 -22.7025 -54.5301
  558 284.780 -31.1947 -10.3781
  559 297.551 -30.1021 -15.4164
  560 38.7677 50.0052 -47.4233
  561 299.053 -3.73877 -7.07838
  562 450.337 87.6564 -25.2698
  563 276.536 -12.4381 -5.64296
  564 278.865 -9.04690 4.65211
  565 278.604 -8.83784 -4.46999
  566 191.405 -1.13935 -2.48860
  567 191.444 -1.12457 2.47107
  568 26.7397 2.86861 -15.2660
  569 28.2747 3.00555 15.6239
  570 142.427 -6.67012 -30.7528
  571 143.530 -6.70566 30.7000
  572 282.679 -15.3007 -10.4836
  573 288.138 -31.3211 11.2600
  574 296.196 -28.0981 2.38126
  575 242.352 -4.29374 -0.867388
  576 242.337 -4.26196 0.862632
  577 230.118 -24.1131 -46.6888
  578 257.908 -21.1243 57.7241
  579 224.497 -22.6711 46.9614
  580 290.701 -6.44746 -28.7120
  581 181.337 -3.07654 9.25261
  582 181.248 -3.10907 -9.33237
  583 276.869 15.2766 -23.8883
  584 277.318 -0.484745 -11.0787
  585 346.721 75.4563 -7.19018
  586 225.994 -3.45501 -0.871201
  587 225.999 -3.43128 0.866813
  588 295.980 -0.868184 -6.26385
  589 203.686 -6.96996 -10.2047
  590 203.687 -6.94433 10.1131
  591 166.691 7.78608 74.4924
  592 288.070 -13.2308 -15.7756
  593 160.294 -8.43467 53.4923
  594 283.083 -14.6517 10.6986
  595 298.211 -4.16359 7.80805
  596 294.544 -2.63843 -1.79891
  597 205.981 -2.60050 -2.30044
  598 206.005 -2.57871 2.28765
  599 332.510 66.5286 -14.2653
  600 160.181 -8.10905 -53.6995
  601 282.147 -12.1900 -8.58749
  602 254.232 -4.71579 -0.403958
  603 254.205 -4.67989 0.402221
  604 479.091 64.5743 -11.3698
  605 167.740 -1.10714 5.11538
  606 167.593 -1.11805 -5.16485
  607 262.445 5.98278 20.4572
  608 376.753 31.2895 -5.30233
  609 177.686 1.31498 -73.9549
  610 90.4335 2.36363 -40.2063
  611 91.1985 1.83703 39.9922
  612 222.700 -13.0965 12.5966
  613 225.057 -13.4822 -12.2218
  614 380.509 76.6157 7.54848
  615 293.317 -2.73693 1.63330
  616 250.844 7.00543 -12.3464
  617 313.323 56.4151 13.0988
  618 312.171 58.5491 -8.70913
  619 256.557 -14.2584 -1.84560
  620 258.532 -13.9325 0.923985
  621 184.179 40.0415 -106.441
  622 220.095 -7.61173 -6.97027
  623 220.111 -7.52326 6.94442
  624 561.858 114.954 86.5159
  625 290.380 -9.49693 24.8357
  626 165.017 -5.91803 -19.7054
  627 452.718 103.905 68.8399
  628 165.406 -5.88402 19.6271
  629 278.088 -10.6506 -73.5846
  630 194.959 -1.00156 -0.918131
  631 194.993 -0.992816 0.913189
  632 241.688 2.13888 10.7669
  633 109.251 -1.65473 -17.7003
  634 109.877 -1.65879 17.5577
  635 253.235 -17.9858 5.08921
  636 265.707 -21.3196 -1.12695
  637 313.819 -0.658712 -2.57964
  638 175.485 -0.299925 1.48130
  639 175.419 -0.305170 -1.49747
  640 238.682 -5.40997 -1.28555
  641 238.672 -5.37835 1.27490
  642 274.538 -30.4321 36.3285
  643 315.184 35.2114 -28.8362
  644 209.105 -9.85925 -13.1614
  645 208.950 -9.69167 13.0633
  646 248.511 -17.9569 -7.23739
  647 392.177 85.5202 1.97241
  648 294.429 -28.4660 -0.744542
  649 255.215 -6.10909 -0.490720
  650 255.176 -6.07751 0.491488
  651 351.760 38.4255 22.1830
  652 294.916 -4.21816 -12.4117
  653 260.024 -0.335528 -10.0842
  654 119.901 -4.08952 -38.6370
  655 120.279 -4.20731 38.3148
  656 247.888 -21.4674 -11.8084
  657 372.219 82.2622 0.200579
  658 288.158 39.0472 -9.44872
  659 190.457 -1.78569 -4.59696
  660 190.500 -1.76064 4.55845
  661 269.134 -7.58650 -1.46282
  662 269.187 -7.59634 1.52190
  663 503.257 65.7713 28.9365
  664 318.823 -0.832189 0.705768
  665 307.713 -1.18824 4.42138
  666 306.472 -1.21578 -5.16884
  667 290.781 -27.0519 4.97246
  668 213.162 -2.52850 -1.14988
  669 213.181 -2.50991 1.14439
  670 310.301 49.8163 20.1481
  671 398.878 88.7496 -4.72991
  672 217.527 -16.2827 -18.6499
  673 217.459 -16.1201 18.5524
  674 272.734 -28.1214 -5.31375
  675 287.390 17.0751 -28.8440
  676 342.080 0.849992 12.8724
  677 226.125 -4.25392 -2.25867
  678 226.130 -4.22553 2.24869
  679 195.607 -17.2070 -37.9861
  680 288.013 -27.8420 -2.29239
  681 239.109 -26.5284 33.7343
  682 114.105 36.1258 -75.0067
  683 223.047 -20.7450 26.0159
  684 268.977 0.0712121 9.32677
  685 195.784 -17.0102 37.7254
  686 281.980 -12.4294 8.69346
  687 223.129 -20.6598 -26.2598
  688 227.826 2.93220 2.25690
  689 176.110 -4.81361 13.9919
  690 175.951 -4.81968 -14.0940
  691 239.252 -27.2171 -34.1136
  692 296.012 -19.4788 -19.2248
  693 271.370 -3.76299 -0.376571
  694 271.414 -3.80341 0.378280
  695 302.589 -19.2457 19.0772
  696 274.857 -28.7324 6.39836
  697 334.148 30.6414 28.0413
  698 301.313 -5.62509 30.0278
  699 289.934 -10.3753 18.3484
  700 276.505 22.7158 -18.1201
  701 333.149 56.0984 22.1664
  702 287.490 -3.96398 -17.7370
  703 286.702 -9.46653 9.52943
  704 295.941 46.3973 5.10973
  705 291.604 -4.91925 15.4795
  706 91.5662 62.1908 78.5860
  707 271.469 -31.2135 -20.7982
  708 314.339 5.72895 30.5615
  709 317.507 -9.81027 -21.9011
  710 317.247 -0.392247 1.43638
  711 289.779 -9.91994 -14.4862
  712 271.851 -31.4602 18.8582
  713 528.173 46.7599 -7.83926
  714 160.828 -0.711283 5.35560
  715 160.632 -0.719199 -5.40782
  716 294.074 -5.29096 -6.80243
  717 319.165 -0.296099 -1.39735
  718 247.423 -21.8131 11.8720
  719 297.469 -11.0452 27.2981
  720 453.293 107.621 -32.3609
  721 281.947 -20.4332 8.94038
  722 312.854 -20.5751 -11.4972
  723 286.812 -9.20992 -9.37812
  724 319.095 -0.521442 -0.463373
  725 290.180 -0.0198201 31.1543
  726 13.2724 11.7843 16.4981
  727 328.338 -12.7256 -47.5902
  728 357.012 21.0586 14.1617
  729 297.212 -30.3425 13.6932
  730 210.954 -5.14064 5.71678
  731 210.957 -5.21329 -5.74605
  732 278.334 139.293 -145.312
  733 302.730 -19.9972 -17.6623
  734 226.920 1.14820 -4.31374
  735 265.284 1.44783 19.9639
  736 291.900 -14.5814 22.0067
  737 279.792 -23.5786 4.65419
  738 291.263 -26.5219 -39.0334
  739 278.052 -22.0023 -5.15406
  740 328.958 -15.7596 -4.21088
  741 302.897 -2.42007 3.98442
  742 269.940 -16.2316 2.80503
  743 491.841 98.3507 -52.2470
  744 288.123 -7.66117 7.57716
  745 284.671 4.64836 -30.3071
  746 243.477 -2.75729 82.8096
  747 305.136 24.5870 30.9921
  748 262.448 -20.7052 2.50453
  749 202.211 -16.0215 -27.7298
  750 202.226 -15.9755 27.4984
  751 278.661 31.3311 -4.22504
  752 283.763 -3.27714 27.0834
  753 286.952 -6.81586 -23.1406
  754 270.250 -16.5615 -2.89470
  755 261.236 -23.4597 6.43965
  756 298.237 49.2815 -5.78090
  757 279.445 -24.1851 -3.55095
  758 280.125 -17.7227 8.67992
  759 283.988 -3.58606 1.36642
  760 284.167 -3.48668 -1.35787
  761 382.094 84.0673 2.22199
  762 312.679 -26.5700 -8.83955
  763 290.666 -8.86124 14.4181
  764 303.027 -2.41086 -3.63230
  765 305.818 2.04342 -31.5661
  766 348.598 18.2494 -18.8599
  767 169.478 -0.178290 -2.49416
  768 169.589 -0.175787 2.46817
  769 2.40885 -5.41558 -3.84382
  770 296.707 -0.331638 5.80287
  771 271.476 -0.463801 -22.1004
  772 280.637 -2.62538 19.5179
  773 256.935 31.5042 121.708
  774 319.493 65.8420 -0.701092
  775 226.906 -16.3411 14.4814
  776 39.0283 0.905533 -15.1199
  777 40.1976 0.668979 15.2829
  778 278.087 -1.98431 -22.0034
  779 227.535 -16.5062 -14.4763
  780 301.232 -2.65456 3.04134
  781 152.917 -6.59079 26.2526
  782 151.591 -6.56845 -26.2691
  783 288.109 -7.43632 -7.38152
  784 182.973 -4.69631 -12.1703
  785 183.065 -4.66471 12.0590
  786 300.137 -2.78654 -8.59858
  787 228.415 -6.16143 -3.89597
  788 228.420 -6.12004 3.89710
  789 327.799 -2.08610 -21.9687
  790 294.620 -3.07694 -31.2907
  791 148.692 -0.973513 -6.83766
  792 148.987 -0.964475 6.75648
  793 6.94131 3.75215 -9.10411
  794 8.28262 3.95716 9.58321
  795 237.889 1.12835 -7.82386
  796 269.174 -30.2478 -15.4000
  797 -3.11683 -2.16303 5.35971
  798 -2.72624 -2.54057 -5.31706
  799 280.221 -5.56887 2.91297
  800 304.000 -23.6951 -10.2356
  801 313.506 46.5097 -23.5252
  802 302.552 -2.38236 -2.88857
  803 649.544 130.448 -122.015
  804 280.163 -5.54987 -2.87557
  805 422.172 80.6556 6.38589
  806 299.673 8.72745 -32.6152
  807 331.323 24.9818 -28.6829
  808 54.6776 -0.646048 -13.9950
  809 55.7194 -0.728768 13.9690
  810 185.964 -2.73857 7.19395
  811 185.899 -2.76181 -7.26030
  812 177.239 -0.438435 1.34289
  813 177.186 -0.442976 -1.35415
  814 334.853 56.4252 -21.9920
  815 196.978 -1.26998 -1.97414
  816 197.011 -1.25525 1.96248
  817 284.644 -2.86600 -28.2643
  818 412.465 41.6349 34.5263
  819 255.655 5.67058 -17.1970
  820 87.7367 -0.797640 15.0246
  821 86.9710 -0.804933 -15.1455
  822 332.357 8.73630 87.1539
  823 293.765 -5.33490 7.02105
  824 261.818 17.3369 -7.16589
  825 120.192 -0.204214 10.2594
  826 119.561 -0.147752 -10.3371
  827 181.156 -0.957377 -3.51872
  828 181.221 -0.943616 3.48493
  829 32.3563 28.8694 24.6828
  830 273.244 6.49060 25.5925
  831 304.316 44.7659 -20.1360
  832 327.783 38.0561 -28.4619
  833 214.678 -8.20043 -9.18119
  834 214.549 -8.13733 9.16690
  835 339.351 72.3873 10.0191
  836 293.311 -2.37062 -0.387936
  837 293.326 -2.35262 0.437893
  838 289.968 -8.66065 -18.4875
  839 242.548 -16.2331 8.29490
  840 267.506 -30.0666 15.4891
  841 314.845 -25.7996 24.1805
  842 240.324 -7.01028 -2.22517
  843 240.319 -6.98255 2.20887
  844 274.838 25.4563 11.6309
  845 258.062 3.49291 -18.5808
  846 71.7678 83.9643 81.8042
  847 262.061 -23.2700 -5.79165
  848 262.905 -11.7572 0.799367
  849 263.047 -11.7791 -0.813123
  850 289.243 -4.24945 29.7360
  851 286.997 -18.8405 -13.8317
  852 256.069 -17.0028 -3.10197
  853 587.277 19.0207 -29.1822
  854 243.365 -23.0938 16.4092
  855 243.175 -23.3964 -16.6802
  856 288.994 -3.43689 15.0933
  857 435.923 112.403 -24.4247
  858 228.224 -20.8214 -20.6279
  859 252.414 -28.4583 19.4898
  860 228.157 -20.5683 20.4415
  861 247.514 -10.0011 -2.52134
  862 247.504 -9.96573 2.50167
  863 36.3154 15.5751 21.4749
  864 310.643 23.2187 -31.4040
  865 237.402 -9.31984 -4.18009
  866 237.444 -9.22422 4.19565
  867 234.384 -3.90521 -0.502920
  868 234.379 -3.87744 0.499354
  869 258.135 -5.11607 0.0256406
  870 258.103 -5.08128 -0.0272039
  871 209.217 -4.16370 -4.95252
  872 209.231 -4.11635 4.93060
  873 238.333 -12.6115 -6.37271
  874 238.362 -12.5230 6.40018
  875 5.68620 -2.37643 -2.55138
  876 360.141 67.5644 16.5610
  877 309.786 -10.8421 -25.2515
  878 252.214 -28.0472 -19.7028
  879 272.544 -8.75500 2.75333
  880 272.422 -8.66276 -2.67598
  881 297.139 0.383527 31.9637
  882 323.573 -23.0899 -13.0907
  883 286.555 20.1077 -105.511
  884 129.575 -2.05302 51.9852
  885 -5.09616 3.02316 -3.45512
  886 -4.44818 3.41049 3.84004
  887 36.0630 16.5654 -21.9191
  888 290.578 -8.30597 11.3812
  889 305.992 -1.95025 -4.80299
  890 275.068 -26.4297 44.9414
  891 129.263 -1.91180 -52.1965
  892 306.543 -25.0585 7.29521
  893 341.777 -10.2156 38.8849
  894 246.701 0.987259 8.29646
  895 283.380 26.9534 19.8241
  896 152.926 -8.64799 38.2882
  897 152.328 -8.71818 -38.5481
  898 183.517 -8.82208 -21.4556
  899 193.280 -9.41037 -66.3559
  900 306.513 -7.14676 28.3097
  901 421.706 98.8200 14.4969
  902 307.644 11.8446 32.0244
  903 290.813 -6.17292 -16.8540
  904 197.377 -8.43168 68.0097
  905 371.044 68.3318 -12.3389
  906 36.4794 31.1238 -30.4685
  907 268.225 -0.547857 -8.89668
  908 183.709 -8.74838 21.2600
  909 224.332 -4.99521 3.44240
  910 224.326 -5.03049 -3.45069
  911 287.419 -18.7405 14.2762
  912 298.744 -1.83229 1.17132
  913 219.504 2.05342 -82.5403
  914 315.114 -0.670341 2.27519
  915 312.687 -0.547620 -2.89792
  916 232.390 1.99499 -7.19052
  917 301.965 -1.21780 -5.14773
  918 225.126 -10.6161 -8.43125
  919 225.277 -10.4550 8.45623
  920 -7.49862 2.72702 -4.32770
  921 -10.3007 1.64427 4.56314
  922 298.739 -1.69760 -1.18606
  923 98.0564 -2.20594 35.0676
  924 97.4532 -1.99195 -35.2714
  925 318.706 46.5426 24.8549
  926 573.430 10.3475 9.04746
  927 299.854 33.3740 26.0517
  928 340.475 -12.0529 10.5383
  929 295.478 -16.4235 22.1964
  930 368.022 77.1805 -9.38854
  931 227.325 0.939026 5.41880
  932 284.351 -6.63297 -4.61477
  933 295.158 15.8704 -31.5167
  934 357.450 10.4463 -6.54208
  935 277.064 -17.1054 -6.86255
  936 140.447 -0.803410 -7.65963
  937 140.599 -0.775062 7.54954
  938 292.461 -6.82394 -13.2425
  939 9.59178 12.2252 2.33800
  940 280.716 -29.0973 -2.49982
  941 242.316 7.11517 -0.742032
  942 365.420 80.4489 -6.23704
  943 57.4273 42.7525 -50.7618
  944 280.658 -2.08754 -17.4897
  945 193.802 -3.30005 -6.71057
  946 193.838 -3.26071 6.65181
  947 1.63613 -8.05682 6.15168
  948 190.233 -14.2409 -30.7927
  949 285.924 -16.5041 -13.4147
  950 176.570 0.378268 -0.554479
  951 176.611 0.380162 0.550523
  952 288.361 35.0057 -15.8884
  953 310.177 -0.862959 -0.460470
  954 310.183 -0.876068 0.601960
  955 190.315 -14.2004 30.5789
  956 289.247 -0.381881 -6.92196
  957 333.239 2.39466 21.2073
  958 295.565 -4.10894 5.43644
  959 46.7023 11.9828 -27.2157
  960 306.630 -1.80704 4.35632
  961 277.477 2.21693 27.4161
  962 292.656 40.5721 14.1354
  963 293.022 3.39684 -32.2519
  964 201.305 -10.8872 -18.3786
  965 316.616 -11.1917 21.1498
  966 201.435 -10.8435 18.1885
  967 9.12728 10.0028 -0.704005
  968 34.1616 5.97215 19.9345
  969 163.833 -2.94867 12.6576
  970 163.629 -2.95189 -12.7322
  971 284.551 -6.76229 4.85704
  972 305.549 53.2254 7.83643
  973 155.389 14.3109 -78.0894
  974 255.577 -15.9978 2.67685
  975 239.877 -25.1273 -24.8192
  976 350.070 67.1475 17.1424
  977 269.183 -4.71501 0.463507
  978 269.173 -4.68812 -0.465124
  979 295.166 -5.40449 -9.53249
  980 272.241 23.4791 -10.7309
  981 620.620 183.384 123.761
  982 56.2031 3.22536 -26.3249
  983 57.1081 2.68209 26.3861
  984 4.17730 -5.63248 1.25702
  985 273.114 15.1059 22.0259
  986 239.802 -25.2781 24.6319
  987 297.514 -14.0325 -25.2155
  988 323.747 26.4691 31.0258
  989 311.554 -25.1565 -29.8385
  990 455.326 95.8736 31.4777
  991 264.200 -4.24210 -0.0965657
  992 264.165 -4.20568 0.0968857
  993 309.518 -12.5923 23.9618
  994 21.2836 34.6654 36.5319
  995 138.222 -2.94674 18.1435
  996 137.781 -2.90915 -18.3432
  997 165.427 -8.17571 24.7821
  998 164.851 -8.05249 -24.8794
  999 186.477 -7.77469 17.7728
  1000 203.856 -1.66336 -0.897848
  1001 203.884 -1.65074 0.893994
  1002 513.021 162.444 -103.272
  1003 463.734 116.159 47.3172
  1004 186.326 -7.81565 -17.9270
  1005 318.835 -1.45278 26.4197
  1006 284.739 29.5475 -19.0952
  1007 201.159 -17.2692 55.0002
  1008 258.757 -30.5627 -29.4317
  1009 295.804 -2.40157 -10.1592
  1010 132.953 9.22823 63.5092
  1011 170.654 -13.0496 43.9541
  1012 260.850 13.3327 -13.7858
  1013 299.052 -5.90625 -30.3597
  1014 383.381 154.297 166.058
  1015 246.159 7.49141 9.80640
  1016 335.962 72.5569 -1.20516
  1017 247.229 9.64231 -93.8309
  1018 251.032 -26.4680 -16.7826
  1019 319.465 -0.309433 -1.14183
  1020 305.821 28.1018 -30.1903
  1021 178.185 -1.18671 4.53359
  1022 178.101 -1.19883 -4.57785
  1023 6.48556 2.97438 -9.18236
  1024 201.421 -9.28984 -15.3129
  1025 170.449 -13.2188 -44.2929
  1026 201.262 -9.26766 15.1391
  1027 292.282 -8.87813 28.0741
  1028 262.136 -16.2276 -0.296893
  1029 275.106 5.03939 -26.5514
  1030 283.043 35.3672 5.57332
  1031 385.316 22.9769 13.1224
  1032 289.664 -21.9867 13.6368
  1033 182.507 -14.6605 -33.6950
  1034 272.717 9.62286 -24.8398
  1035 202.933 -17.0352 -55.2990
  1036 390.439 84.9315 -1.43373
  1037 264.930 17.3610 12.5413
  1038 335.841 -2.00440 -16.3754
  1039 252.598 -26.4764 15.4096
  1040 289.601 -9.15049 21.7319
  1041 287.779 -15.1666 15.7208
  1042 286.202 -14.3665 13.6433
  1043 353.675 44.8630 -22.7754
  1044 285.663 -4.59090 22.0147
  1045 258.321 -30.6483 28.9476
  1046 275.745 -11.2475 4.60939
  1047 182.621 -14.6870 33.5006
  1048 258.776 -19.1135 -3.29797
  1049 149.952 -7.26548 -47.0127
  1050 214.401 -22.2918 37.2528
  1051 291.028 -1.95058 -11.7809
  1052 283.311 -3.19085 -24.9997
  1053 245.334 -19.4750 -10.1727
  1054 150.212 -7.47930 46.6363
  1055 263.866 0.622712 -17.3531
  1056 196.118 -13.1068 -23.8250
  1057 356.365 76.0064 10.8568
  1058 78.9347 13.2068 -44.5278
  1059 612.361 43.2890 59.1474
  1060 142.428 10.7292 -66.5187
  1061 286.161 -23.6940 -8.49799
  1062 196.169 -12.9930 23.6250
  1063 261.004 2.73084 19.3935
  1064 145.737 -2.99640 15.0177
  1065 145.657 -3.07084 -15.1735
  1066 289.559 -8.03953 -26.0141
  1067 308.537 -1.49157 1.79775
  1068 302.198 -0.656820 5.20539
  1069 298.626 9.92366 32.5325
  1070 279.181 -2.10214 23.4717
  1071 216.808 23.0370 101.515
  1072 321.553 -0.221152 0.557413
  1073 300.477 40.7606 20.7396
  1074 253.861 3.64336 16.6984
  1075 306.135 -1.14141 5.00517
  1076 195.626 -2.15335 -3.74354
  1077 195.659 -2.12860 3.71801
  1078 124.201 -3.55645 -25.0372
  1079 124.702 -3.68423 24.8608
  1080 254.667 12.6564 7.00445
  1081 386.702 20.4066 -27.5057
  1082 355.290 -0.638576 -53.0521
  1083 282.115 -0.242730 -7.17136
  1084 214.488 -22.4597 -37.5387
  1085 245.848 -18.5218 9.06543
  1086 283.778 -0.643302 7.48542
  1087 297.498 -21.5558 -16.0417
  1088 184.385 -0.449285 2.24126
  1089 184.340 -0.457078 -2.25586
  1090 285.612 -24.3726 8.49373
  1091 271.382 -5.50789 0.932996
  1092 271.336 -5.51285 -0.914679
  1093 264.014 -26.6220 9.58256
  1094 341.038 -11.0619 -3.03248
  1095 152.687 -0.280174 -4.25717
  1096 152.941 -0.270406 4.21073
  1097 231.834 -14.5996 -63.3555
  1098 246.224 -5.88659 1.17251
  1099 246.249 -5.92072 -1.18402
  1100 149.219 79.7947 111.523
  1101 342.156 28.0136 -25.6148
  1102 49.8946 24.4597 -33.5095
  1103 295.745 -4.33897 -5.25480
  1104 78.4207 27.0750 -51.0510
  1105 163.444 -10.3483 -32.0135
  1106 321.690 -0.317678 0.341469
  1107 321.822 -0.295886 -0.252799
  1108 290.670 -16.5670 -19.0349
  1109 257.421 -28.8605 -40.5719
  1110 78.9778 11.2421 42.4311
  1111 316.142 31.3123 29.4290
  1112 287.214 -2.82231 -0.474911
  1113 287.245 -2.82496 0.502678
  1114 314.175 -20.2920 49.1376
  1115 323.613 64.9533 11.3543
  1116 191.236 -4.68168 -9.61993
  1117 191.282 -4.65884 9.54864
  1118 145.637 16.7438 78.8073
  1119 274.440 1.37672 -25.7039
  1120 85.7031 27.7612 54.9246
  1121 354.022 -6.18841 -15.9663
  1122 346.824 76.9001 3.47319
  1123 238.189 -18.9292 12.4640
  1124 218.695 1.12829 -1.05610
  1125 303.166 -2.61379 6.43413
  1126 314.085 -0.367143 2.51260
  1127 67.4738 0.131618 -12.5845
  1128 68.4315 0.0978755 12.4970
  1129 245.790 4.05887 -12.3617
  1130 254.118 -7.47887 -0.747128
  1131 254.058 -7.44206 0.742133
  1132 26.5869 40.7527 -38.8458
  1133 42.4240 90.2863 -78.2899
  1134 257.413 -10.0655 0.468889
  1135 257.515 -10.0666 -0.482505
  1136 266.104 -6.38542 1.00534
  1137 266.066 -6.37079 -0.981915
  1138 69.4051 44.3998 55.1931
  1139 209.121 -2.63635 -1.78822
  1140 209.143 -2.61677 1.77910
  1141 263.499 19.8751 -0.293991
  1142 338.521 41.8694 -117.282
  1143 322.221 55.6436 -19.4500
  1144 294.125 -11.2694 -26.5763
  1145 289.760 -14.4206 -19.2843
  1146 238.343 -19.1081 -12.6758
  1147 238.970 0.760517 7.63130
  1148 269.559 16.7677 -18.4075
  1149 265.732 14.2502 17.5739
  1150 275.563 -10.9173 -4.52681
  1151 262.815 -15.8987 0.103840
  1152 238.645 -15.5077 -9.31977
  1153 284.424 -1.66103 13.9514
  1154 505.167 51.0484 7.13440
  1155 286.412 -6.09195 25.4210
  1156 287.184 18.8536 27.7133
  1157 265.258 -26.1403 -7.07166
  1158 32.3063 5.49306 -19.2183
  1159 270.234 -12.4914 -3.29416
  1160 177.861 -0.300176 -0.107164
  1161 177.898 -0.298967 0.105845
  1162 329.844 -8.74735 14.0621
  1163 314.353 -26.4496 10.7306
  1164 451.980 81.1128 19.6356
  1165 106.246 -0.235103 -10.5083
  1166 106.906 -0.211795 10.4267
  1167 240.842 -4.89474 -0.999328
  1168 240.828 -4.86289 0.991272
  1169 271.109 -23.9408 -0.329001
  1170 220.692 0.971760 3.45543
  1171 277.690 -19.7703 6.56991
  1172 15.4402 18.3565 -8.65312
  1173 49.3993 24.7880 32.7787
  1174 185.403 -10.0029 61.2534
  1175 320.901 61.2757 -13.8800
  1176 307.278 -0.832890 -3.95111
  1177 323.079 -0.497950 0.236916
  1178 323.406 -0.687034 -0.153879
  1179 185.351 -0.474764 -0.362633
  1180 185.389 -0.471094 0.359675
  1181 295.717 18.9160 31.4946
  1182 438.962 75.2487 -1.59418
  1183 304.548 50.4473 -14.0623
  1184 227.975 -16.6938 62.9468
  1185 184.414 -9.60491 -61.1395
  1186 204.665 -13.8139 -21.3308
  1187 284.692 -7.89730 6.16980
  1188 397.859 87.4932 2.44230
  1189 204.678 -13.7291 21.1572
  1190 291.043 -5.00617 4.67099
  1191 258.640 9.55665 16.7622
  1192 285.702 8.83724 30.2288
  1193 408.238 91.2679 9.11570
  1194 241.315 -6.33059 1.87441
  1195 241.330 -6.36281 -1.88908
  1196 294.771 -5.46592 9.89639
  1197 173.136 -1.90196 7.11573
  1198 173.012 -1.92153 -7.18306
  1199 288.396 -3.84235 -2.12598
  1200 118.355 70.3328 -107.712
  1201 249.693 -14.0341 -67.3885
  1202 234.598 -7.41358 -3.57891
  1203 234.620 -7.37819 3.57990
  1204 309.860 -1.39005 1.61348
  1205 292.829 -3.74982 3.73974
  1206 15.7530 19.5721 14.2509
  1207 319.148 -0.331914 1.32949
  1208 37.5053 47.1735 46.8073
  1209 285.889 -4.19100 -2.72444
  1210 -0.393750 -7.05502 -6.17218
  1211 201.518 -19.6543 -47.3878
  1212 200.945 -19.1740 46.9057
  1213 319.141 -0.538721 -1.46564
  1214 271.969 -14.3432 -3.89904
  1215 309.618 -1.26031 -1.66358
  1216 246.732 -8.01470 -1.71273
  1217 246.704 -7.98310 1.69051
  1218 288.208 -3.81352 2.00154
  1219 270.038 -12.2485 3.25965
  1220 259.664 -8.34849 -0.219503
  1221 259.759 -8.37357 0.252287
  1222 309.372 -1.29966 -1.36150
  1223 266.563 -28.0130 -45.7956
  1224 302.546 -1.77989 -1.40231
  1225 287.132 -4.31167 2.91700
  1226 198.840 -2.24385 -2.75937
  1227 198.871 -2.22157 2.74196
  1228 222.680 -3.32084 -1.38054
  1229 222.689 -3.29701 1.37297
  1230 362.747 56.4786 19.2377
  1231 304.704 -23.3672 12.1041
  1232 208.636 -0.916207 77.8775
  1233 165.529 -0.300864 2.73040
  1234 165.387 -0.304006 -2.75891
  1235 288.288 -5.29808 19.1399
  1236 276.108 -4.11245 0.622527
  1237 276.122 -4.09767 -0.622124
  1238 315.678 61.6117 6.47251
  1239 289.878 -30.3157 36.0697
  1240 166.066 -2.40297 10.0137
  1241 165.898 -2.42167 -10.0906
  1242 275.654 -6.67529 2.40079
  1243 275.593 -6.72046 -2.33555
  1244 284.541 -7.79720 -5.95165
  1245 260.419 0.0444613 8.98808
  1246 453.143 112.554 -36.7910
  1247 289.707 -10.5578 -17.0305
  1248 48.9196 11.8237 28.0038
  1249 299.365 -15.9164 23.5652
  1250 238.975 5.16323 -6.75931
  1251 17.9168 13.4165 9.91673
  1252 395.704 43.5742 -2.38263
  1253 292.256 -13.2625 -23.7420
  1254 240.146 3.36392 10.3496
  1255 164.610 -10.3641 31.9505
  1256 297.083 -22.9615 14.3719
  1257 432.874 81.7183 24.5556
  1258 99.0008 14.7742 54.0879
  1259 298.684 -3.47844 -8.51512
  1260 578.227 6.42652 -5.85671
  1261 597.833 9.01516 26.1716
  1262 638.950 21.9012 -62.0835
  1263 289.251 -8.99242 -21.1074
  1264 289.348 -13.1680 18.0719
  1265 294.067 -20.8962 16.9839
  1266 -8.67059 0.958042 5.52920
  1267 -7.90303 0.753955 -6.00393
  1268 286.370 -31.6087 -16.4596
  1269 293.538 -29.6340 -24.9881
  1270 222.334 1.38768 -4.27025
  1271 285.222 -32.1876 24.9903
  1272 304.573 -14.4127 -23.9359
  1273 5.68348 8.94429 0.748673
  1274 246.939 -4.51256 0.752220
  1275 246.959 -4.54618 -0.754219
  1276 303.003 -2.35563 5.82033
  1277 291.033 -4.91456 -4.39602
  1278 273.817 -29.9013 -8.47346
  1279 249.662 -13.5688 3.72685
  1280 248.385 -13.3815 -4.10272
  1281 293.575 -6.14924 13.5052
  1282 300.809 -11.0210 -27.3947
  1283 18.6014 13.9891 -9.56403
</Section>

newXOutput 40

<Section columns = "stress_xx | stress_yy | stress_xy">
  1 333.321 -0.0398268 0.663916
  2 333.337 -0.0350854 -0.666089
  3 179.465 -0.0754836 -0.240527
  4 -2.28333 -2.26323 -3.28172
  5 605.107 236.453 191.635
  6 599.403 245.241 -191.895
  7 -2.65038 -2.15531 3.48539
  8 179.428 -0.0761842 0.239826
  9 335.719 -0.544051 0.206789
  10 334.984 -0.866404 -0.156354
  11 334.168 -0.564612 0.775899
  12 333.354 -0.789876 0.235372
  13 331.609 -0.660130 1.22329
  14 330.030 -0.670198 0.903692
  15 326.345 -0.593981 1.75094
  16 321.119 -0.394026 2.57566
  17 316.449 -0.429557 2.85870
  18 309.558 -0.619484 3.44685
  19 300.042 -0.0308798 5.08340
  20 291.249 -0.457451 4.82164
  21 281.289 -0.605517 6.77962
  22 266.898 0.430670 5.88841
  23 256.518 0.636406 6.95239
  24 242.983 1.08089 5.43209
  25 233.635 1.11318 5.47257
  26 220.089 1.57914 2.78767
  27 217.243 2.48984 2.98530
  28 215.536 2.02906 -0.880311
  29 217.883 1.15484 -1.94115
  30 222.198 1.13700 -2.37873
  31 232.343 1.44589 -4.75249
  32 242.194 1.14128 -6.02135
  33 256.686 0.236891 -7.14571
  34 268.287 -0.155190 -6.52086
  35 280.680 -0.483366 -6.41770
  36 291.916 -0.355937 -4.53750
  37 301.597 -0.367768 -3.88843
  38 309.599 -0.604147 -3.27065
  39 316.781 -0.425813 -2.28958
  40 321.285 -0.500039 -2.43437
  41 325.636 -0.626285 -1.78168
  42 329.766 -0.746681 -0.790963
  43 331.890 -0.597780 -0.923117
  44 333.027 -0.356999 -0.580527
  45 332.241 -0.180464 -0.528972
  46 335.337 -0.876818 0.101025
  47 335.828 -0.567940 -0.213374
  48 324.621 -0.205604 -0.410382
  49 317.202 -1.29025 -0.734437
  50 308.161 -1.91150 -0.486961
  51 297.148 -2.86371 -0.665212
  52 286.726 -3.14511 -0.828408
  53 275.613 -3.96912 -0.786107
  54 265.788 -4.43377 -0.439999
  55 257.171 -4.98634 -0.168899
  56 247.234 -4.14531 -0.166447
  57 235.783 -3.88759 -0.264850
  58 224.741 -3.08124 -0.0834620
  59 214.275 -1.97803 -0.0308797
  60 204.321 -1.41862 0.0149029
  61 195.578 -0.739076 0.0909726
  62 186.623 -0.207427 -0.276461
  63 179.578 0.249512 0.337399
  64 176.432 0.717220 0.223257
  65 178.616 0.00116658 0.534940
  66 176.252 -0.104295 0.642931
  67 174.078 -0.152250 0.802512
  68 171.116 -0.0247844 1.05081
  69 167.378 -0.0143974 1.32716
  70 164.644 -0.232320 2.57221
  71 156.700 0.230443 2.81159
  72 151.128 -0.0202714 3.22717
  73 142.829 -0.151339 3.65845
  74 133.260 -0.252470 4.45597
  75 121.304 -0.0605320 5.41023
  76 106.725 0.0651994 5.95745
  77 94.1916 -0.139240 8.50827
  78 69.3297 0.797608 8.01192
  79 52.4610 0.688699 8.48365
  80 32.3095 -0.138841 9.38456
  81 15.6381 1.58334 9.72446
  82 -3.30990 2.35074 5.77325
  83 -17.0078 2.38408 1.97001
  84 -16.3633 2.28124 -0.973387
  85 -15.4282 1.88761 -4.67487
  86 -9.05355 -0.634078 -4.41331
  87 -1.12816 -8.69178 -4.86198
  88 0.824199 -16.0540 -6.11445
  89 2.33885 -25.5183 -3.47908
  90 5.22316 -26.3704 0.0745114
  91 11.0941 -7.28444 14.3809
  92 33.3150 49.3285 49.6369
  93 198.058 181.225 170.908
  94 731.515 108.849 122.978
  95 657.995 15.6244 40.2014
  96 610.762 6.43975 12.3023
  97 593.302 5.44743 0.966335
  98 602.474 7.27821 -10.6253
  99 656.345 14.5019 -31.7946
  100 776.507 52.5288 -106.312
  101 117.297 184.721 -142.637
  102 24.9638 33.7839 -40.9206
  103 12.0965 -6.06853 -15.0459
  104 4.87727 -26.4779 -2.38162
  105 1.33882 -19.4977 4.01493
  106 1.71781 -20.2169 5.31652
  107 0.0689127 -7.52882 5.38201
  108 -9.44632 -0.424159 4.19380
  109 -15.9208 1.41652 4.08690
  110 -17.2251 2.77583 1.06861
  111 -17.5647 2.35044 -1.81316
  112 -4.52668 2.40936 -5.39954
  113 14.5566 1.59743 -9.26625
  114 31.2042 0.0280292 -9.22988
  115 51.3234 0.744887 -8.50317
  116 68.2961 0.819059 -8.07549
  117 93.3893 -0.142748 -8.58275
  118 106.037 0.0730641 -6.01748
  119 120.703 -0.0579630 -5.48042
  120 132.950 -0.278899 -4.49133
  121 142.417 -0.144359 -3.66924
  122 150.817 -0.00992639 -3.26215
  123 156.446 0.227473 -2.84410
  124 164.463 -0.234526 -2.59981
  125 167.234 -0.0158297 -1.34418
  126 171.008 -0.0261370 -1.06484
  127 173.997 -0.154477 -0.813659
  128 176.191 -0.106200 -0.650737
  129 178.567 -0.000494083 -0.539949
  130 176.391 0.716264 -0.225604
  131 179.539 0.249056 -0.338856
  132 186.584 -0.209342 0.275635
  133 195.541 -0.743863 -0.0928033
  134 204.288 -1.42920 -0.0170544
  135 214.251 -1.99276 0.0287970
  136 224.728 -3.10246 0.0814257
  137 235.782 -3.91431 0.263266
  138 247.247 -4.17612 0.164910
  139 257.195 -5.02062 0.168274
  140 265.819 -4.46785 0.441172
  141 275.656 -4.00013 0.789568
  142 286.761 -3.16666 0.840875
  143 297.173 -2.88296 0.724621
  144 308.214 -1.80264 0.497987
  145 317.428 -1.25438 0.718398
  146 324.671 -0.255758 0.404345
  147 289.723 -27.2112 -2.51243
  148 289.487 -26.8463 2.61638
  149 303.584 43.6635 -15.2116
  150 324.005 19.1169 32.3484
  151 245.350 -23.5567 -53.5984
  152 247.320 -23.5336 51.8517
  153 237.868 -10.1664 6.25724
  154 237.891 -10.3103 -6.26342
  155 343.897 12.3202 -24.9835
  156 288.947 -10.3518 6.80551
  157 288.826 -10.0988 -6.71959
  158 373.529 83.5817 4.12136
  159 295.512 -0.473769 -31.4764
  160 218.247 -17.2775 -23.9539
  161 218.247 -17.1307 23.7362
  162 296.117 -6.68418 28.4723
  163 280.828 20.4592 18.7032
  164 115.631 18.7410 -63.9432
  165 128.350 17.7433 67.4008
  166 363.446 4.01637 3.82472
  167 297.030 -11.3591 -19.8978
  168 393.715 86.5045 -2.36177
  169 267.298 -7.53122 0.212400
  170 267.240 -7.50598 -0.187912
  171 300.789 -3.56160 -2.98499
  172 301.767 -3.18958 2.58347
  173 209.090 -3.06667 -3.76630
  174 209.115 -3.03426 3.74530
  175 323.568 -8.71557 68.0873
  176 271.724 11.2309 -20.1367
  177 177.361 -13.3435 -38.6249
  178 177.895 -13.2452 38.3642
  179 199.104 -6.62492 -12.5677
  180 199.120 -6.54756 12.4699
  181 298.509 -7.79922 16.9072
  182 271.112 -18.6436 -0.229196
  183 270.140 -18.5046 0.673665
  184 308.740 -29.8338 -4.53678
  185 310.326 -28.4215 0.682028
  186 427.003 100.422 -14.0017
  187 309.594 49.7990 14.2378
  188 310.346 19.0683 -32.4050
  189 322.526 -2.95331 -79.2731
  190 308.231 -17.3828 -22.8473
  191 310.862 -12.3970 26.8208
  192 258.921 -29.4173 26.0390
  193 259.001 -29.2126 -25.9551
  194 276.500 3.49414 24.2262
  195 125.937 -3.02892 -47.1789
  196 126.255 -3.30338 46.8822
  197 482.225 72.3630 10.3775
  198 291.848 -17.3656 12.5603
  199 302.832 -5.50776 -11.0522
  200 239.301 -5.89909 -2.81242
  201 239.304 -5.86742 2.80255
  202 290.291 -3.76246 -21.9168
  203 330.784 48.6012 -26.0467
  204 276.071 24.7745 -3.75211
  205 179.042 -6.43095 17.7403
  206 178.764 -6.45261 -17.8781
  207 307.541 -3.34380 6.09226
  208 298.921 5.62189 32.3547
  209 242.724 -17.7736 -11.3536
  210 241.044 -16.8311 11.6491
  211 352.868 52.3294 24.0724
  212 415.994 56.4127 8.26080
  213 27.7286 21.8425 -17.6026
  214 25.6288 20.1923 14.9364
  215 170.718 48.7122 113.140
  216 288.901 -19.1862 -9.74244
  217 308.691 -3.21304 -5.50601
  218 273.304 2.37194 -22.3048
  219 190.913 -1.95543 -5.56760
  220 190.973 -1.93314 5.51642
  221 259.674 -12.2219 -2.11534
  222 259.793 -12.2947 1.96652
  223 292.865 -3.93363 18.6697
  224 338.100 -19.6048 6.83166
  225 334.913 68.6375 -7.58320
  226 262.647 -25.4267 -12.0584
  227 332.780 -5.77964 21.0423
  228 283.272 -4.69996 1.15321
  229 283.277 -4.65986 -1.15141
  230 260.682 -25.3044 12.5578
  231 298.980 -18.9389 18.6496
  232 421.828 53.7657 -25.4683
  233 92.7627 55.2395 -81.6548
  234 252.063 8.79135 4.79224
  235 299.870 26.4490 27.2351
  236 320.018 -2.22516 -29.0267
  237 298.801 -10.7319 -26.6791
  238 158.152 -5.15777 -22.2593
  239 158.710 -5.07879 22.1834
  240 299.336 -3.57836 -14.4788
  241 285.305 -7.17487 3.63701
  242 285.171 -7.16362 -3.52087
  243 59.2847 5.56301 -29.9338
  244 60.2631 4.87819 29.8367
  245 318.382 -27.8314 -23.9553
  246 315.086 -1.05467 0.860907
  247 315.437 -1.07558 -0.929095
  248 292.753 24.2594 -24.9123
  249 257.191 4.89301 14.5621
  250 541.932 86.8117 58.1837
  251 537.580 61.2059 -36.4888
  252 387.931 83.8852 -0.675819
  253 242.054 -11.6207 71.4371
  254 222.029 -7.49656 -74.7481
  255 254.384 -5.22507 -0.927521
  256 254.359 -5.19000 0.920080
  257 210.592 -5.72001 7.63046
  258 210.594 -5.80013 -7.70150
  259 307.052 -3.25861 8.98505
  260 297.786 -21.1819 -15.4310
  261 191.798 -0.388631 -1.29323
  262 191.839 -0.382146 1.28461
  263 294.034 -11.8631 -12.2508
  264 123.708 -4.07418 -30.8386
  265 124.259 -4.08754 30.6098
  266 297.621 -12.8730 21.4384
  267 226.925 -24.0853 43.0938
  268 227.519 -24.5174 -42.9634
  269 255.835 9.73801 -6.77735
  270 220.742 -3.43806 -2.53380
  271 220.759 -3.41384 2.52328
  272 278.550 -0.710721 17.9055
  273 333.294 61.1329 18.0906
  274 177.493 -2.21638 9.47188
  275 177.355 -2.23537 -9.55598
  276 305.918 -25.5134 11.0134
  277 283.196 -31.7402 -28.5837
  278 316.197 -1.46298 2.84631
  279 218.595 -13.0612 -16.3265
  280 218.205 -12.9131 16.2610
  281 390.388 40.0706 100.336
  282 182.945 -14.7448 51.5194
  283 295.450 41.5237 -1.61611
  284 374.822 41.2679 -16.1223
  285 282.206 -21.8373 4.08286
  286 283.386 -32.6130 25.7033
  287 183.517 -14.4998 -52.1160
  288 33.8104 41.6700 37.6693
  289 294.084 -11.9072 12.4740
  290 386.195 50.3246 12.7926
  291 318.760 -1.30498 -2.46760
  292 287.789 10.0491 -28.6729
  293 284.389 -16.0726 6.88556
  294 278.408 -23.5202 0.273193
  295 286.701 13.1448 27.6130
  296 304.435 -25.5257 -9.88758
  297 431.649 84.1321 -7.15194
  298 284.312 -15.4467 -6.59106
  299 235.661 67.2601 -138.787
  300 290.843 -30.8176 -5.11914
  301 288.770 -31.6556 8.44529
  302 211.579 -19.2117 -33.8874
  303 190.070 -0.757093 -2.82195
  304 190.121 -0.743972 2.79827
  305 211.663 -19.2250 33.6978
  306 307.488 -0.507785 -32.5996
  307 332.359 -13.7534 -14.1697
  308 252.490 -15.2728 -5.86469
  309 252.317 -15.3073 5.97631
  310 302.793 -26.0595 46.0059
  311 301.833 -2.39140 10.9639
  312 367.563 1.54724 15.6221
  313 247.246 -8.77243 -3.19471
  314 247.261 -8.74118 3.17489
  315 224.866 -5.91829 -4.97871
  316 224.865 -5.86152 4.97022
  317 254.483 3.38731 -14.0862
  318 327.926 24.0282 -31.3973
  319 508.310 136.884 -64.6467
  320 299.000 -2.56059 -1.00743
  321 298.824 -2.52554 1.03296
  322 159.554 -0.218313 64.2831
  323 223.778 -10.2396 -10.7384
  324 223.343 -10.2023 10.7649
  325 159.527 -0.584768 -64.0385
  326 312.325 36.8814 -26.5940
  327 350.173 17.2933 23.8032
  328 302.826 -21.6133 -51.1502
  329 277.960 -10.7137 3.11038
  330 277.673 -10.6329 -2.98689
  331 296.904 -6.09786 -5.99429
  332 278.756 -0.537829 -16.7485
  333 313.236 1.36440 31.9687
  334 312.828 -2.14781 -6.20525
  335 187.156 -11.4506 25.8674
  336 186.951 -11.5162 -26.0734
  337 291.100 -0.664955 29.8656
  338 178.487 -1.49597 -5.60728
  339 178.603 -1.48179 5.55394
  340 299.071 -6.82486 9.27443
  341 358.592 73.3331 -13.5175
  342 296.746 -6.14612 6.21442
  343 315.867 39.6998 26.7052
  344 302.380 -5.60927 31.0606
  345 238.983 -4.50475 1.01037
  346 238.986 -4.53369 -1.01784
  347 285.908 -1.03048 -26.4926
  348 379.095 79.7627 8.88809
  349 314.698 57.7874 0.558529
  350 192.905 22.4616 -95.7380
  351 19.4257 8.70157 -12.8697
  352 21.3602 9.41097 13.8730
  353 -1.09010 2.15622 5.91284
  354 0.112305 1.17195 -6.16457
  355 555.590 38.5285 13.2928
  356 260.793 -21.2315 -6.92917
  357 299.316 -6.59144 -9.05086
  358 269.799 -4.72391 0.438566
  359 269.767 -4.68467 -0.440039
  360 288.391 31.8552 -13.4868
  361 246.225 -25.1522 21.4129
  362 21.3470 31.6862 -23.1891
  363 246.470 -25.1487 -21.8146
  364 292.208 33.2385 14.3527
  365 298.496 -7.92876 -16.1139
  366 316.808 -17.6533 -19.5838
  367 337.171 71.3516 5.23514
  368 317.567 -19.8006 16.2718
  369 130.274 -3.28753 20.6694
  370 129.477 -3.22437 -20.8076
  371 73.4316 1.83607 -28.6018
  372 74.2344 1.53603 28.4720
  373 258.579 0.817255 14.2557
  374 493.627 143.738 55.1797
  375 308.773 -1.93743 -7.85401
  376 239.829 -20.3427 -16.3645
  377 239.621 -20.2872 16.3416
  378 296.638 -6.82255 -20.3505
  379 338.387 -16.3584 3.06165
  380 260.783 -21.2107 7.15056
  381 371.789 2.48998 -29.6740
  382 208.863 -1.72373 -0.961658
  383 208.892 -1.70859 0.954137
  384 291.602 -1.68929 -12.9627
  385 156.168 -2.29314 -13.4981
  386 156.270 -2.36576 13.3303
  387 348.783 44.5280 -26.6967
  388 188.285 13.3284 88.8809
  389 272.864 -14.3365 1.63134
  390 273.134 -14.3100 -1.64507
  391 320.533 54.3018 -16.9333
  392 303.597 -8.98637 -29.4717
  393 304.750 -31.1202 24.8797
  394 253.490 -6.75177 -1.43395
  395 253.459 -6.71748 1.41804
  396 293.013 -22.6024 10.4793
  397 315.877 -1.48351 4.61894
  398 195.957 -7.23062 -15.7572
  399 196.034 -7.22949 15.6184
  400 297.328 9.97192 -31.9028
  401 280.841 -6.06528 1.74801
  402 280.829 -6.07891 -1.70955
  403 290.342 -3.41692 24.3768
  404 270.245 19.6573 6.45811
  405 301.200 -12.7016 25.7737
  406 435.884 91.3573 15.9845
  407 144.824 -7.80747 -41.3402
  408 145.234 -7.81040 41.0184
  409 64.5612 34.7438 -49.0336
  410 323.351 -0.919697 1.29512
  411 162.801 -1.41218 -8.53754
  412 163.023 -1.38224 8.46192
  413 296.889 -7.72741 19.9455
  414 269.281 -29.2529 13.9131
  415 304.448 -3.73624 4.24805
  416 309.817 15.7373 33.3040
  417 67.7348 36.9942 51.1707
  418 269.692 -29.0917 -12.7650
  419 278.713 -25.9251 -2.16868
  420 90.1313 -1.81185 -25.9559
  421 90.8312 -1.88126 25.7729
  422 213.879 -17.0670 -62.1385
  423 320.094 -4.76492 28.3383
  424 213.044 -17.3300 61.5835
  425 295.628 -16.5878 -16.7948
  426 274.104 18.4564 -14.1647
  427 295.684 -12.7542 15.9287
  428 318.616 -1.39406 -3.13410
  429 9.53831 10.0670 4.25989
  430 64.2048 73.7613 72.6471
  431 284.212 -1.04735 12.4863
  432 237.841 3.22342 6.16329
  433 242.042 3.93800 -8.36641
  434 206.510 -3.46833 -5.38248
  435 206.530 -3.42337 5.34564
  436 291.500 -22.5899 -9.62664
  437 294.363 -5.75896 -27.3073
  438 239.146 4.44220 -2.27289
  439 435.832 103.747 20.8309
  440 59.7552 19.9847 -36.7084
  441 65.9259 18.3440 39.2562
  442 272.613 -9.71405 1.47004
  443 272.507 -9.68902 -1.39595
  444 363.540 80.5212 -1.08411
  445 227.972 93.0523 141.869
  446 350.284 -4.97136 -5.58405
  447 200.357 -10.5273 -21.3794
  448 200.449 -10.4535 21.1929
  449 201.496 -4.56086 8.41653
  450 201.460 -4.59524 -8.49555
  451 272.518 6.01900 -22.9568
  452 325.047 -0.442451 -0.864335
  453 264.789 12.1090 12.8803
  454 335.464 41.4298 28.8161
  455 279.214 -20.7395 -3.01520
  456 304.335 -3.55260 -4.12559
  457 319.949 -1.25975 2.88729
  458 324.121 -0.471592 0.494432
  459 324.393 -0.534887 -0.366175
  460 177.209 -0.331771 2.06932
  461 177.121 -0.336643 -2.09173
  462 305.569 -19.4011 20.2952
  463 275.156 10.8271 22.2308
  464 287.857 1.15837 -29.1196
  465 300.985 -6.31444 11.9999
  466 435.617 72.3970 -84.0971
  467 301.639 -16.7268 -22.6178
  468 2.70932 5.68056 2.20870
  469 2.69218 5.76445 -0.716507
  470 238.565 -13.5783 9.15836
  471 237.757 -13.3991 -9.05120
  472 375.889 6.67966 45.0228
  473 104.842 94.9047 -107.323
  474 297.552 -0.895872 9.72621
  475 337.936 -19.7131 -25.4224
  476 179.131 -10.3759 29.9693
  477 361.690 64.1782 -19.4192
  478 297.294 -16.0811 18.9856
  479 249.268 -11.9593 -4.43802
  480 249.488 -11.7593 4.42402
  481 258.514 1.36812 -12.5912
  482 178.567 -10.3365 -30.1609
  483 265.182 0.102608 12.6668
  484 254.624 -29.1109 -38.4148
  485 253.981 -29.1553 38.5457
  486 306.978 -2.01920 8.66605
  487 278.336 26.2287 2.67014
  488 283.626 4.75160 96.8449
  489 416.802 85.0031 -0.533769
  490 287.730 -4.81355 1.98528
  491 287.748 -4.79571 -2.05060
  492 220.605 -3.95845 -3.38626
  493 220.619 -3.92478 3.37276
  494 116.333 5.43627 53.9310
  495 298.598 -14.3716 -22.1134
  496 270.666 -5.87484 0.349092
  497 270.639 -5.85319 -0.342811
  498 235.598 -24.9795 31.4472
  499 118.600 7.17144 -55.3087
  500 299.088 -24.3650 -11.0096
  501 5.07577 0.929667 2.49144
  502 260.738 13.4280 0.935938
  503 288.805 -3.30050 -0.657993
  504 288.796 -3.34707 0.644088
  505 235.750 -24.9384 -31.6949
  506 338.297 -17.4723 32.6639
  507 334.948 12.1621 29.3764
  508 309.306 -2.05611 -2.05977
  509 298.173 -24.7103 11.1590
  510 185.768 -0.191523 -0.365323
  511 185.808 -0.189791 0.362063
  512 297.655 -11.4210 -23.5461
  513 287.976 21.3048 24.3464
  514 330.819 8.16762 -29.0081
  515 184.647 -0.306524 -1.16260
  516 184.694 -0.302340 1.15426
  517 579.102 83.6345 -74.9269
  518 299.754 35.7197 21.4629
  519 309.583 -1.88885 1.83626
  520 279.338 -26.4947 2.84073
  521 234.407 -7.80203 5.02643
  522 234.407 -7.86284 -5.01622
  523 325.419 -19.8082 9.23277
  524 312.531 -6.23386 -29.8251
  525 349.321 68.9234 16.2069
  526 290.380 4.98824 30.1900
  527 293.186 -5.59964 3.83119
  528 284.974 -30.3870 -36.9084
  529 295.343 -7.29994 23.1683
  530 572.527 26.2325 -10.5010
  531 323.054 -24.3491 -1.05315
  532 307.383 -1.98931 -0.498206
  533 307.456 -2.12040 0.441667
  534 578.468 38.8221 36.8435
  535 283.072 -0.102930 25.6760
  536 397.434 66.5974 -7.40393
  537 298.335 -8.08618 -11.6818
  538 133.814 -1.27650 -9.23494
  539 134.240 -1.21528 9.13914
  540 201.560 -18.8917 -43.1708
  541 201.715 -18.5744 42.8455
  542 293.026 -5.36478 -3.79431
  543 318.811 11.7026 -32.5664
  544 280.050 -19.0643 4.08439
  545 301.093 34.5364 -22.2810
  546 303.651 -3.50424 11.6657
  547 381.109 18.9066 -3.64588
  548 259.490 -8.90820 -1.16584
  549 259.409 -8.87538 1.14941
  550 282.050 -13.3058 5.16707
  551 416.458 82.2973 -5.42783
  552 296.988 12.9910 31.3623
  553 126.829 32.6655 79.8028
  554 287.387 -17.2574 64.5943
  555 380.279 18.0632 -71.0966
  556 303.654 25.1097 -29.2043
  557 269.654 -23.2821 -55.9727
  558 291.996 -31.9881 -10.7160
  559 305.067 -30.8672 -15.8870
  560 39.7924 51.3665 -48.7110
  561 306.612 -3.84120 -7.22271
  562 461.621 89.8417 -25.9475
  563 283.568 -12.7573 -5.73510
  564 285.949 -9.28155 4.72855
  565 285.682 -9.06747 -4.54243
  566 196.437 -1.16495 -2.55763
  567 196.477 -1.14984 2.53974
  568 27.5185 2.94030 -15.6809
  569 29.0903 3.08090 16.0479
  570 146.181 -6.84022 -31.5550
  571 147.311 -6.87675 31.5014
  572 289.862 -15.6926 -10.6854
  573 295.435 -32.1178 11.6217
  574 303.694 -28.8136 2.35695
  575 248.576 -4.40368 -0.895372
  576 248.561 -4.37122 0.890495
  577 235.991 -24.7319 -47.9221
  578 264.441 -21.6642 59.2467
  579 230.235 -23.2536 48.2007
  580 298.108 -6.61377 -29.3609
  581 186.106 -3.15085 9.49819
  582 186.015 -3.18412 -9.57968
  583 283.979 15.6723 -24.4456
  584 284.424 -0.497358 -11.3324
  585 355.543 77.3514 -7.33476
  586 231.835 -3.54072 -0.897055
  587 231.841 -3.51650 0.892570
  588 303.500 -0.891917 -6.40319
  589 208.985 -7.14180 -10.4819
  590 208.988 -7.11568 10.3882
  591 170.979 7.97477 76.4403
  592 295.388 -13.5708 -16.1069
  593 164.449 -8.65903 54.8951
  594 290.275 -15.0270 10.9063
  595 305.754 -4.27638 7.96869
  596 301.982 -2.71465 -1.82936
  597 211.353 -2.66283 -2.36637
  598 211.378 -2.64056 2.35332
  599 340.979 68.2061 -14.5700
  600 164.334 -8.32570 -55.1069
  601 289.314 -12.5038 -8.74937
  602 260.735 -4.83853 -0.420310
  603 260.707 -4.80184 0.418516
  604 491.032 66.1720 -11.6594
  605 172.187 -1.13329 5.24978
  606 172.037 -1.14444 -5.30034
  607 269.217 6.14172 20.9378
  608 386.196 32.1127 -5.29709
  609 182.247 1.33699 -75.8863
  610 92.8394 2.41700 -41.2723
  611 93.6228 1.87771 41.0527
  612 228.445 -13.4241 12.9459
  613 230.858 -13.8195 -12.5627
  614 390.111 78.5570 7.62536
  615 300.727 -2.81564 1.65995
  616 257.349 7.19385 -12.6379
  617 321.328 57.8432 13.3924
  618 320.150 60.0306 -8.90450
  619 263.113 -14.6191 -1.93497
  620 265.134 -14.2855 0.990586
  621 188.857 41.0720 -109.199
  622 225.789 -7.80042 -7.16805
  623 225.805 -7.70993 7.14170
  624 575.722 117.798 88.6642
  625 297.771 -9.74167 25.3886
  626 169.358 -6.06544 -20.2190
  627 463.899 106.669 70.7693
  628 169.757 -6.03070 20.1391
  629 285.090 -10.9140 -75.5107
  630 200.077 -1.02355 -0.943503
  631 200.112 -1.01462 0.938458
  632 247.982 2.19856 11.0216
  633 112.191 -1.69638 -18.1602
  634 112.831 -1.70055 18.0144
  635 259.709 -18.4398 5.26493
  636 272.478 -21.8594 -1.21285
  637 321.710 -0.678965 -2.63218
  638 180.142 -0.306096 1.52230
  639 180.074 -0.311460 -1.53881
  640 244.820 -5.54694 -1.33199
  641 244.809 -5.51466 1.32108
  642 281.491 -31.2072 37.3147
  643 323.207 36.1051 -29.4833
  644 214.528 -10.1045 -13.5178
  645 214.369 -9.93287 13.4174
  646 254.871 -18.4092 -7.46467
  647 402.089 87.6632 2.08564
  648 301.885 -29.1904 -0.680803
  649 261.740 -6.26684 -0.522493
  650 261.700 -6.23463 0.523226
  651 360.641 39.4052 22.6233
  652 302.398 -4.33090 -12.6813
  653 266.741 -0.341997 -10.3192
  654 123.071 -4.19834 -39.6492
  655 123.459 -4.31888 39.3195
  656 254.227 -22.0091 -12.1546
  657 381.663 84.3169 0.199488
  658 295.551 40.0454 -9.66703
  659 195.459 -1.82746 -4.72206
  660 195.503 -1.80184 4.68272
  661 275.987 -7.78356 -1.47006
  662 276.041 -7.79348 1.53043
  663 515.754 67.3958 29.6572
  664 326.806 -0.857584 0.718506
  665 315.478 -1.22239 4.51416
  666 314.211 -1.24997 -5.27949
  667 298.152 -27.7405 5.01735
  668 218.703 -2.58968 -1.18279
  669 218.723 -2.57070 1.17718
  670 318.224 51.0785 20.6030
  671 408.945 90.9757 -4.92280
  672 223.138 -16.6915 -19.1544
  673 223.069 -16.5250 19.0547
  674 279.668 -28.8349 -5.51495
  675 294.745 17.5128 -29.5116
  676 350.692 0.876859 13.0827
  677 231.968 -4.35964 -2.32751
  678 231.974 -4.33065 2.31731
  679 200.660 -17.6462 -38.9828
  680 295.317 -28.5503 -2.27190
  681 245.215 -27.2046 34.6389
  682 117.066 37.0503 -76.9825
  683 228.779 -21.2702 26.7144
  684 275.898 0.0732697 9.54231
  685 200.842 -17.4446 38.7159
  686 289.144 -12.7489 8.85734
  687 228.862 -21.1827 -26.9640
  688 233.798 3.01409 2.31063
  689 180.738 -4.93202 14.3595
  690 180.575 -4.93813 -14.4638
  691 245.360 -27.9108 -35.0279
  692 303.523 -19.9767 -19.6250
  693 278.272 -3.86578 -0.379238
  694 278.317 -3.90713 0.380966
  695 310.257 -19.7382 19.4677
  696 281.842 -29.4619 6.62861
  697 342.609 31.4186 28.6422
  698 308.970 -5.77159 30.6980
  699 297.302 -10.6435 18.7465
  700 283.612 23.3022 -18.5429
  701 341.618 57.5161 22.6449
  702 294.816 -4.06713 -18.1357
  703 293.977 -9.71241 9.71857
  704 303.524 47.5787 5.22734
  705 299.017 -5.04833 15.8209
  706 93.9426 63.8169 80.6634
  707 278.359 -32.0074 -21.3910
  708 322.313 5.87167 31.2367
  709 325.538 -10.0609 -22.3534
  710 325.203 -0.406555 1.46381
  711 297.136 -10.1772 -14.7929
  712 278.752 -32.2602 19.4018
  713 541.220 47.9169 -8.03164
  714 165.102 -0.727790 5.49601
  715 164.902 -0.735876 -5.54937
  716 301.515 -5.43261 -6.93719
  717 327.164 -0.307315 -1.42456
  718 253.752 -22.3637 12.2199
  719 305.027 -11.3296 27.9015
  720 464.563 110.400 -33.3458
  721 289.112 -20.9536 9.09657
  722 320.761 -21.0990 -11.6910
  723 294.089 -9.44954 -9.56407
  724 327.083 -0.539318 -0.470606
  725 297.583 -0.0216964 31.8665
  726 13.6295 12.1740 16.9735
  727 336.560 -13.0275 -48.8842
  728 365.995 21.6056 14.3936
  729 304.722 -31.1130 14.1216
  730 216.435 -5.26689 5.87785
  731 216.437 -5.34121 -5.90774
  732 285.155 143.005 -149.034
  733 310.400 -20.5080 -18.0177
  734 232.871 1.18427 -4.41654
  735 272.118 1.48795 20.4298
  736 299.318 -14.9557 22.4836
  737 286.901 -24.1778 4.70169
  738 298.609 -27.1956 -40.0938
  739 285.120 -22.5617 -5.21703
  740 337.243 -16.1559 -4.21346
  741 310.536 -2.48922 4.06145
  742 276.815 -16.6441 2.82254
  743 504.100 100.798 -53.5776
  744 295.428 -7.86220 7.72420
  745 291.953 4.76866 -31.0068
  746 249.636 -2.82243 84.9673
  747 312.913 25.2110 31.6977
  748 269.141 -21.2293 2.62318
  749 207.441 -16.4262 -28.4617
  750 207.457 -16.3793 28.2250
  751 285.826 32.1372 -4.32302
  752 291.013 -3.36203 27.7023
  753 294.267 -6.99170 -23.6610
  754 277.132 -16.9827 -2.91399
  755 267.897 -24.0533 6.65917
  756 305.877 50.5345 -5.91209
  757 286.546 -24.7999 -3.57062
  758 287.245 -18.1746 8.83480
  759 291.183 -3.68573 1.38671
  760 291.366 -3.58394 -1.37790
  761 391.767 86.1710 2.22448
  762 320.562 -27.2433 -9.15448
  763 298.045 -9.09145 14.7247
  764 310.667 -2.48005 -3.70146
  765 313.589 2.09319 -32.2729
  766 357.384 18.7218 -19.2162
  767 173.980 -0.181213 -2.56065
  768 174.094 -0.178654 2.53408
  769 2.47924 -5.53136 -3.92343
  770 304.243 -0.342323 5.93147
  771 278.450 -0.472766 -22.6127
  772 287.815 -2.69291 19.9637
  773 263.373 32.3483 124.840
  774 327.655 67.5036 -0.716854
  775 232.747 -16.7512 14.8833
  776 40.1428 0.926896 -15.5247
  777 41.3395 0.684396 15.6918
  778 285.208 -2.03463 -22.5090
  779 233.390 -16.9202 -14.8783
  780 308.827 -2.73039 3.09752
  781 156.943 -6.75765 26.9363
  782 155.584 -6.73464 -26.9526
  783 295.413 -7.63177 -7.52452
  784 187.772 -4.81116 -12.4915
  785 187.866 -4.77889 12.3777
  786 307.733 -2.86338 -8.78196
  787 234.309 -6.31480 -4.01349
  788 234.315 -6.27253 4.01468
  789 336.079 -2.13793 -22.4161
  790 302.123 -3.15696 -32.0000
  791 152.657 -0.996994 -7.01528
  792 152.959 -0.987734 6.93225
  793 7.19070 3.84892 -9.35902
  794 8.56402 4.05945 9.85075
  795 244.096 1.15972 -8.00854
  796 276.015 -31.0160 -15.8546
  797 -3.19252 -2.21432 5.49325
  798 -2.79366 -2.60317 -5.45126
  799 287.333 -5.71746 2.95895
  800 311.693 -24.2990 -10.4036
  801 321.501 47.6891 -24.0537
  802 310.176 -2.45104 -2.94222
  803 665.316 133.696 -124.978
  804 287.273 -5.69811 -2.92085
  805 432.800 82.6607 6.57281
  806 307.307 8.94879 -33.3574
  807 339.713 25.6170 -29.3018
  808 56.2105 -0.663760 -14.3657
  809 57.2764 -0.748526 14.3391
  810 190.850 -2.80464 7.38652
  811 190.783 -2.82840 -7.45432
  812 181.942 -0.447809 1.37940
  813 181.888 -0.452453 -1.39090
  814 343.362 57.8529 -22.4636
  815 202.141 -1.29886 -2.02926
  816 202.175 -1.28382 2.01737
  817 291.916 -2.93931 -28.9112
  818 422.710 42.7720 35.5455
  819 262.270 5.82327 -17.6020
  820 90.1277 -0.818102 15.4179
  821 89.3444 -0.825595 -15.5417
  822 340.637 9.00185 89.4273
  823 301.201 -5.47766 7.16011
  824 268.581 17.7901 -7.33435
  825 123.425 -0.208191 10.5252
  826 122.779 -0.150292 -10.6047
  827 185.940 -0.979013 -3.61397
  828 186.007 -0.964942 3.57946
  829 33.2290 29.6389 25.3759
  830 280.264 6.66072 26.1895
  831 312.094 45.9033 -20.5942
  832 336.106 39.0222 -29.0869
  833 220.240 -8.40372 -9.43560
  834 220.109 -8.33929 9.42119
  835 347.992 74.2081 10.2277
  836 300.718 -2.44035 -0.393828
  837 300.734 -2.42185 0.444950
  838 297.340 -8.88551 -18.8924
  839 248.767 -16.6416 8.54517
  840 274.308 -30.8302 15.9442
  841 322.769 -26.4487 24.8805
  842 246.498 -7.18710 -2.30351
  843 246.494 -7.15884 2.28683
  844 281.909 26.1135 11.9034
  845 264.732 3.58786 -19.0170
  846 73.6175 86.2795 83.9665
  847 268.742 -23.8586 -5.99516
  848 269.612 -12.0566 0.778621
  849 269.757 -12.0793 -0.792831
  850 296.619 -4.35959 30.4121
  851 294.287 -19.3217 -14.1070
  852 262.611 -17.4322 -3.22722
  853 601.641 19.4850 -29.8762
  854 249.593 -23.6773 16.8712
  855 249.398 -23.9872 -17.1490
  856 296.355 -3.52682 15.4314
  857 446.851 115.255 -25.1649
  858 234.087 -21.3466 -21.1898
  859 258.853 -29.1801 20.0380
  860 234.019 -21.0874 20.9990
  861 253.856 -10.2537 -2.61555
  862 253.847 -10.2176 2.59537
  863 37.3061 15.9794 22.0745
  864 318.548 23.8082 -32.1119
  865 243.506 -9.55387 -4.31342
  866 243.549 -9.45606 4.32939
  867 240.422 -4.00384 -0.519382
  868 240.417 -3.97549 0.515733
  869 264.729 -5.24997 0.0126954
  870 264.696 -5.21443 -0.0143331
  871 214.660 -4.26517 -5.09098
  872 214.675 -4.21676 5.06861
  873 244.455 -12.9277 -6.56728
  874 244.485 -12.8372 6.59562
  875 5.84572 -2.38421 -2.65398
  876 369.256 69.2749 16.8740
  877 317.635 -11.1205 -25.7927
  878 258.646 -28.7583 -20.2559
  879 279.478 -8.98156 2.78630
  880 279.353 -8.88721 -2.70727
  881 304.706 0.391134 32.6891
  882 331.713 -23.6700 -13.5190
  883 293.726 20.6584 -108.240
  884 132.962 -2.11516 53.3532
  885 -5.17879 3.10200 -3.56299
  886 -4.51582 3.49971 3.95753
  887 37.0490 16.9953 -22.5320
  888 297.948 -8.52284 11.6169
  889 313.707 -2.00641 -4.90058
  890 282.023 -27.1029 46.1445
  891 132.643 -1.97095 -53.5694
  892 314.293 -25.6973 7.38769
  893 350.330 -10.4487 39.9644
  894 253.113 1.01427 8.49176
  895 290.651 27.6451 20.2854
  896 156.928 -8.87087 39.2878
  897 156.315 -8.94283 -39.5536
  898 188.308 -9.04267 -22.0186
  899 198.233 -9.66093 -68.0916
  900 314.291 -7.33202 28.9320
  901 432.276 101.346 15.0073
  902 315.469 12.1433 32.7464
  903 298.207 -6.33413 -17.2259
  904 202.430 -8.65609 69.7880
  905 380.414 70.0687 -12.5339
  906 37.4620 31.9469 -31.3166
  907 275.128 -0.560554 -9.10228
  908 188.505 -8.96726 21.8185
  909 230.131 -5.11937 3.54488
  910 230.125 -5.15540 -3.55333
  911 294.719 -19.2191 14.5622
  912 306.277 -1.88833 1.19057
  913 225.080 2.10014 -84.6876
  914 323.034 -0.690673 2.32104
  915 320.561 -0.564678 -2.95823
  916 238.469 2.05018 -7.36115
  917 309.614 -1.25017 -5.26086
  918 230.935 -10.8809 -8.67214
  919 231.090 -10.7161 8.69796
  920 -7.67399 2.80152 -4.42650
  921 -10.5498 1.68926 4.67061
  922 306.271 -1.75013 -1.20613
  923 100.671 -2.26711 35.9925
  924 100.054 -2.04799 -36.2011
  925 326.823 47.7209 25.4091
  926 587.472 10.6027 9.25926
  927 307.515 34.2231 26.6489
  928 349.024 -12.3447 10.9111
  929 302.981 -16.8443 22.6726
  930 377.343 79.1266 -9.53836
  931 233.288 0.967873 5.54765
  932 291.562 -6.80865 -4.69563
  933 302.693 16.2754 -32.2406
  934 366.429 10.7298 -6.58334
  935 284.110 -17.5414 -6.97478
  936 144.202 -0.822575 -7.85765
  937 144.357 -0.793537 7.74497
  938 299.881 -7.00302 -13.5252
  939 9.86355 12.5616 2.43514
  940 287.841 -29.8365 -2.63604
  941 248.624 7.30807 -0.759552
  942 374.691 82.4692 -6.33594
  943 58.9490 43.8795 -52.1370
  944 287.836 -2.14127 -17.8892
  945 198.877 -3.37963 -6.89207
  946 198.914 -3.33941 6.83203
  947 1.68684 -8.25155 6.29692
  948 195.168 -14.6014 -31.5999
  949 293.187 -16.9265 -13.6838
  950 181.264 0.388478 -0.569933
  951 181.307 0.390409 0.565896
  952 295.755 35.9014 -16.2558
  953 317.964 -0.892590 -0.469618
  954 317.971 -0.905949 0.614299
  955 195.252 -14.5599 31.3812
  956 296.620 -0.393794 -7.07785
  957 341.651 2.45642 21.6316
  958 303.038 -4.22101 5.54167
  959 47.9741 12.2886 -27.9595
  960 314.359 -1.85942 4.44406
  961 284.590 2.27639 28.0520
  962 300.155 41.6068 14.4620
  963 300.495 3.48316 -32.9899
  964 206.531 -11.1592 -18.8674
  965 324.624 -11.4792 21.5834
  966 206.664 -11.1146 18.6730
  967 9.38924 10.2794 -0.757228
  968 35.1151 6.12363 20.4809
  969 168.160 -3.02081 12.9880
  970 167.951 -3.02401 -13.0641
  971 291.767 -6.94094 4.94331
  972 313.367 54.5757 8.01438
  973 159.390 14.6675 -80.1327
  974 262.108 -16.4021 2.78963
  975 246.011 -25.7644 -25.4957
  976 358.952 68.8421 17.4888
  977 276.035 -4.84051 0.461712
  978 276.024 -4.81303 -0.463408
  979 302.641 -5.54836 -9.73046
  980 279.250 24.0871 -10.9820
  981 635.714 187.983 126.856
  982 57.7436 3.30446 -27.0302
  983 58.6697 2.74762 27.0928
  984 4.29214 -5.72765 1.31938
  985 280.137 15.4983 22.5416
  986 245.935 -25.9192 25.3039
  987 305.071 -14.3924 -25.7661
  988 331.961 27.1388 31.7107
  989 319.393 -25.7899 -30.6794
  990 466.732 98.2661 32.3169
  991 270.935 -4.35514 -0.103619
  992 270.900 -4.31792 0.103930
  993 317.358 -12.9159 24.4711
  994 21.8439 35.6947 37.5370
  995 141.898 -3.02023 18.6144
  996 141.446 -2.98168 -18.8186
  997 169.767 -8.38124 25.4291
  998 169.177 -8.25471 -25.5284
  999 191.347 -7.96850 18.2419
  1000 209.181 -1.70208 -0.922218
  1001 209.210 -1.68919 0.918282
  1002 525.609 166.623 -105.990
  1003 475.336 119.073 48.5827
  1004 191.192 -8.01033 -18.3995
  1005 326.907 -1.49260 26.9849
  1006 292.043 30.3051 -19.5381
  1007 206.322 -17.7172 56.4419
  1008 265.336 -31.3408 -30.2365
  1009 303.313 -2.46606 -10.3834
  1010 136.409 9.45359 65.1808
  1011 175.084 -13.3866 45.1054
  1012 267.589 13.6827 -14.1105
  1013 306.656 -6.05930 -31.0396
  1014 392.686 158.431 170.269
  1015 252.556 7.69211 10.0391
  1016 344.527 74.3819 -1.23073
  1017 253.465 9.89660 -96.2651
  1018 257.441 -27.1379 -17.2596
  1019 327.467 -0.321885 -1.16370
  1020 313.617 28.8161 -30.8768
  1021 182.893 -1.21403 4.65471
  1022 182.807 -1.22643 -4.69993
  1023 6.66478 3.13669 -9.46600
  1024 206.656 -9.52112 -15.7218
  1025 174.873 -13.5600 -45.4520
  1026 206.494 -9.49856 15.5441
  1027 299.722 -9.10701 28.7032
  1028 268.824 -16.6388 -0.353086
  1029 282.167 5.17146 -27.1690
  1030 290.313 36.2737 5.70281
  1031 394.936 23.6069 13.5927
  1032 297.017 -22.5475 13.9017
  1033 187.247 -15.0332 -34.5779
  1034 279.726 9.87400 -25.4202
  1035 208.137 -17.4776 -56.7472
  1036 400.318 87.0509 -1.49350
  1037 271.765 17.8135 12.8368
  1038 344.309 -2.05054 -16.6774
  1039 259.046 -27.1469 15.8535
  1040 296.969 -9.38700 22.2125
  1041 295.090 -15.5552 16.0473
  1042 293.472 -14.7348 13.9217
  1043 362.609 46.0060 -23.2320
  1044 292.950 -4.71005 22.5130
  1045 264.891 -31.4286 29.7399
  1046 282.757 -11.5367 4.68006
  1047 187.364 -15.0606 34.3794
  1048 265.382 -19.5961 -3.43236
  1049 153.862 -7.45770 -48.2432
  1050 219.909 -22.8606 38.2377
  1051 298.435 -2.00334 -12.0442
  1052 290.548 -3.27321 -25.5708
  1053 251.616 -19.9658 -10.4744
  1054 154.128 -7.67661 47.8581
  1055 270.668 0.641246 -17.7578
  1056 201.208 -13.4363 -24.4543
  1057 365.413 77.9162 11.0665
  1058 81.0327 13.5392 -45.7179
  1059 627.299 44.3418 60.5579
  1060 146.118 10.9912 -68.2649
  1061 293.426 -24.2972 -8.63615
  1062 201.260 -13.3198 24.2497
  1063 267.741 2.80572 19.8483
  1064 149.608 -3.07115 15.4080
  1065 149.526 -3.14739 -15.5674
  1066 296.934 -8.24658 -26.5987
  1067 316.295 -1.53697 1.82988
  1068 309.852 -0.676297 5.31910
  1069 306.237 10.1745 33.2746
  1070 286.327 -2.15588 24.0108
  1071 222.301 23.6317 104.144
  1072 329.600 -0.229867 0.567002
  1073 308.161 41.7972 21.2144
  1074 260.435 3.74253 17.0920
  1075 313.871 -1.17336 5.11330
  1076 200.752 -2.20392 -3.84651
  1077 200.787 -2.17861 3.82044
  1078 127.507 -3.64701 -25.6892
  1079 128.020 -3.77807 25.5089
  1080 261.263 12.9905 7.17020
  1081 396.337 20.9712 -28.3276
  1082 364.148 -0.615659 -54.4890
  1083 289.330 -0.249965 -7.33450
  1084 219.998 -23.0326 -38.5306
  1085 252.143 -18.9887 9.33916
  1086 291.032 -0.660618 7.65546
  1087 305.041 -22.1064 -16.3600
  1088 189.255 -0.458182 2.30159
  1089 189.208 -0.466147 -2.31650
  1090 292.864 -24.9931 8.63166
  1091 278.285 -5.65371 0.937302
  1092 278.238 -5.65887 -0.918627
  1093 270.738 -27.2964 9.88507
  1094 349.604 -11.3332 -3.21893
  1095 156.759 -0.286682 -4.36807
  1096 157.020 -0.276688 4.32060
  1097 237.730 -14.9791 -65.0151
  1098 252.539 -6.03687 1.21915
  1099 252.564 -6.07171 -1.23095
  1100 153.012 81.8819 114.414
  1101 350.803 28.7285 -26.1478
  1102 51.2342 25.0952 -34.4298
  1103 303.221 -4.45681 -5.35621
  1104 80.4936 27.7673 -52.4177
  1105 167.719 -10.6114 -32.8493
  1106 329.733 -0.329823 0.348396
  1107 329.867 -0.307485 -0.257717
  1108 298.054 -16.9913 -19.4380
  1109 263.957 -29.5974 -41.6598
  1110 81.0779 11.5250 43.5651
  1111 324.185 32.1059 30.0881
  1112 294.482 -2.90331 -0.482458
  1113 294.514 -2.90598 0.510841
  1114 322.060 -20.7916 50.4627
  1115 331.870 66.5921 11.6036
  1116 196.241 -4.79619 -9.87755
  1117 196.289 -4.77289 9.80472
  1118 149.396 17.1640 80.8717
  1119 281.483 1.41431 -26.3004
  1120 87.9584 28.4730 56.3895
  1121 362.889 -6.32516 -16.4821
  1122 355.653 78.8282 3.54366
  1123 244.299 -19.4057 12.8210
  1124 224.456 1.16221 -1.08127
  1125 310.824 -2.68555 6.56828
  1126 321.989 -0.379906 2.56441
  1127 69.3483 0.134043 -12.9148
  1128 70.3281 0.0995046 12.8252
  1129 252.178 4.17043 -12.6541
  1130 260.617 -7.66989 -0.791057
  1131 260.556 -7.63235 0.785885
  1132 27.2879 41.9835 -39.9187
  1133 43.5197 92.8494 -80.3705
  1134 263.989 -10.3217 0.514657
  1135 264.094 -10.3226 -0.528726
  1136 272.885 -6.55179 1.00740
  1137 272.846 -6.53692 -0.983508
  1138 71.2319 45.5595 56.6759
  1139 214.567 -2.69985 -1.83937
  1140 214.590 -2.67986 1.83007
  1141 270.303 20.3932 -0.300538
  1142 346.912 43.0272 -120.306
  1143 330.434 57.0519 -19.8781
  1144 301.603 -11.5589 -27.1656
  1145 297.123 -14.7908 -19.6979
  1146 244.455 -19.5888 -13.0383
  1147 245.205 0.782758 7.81182
  1148 276.501 17.2038 -18.8391
  1149 272.584 14.6223 17.9872
  1150 282.570 -11.1985 -4.59584
  1151 269.519 -16.3018 0.154774
  1152 244.771 -15.8970 -9.59291
  1153 291.687 -1.70480 14.2677
  1154 517.701 52.3084 7.30855
  1155 293.718 -6.24917 25.9964
  1156 294.536 19.3362 28.3552
  1157 272.013 -26.8022 -7.31171
  1158 33.2146 5.63185 -19.7461
  1159 277.115 -12.8108 -3.33114
  1160 182.587 -0.305912 -0.110565
  1161 182.626 -0.304675 0.109220
  1162 338.162 -8.96863 14.3096
  1163 322.276 -27.1185 11.0944
  1164 463.310 83.1259 20.1536
  1165 109.125 -0.239724 -10.7812
  1166 109.800 -0.215822 10.6978
  1167 247.030 -5.01922 -1.03491
  1168 247.017 -4.98670 1.02666
  1169 278.009 -24.5478 -0.400196
  1170 226.500 1.00031 3.53807
  1171 284.751 -20.2734 6.67054
  1172 15.8661 18.8621 -8.92574
  1173 50.7233 25.4330 33.6777
  1174 190.171 -10.2685 62.8559
  1175 329.091 62.8239 -14.1863
  1176 315.040 -0.856043 -4.03674
  1177 331.154 -0.512648 0.240815
  1178 331.487 -0.706342 -0.155934
  1179 190.248 -0.483994 -0.373080
  1180 190.287 -0.480245 0.370062
  1181 303.267 19.3974 32.2187
  1182 449.982 77.1110 -1.63412
  1183 312.338 51.7277 -14.3815
  1184 233.781 -17.1264 64.5960
  1185 189.156 -9.86115 -62.7388
  1186 209.965 -14.1605 -21.8982
  1187 291.914 -8.10411 6.28372
  1188 407.881 89.7146 2.62199
  1189 209.979 -14.0738 21.7207
  1190 298.409 -5.14136 4.75700
  1191 265.326 9.80934 17.1575
  1192 293.012 9.06446 30.9279
  1193 418.528 93.5585 9.43148
  1194 247.514 -6.49077 1.93988
  1195 247.529 -6.52364 -1.95490
  1196 302.238 -5.61166 10.1024
  1197 177.710 -1.94747 7.30417
  1198 177.583 -1.96748 -7.37297
  1199 295.694 -3.94849 -2.16000
  1200 121.396 72.1603 -110.520
  1201 256.017 -14.3937 -69.1555
  1202 240.637 -7.59926 -3.69202
  1203 240.660 -7.56315 3.69307
  1204 317.645 -1.43229 1.64369
  1205 300.233 -3.85369 3.80795
  1206 16.1821 20.1302 14.6723
  1207 327.152 -0.343029 1.35536
  1208 38.5002 48.4634 48.0872
  1209 293.131 -4.30582 -2.76916
  1210 -0.399559 -7.22823 -6.32471
  1211 206.697 -20.1604 -48.6315
  1212 206.111 -19.6681 48.1376
  1213 327.144 -0.554739 -1.49466
  1214 278.892 -14.7090 -3.94667
  1215 317.399 -1.29943 -1.69359
  1216 253.057 -8.21779 -1.78177
  1217 253.029 -8.18559 1.75900
  1218 295.502 -3.91903 2.03309
  1219 276.914 -12.5615 3.29625
  1220 266.294 -8.56279 -0.195186
  1221 266.391 -8.58829 0.228657
  1222 317.146 -1.33994 -1.38570
  1223 273.313 -28.7275 -47.0183
  1224 310.165 -1.83401 -1.42603
  1225 294.403 -4.42941 2.96625
  1226 204.044 -2.29667 -2.83689
  1227 204.076 -2.27389 2.81913
  1228 228.443 -3.40294 -1.42290
  1229 228.453 -3.37861 1.41517
  1230 371.907 57.9144 19.6039
  1231 312.413 -23.9636 12.3187
  1232 213.954 -0.945516 79.9087
  1233 169.932 -0.306859 2.80289
  1234 169.787 -0.310072 -2.83202
  1235 295.631 -5.43578 19.5685
  1236 283.120 -4.22444 0.627087
  1237 283.134 -4.20935 -0.626684
  1238 323.744 63.1690 6.61698
  1239 297.197 -31.0845 37.0562
  1240 170.456 -2.46135 10.2759
  1241 170.284 -2.48045 -10.3544
  1242 282.660 -6.85061 2.43231
  1243 282.597 -6.89705 -2.36565
  1244 291.759 -8.00175 -6.06074
  1245 267.146 0.0464388 9.19723
  1246 464.495 115.379 -37.7911
  1247 297.068 -10.8306 -17.3971
  1248 50.2468 12.1260 28.7671
  1249 306.962 -16.3246 24.0715
  1250 245.205 5.30454 -6.91958
  1251 18.4238 13.7696 10.2110
  1252 405.597 44.7199 -2.59194
  1253 299.685 -13.6028 -24.2622
  1254 246.404 3.45712 10.5955
  1255 168.914 -10.6278 32.7855
  1256 304.614 -23.5474 14.6490
  1257 443.661 83.8687 25.3526
  1258 101.602 15.1462 55.5248
  1259 306.242 -3.57374 -8.69340
  1260 592.373 6.58734 -5.99589
  1261 612.419 9.23191 26.7872
  1262 654.479 22.4173 -63.5558
  1263 296.611 -9.22505 -21.5739
  1264 296.700 -13.5066 18.4581
  1265 301.528 -21.4301 17.3289
  1266 -8.88834 0.985789 5.66520
  1267 -8.10034 0.776956 -6.15299
  1268 293.620 -32.4128 -16.9514
  1269 300.951 -30.3868 -25.6993
  1270 228.179 1.42712 -4.37202
  1271 292.438 -33.0053 25.6966
  1272 312.296 -14.7820 -24.4476
  1273 5.85946 9.18552 0.797608
  1274 253.271 -4.62899 0.773903
  1275 253.291 -4.66333 -0.775959
  1276 310.653 -2.42238 5.93929
  1277 298.397 -5.04752 -4.47614
  1278 280.774 -30.6603 -8.75606
  1279 256.054 -13.9110 3.85979
  1280 254.746 -13.7187 -4.24380
  1281 301.025 -6.31095 13.7967
  1282 308.447 -11.3044 -27.9974
  1283 19.1268 14.3572 -9.85214
</Section>

newXOutput 41

<Section columns = "stress_xx | stress_yy | stress_xy">
  1 341.419 -0.0440036 0.678307
  2 341.435 -0.0390774 -0.680507
  3 184.126 -0.0762715 -0.245712
  4 -2.34125 -2.32028 -3.36505
  5 619.179 242.395 196.267
  6 613.351 251.384 -196.483
  7 -2.71772 -2.20930 3.57437
  8 184.087 -0.0769868 0.245000
  9 343.869 -0.558750 0.210752
  10 343.119 -0.889156 -0.161381
  11 342.291 -0.580851 0.791451
  12 341.463 -0.811280 0.237918
  13 339.687 -0.678527 1.24770
  14 338.080 -0.688561 0.920385
  15 334.324 -0.610102 1.78656
  16 328.992 -0.406738 2.62861
  17 324.230 -0.442232 2.91866
  18 317.196 -0.635701 3.52046
  19 307.478 -0.0334536 5.19371
  20 298.499 -0.469362 4.92776
  21 288.322 -0.620096 6.93079
  22 273.616 0.440808 6.02120
  23 263.005 0.652955 7.11045
  24 249.167 1.10801 5.55675
  25 239.607 1.14346 5.59872
  26 225.755 1.61987 2.85230
  27 222.843 2.55368 3.05489
  28 221.096 2.08235 -0.900984
  29 223.496 1.18737 -1.98605
  30 227.910 1.16743 -2.43397
  31 238.285 1.48338 -4.86233
  32 248.359 1.17094 -6.15937
  33 263.174 0.244726 -7.30874
  34 275.034 -0.158002 -6.66783
  35 287.699 -0.494831 -6.56069
  36 299.179 -0.365329 -4.63762
  37 309.067 -0.378029 -3.97306
  38 317.237 -0.620147 -3.34073
  39 324.567 -0.437800 -2.33710
  40 329.162 -0.514857 -2.48420
  41 333.599 -0.643552 -1.81782
  42 337.810 -0.766783 -0.805223
  43 339.974 -0.614273 -0.940973
  44 341.129 -0.368127 -0.591015
  45 340.322 -0.188133 -0.538611
  46 343.479 -0.899426 0.104772
  47 343.980 -0.583110 -0.217450
  48 332.533 -0.216570 -0.419330
  49 324.955 -1.32966 -0.751612
  50 315.715 -1.96787 -0.496653
  51 304.460 -2.94388 -0.678900
  52 293.806 -3.23173 -0.844659
  53 282.443 -4.07397 -0.801843
  54 272.395 -4.54832 -0.447600
  55 263.583 -5.11165 -0.170298
  56 253.421 -4.24856 -0.167504
  57 241.709 -3.98264 -0.268725
  58 230.416 -3.15494 -0.0830479
  59 219.713 -2.02368 -0.0298232
  60 209.534 -1.45018 0.0166895
  61 200.596 -0.754003 0.0941756
  62 191.441 -0.210478 -0.282270
  63 184.240 0.256257 0.346325
  64 181.023 0.734227 0.229824
  65 183.250 0.00186856 0.549488
  66 180.828 -0.105870 0.660727
  67 178.598 -0.154934 0.824614
  68 175.561 -0.0244536 1.07906
  69 171.729 -0.0141531 1.36235
  70 168.921 -0.236607 2.63836
  71 160.782 0.236331 2.88348
  72 155.070 -0.0202289 3.30853
  73 146.563 -0.154353 3.75100
  74 136.755 -0.257857 4.56831
  75 124.499 -0.0614206 5.54665
  76 109.557 0.0671416 6.10846
  77 96.7032 -0.141689 8.72438
  78 71.2189 0.817024 8.21718
  79 53.9199 0.705366 8.70119
  80 33.2470 -0.143640 9.62766
  81 16.1368 1.62159 9.97976
  82 -3.31340 2.40927 5.93151
  83 -17.3835 2.44388 2.03214
  84 -16.7456 2.34037 -0.985225
  85 -15.8091 1.93741 -4.78675
  86 -9.27937 -0.647698 -4.52209
  87 -1.15420 -8.90853 -4.98266
  88 0.848223 -16.4496 -6.26237
  89 2.40165 -26.1269 -3.55235
  90 5.36030 -26.9609 0.101606
  91 11.3810 -7.31681 14.7847
  92 34.1520 50.8036 50.9375
  93 202.747 185.983 175.088
  94 748.624 111.441 125.800
  95 673.495 15.9926 41.1075
  96 625.249 6.59510 12.5795
  97 607.417 5.58079 0.986821
  98 616.791 7.45380 -10.8673
  99 671.821 14.8479 -32.5127
  100 794.532 53.7771 -108.713
  101 120.107 189.635 -146.158
  102 25.5893 34.9211 -42.0105
  103 12.4108 -6.06942 -15.4814
  104 5.00614 -27.0619 -2.47333
  105 1.37801 -19.9551 4.09781
  106 1.76505 -20.7169 5.44377
  107 0.0721023 -7.71498 5.51584
  108 -9.68235 -0.431968 4.29646
  109 -16.3137 1.45392 4.18393
  110 -17.6281 2.84752 1.08245
  111 -17.9519 2.40908 -1.87154
  112 -4.55790 2.46934 -5.54841
  113 15.0314 1.63599 -9.51001
  114 32.1173 0.0273870 -9.46902
  115 52.7570 0.762888 -8.72108
  116 70.1624 0.838955 -8.28219
  117 95.8831 -0.145287 -8.80051
  118 108.854 0.0751958 -6.16983
  119 123.886 -0.0588127 -5.61843
  120 136.438 -0.284920 -4.60439
  121 146.141 -0.147182 -3.76196
  122 154.751 -0.00963688 -3.34427
  123 160.522 0.233298 -2.91669
  124 168.736 -0.238860 -2.66654
  125 171.581 -0.0156158 -1.37973
  126 175.451 -0.0258358 -1.09338
  127 178.515 -0.157211 -0.835991
  128 180.766 -0.107818 -0.668692
  129 183.200 0.000172709 -0.554598
  130 180.980 0.733257 -0.232216
  131 184.200 0.255793 -0.347812
  132 191.401 -0.212433 0.281432
  133 200.557 -0.758889 -0.0960402
  134 209.500 -1.46098 -0.0188800
  135 219.688 -2.03871 0.0277034
  136 230.402 -3.17659 0.0809742
  137 241.708 -4.00991 0.267111
  138 253.434 -4.28001 0.165934
  139 263.607 -5.14666 0.169655
  140 272.427 -4.58313 0.448796
  141 282.488 -4.10565 0.805380
  142 293.842 -3.25372 0.857399
  143 304.486 -2.96353 0.739635
  144 315.770 -1.85633 0.507888
  145 325.185 -1.29290 0.735185
  146 332.585 -0.267963 0.413146
  147 296.885 -27.8847 -2.49883
  148 296.642 -27.5106 2.60527
  149 311.154 44.7467 -15.5502
  150 332.016 19.5871 33.0484
  151 251.426 -24.1462 -54.9761
  152 253.446 -24.1220 53.1871
  153 243.833 -10.4140 6.44002
  154 243.857 -10.5611 -6.44625
  155 352.353 12.6279 -25.4835
  156 296.091 -10.6128 6.92401
  157 295.966 -10.3538 -6.83672
  158 382.762 85.6188 4.18602
  159 302.856 -0.485595 -32.1763
  160 223.732 -17.7008 -24.5773
  161 223.732 -17.5507 24.3547
  162 303.465 -6.85233 29.0968
  163 287.862 20.9750 19.1287
  164 118.573 19.1992 -65.5896
  165 131.601 18.1785 69.1337
  166 372.326 4.13072 3.79546
  167 304.381 -11.6441 -20.3170
  168 403.400 88.6283 -2.32124
  169 273.941 -7.72033 0.191600
  170 273.881 -7.69465 -0.166632
  171 308.188 -3.65861 -3.03521
  172 309.187 -3.27766 2.62637
  173 214.405 -3.13827 -3.86961
  174 214.430 -3.10516 3.84819
  175 331.452 -8.90598 69.8412
  176 278.547 11.5179 -20.5958
  177 181.854 -13.6760 -39.6085
  178 182.400 -13.5753 39.3421
  179 204.167 -6.78395 -12.8944
  180 204.183 -6.70485 12.7945
  181 305.892 -7.99684 17.2640
  182 277.841 -19.1032 -0.289102
  183 276.847 -18.9608 0.743334
  184 316.336 -30.5725 -4.73654
  185 317.963 -29.1254 0.788566
  186 437.456 102.889 -14.4481
  187 317.307 51.0301 14.5533
  188 318.046 19.5404 -33.1208
  189 330.372 -2.99667 -81.2977
  190 315.842 -17.8160 -23.3178
  191 318.539 -12.7076 27.3867
  192 265.346 -30.1452 26.7371
  193 265.425 -29.9351 -26.6514
  194 283.425 3.58463 24.7750
  195 129.164 -3.11239 -48.3865
  196 129.489 -3.39315 48.0831
  197 493.943 74.1054 10.6363
  198 299.066 -17.7976 12.7991
  199 310.302 -5.65006 -11.2790
  200 245.304 -6.04305 -2.89939
  201 245.307 -6.01077 2.88931
  202 297.510 -3.85717 -22.4008
  203 338.979 49.8001 -26.6059
  204 283.001 25.3996 -3.83704
  205 183.620 -6.58637 18.1934
  206 183.335 -6.60843 -18.3341
  207 315.103 -3.43410 6.21044
  208 306.350 5.76136 33.0762
  209 248.791 -18.2083 -11.6735
  210 247.074 -17.2425 11.9746
  211 361.571 53.6205 24.5582
  212 426.110 57.8592 8.62154
  213 28.4700 22.4062 -18.0977
  214 26.3160 20.7133 15.3591
  215 174.955 49.9407 115.997
  216 296.049 -19.6624 -9.91250
  217 316.276 -3.29967 -5.61249
  218 280.157 2.43497 -22.8106
  219 195.806 -2.00010 -5.71342
  220 195.867 -1.97732 5.66116
  221 266.140 -12.5228 -2.20502
  222 266.263 -12.5976 2.05265
  223 300.139 -4.03294 19.0791
  224 346.377 -20.0818 7.10356
  225 343.233 70.3217 -7.74175
  226 269.171 -26.0526 -12.4106
  227 340.964 -5.92366 21.4519
  228 290.276 -4.82342 1.16546
  229 290.281 -4.78242 -1.16365
  230 267.161 -25.9275 12.9211
  231 306.370 -19.4107 19.0260
  232 432.044 55.1629 -26.2521
  233 95.1178 56.6383 -83.7605
  234 258.445 9.02079 4.90322
  235 307.339 27.1064 27.8453
  236 327.917 -2.28266 -29.6417
  237 306.202 -11.0007 -27.2560
  238 162.218 -5.28351 -22.8225
  239 162.789 -5.20271 22.7452
  240 306.745 -3.67093 -14.7900
  241 292.359 -7.35827 3.69217
  242 292.222 -7.34691 -3.57354
  243 60.8537 5.69784 -30.7200
  244 61.8543 4.99625 30.6199
  245 326.185 -28.5166 -24.6319
  246 322.795 -1.08918 0.874309
  247 323.152 -1.11068 -0.944545
  248 300.059 24.8656 -25.4735
  249 263.687 5.02283 14.8963
  250 554.988 88.9002 59.5945
  251 550.515 62.6779 -37.3630
  252 397.500 85.9259 -0.663997
  253 248.037 -11.9135 73.2567
  254 227.534 -7.69198 -76.6477
  255 260.733 -5.35577 -0.962986
  256 260.707 -5.31997 0.955350
  257 215.931 -5.85681 7.83584
  258 215.933 -5.93872 -7.90840
  259 314.616 -3.34517 9.17007
  260 305.145 -21.7084 -15.7288
  261 196.728 -0.395589 -1.32822
  262 196.770 -0.388969 1.31943
  263 301.302 -12.1613 -12.4919
  264 126.911 -4.17661 -31.6229
  265 127.474 -4.19027 31.3890
  266 304.986 -13.1953 21.8912
  267 232.584 -24.6857 44.2040
  268 233.191 -25.1286 -44.0701
  269 262.302 9.99109 -6.93295
  270 226.324 -3.51975 -2.60376
  271 226.342 -3.49503 2.59302
  272 285.518 -0.726678 18.3077
  273 341.564 62.6360 18.4759
  274 182.056 -2.26805 9.71433
  275 181.915 -2.28744 -9.80021
  276 313.462 -26.1470 11.1948
  277 290.179 -32.5271 -29.3577
  278 323.940 -1.50679 2.89901
  279 224.101 -13.3789 -16.7568
  280 223.703 -13.2273 16.6899
  281 399.769 41.1694 102.886
  282 187.548 -15.1181 52.8348
  283 302.833 42.5571 -1.65185
  284 384.005 42.3032 -16.3852
  285 289.194 -22.3772 4.11697
  286 290.376 -33.4210 26.4066
  287 188.133 -14.8674 -53.4450
  288 34.6920 42.7609 38.6824
  289 301.353 -12.2063 12.7198
  290 395.643 51.5836 12.9681
  291 326.557 -1.34421 -2.51333
  292 294.972 10.3024 -29.3192
  293 291.430 -16.4720 6.99552
  294 285.306 -24.1010 0.343869
  295 293.861 13.4749 28.2371
  296 311.944 -26.1591 -10.0433
  297 442.226 86.1683 -7.35649
  298 291.350 -15.8308 -6.69575
  299 241.396 68.9717 -142.250
  300 298.023 -31.5802 -5.32177
  301 295.900 -32.4391 8.72805
  302 216.892 -19.6866 -34.7579
  303 194.953 -0.773198 -2.89730
  304 195.006 -0.759792 2.87314
  305 216.979 -19.7005 34.5642
  306 315.105 -0.521897 -33.3138
  307 340.523 -14.0925 -14.4123
  308 258.788 -15.6469 -6.04942
  309 258.612 -15.6823 6.16410
  310 310.218 -26.6988 47.2157
  311 309.299 -2.45421 11.1991
  312 376.520 1.61530 16.1263
  313 253.430 -8.98734 -3.29971
  314 253.445 -8.95552 3.27945
  315 230.537 -6.06076 -5.11867
  316 230.536 -6.00276 5.11005
  317 260.918 3.47749 -14.4092
  318 336.031 24.6220 -32.0721
  319 520.630 140.236 -66.2980
  320 306.355 -2.63347 -1.02299
  321 306.174 -2.59753 1.04912
  322 163.576 -0.235296 65.9248
  323 229.413 -10.4878 -11.0297
  324 228.969 -10.4498 11.0570
  325 163.547 -0.611620 -65.6738
  326 320.087 37.7945 -27.1813
  327 358.776 17.7242 24.2698
  328 310.245 -22.1422 -52.4865
  329 284.849 -10.9818 3.14458
  330 284.555 -10.8992 -3.01834
  331 304.224 -6.25625 -6.10364
  332 285.728 -0.550010 -17.1243
  333 320.985 1.39490 32.6627
  334 320.514 -2.20664 -6.33122
  335 191.907 -11.7310 26.5290
  336 191.696 -11.7981 -26.7395
  337 298.345 -0.680832 30.5325
  338 183.086 -1.53005 -5.75249
  339 183.204 -1.51557 5.69803
  340 306.449 -7.00028 9.45665
  341 367.458 75.1325 -13.7764
  342 304.064 -6.30547 6.32842
  343 323.712 40.6803 27.2928
  344 309.874 -5.75082 31.7405
  345 244.981 -4.61510 1.04393
  346 244.984 -4.64463 -1.05157
  347 293.036 -1.05506 -27.0855
  348 388.439 81.7184 9.01948
  349 322.538 59.2132 0.570695
  350 197.694 23.0138 -98.1600
  351 19.9726 8.92063 -13.2281
  352 21.9543 9.64838 14.2561
  353 -1.10045 2.21960 6.04461
  354 0.128684 1.21246 -6.30342
  355 568.903 39.4531 13.6032
  356 267.280 -21.7533 -7.15133
  357 306.698 -6.76137 -9.22840
  358 276.497 -4.84580 0.439322
  359 276.465 -4.80570 -0.440855
  360 295.604 32.6518 -13.7912
  361 252.361 -25.7718 21.9886
  362 21.9138 32.5377 -23.8339
  363 252.610 -25.7679 -22.3997
  364 299.510 34.0683 14.6766
  365 305.877 -8.12985 -16.4522
  366 324.615 -18.0924 -19.9675
  367 345.546 73.1010 5.34373
  368 325.387 -20.2932 16.5738
  369 133.659 -3.36791 21.1934
  370 132.844 -3.30316 -21.3345
  371 75.3783 1.87897 -29.3400
  372 76.1991 1.57182 29.2071
  373 265.106 0.843376 14.5814
  374 505.578 147.296 56.6639
  375 316.382 -1.98991 -8.01902
  376 245.823 -20.8410 -16.8092
  377 245.611 -20.7846 16.7858
  378 303.988 -6.99513 -20.7894
  379 346.678 -16.7595 3.03016
  380 267.270 -21.7322 7.37831
  381 380.826 2.58340 -30.5201
  382 214.177 -1.76288 -0.990662
  383 214.207 -1.74743 0.982996
  384 298.852 -1.73289 -13.2479
  385 160.206 -2.34773 -13.8389
  386 160.311 -2.42219 13.6673
  387 357.384 45.6288 -27.2448
  388 192.970 13.6551 91.1373
  389 279.635 -14.6913 1.62316
  390 279.911 -14.6643 -1.63710
  391 328.503 55.6415 -17.3009
  392 311.114 -9.21162 -30.1105
  393 312.238 -31.8887 25.5730
  394 259.817 -6.91906 -1.49075
  395 259.785 -6.88411 1.47444
  396 300.257 -23.1627 10.6606
  397 323.628 -1.52492 4.71145
  398 200.940 -7.40452 -16.1630
  399 201.019 -7.40351 16.0213
  400 304.724 10.2208 -32.6160
  401 287.791 -6.22154 1.76536
  402 287.779 -6.23561 -1.72613
  403 297.564 -3.50332 24.9166
  404 277.040 20.1568 6.60642
  405 308.654 -13.0196 26.3240
  406 446.559 93.5748 16.4275
  407 148.525 -8.00537 -42.3939
  408 148.944 -8.00828 42.0648
  409 66.2326 35.6214 -50.3266
  410 331.243 -0.948795 1.31795
  411 167.013 -1.44435 -8.75381
  412 167.240 -1.41373 8.67657
  413 304.242 -7.92239 20.3734
  414 275.957 -29.9752 14.3174
  415 311.934 -3.83702 4.32478
  416 317.503 16.1260 34.0409
  417 69.4805 37.9287 52.5132
  418 276.377 -29.8095 -13.1409
  419 285.616 -26.5650 -2.28865
  420 92.5061 -1.85911 -26.6207
  421 93.2216 -1.93012 26.4335
  422 219.205 -17.4999 -63.7240
  423 327.992 -4.88612 28.9355
  424 218.353 -17.7685 63.1561
  425 302.940 -17.0012 -17.1331
  426 280.986 18.9250 -14.4874
  427 302.996 -13.0740 16.2532
  428 326.416 -1.43478 -3.19377
  429 9.79693 10.3562 4.41041
  430 65.8436 75.6916 74.5409
  431 291.304 -1.07302 12.7639
  432 243.904 3.31157 6.30603
  433 248.198 4.04415 -8.55929
  434 211.762 -3.54950 -5.52753
  435 211.783 -3.50356 5.48992
  436 298.708 -23.1498 -9.78832
  437 301.671 -5.90392 -27.9083
  438 245.237 4.56242 -2.32524
  439 446.491 106.295 21.4464
  440 61.3171 20.4836 -37.6808
  441 67.6404 18.8016 40.2906
  442 279.378 -9.95670 1.46959
  443 279.270 -9.93130 -1.39389
  444 372.541 82.4839 -1.10237
  445 233.475 95.4807 145.410
  446 358.860 -5.08389 -5.60637
  447 205.430 -10.7838 -21.9296
  448 205.525 -10.7083 21.7391
  449 206.625 -4.66899 8.63856
  450 206.588 -4.70410 -8.71927
  451 279.356 6.17504 -23.4791
  452 332.974 -0.458919 -0.878842
  453 271.458 12.4204 13.1758
  454 343.757 42.4510 29.4299
  455 286.133 -21.2522 -3.02754
  456 311.817 -3.64908 -4.20043
  457 327.777 -1.29717 2.94216
  458 332.025 -0.489478 0.502652
  459 332.301 -0.554424 -0.371748
  460 181.795 -0.338320 2.12393
  461 181.704 -0.343298 -2.14682
  462 313.114 -19.8843 20.7050
  463 282.056 11.1032 22.7370
  464 295.032 1.18847 -29.7723
  465 308.414 -6.47678 12.2458
  466 446.064 74.3129 -86.2959
  467 309.097 -17.1439 -23.0889
  468 2.81583 5.82741 2.28850
  469 2.79661 5.91503 -0.759276
  470 244.541 -13.9095 9.41865
  471 243.715 -13.7256 -9.30784
  472 385.008 6.89875 46.2425
  473 107.440 97.3652 -110.046
  474 304.930 -0.920510 9.93795
  475 346.190 -20.1885 -26.1471
  476 183.684 -10.6311 30.7324
  477 370.609 65.7608 -19.7932
  478 304.646 -16.4823 19.3755
  479 255.495 -12.2520 -4.58074
  480 255.720 -12.0474 4.56650
  481 265.040 1.40498 -12.8783
  482 183.106 -10.5905 -30.9280
  483 271.856 0.108122 12.9542
  484 260.935 -29.8344 -39.4188
  485 260.277 -29.8800 39.5542
  486 314.550 -2.07311 8.84890
  487 285.318 26.8895 2.73135
  488 290.554 4.89112 99.2907
  489 427.042 87.0618 -0.546529
  490 294.835 -4.94032 2.01265
  491 294.853 -4.92207 -2.07954
  492 226.182 -4.05260 -3.48182
  493 226.197 -4.01822 3.46805
  494 119.304 5.56261 55.3211
  495 305.986 -14.7307 -22.5787
  496 277.385 -6.02450 0.339314
  497 277.357 -6.00244 -0.332951
  498 241.475 -25.5975 32.2681
  499 121.626 7.33982 -56.7329
  500 306.474 -24.9698 -11.1969
  501 5.21742 0.986520 2.52405
  502 267.316 13.7737 0.958024
  503 295.932 -3.39093 -0.666279
  504 295.923 -3.43856 0.652036
  505 241.630 -25.5551 -32.5218
  506 346.557 -17.8883 33.5635
  507 343.199 12.4613 29.9904
  508 316.892 -2.11574 -2.09467
  509 305.536 -25.3232 11.3503
  510 190.566 -0.194313 -0.375807
  511 190.607 -0.192544 0.372484
  512 305.025 -11.7069 -24.0500
  513 295.171 21.8380 24.8968
  514 338.973 8.36890 -29.6158
  515 189.415 -0.312272 -1.19351
  516 189.464 -0.307998 1.18501
  517 592.966 85.6397 -76.7057
  518 307.228 36.6067 21.9443
  519 317.174 -1.94474 1.86703
  520 286.255 -27.1490 2.97765
  521 240.295 -7.99151 5.17375
  522 240.295 -8.05363 -5.16324
  523 333.415 -20.2989 9.35844
  524 320.254 -6.39149 -30.4641
  525 357.968 70.6142 16.5360
  526 297.615 5.11382 30.8677
  527 300.418 -5.74579 3.89447
  528 291.991 -31.1405 -37.8878
  529 302.667 -7.48409 23.6716
  530 586.199 26.8637 -10.7486
  531 330.987 -24.9503 -0.982017
  532 314.922 -2.04780 -0.504788
  533 314.997 -2.18204 0.446841
  534 592.284 39.7477 37.7055
  535 290.139 -0.103900 26.2524
  536 407.154 68.2649 -7.44101
  537 305.700 -8.29210 -11.9168
  538 137.311 -1.30701 -9.46760
  539 137.747 -1.24429 9.36965
  540 206.621 -19.3633 -44.2747
  541 206.780 -19.0382 43.9418
  542 300.254 -5.50537 -3.85730
  543 326.697 11.9908 -33.2736
  544 286.988 -19.5360 4.12356
  545 308.597 35.3950 -22.7790
  546 311.149 -3.59639 11.9115
  547 390.399 19.4026 -3.86831
  548 265.954 -9.12876 -1.22413
  549 265.871 -9.09537 1.20725
  550 289.035 -13.6372 5.24215
  551 426.620 84.3539 -5.71010
  552 304.379 13.3144 32.0654
  553 130.023 33.4824 81.8476
  554 294.435 -17.6787 66.2535
  555 389.465 18.5740 -72.9417
  556 311.208 25.7337 -29.8556
  557 276.296 -23.8609 -57.4156
  558 299.199 -32.7801 -11.0570
  559 312.567 -31.6310 -16.3606
  560 40.8171 52.7299 -50.0005
  561 314.156 -3.94379 -7.36510
  562 472.878 92.0211 -26.6257
  563 290.588 -13.0760 -5.82462
  564 293.021 -9.51602 4.80287
  565 292.747 -9.29693 -4.61278
  566 201.467 -1.19034 -2.62682
  567 201.509 -1.17490 2.60856
  568 28.3009 3.01179 -16.0964
  569 29.9094 3.15608 16.4726
  570 149.936 -7.01004 -32.3567
  571 151.092 -7.04757 32.3025
  572 297.032 -16.0839 -10.8837
  573 302.717 -32.9132 11.9865
  574 311.178 -29.5278 2.32857
  575 254.793 -4.51344 -0.923586
  576 254.777 -4.48031 0.918589
  577 241.856 -25.3498 -49.1556
  578 270.962 -22.2034 60.7694
  579 235.964 -23.8353 49.4401
  580 305.502 -6.77988 -30.0047
  581 190.874 -3.22484 9.74381
  582 190.780 -3.25884 -9.82702
  583 291.080 16.0677 -24.9995
  584 291.520 -0.509965 -11.5843
  585 364.350 79.2420 -7.47724
  586 237.671 -3.62616 -0.923039
  587 237.677 -3.60145 0.918455
  588 311.006 -0.915691 -6.54133
  589 214.282 -7.31307 -10.7595
  590 214.284 -7.28646 10.6637
  591 175.262 8.16267 78.3875
  592 302.693 -13.9104 -16.4343
  593 168.602 -8.88351 56.2976
  594 297.455 -15.4017 11.1105
  595 313.282 -4.38930 8.12725
  596 309.405 -2.79116 -1.85903
  597 216.721 -2.72485 -2.43254
  598 216.747 -2.70212 2.41923
  599 349.434 69.8800 -14.8713
  600 168.483 -8.54250 -56.5139
  601 296.469 -12.8173 -8.90827
  602 267.228 -4.96117 -0.436921
  603 267.199 -4.92371 0.435068
  604 502.941 67.7649 -11.9484
  605 176.636 -1.15929 5.38414
  606 176.481 -1.17069 -5.43578
  607 275.982 6.30072 21.4155
  608 395.617 32.9359 -5.28508
  609 186.801 1.35839 -77.8168
  610 95.2463 2.46994 -42.3386
  611 96.0481 1.91803 42.1135
  612 234.184 -13.7508 13.2960
  613 236.652 -14.1559 -12.9045
  614 399.692 80.4946 7.69655
  615 308.122 -2.89463 1.68585
  616 263.848 7.38245 -12.9278
  617 329.321 59.2687 13.6835
  618 328.118 61.5092 -9.09825
  619 269.658 -14.9791 -2.02620
  620 271.727 -14.6379 1.05913
  621 193.526 42.1015 -111.955
  622 231.477 -7.98853 -7.36646
  623 231.495 -7.89603 7.33961
  624 589.541 120.633 90.8059
  625 305.149 -9.98614 25.9367
  626 173.699 -6.21244 -20.7323
  627 475.045 109.434 72.7036
  628 174.107 -6.17698 20.6509
  629 292.076 -11.1766 -77.4361
  630 205.194 -1.04533 -0.968924
  631 205.230 -1.03622 0.963779
  632 254.273 2.25841 11.2749
  633 115.134 -1.73793 -18.6197
  634 115.788 -1.74222 18.4707
  635 266.173 -18.8929 5.44256
  636 279.238 -22.3982 -1.30135
  637 329.584 -0.699350 -2.68401
  638 184.800 -0.312185 1.56338
  639 184.731 -0.317666 -1.58023
  640 250.950 -5.68362 -1.37899
  641 250.939 -5.65070 1.36783
  642 288.430 -31.9811 38.3022
  643 331.216 36.9973 -30.1251
  644 219.946 -10.3490 -13.8746
  645 219.784 -10.1734 13.7719
  646 261.222 -18.8604 -7.69362
  647 411.981 89.8009 2.20167
  648 309.327 -29.9135 -0.613170
  649 268.256 -6.42442 -0.555123
  650 268.215 -6.39158 0.555818
  651 369.502 40.3835 23.0568
  652 309.866 -4.44371 -12.9482
  653 273.451 -0.348352 -10.5528
  654 126.242 -4.30721 -40.6610
  655 126.638 -4.43049 40.3238
  656 260.558 -22.5496 -12.5024
  657 391.089 86.3662 0.198097
  658 302.934 41.0423 -9.88388
  659 200.460 -1.86897 -4.84731
  660 200.505 -1.84280 4.80716
  661 282.828 -7.98046 -1.47588
  662 282.883 -7.99045 1.53752
  663 528.215 69.0151 30.3759
  664 334.769 -0.883131 0.730979
  665 323.226 -1.25667 4.60584
  666 321.934 -1.28426 -5.38896
  667 305.510 -28.4280 5.05822
  668 224.241 -2.65058 -1.21581
  669 224.261 -2.63122 1.21009
  670 326.135 52.3383 21.0543
  671 418.991 93.1965 -5.11883
  672 228.743 -17.0992 -19.6594
  673 228.673 -16.9290 19.5575
  674 286.590 -29.5470 -5.71898
  675 302.089 17.9500 -30.1747
  676 359.285 0.904010 13.2868
  677 237.805 -4.46505 -2.39676
  678 237.811 -4.43547 2.38635
  679 205.708 -18.0848 -39.9791
  680 302.607 -29.2573 -2.24765
  681 251.311 -27.8798 35.5443
  682 120.023 37.9736 -78.9583
  683 234.504 -21.7944 27.4135
  684 282.811 0.0753357 9.75642
  685 205.896 -17.8783 39.7063
  686 296.295 -13.0681 9.01821
  687 234.587 -21.7045 -27.6687
  688 239.768 3.09620 2.36409
  689 185.366 -5.05002 14.7270
  690 185.199 -5.05617 -14.8335
  691 251.458 -28.6033 -35.9429
  692 311.020 -20.4740 -20.0202
  693 285.162 -3.96872 -0.381574
  694 285.208 -4.01099 0.383321
  695 317.910 -20.2299 19.8529
  696 288.814 -30.1902 6.86172
  697 351.054 32.1944 29.2366
  698 316.613 -5.91797 31.3625
  699 304.657 -10.9115 19.1406
  700 290.711 23.8880 -18.9632
  701 350.072 58.9311 23.1184
  702 302.130 -4.17021 -18.5312
  703 301.239 -9.95811 9.90485
  704 311.097 48.7581 5.34413
  705 306.416 -5.17737 16.1593
  706 96.3171 65.4424 82.7410
  707 285.235 -32.7999 -21.9860
  708 330.273 6.01404 31.9057
  709 333.553 -10.3111 -22.7998
  710 333.141 -0.421041 1.49078
  711 304.480 -10.4342 -15.0962
  712 285.640 -33.0588 19.9475
  713 554.226 49.0703 -8.22334
  714 169.378 -0.744189 5.63637
  715 169.172 -0.752444 -5.69087
  716 308.942 -5.57434 -7.06990
  717 335.145 -0.318686 -1.45132
  718 260.073 -22.9131 12.5694
  719 312.572 -11.6137 28.4995
  720 475.802 113.176 -34.3367
  721 296.264 -21.4731 9.24906
  722 328.651 -21.6219 -11.8797
  723 301.354 -9.68901 -9.74719
  724 335.050 -0.557378 -0.477615
  725 304.975 -0.0236117 32.5736
  726 13.9871 12.5676 17.4509
  727 344.761 -13.3279 -50.1800
  728 374.957 22.1522 14.6189
  729 312.218 -31.8821 14.5531
  730 221.912 -5.39271 6.03938
  731 221.914 -5.46867 -6.06987
  732 291.951 146.718 -152.750
  733 318.056 -21.0181 -18.3679
  734 238.820 1.22063 -4.51882
  735 278.945 1.52816 20.8928
  736 306.722 -15.3294 22.9556
  737 293.998 -24.7759 4.74569
  738 305.938 -27.8682 -41.1558
  739 292.177 -23.1200 -5.27662
  740 345.510 -16.5512 -4.21095
  741 318.159 -2.55862 4.13720
  742 283.678 -17.0559 2.83745
  743 516.326 103.238 -54.9057
  744 302.719 -8.06317 7.86882
  745 299.223 4.88887 -31.7018
  746 255.783 -2.88720 87.1238
  747 320.677 25.8339 32.3979
  748 275.823 -21.7525 2.74426
  749 212.666 -16.8301 -29.1937
  750 212.682 -16.7823 28.9517
  751 292.982 32.9424 -4.42037
  752 298.252 -3.44683 28.3167
  753 301.569 -7.16735 -24.1773
  754 284.002 -17.4032 -2.93065
  755 274.547 -24.6458 6.88098
  756 313.506 51.7853 -6.04228
  757 293.634 -25.4135 -3.58686
  758 294.353 -18.6259 8.98627
  759 298.365 -3.78563 1.40628
  760 298.551 -3.68142 -1.39720
  761 401.422 88.2695 2.22437
  762 328.428 -27.9153 -9.47324
  763 305.410 -9.32150 15.0280
  764 318.290 -2.54949 -3.76940
  765 321.346 2.14281 -32.9739
  766 366.152 19.1938 -19.5658
  767 178.484 -0.184052 -2.62715
  768 178.601 -0.181437 2.60003
  769 2.54998 -5.64581 -4.00196
  770 311.767 -0.353099 6.05895
  771 285.415 -0.481570 -23.1217
  772 294.982 -2.76036 20.4064
  773 269.794 33.1932 127.969
  774 335.804 69.1617 -0.732491
  775 238.580 -17.1604 15.2861
  776 41.2615 0.948141 -15.9297
  777 42.4855 0.699709 16.1010
  778 292.319 -2.08484 -23.0111
  779 239.237 -17.3332 -15.2813
  780 316.407 -2.80648 3.15260
  781 160.969 -6.92417 27.6196
  782 159.578 -6.90049 -27.6356
  783 302.703 -7.82719 -7.66516
  784 192.570 -4.92559 -12.8126
  785 192.667 -4.89264 12.6964
  786 315.313 -2.94038 -8.96334
  787 240.197 -6.46774 -4.13167
  788 240.203 -6.42459 4.13294
  789 344.343 -2.18955 -22.8573
  790 309.614 -3.23691 -32.7040
  791 156.624 -1.02037 -7.19276
  792 156.933 -1.01089 7.10789
  793 7.44336 3.94559 -9.61466
  794 8.84853 4.16164 10.1190
  795 250.301 1.19116 -8.19219
  796 282.843 -31.7828 -16.3113
  797 -3.26790 -2.26533 5.62643
  798 -2.86086 -2.66556 -5.58518
  799 294.431 -5.86613 3.00351
  800 319.372 -24.9020 -10.5667
  801 329.484 48.8663 -24.5779
  802 317.785 -2.51999 -2.99485
  803 681.024 136.935 -127.928
  804 294.370 -5.84642 -2.96474
  805 443.405 84.6601 6.76054
  806 314.928 9.16976 -34.0941
  807 348.088 26.2511 -29.9143
  808 57.7480 -0.681501 -14.7364
  809 58.8378 -0.768306 14.7092
  810 195.735 -2.87043 7.57920
  811 195.666 -2.89469 -7.64843
  812 186.647 -0.457078 1.41596
  813 186.591 -0.461825 -1.42769
  814 351.856 59.2779 -22.9301
  815 207.302 -1.32753 -2.08453
  816 207.338 -1.31217 2.07240
  817 299.176 -3.01250 -29.5535
  818 432.925 43.9113 36.5697
  819 268.879 5.97611 -18.0047
  820 92.5224 -0.838533 15.8112
  821 91.7218 -0.846225 -15.9377
  822 348.895 9.26916 91.6996
  823 308.622 -5.62050 7.29707
  824 275.338 18.2432 -7.50184
  825 126.661 -0.212098 10.7909
  826 126.001 -0.152764 -10.8721
  827 190.724 -1.00048 -3.70933
  828 190.793 -0.986097 3.67410
  829 34.1027 30.4089 26.0711
  830 287.275 6.83081 26.7829
  831 319.860 47.0388 -21.0490
  832 344.413 39.9866 -29.7059
  833 225.797 -8.60638 -9.69057
  834 225.663 -8.54064 9.67603
  835 356.618 76.0248 10.4337
  836 308.109 -2.51039 -0.399523
  837 308.126 -2.49139 0.451803
  838 304.699 -9.11019 -19.2934
  839 254.977 -17.0493 8.79688
  840 281.097 -31.5925 16.4015
  841 330.675 -27.0963 25.5835
  842 252.665 -7.36352 -2.38274
  843 252.661 -7.33475 2.36568
  844 288.972 26.7700 12.1744
  845 271.395 3.68296 -19.4508
  846 75.4650 88.5997 86.1290
  847 275.411 -24.4461 -6.20103
  848 276.308 -12.3555 0.755957
  849 276.457 -12.3790 -0.770625
  850 303.984 -4.46961 31.0832
  851 301.564 -19.8022 -14.3781
  852 269.144 -17.8606 -3.35448
  853 615.952 19.9476 -30.5668
  854 255.813 -24.2596 17.3347
  855 255.611 -24.5767 -17.6192
  856 303.703 -3.61672 15.7668
  857 457.753 118.102 -25.9095
  858 239.942 -21.8707 -21.7526
  859 265.282 -29.9005 20.5877
  860 239.873 -21.6054 21.5573
  861 260.190 -10.5058 -2.71102
  862 260.181 -10.4690 2.69035
  863 38.2985 16.3834 22.6759
  864 326.439 24.3967 -32.8143
  865 249.602 -9.78734 -4.44779
  866 249.646 -9.68735 4.46417
  867 246.453 -4.10225 -0.535988
  868 246.448 -4.07332 0.532257
  869 271.313 -5.38381 -0.000870088
  870 271.279 -5.34753 -0.000843506
  871 220.099 -4.36624 -5.22979
  872 220.115 -4.31678 5.20697
  873 250.570 -13.2430 -6.76305
  874 250.600 -13.1507 6.79227
  875 6.00572 -2.38930 -2.75831
  876 378.352 70.9821 17.1813
  877 325.470 -11.3986 -26.3280
  878 265.069 -29.4681 -20.8106
  879 286.400 -9.20791 2.81745
  880 286.272 -9.11147 -2.73677
  881 312.260 0.398654 33.4089
  882 339.834 -24.2488 -13.9512
  883 300.879 21.2102 -110.966
  884 136.348 -2.17768 54.7210
  885 -5.25888 3.18080 -3.67170
  886 -4.58101 3.58891 4.07582
  887 38.0367 17.4248 -23.1466
  888 305.305 -8.73960 11.8496
  889 321.406 -2.06280 -4.99686
  890 288.965 -27.7750 47.3485
  891 136.021 -2.03052 -54.9422
  892 322.027 -26.3350 7.47549
  893 358.861 -10.6800 41.0465
  894 259.522 1.04134 8.68596
  895 297.913 28.3360 20.7439
  896 160.928 -9.09351 40.2869
  897 160.300 -9.16723 -40.5586
  898 193.096 -9.26269 -22.5814
  899 203.180 -9.91163 -69.8267
  900 322.054 -7.51709 29.5484
  901 442.820 103.869 15.5236
  902 323.280 12.4415 33.4626
  903 305.588 -6.49526 -17.5944
  904 207.477 -8.88061 71.5656
  905 389.764 71.8026 -12.7228
  906 38.4456 32.7703 -32.1668
  907 282.023 -0.573169 -9.30652
  908 193.299 -9.18558 22.3769
  909 235.925 -5.24318 3.64789
  910 235.919 -5.27994 -3.65649
  911 302.006 -19.6970 14.8439
  912 313.794 -1.94470 1.20928
  913 230.647 2.14651 -86.8335
  914 330.936 -0.711127 2.36624
  915 328.416 -0.581857 -3.01781
  916 244.546 2.10550 -7.53088
  917 317.247 -1.28256 -5.37294
  918 236.738 -11.1451 -8.91387
  919 236.897 -10.9765 8.94053
  920 -7.84827 2.87615 -4.52455
  921 -10.7979 1.73434 4.77746
  922 313.787 -1.80300 -1.22570
  923 103.287 -2.32842 36.9175
  924 102.656 -2.10420 -37.1309
  925 334.927 48.8969 25.9585
  926 601.463 10.8571 9.46983
  927 315.165 35.0707 27.2418
  928 357.554 -12.6353 11.2884
  929 310.471 -17.2646 23.1436
  930 386.646 81.0685 -9.68363
  931 239.249 0.996919 5.67583
  932 298.760 -6.98436 -4.77463
  933 310.217 16.6799 -32.9594
  934 375.387 11.0137 -6.61846
  935 291.145 -17.9766 -7.08383
  936 147.958 -0.841643 -8.05547
  937 148.116 -0.811918 7.94022
  938 307.288 -7.18206 -13.8048
  939 10.1363 12.8988 2.53403
  940 294.954 -30.5745 -2.77553
  941 254.929 7.50124 -0.776976
  942 383.944 84.4847 -6.43179
  943 60.4710 45.0065 -53.5140
  944 295.003 -2.19494 -18.2857
  945 203.950 -3.45886 -7.07376
  946 203.989 -3.41776 7.01245
  947 1.73794 -8.44542 6.44133
  948 200.099 -14.9610 -32.4068
  949 300.438 -17.3483 -13.9491
  950 185.961 0.398700 -0.585424
  951 186.005 0.400668 0.581307
  952 303.139 36.7959 -16.6207
  953 325.733 -0.922527 -0.478630
  954 325.741 -0.936133 0.626477
  955 200.186 -14.9188 32.1834
  956 303.981 -0.405795 -7.23250
  957 350.045 2.51819 22.0496
  958 310.496 -4.33324 5.64515
  959 49.2480 12.5940 -28.7046
  960 322.070 -1.91201 4.53056
  961 291.694 2.33592 28.6838
  962 307.644 42.6400 14.7863
  963 307.957 3.56936 -33.7226
  964 211.753 -11.4305 -19.3565
  965 332.616 -11.7663 22.0113
  966 211.890 -11.3851 19.1576
  967 9.65227 10.5567 -0.812152
  968 36.0713 6.27482 21.0283
  969 172.487 -3.09268 13.3182
  970 172.273 -3.09586 -13.3959
  971 298.969 -7.11959 5.02766
  972 321.173 55.9235 8.19098
  973 163.386 15.0231 -82.1753
  974 268.630 -16.8056 2.90434
  975 252.135 -26.4003 -26.1733
  976 367.817 70.5331 17.8302
  977 282.875 -4.96604 0.459280
  978 282.864 -4.93798 -0.461056
  979 310.101 -5.69228 -9.92599
  980 286.252 24.6945 -11.2317
  981 650.749 192.572 129.942
  982 59.2871 3.38328 -27.7362
  983 60.2340 2.81291 27.8000
  984 4.40721 -5.82021 1.38317
  985 287.152 15.8904 23.0542
  986 252.059 -26.5592 25.9770
  987 312.613 -14.7518 -26.3113
  988 340.159 27.8072 32.3892
  989 327.214 -26.4218 -31.5229
  990 478.109 100.652 33.1564
  991 277.659 -4.46823 -0.110876
  992 277.623 -4.43019 0.111177
  993 325.184 -13.2390 24.9747
  994 22.4041 36.7298 38.5440
  995 145.575 -3.09352 19.0850
  996 145.113 -3.05402 -19.2935
  997 174.105 -8.58630 26.0758
  998 173.501 -8.45645 -26.1771
  999 196.214 -8.16178 18.7110
  1000 214.503 -1.74055 -0.946617
  1001 214.533 -1.72741 0.942600
  1002 538.152 170.796 -108.707
  1003 486.908 121.980 49.8488
  1004 196.055 -8.20446 -18.8720
  1005 334.963 -1.53244 27.5439
  1006 299.338 31.0618 -19.9781
  1007 211.478 -18.1649 57.8832
  1008 271.903 -32.1176 -31.0426
  1009 310.809 -2.53060 -10.6057
  1010 139.862 9.67808 66.8522
  1011 179.510 -13.7233 46.2563
  1012 274.321 14.0328 -14.4334
  1013 314.246 -6.21220 -31.7138
  1014 401.953 162.569 174.472
  1015 258.949 7.89299 10.2707
  1016 353.078 76.2027 -1.25600
  1017 259.687 10.1509 -98.6974
  1018 263.839 -27.8064 -17.7381
  1019 335.449 -0.334530 -1.18521
  1020 321.400 29.5292 -31.5582
  1021 187.602 -1.24117 4.77589
  1022 187.514 -1.25383 -4.82206
  1023 6.84441 3.30313 -9.75168
  1024 211.888 -9.75174 -16.1309
  1025 179.293 -13.9010 -46.6107
  1026 211.722 -9.72882 15.9493
  1027 307.150 -9.33562 29.3271
  1028 275.502 -17.0491 -0.411505
  1029 289.219 5.30350 -27.7827
  1030 297.574 37.1790 5.83148
  1031 404.531 24.2382 14.0687
  1032 304.356 -23.1073 14.1621
  1033 191.983 -15.4053 -35.4607
  1034 286.727 10.1251 -25.9970
  1035 213.334 -17.9198 -58.1950
  1036 410.178 89.1648 -1.55428
  1037 278.593 18.2659 13.1305
  1038 352.757 -2.09630 -16.9734
  1039 265.483 -27.8160 16.2992
  1040 304.325 -9.62329 22.6888
  1041 302.387 -15.9432 16.3698
  1042 300.729 -15.1027 14.1963
  1043 371.525 47.1473 -23.6818
  1044 300.226 -4.82910 23.0075
  1045 271.450 -32.2076 30.5335
  1046 289.756 -11.8256 4.74839
  1047 192.103 -15.4335 35.2579
  1048 271.977 -20.0777 -3.56893
  1049 157.770 -7.64996 -49.4733
  1050 225.411 -23.4285 39.2227
  1051 305.829 -2.05616 -12.3053
  1052 297.775 -3.35547 -26.1378
  1053 257.888 -20.4555 -10.7778
  1054 158.043 -7.87394 49.0795
  1055 277.462 0.659886 -18.1601
  1056 206.295 -13.7651 -25.0836
  1057 374.445 79.8217 11.2726
  1058 83.1317 13.8708 -46.9088
  1059 642.180 45.3904 61.9615
  1060 149.806 11.2522 -70.0108
  1061 300.678 -24.8994 -8.77032
  1062 206.348 -13.6460 24.8745
  1063 274.471 2.88076 20.3006
  1064 153.480 -3.14569 15.7979
  1065 153.396 -3.22374 -15.9609
  1066 304.296 -8.45339 -27.1787
  1067 324.036 -1.58264 1.86131
  1068 317.491 -0.695876 5.43172
  1069 313.834 10.4249 34.0113
  1070 293.464 -2.20953 24.5461
  1071 227.783 24.2258 106.770
  1072 337.627 -0.238712 0.576362
  1073 315.834 42.8321 21.6858
  1074 267.004 3.84187 17.4833
  1075 321.592 -1.20540 5.22033
  1076 205.877 -2.25419 -3.94966
  1077 205.913 -2.22834 3.92306
  1078 130.815 -3.73741 -26.3407
  1079 131.340 -3.87175 26.1567
  1080 267.853 13.3246 7.33505
  1081 405.945 21.5371 -29.1539
  1082 372.981 -0.590771 -55.9278
  1083 296.535 -0.257240 -7.49644
  1084 225.501 -23.6047 -39.5225
  1085 258.429 -19.4546 9.61448
  1086 298.274 -0.677951 7.82423
  1087 312.571 -22.6561 -16.6734
  1088 194.125 -0.466937 2.36197
  1089 194.077 -0.475074 -2.37718
  1090 300.102 -25.6125 8.76559
  1091 285.177 -5.79955 0.940683
  1092 285.129 -5.80490 -0.921657
  1093 277.451 -27.9696 10.1899
  1094 358.150 -11.6034 -3.41038
  1095 160.834 -0.293149 -4.47889
  1096 161.101 -0.282930 4.43040
  1097 243.616 -15.3584 -66.6741
  1098 258.845 -6.18691 1.26650
  1099 258.871 -6.22244 -1.27860
  1100 156.798 83.9685 117.303
  1101 359.432 29.4424 -26.6742
  1102 52.5751 25.7303 -35.3519
  1103 310.681 -4.57481 -5.45591
  1104 82.5667 28.4585 -53.7855
  1105 171.993 -10.8741 -33.6848
  1106 337.755 -0.342135 0.355228
  1107 337.892 -0.319254 -0.262557
  1108 305.425 -17.4150 -19.8365
  1109 270.480 -30.3331 -42.7485
  1110 83.1788 11.8074 44.6999
  1111 332.214 32.8981 30.7417
  1112 301.735 -2.98460 -0.489779
  1113 301.768 -2.98728 0.518773
  1114 329.926 -21.2895 51.7891
  1115 340.114 68.2273 11.8506
  1116 201.245 -4.91027 -10.1353
  1117 201.295 -4.88651 10.0610
  1118 153.152 17.5832 82.9355
  1119 288.516 1.45198 -26.8930
  1120 90.2135 29.1840 57.8553
  1121 371.733 -6.46058 -17.0024
  1122 364.467 80.7516 3.61314
  1123 250.401 -19.8810 13.1792
  1124 230.216 1.19634 -1.10631
  1125 318.467 -2.75745 6.70080
  1126 329.875 -0.392812 2.61556
  1127 71.2276 0.136420 -13.2450
  1128 72.2292 0.101091 13.1534
  1129 258.561 4.28222 -12.9450
  1130 267.107 -7.86060 -0.836092
  1131 267.045 -7.82235 0.830738
  1132 27.9889 43.2220 -40.9939
  1133 44.6142 95.4213 -82.4518
  1134 270.556 -10.5774 0.561953
  1135 270.663 -10.5782 -0.576478
  1136 279.655 -6.71804 1.00835
  1137 279.615 -6.70294 -0.983993
  1138 73.0587 46.7187 58.1601
  1139 220.010 -2.76307 -1.89070
  1140 220.034 -2.74266 1.88121
  1141 277.100 20.9109 -0.307031
  1142 355.278 44.1876 -123.328
  1143 338.633 58.4575 -20.3022
  1144 309.069 -11.8480 -27.7497
  1145 304.474 -15.1605 -20.1071
  1146 250.560 -20.0683 -13.4020
  1147 251.436 0.805107 7.99137
  1148 283.435 17.6396 -19.2681
  1149 279.428 14.9942 18.3982
  1150 289.565 -11.4793 -4.66257
  1151 276.213 -16.7043 0.207926
  1152 250.888 -16.2853 -9.86730
  1153 298.938 -1.74857 14.5816
  1154 530.197 53.5643 7.48204
  1155 301.013 -6.40621 26.5675
  1156 301.878 19.8182 28.9929
  1157 278.756 -27.4628 -7.55423
  1158 34.1257 5.77035 -20.2749
  1159 283.985 -13.1297 -3.36583
  1160 187.316 -0.311545 -0.113991
  1161 187.356 -0.310281 0.112621
  1162 346.462 -9.18941 14.5513
  1163 330.182 -27.7861 11.4621
  1164 474.611 85.1332 20.6716
  1165 112.008 -0.244267 -11.0538
  1166 112.698 -0.219771 10.9686
  1167 253.211 -5.14346 -1.07091
  1168 253.198 -5.11027 1.06246
  1169 284.896 -25.1536 -0.474288
  1170 232.308 1.02901 3.62031
  1171 291.800 -20.7756 6.76780
  1172 16.2930 19.3687 -9.20054
  1173 52.0484 26.0777 34.5783
  1174 194.933 -10.5343 64.4579
  1175 337.267 64.3690 -14.4897
  1176 322.786 -0.879251 -4.12152
  1177 339.207 -0.527416 0.244609
  1178 339.547 -0.725700 -0.157899
  1179 195.145 -0.493067 -0.383565
  1180 195.186 -0.489241 0.380488
  1181 310.805 19.8781 32.9377
  1182 460.976 78.9676 -1.67396
  1183 320.117 53.0058 -14.6982
  1184 239.578 -17.5587 66.2447
  1185 193.893 -10.1175 -64.3375
  1186 215.260 -14.5062 -22.4658
  1187 299.123 -8.31084 6.39539
  1188 417.880 91.9321 2.80700
  1189 215.275 -14.4176 22.2844
  1190 305.760 -5.27668 4.84131
  1191 272.005 10.0621 17.5506
  1192 300.310 9.29143 31.6225
  1193 428.794 95.8438 9.75069
  1194 253.706 -6.65061 2.00607
  1195 253.720 -6.68413 -2.02144
  1196 309.690 -5.75747 10.3059
  1197 182.284 -1.99275 7.49262
  1198 182.154 -2.01320 -7.56288
  1199 302.978 -4.05484 -2.19301
  1200 124.433 73.9866 -113.327
  1201 262.329 -14.7527 -70.9220
  1202 246.670 -7.78448 -3.80598
  1203 246.693 -7.74766 3.80709
  1204 325.413 -1.47477 1.67335
  1205 307.623 -3.95777 3.87478
  1206 16.6118 20.6903 15.0960
  1207 335.137 -0.354251 1.38081
  1208 39.4953 49.7556 49.3693
  1209 300.359 -4.42083 -2.81264
  1210 -0.405143 -7.40082 -6.47675
  1211 211.870 -20.6659 -49.8749
  1212 211.271 -20.1616 49.3693
  1213 335.129 -0.570839 -1.52324
  1214 285.804 -15.0742 -3.99175
  1215 325.163 -1.33882 -1.72297
  1216 259.374 -8.42048 -1.85189
  1217 259.345 -8.38769 1.82858
  1218 302.781 -4.02475 2.06367
  1219 283.779 -12.8741 3.33058
  1220 272.914 -8.77679 -0.169494
  1221 273.013 -8.80272 0.203643
  1222 324.901 -1.38049 -1.40937
  1223 280.050 -29.4409 -48.2417
  1224 317.767 -1.88845 -1.44914
  1225 301.661 -4.54733 3.01423
  1226 209.246 -2.34918 -2.91463
  1227 209.279 -2.32592 2.89651
  1228 234.202 -3.48477 -1.46554
  1229 234.212 -3.45995 1.45765
  1230 381.048 59.3478 19.9634
  1231 320.107 -24.5590 12.5283
  1232 219.263 -0.975068 81.9388
  1233 174.337 -0.312762 2.87539
  1234 174.188 -0.316046 -2.90513
  1235 302.961 -5.57339 19.9935
  1236 290.120 -4.33658 0.631109
  1237 290.134 -4.32117 -0.630705
  1238 331.797 64.7230 6.76021
  1239 304.500 -31.8520 38.0444
  1240 174.848 -2.51949 10.5380
  1241 174.671 -2.53899 -10.6181
  1242 289.653 -7.02588 2.46238
  1243 289.589 -7.07360 -2.39431
  1244 298.964 -8.20623 -6.16763
  1245 273.867 0.0484550 9.40506
  1246 475.819 118.198 -38.7924
  1247 304.416 -11.1030 -17.7598
  1248 51.5760 12.4278 29.5316
  1249 314.545 -16.7321 24.5724
  1250 251.433 5.44610 -7.07900
  1251 18.9325 14.1227 10.5068
  1252 415.465 45.8656 -2.80806
  1253 307.101 -13.9427 -24.7774
  1254 252.659 3.55055 10.8400
  1255 173.216 -10.8910 33.6202
  1256 312.130 -24.1324 14.9213
  1257 454.419 86.0190 26.1565
  1258 104.202 15.5174 56.9623
  1259 313.784 -3.66921 -8.86955
  1260 606.468 6.74776 -6.13437
  1261 626.951 9.44769 27.3994
  1262 669.947 22.9306 -65.0204
  1263 303.957 -9.45748 -22.0363
  1264 304.038 -13.8447 18.8401
  1265 308.975 -21.9632 17.6691
  1266 -9.10558 1.01366 5.80073
  1267 -8.29712 0.800113 -6.30161
  1268 300.856 -33.2155 -17.4460
  1269 308.349 -31.1382 -26.4131
  1270 234.025 1.46671 -4.47328
  1271 299.641 -33.8217 26.4051
  1272 320.004 -15.1507 -24.9538
  1273 6.03675 9.42703 0.847980
  1274 259.595 -4.74527 0.795668
  1275 259.615 -4.78034 -0.797781
  1276 318.288 -2.48934 6.05668
  1277 305.747 -5.18062 -4.55462
  1278 287.719 -31.4180 -9.04142
  1279 262.436 -14.2524 3.99431
  1280 261.098 -14.0551 -4.38638
  1281 308.461 -6.47262 14.0852
  1282 316.072 -11.5874 -28.5944
  1283 19.6540 14.7252 -10.1420
</Section>

newXOutput 42

<Section columns = "stress_xx | stress_yy | stress_xy">
  1 349.496 -0.0483178 0.692580
  2 349.512 -0.0432042 -0.694807
  3 188.788 -0.0770060 -0.250852
  4 -2.39914 -2.37728 -3.44834
  5 633.185 248.330 200.886
  6 627.233 257.518 -201.055
  7 -2.78504 -2.26323 3.66331
  8 188.748 -0.0777359 0.250130
  9 351.997 -0.573478 0.214655
  10 351.233 -0.911926 -0.166452
  11 350.392 -0.597164 0.806809
  12 349.550 -0.832731 0.240312
  13 347.745 -0.696986 1.27180
  14 346.110 -0.706975 0.936793
  15 342.284 -0.626261 1.82175
  16 336.849 -0.419567 2.68097
  17 331.994 -0.454982 2.97802
  18 324.820 -0.651932 3.59340
  19 314.902 -0.0361102 5.30311
  20 305.739 -0.481279 5.03306
  21 295.345 -0.634632 7.08091
  22 280.327 0.450904 6.15315
  23 269.486 0.669514 7.26756
  24 255.347 1.13512 5.68072
  25 245.577 1.17383 5.72420
  26 231.420 1.66061 2.91659
  27 228.444 2.61752 3.12415
  28 226.657 2.13571 -0.921566
  29 229.110 1.22004 -2.03072
  30 233.623 1.19793 -2.48892
  31 244.225 1.52089 -4.97161
  32 254.521 1.20062 -6.29663
  33 269.658 0.252643 -7.47082
  34 281.773 -0.160761 -6.81386
  35 294.708 -0.506254 -6.70270
  36 306.431 -0.374733 -4.73699
  37 316.524 -0.388328 -4.05701
  38 324.860 -0.636170 -3.41018
  39 332.337 -0.449835 -2.38411
  40 337.021 -0.529765 -2.53346
  41 341.544 -0.660871 -1.85353
  42 345.833 -0.786926 -0.819217
  43 348.037 -0.630815 -0.958571
  44 349.210 -0.379341 -0.601309
  45 348.382 -0.195934 -0.548075
  46 351.600 -0.922034 0.108568
  47 352.110 -0.598303 -0.221465
  48 340.426 -0.227783 -0.428206
  49 332.689 -1.36933 -0.768708
  50 323.254 -2.02456 -0.506220
  51 311.758 -3.02433 -0.692436
  52 300.872 -3.31858 -0.860687
  53 289.262 -4.17894 -0.817380
  54 278.992 -4.66288 -0.455035
  55 269.987 -5.23682 -0.171567
  56 259.599 -4.35165 -0.168419
  57 247.628 -4.07745 -0.272469
  58 236.087 -3.22837 -0.0825206
  59 225.147 -2.06909 -0.0286851
  60 214.745 -1.48152 0.0185377
  61 205.612 -0.768740 0.0974162
  62 196.260 -0.213424 -0.288020
  63 188.904 0.263018 0.355262
  64 185.616 0.751170 0.236426
  65 187.887 0.00260195 0.564070
  66 185.406 -0.107394 0.678577
  67 183.120 -0.157561 0.846778
  68 180.008 -0.0240778 1.10737
  69 176.082 -0.0138798 1.39759
  70 173.200 -0.240816 2.70449
  71 164.866 0.242218 2.95534
  72 159.015 -0.0201595 3.38982
  73 150.299 -0.157326 3.84347
  74 140.253 -0.263192 4.68055
  75 127.699 -0.0622760 5.68295
  76 112.393 0.0690982 6.25937
  77 99.2193 -0.144081 8.94038
  78 73.1133 0.836392 8.42240
  79 55.3841 0.721988 8.91872
  80 34.1896 -0.148493 9.87086
  81 16.6402 1.65972 10.2353
  82 -3.31300 2.46772 6.09026
  83 -17.7562 2.50362 2.09483
  84 -17.1260 2.39954 -0.996430
  85 -16.1893 1.98726 -4.89825
  86 -9.50489 -0.661190 -4.63066
  87 -1.18009 -9.12497 -5.10315
  88 0.872385 -16.8444 -6.40987
  89 2.46458 -26.7332 -3.62484
  90 5.49758 -27.5472 0.129909
  91 11.6679 -7.34180 15.1901
  92 34.9880 52.2883 52.2391
  93 207.418 190.744 179.258
  94 765.657 114.023 128.606
  95 688.931 16.3592 42.0080
  96 639.681 6.74998 12.8551
  97 621.481 5.71385 1.00712
  98 631.056 7.62889 -11.1080
  99 687.234 15.1927 -33.2264
  100 812.471 55.0208 -111.100
  101 122.908 194.556 -149.671
  102 26.2141 36.0711 -43.1021
  103 12.7253 -6.06289 -15.9191
  104 5.13518 -27.6412 -2.56651
  105 1.41744 -20.4104 4.17973
  106 1.81244 -21.2161 5.57058
  107 0.0753603 -7.90081 5.64946
  108 -9.91808 -0.439628 4.39888
  109 -16.7058 1.49137 4.28059
  110 -18.0292 2.91922 1.09564
  111 -18.3361 2.46765 -1.93050
  112 -4.58504 2.52923 -5.69778
  113 15.5110 1.67444 -9.75405
  114 33.0357 0.0266849 -9.70826
  115 54.1962 0.780841 -8.93898
  116 72.0340 0.858801 -8.48884
  117 98.3815 -0.147769 -9.01815
  118 111.674 0.0773414 -6.32206
  119 127.072 -0.0596305 -5.75630
  120 139.929 -0.290887 -4.71733
  121 149.869 -0.149963 -3.85460
  122 158.689 -0.00932125 -3.42631
  123 164.600 0.239123 -2.98924
  124 173.011 -0.243116 -2.73326
  125 175.931 -0.0153727 -1.41532
  126 179.895 -0.0254893 -1.12197
  127 183.035 -0.159887 -0.858383
  128 185.342 -0.109384 -0.686700
  129 187.835 0.000871249 -0.569279
  130 185.571 0.750188 -0.238864
  131 188.862 0.262547 -0.356777
  132 196.219 -0.215418 0.287170
  133 205.573 -0.773725 -0.0993142
  134 214.711 -1.49253 -0.0207667
  135 225.122 -2.08442 0.0265290
  136 236.072 -3.25044 0.0804099
  137 247.627 -4.10526 0.270825
  138 259.613 -4.38373 0.166815
  139 270.011 -5.27254 0.170907
  140 279.025 -4.69842 0.456255
  141 289.307 -4.21127 0.820993
  142 300.910 -3.34102 0.873696
  143 311.784 -3.04438 0.754487
  144 323.310 -1.91033 0.517660
  145 332.925 -1.33168 0.751893
  146 340.480 -0.280414 0.421877
  147 304.034 -28.5570 -2.48170
  148 303.784 -28.1738 2.59061
  149 318.713 45.8282 -15.8865
  150 340.013 20.0565 33.7424
  151 257.491 -24.7351 -56.3539
  152 259.562 -24.7095 54.5227
  153 249.792 -10.6609 6.62378
  154 249.815 -10.8113 -6.63003
  155 360.791 12.9353 -25.9771
  156 303.221 -10.8735 7.03999
  157 303.093 -10.6085 -6.95136
  158 391.977 87.6510 4.24882
  159 310.189 -0.497381 -32.8713
  160 229.210 -18.1231 -25.2011
  161 229.211 -17.9697 24.9736
  162 310.802 -7.02031 29.7164
  163 294.888 21.4902 19.5516
  164 121.515 19.6563 -67.2363
  165 134.849 18.6128 70.8667
  166 381.185 4.24568 3.76041
  167 311.718 -11.9289 -20.7321
  168 413.064 90.7477 -2.27615
  169 280.573 -7.90923 0.169635
  170 280.512 -7.88311 -0.144194
  171 315.573 -3.75587 -3.08426
  172 316.592 -3.36600 2.66822
  173 219.717 -3.20953 -3.97320
  174 219.743 -3.17572 3.95136
  175 339.316 -9.09479 71.5953
  176 285.363 11.8049 -21.0523
  177 186.343 -14.0080 -40.5917
  178 186.903 -13.9050 40.3196
  179 209.227 -6.94245 -13.2212
  180 209.244 -6.86164 13.1193
  181 313.261 -8.19432 17.6173
  182 284.560 -19.5620 -0.351430
  183 283.544 -19.4162 0.815349
  184 323.916 -31.3100 -4.94009
  185 325.584 -29.8280 0.899156
  186 447.885 105.350 -14.8983
  187 325.010 52.2591 14.8664
  188 325.734 20.0116 -33.8312
  189 338.198 -3.03847 -83.3218
  190 323.438 -18.2485 -23.7830
  191 326.203 -13.0178 27.9470
  192 271.759 -30.8718 27.4364
  193 271.839 -30.6563 -27.3490
  194 290.341 3.67517 25.3204
  195 132.390 -3.19613 -49.5939
  196 132.723 -3.48314 49.2838
  197 505.630 75.8425 10.8948
  198 306.271 -18.2291 13.0341
  199 317.758 -5.79240 -11.5032
  200 251.301 -6.18665 -2.98700
  201 251.304 -6.15375 2.97673
  202 304.718 -3.95179 -22.8812
  203 347.161 50.9968 -27.1601
  204 289.923 26.0241 -3.92144
  205 188.196 -6.74133 18.6464
  206 187.905 -6.76378 -18.7900
  207 322.649 -3.52459 6.32691
  208 313.767 5.90063 33.7926
  209 254.850 -18.6420 -11.9948
  210 253.097 -17.6530 12.3011
  211 370.258 54.9093 25.0379
  212 436.199 59.3057 8.98896
  213 29.2129 22.9700 -18.5948
  214 27.0045 21.2345 15.7836
  215 179.184 51.1682 118.851
  216 303.183 -20.1379 -10.0789
  217 323.846 -3.38648 -5.71742
  218 287.002 2.49810 -23.3133
  219 200.699 -2.04450 -5.85934
  220 200.762 -2.02124 5.80602
  221 272.598 -12.8231 -2.29627
  222 272.723 -12.9000 2.14036
  223 307.402 -4.13216 19.4852
  224 354.636 -20.5576 7.37985
  225 351.539 72.0023 -7.89863
  226 275.684 -26.6773 -12.7648
  227 349.131 -6.06743 21.8556
  228 297.267 -4.94698 1.17694
  229 297.272 -4.90508 -1.17512
  230 273.629 -26.5493 13.2862
  231 313.747 -19.8818 19.3978
  232 442.231 56.5610 -27.0417
  233 97.4716 58.0362 -85.8666
  234 264.823 9.25042 5.01364
  235 314.797 27.7627 28.4514
  236 335.802 -2.34013 -30.2507
  237 313.592 -11.2691 -27.8279
  238 166.284 -5.40893 -23.3852
  239 166.869 -5.32632 23.3066
  240 314.141 -3.76353 -15.0984
  241 299.401 -7.54161 3.74562
  242 299.260 -7.53015 -3.62453
  243 62.4250 5.83230 -31.5070
  244 63.4476 5.11398 31.4040
  245 333.971 -29.2005 -25.3113
  246 330.487 -1.12401 0.887328
  247 330.851 -1.14610 -0.959625
  248 307.355 25.4710 -26.0311
  249 270.178 5.15285 15.2287
  250 568.004 90.9822 61.0014
  251 563.410 64.1454 -38.2343
  252 407.052 87.9614 -0.650868
  253 254.009 -12.2061 75.0756
  254 233.030 -7.88754 -78.5464
  255 267.072 -5.48628 -0.998964
  256 267.046 -5.44978 0.991132
  257 221.268 -5.99313 8.04161
  258 221.269 -6.07682 -8.11569
  259 322.166 -3.43185 9.35304
  260 312.491 -22.2340 -16.0221
  261 201.658 -0.402406 -1.36329
  262 201.702 -0.395651 1.35433
  263 308.557 -12.4591 -12.7296
  264 130.116 -4.27894 -32.4068
  265 130.692 -4.29290 32.1679
  266 312.339 -13.5172 22.3395
  267 238.235 -25.2853 45.3143
  268 238.854 -25.7388 -45.1770
  269 268.764 10.2443 -7.08769
  270 231.903 -3.60113 -2.67392
  271 231.921 -3.57592 2.66297
  272 292.476 -0.742526 18.7072
  273 349.821 64.1361 18.8574
  274 186.619 -2.31947 9.95671
  275 186.475 -2.33926 -10.0444
  276 320.991 -26.7796 11.3716
  277 297.148 -33.3126 -30.1335
  278 331.666 -1.55087 2.95081
  279 229.603 -13.6957 -17.1875
  280 229.196 -13.5408 17.1193
  281 409.121 42.2716 105.435
  282 192.148 -15.4913 54.1498
  283 310.206 43.5890 -1.68732
  284 393.169 43.3375 -16.6412
  285 296.170 -22.9161 4.14790
  286 297.354 -34.2276 27.1119
  287 192.745 -15.2348 -54.7735
  288 35.5743 43.8528 39.6978
  289 308.609 -12.5050 12.9621
  290 405.070 52.8412 13.1367
  291 334.336 -1.38368 -2.55827
  292 302.144 10.5556 -29.9614
  293 298.458 -16.8707 7.10248
  294 292.192 -24.6807 0.417411
  295 301.011 13.8048 28.8572
  296 319.440 -26.7915 -10.1946
  297 452.778 88.1987 -7.56193
  298 298.376 -16.2143 -6.79754
  299 247.116 70.6828 -145.709
  300 305.188 -32.3413 -5.52762
  301 303.017 -33.2213 9.01379
  302 222.199 -20.1608 -35.6285
  303 199.837 -0.789146 -2.97276
  304 199.891 -0.775460 2.94812
  305 222.289 -20.1752 35.4305
  306 322.709 -0.536022 -34.0224
  307 348.669 -14.4309 -14.6493
  308 265.077 -16.0202 -6.23566
  309 264.898 -16.0565 6.35342
  310 317.625 -27.3368 48.4267
  311 316.751 -2.51709 11.4322
  312 385.456 1.68476 16.6353
  313 259.605 -9.20176 -3.40572
  314 259.621 -9.16937 3.38501
  315 236.204 -6.20277 -5.25916
  316 236.203 -6.14355 5.25041
  317 267.348 3.56782 -14.7304
  318 344.122 25.2148 -32.7409
  319 532.915 143.580 -67.9486
  320 313.694 -2.70666 -1.03810
  321 313.510 -2.66981 1.06482
  322 167.594 -0.252816 67.5660
  323 235.043 -10.7352 -11.3216
  324 234.589 -10.6966 11.3498
  325 167.565 -0.639032 -67.3087
  326 327.837 38.7062 -27.7643
  327 367.361 18.1546 24.7298
  328 317.647 -22.6700 -53.8238
  329 291.725 -11.2495 3.17674
  330 291.425 -11.1652 -3.04778
  331 311.531 -6.41470 -6.21100
  332 292.690 -0.562115 -17.4976
  333 328.720 1.42524 33.3508
  334 328.185 -2.26562 -6.45571
  335 196.656 -12.0108 27.1905
  336 196.440 -12.0793 -27.4055
  337 305.580 -0.696637 31.1948
  338 187.685 -1.56393 -5.89774
  339 187.807 -1.54914 5.84217
  340 313.812 -7.17571 9.63637
  341 376.308 76.9282 -14.0312
  342 311.368 -6.46487 6.44040
  343 331.545 41.6589 27.8759
  344 317.356 -5.89224 32.4151
  345 250.973 -4.72518 1.07783
  346 250.976 -4.75529 -1.08563
  347 300.155 -1.07953 -27.6743
  348 397.765 83.6700 9.14646
  349 330.366 60.6363 0.582757
  350 202.475 23.5648 -100.580
  351 20.5218 9.13948 -13.5879
  352 22.5506 9.88560 14.6405
  353 -1.10995 2.28337 6.17543
  354 0.145714 1.25346 -6.44134
  355 582.171 40.3747 13.9123
  356 273.757 -22.2740 -7.37546
  357 314.066 -6.93132 -9.40349
  358 283.185 -4.96769 0.439612
  359 283.152 -4.92675 -0.441207
  360 302.808 33.4473 -14.0937
  361 258.488 -26.3903 22.5656
  362 22.4814 33.3911 -24.4811
  363 258.742 -26.3859 -22.9858
  364 306.802 34.8970 14.9984
  365 313.245 -8.33083 -16.7870
  366 332.406 -18.5309 -20.3456
  367 353.908 74.8466 5.45113
  368 333.192 -20.7849 16.8704
  369 137.046 -3.44810 21.7171
  370 136.212 -3.38176 -21.8611
  371 77.3280 1.92168 -30.0784
  372 78.1666 1.60745 29.9424
  373 271.628 0.869739 14.9052
  374 517.494 150.847 58.1507
  375 323.976 -2.04250 -8.18238
  376 251.809 -21.3382 -17.2550
  377 251.593 -21.2808 17.2311
  378 311.325 -7.16757 -21.2245
  379 354.951 -17.1596 2.99365
  380 273.747 -22.2525 7.60803
  381 389.839 2.67827 -31.3700
  382 219.489 -1.80179 -1.01985
  383 219.520 -1.78603 1.01204
  384 306.091 -1.77650 -13.5309
  385 164.246 -2.40212 -14.1795
  386 164.352 -2.47842 14.0041
  387 365.968 46.7277 -27.7865
  388 197.649 13.9811 93.3925
  389 286.395 -15.0454 1.61273
  390 286.678 -15.0180 -1.62689
  391 336.461 56.9787 -17.6654
  392 318.619 -9.43659 -30.7438
  393 319.710 -32.6558 26.2687
  394 266.136 -7.08605 -1.54843
  395 266.104 -7.05045 1.53173
  396 307.487 -23.7221 10.8379
  397 331.363 -1.56647 4.80280
  398 205.920 -7.57787 -16.5689
  399 206.001 -7.57698 16.4242
  400 312.110 10.4694 -33.3244
  401 294.730 -6.37781 1.78149
  402 294.717 -6.39232 -1.74150
  403 304.775 -3.58964 25.4524
  404 283.829 20.6559 6.75392
  405 316.096 -13.3372 26.8692
  406 457.209 95.7863 16.8718
  407 152.224 -8.20314 -43.4472
  408 152.654 -8.20603 43.1109
  409 67.9047 36.4984 -51.6211
  410 339.117 -0.978131 1.34032
  411 171.226 -1.47633 -8.96991
  412 171.458 -1.44503 8.89107
  413 311.583 -8.11719 20.7975
  414 282.622 -30.6962 14.7238
  415 319.404 -3.93801 4.40007
  416 325.176 16.5141 34.7723
  417 71.2264 38.8624 53.8571
  418 283.051 -30.5260 -13.5191
  419 292.506 -27.2038 -2.41151
  420 94.8837 -1.90640 -27.2854
  421 95.6147 -1.97901 27.0940
  422 224.523 -17.9325 -65.3091
  423 335.875 -5.00721 29.5268
  424 223.654 -18.2068 64.7282
  425 310.238 -17.4140 -17.4671
  426 287.860 19.3934 -14.8082
  427 310.294 -13.3935 16.5739
  428 334.198 -1.47571 -3.25252
  429 10.0562 10.6470 4.56289
  430 67.4818 77.6236 76.4360
  431 298.387 -1.09863 13.0396
  432 249.964 3.39998 6.44804
  433 254.351 4.15055 -8.75114
  434 217.012 -3.63031 -5.67286
  435 217.033 -3.58338 5.63449
  436 305.903 -23.7086 -9.94613
  437 308.969 -6.04873 -28.5047
  438 251.326 4.68294 -2.37730
  439 457.125 108.837 22.0653
  440 62.8803 20.9819 -38.6547
  441 69.3560 19.2586 41.3263
  442 286.131 -10.1990 1.46745
  443 286.021 -10.1733 -1.39015
  444 381.525 84.4418 -1.12020
  445 238.962 97.9109 148.946
  446 367.418 -5.19565 -5.62317
  447 210.499 -11.0396 -22.4799
  448 210.597 -10.9625 22.2853
  449 211.752 -4.77670 8.86082
  450 211.713 -4.81253 -8.94320
  451 286.186 6.33115 -23.9983
  452 340.882 -0.475609 -0.893011
  453 278.120 12.7319 13.4697
  454 352.035 43.4702 30.0379
  455 293.040 -21.7640 -3.03694
  456 319.283 -3.74578 -4.27388
  457 335.588 -1.33481 2.99619
  458 339.909 -0.507614 0.510675
  459 340.190 -0.574212 -0.377153
  460 186.382 -0.344777 2.17860
  461 186.289 -0.349861 -2.20195
  462 320.644 -20.3669 21.1096
  463 288.949 11.3792 23.2402
  464 302.197 1.21861 -30.4205
  465 315.829 -6.63912 12.4888
  466 456.478 76.2315 -88.4962
  467 316.541 -17.5604 -23.5551
  468 2.92411 5.97431 2.36940
  469 2.90274 6.06574 -0.803212
  470 250.510 -14.2400 9.68004
  471 249.665 -14.0513 -9.56554
  472 394.102 7.12015 47.4650
  473 110.033 99.8268 -112.768
  474 312.297 -0.945225 10.1480
  475 354.425 -20.6624 -26.8751
  476 188.235 -10.8857 31.4952
  477 379.511 67.3404 -20.1615
  478 311.984 -16.8831 19.7610
  479 261.713 -12.5440 -4.72473
  480 261.944 -12.3347 4.71027
  481 271.561 1.44192 -13.1638
  482 187.643 -10.8440 -31.6948
  483 278.525 0.113771 13.2398
  484 267.235 -30.5568 -40.4236
  485 266.561 -30.6034 40.5637
  486 322.107 -2.12711 9.02996
  487 292.292 27.5498 2.79222
  488 297.466 5.03151 101.735
  489 437.261 89.1148 -0.559246
  490 301.927 -5.06720 2.03897
  491 301.946 -5.04855 -2.10743
  492 231.755 -4.14640 -3.57774
  493 231.770 -4.11132 3.56371
  494 122.275 5.68832 56.7114
  495 313.361 -15.0894 -23.0394
  496 284.093 -6.17409 0.328706
  497 284.064 -6.15162 -0.322265
  498 247.344 -26.2144 33.0895
  499 124.651 7.50747 -58.1572
  500 313.846 -25.5735 -11.3799
  501 5.35962 1.04496 2.55517
  502 273.889 14.1195 0.980018
  503 303.045 -3.48159 -0.674184
  504 303.037 -3.53027 0.659604
  505 247.501 -26.1707 -33.3492
  506 354.798 -18.3028 34.4659
  507 351.435 12.7599 30.5980
  508 324.461 -2.17567 -2.12879
  509 312.886 -25.9352 11.5372
  510 195.364 -0.197005 -0.386338
  511 195.407 -0.195199 0.382953
  512 312.383 -11.9925 -24.5494
  513 302.356 22.3707 25.4437
  514 347.112 8.56985 -30.2173
  515 194.184 -0.317922 -1.22446
  516 194.234 -0.313558 1.21579
  517 606.784 87.6383 -78.4777
  518 314.691 37.4924 22.4225
  519 324.749 -2.00095 1.89707
  520 293.159 -27.8021 3.11746
  521 246.177 -8.18048 5.32186
  522 246.177 -8.24390 -5.31104
  523 341.394 -20.7887 9.47903
  524 327.963 -6.54898 -31.0973
  525 366.601 72.3013 16.8611
  526 304.840 5.23931 31.5409
  527 307.636 -5.89204 3.95618
  528 298.994 -31.8927 -38.8687
  529 309.979 -7.66807 24.1708
  530 599.824 27.4930 -10.9953
  531 338.904 -25.5503 -0.906414
  532 322.445 -2.10661 -0.511097
  533 322.521 -2.24397 0.451744
  534 606.052 40.6701 38.5637
  535 297.197 -0.104781 26.8251
  536 416.851 69.9305 -7.47116
  537 313.053 -8.49793 -12.1490
  538 140.812 -1.33741 -9.70004
  539 141.257 -1.27321 9.59995
  540 211.676 -19.8343 -45.3783
  541 211.841 -19.5013 45.0379
  542 307.468 -5.64607 -3.91876
  543 334.569 12.2783 -33.9749
  544 293.915 -20.0069 4.15978
  545 316.091 36.2524 -23.2735
  546 318.632 -3.68863 12.1548
  547 399.666 19.8993 -4.09660
  548 272.408 -9.34892 -1.28368
  549 272.323 -9.31497 1.26634
  550 296.007 -13.9681 5.31465
  551 436.756 86.4080 -5.99879
  552 311.760 13.6373 32.7638
  553 133.215 34.2983 83.8921
  554 301.469 -18.0989 67.9127
  555 398.625 19.0870 -74.7877
  556 318.751 26.3568 -30.5024
  557 282.925 -24.4387 -58.8587
  558 306.387 -33.5707 -11.4010
  559 320.052 -32.3934 -16.8371
  560 41.8420 54.0955 -51.2918
  561 321.685 -4.04656 -7.50557
  562 484.107 94.1946 -27.3042
  563 297.595 -13.3944 -5.91156
  564 300.080 -9.75029 4.87509
  565 299.800 -9.52622 -4.68107
  566 206.497 -1.21551 -2.69615
  567 206.540 -1.19975 2.67754
  568 29.0870 3.08310 -16.5126
  569 30.7319 3.23107 16.8979
  570 153.690 -7.17958 -33.1579
  571 154.873 -7.21812 33.1031
  572 304.189 -16.4747 -11.0786
  573 309.985 -33.7071 12.3544
  574 318.647 -30.2408 2.29615
  575 261.001 -4.62303 -0.952030
  576 260.986 -4.58924 0.946911
  577 247.711 -25.9670 -50.3891
  578 277.470 -22.7417 62.2920
  579 241.685 -24.4163 50.6796
  580 312.884 -6.94579 -30.6435
  581 195.641 -3.29851 9.98948
  582 195.545 -3.33324 -10.0744
  583 298.173 16.4627 -25.5500
  584 298.607 -0.522565 -11.8344
  585 373.142 81.1283 -7.61762
  586 243.502 -3.71135 -0.949150
  587 243.508 -3.68615 0.944470
  588 318.498 -0.939505 -6.67829
  589 219.575 -7.48377 -11.0374
  590 219.578 -7.45668 10.9396
  591 179.539 8.34979 80.3339
  592 309.985 -14.2496 -16.7577
  593 172.750 -9.10808 57.6997
  594 304.621 -15.7760 11.3112
  595 320.795 -4.50236 8.28375
  596 316.812 -2.86796 -1.88794
  597 222.087 -2.78657 -2.49893
  598 222.114 -2.76338 2.48537
  599 357.875 71.5504 -15.1693
  600 172.628 -8.75944 -57.9206
  601 303.611 -13.1304 -9.06422
  602 273.711 -5.08372 -0.453788
  603 273.682 -5.04548 0.451876
  604 514.817 69.3529 -12.2370
  605 181.085 -1.18514 5.51847
  606 180.927 -1.19678 -5.57117
  607 282.739 6.45981 21.8905
  608 405.015 33.7591 -5.26636
  609 191.350 1.37919 -79.7465
  610 97.6544 2.52246 -43.4052
  611 98.4744 1.95797 43.1746
  612 239.916 -14.0767 13.6469
  613 242.441 -14.4914 -13.2470
  614 409.253 82.4286 7.76210
  615 315.502 -2.97390 1.71101
  616 270.343 7.57125 -13.2161
  617 337.301 60.6913 13.9722
  618 336.074 62.9849 -9.29039
  619 276.194 -15.3384 -2.11929
  620 278.309 -14.9896 1.12959
  621 198.187 43.1298 -114.708
  622 237.161 -8.17607 -7.56549
  623 237.179 -8.08158 7.53815
  624 603.315 123.460 92.9412
  625 312.514 -10.2303 26.4802
  626 178.040 -6.35902 -21.2454
  627 486.154 112.200 74.6428
  628 178.457 -6.32286 21.1624
  629 299.046 -11.4384 -79.3609
  630 210.310 -1.06690 -0.994395
  631 210.347 -1.05761 0.989150
  632 260.560 2.31843 11.5268
  633 118.079 -1.77937 -19.0790
  634 118.748 -1.78378 18.9268
  635 272.628 -19.3450 5.62207
  636 285.986 -22.9359 -1.39242
  637 337.440 -0.719865 -2.73514
  638 189.460 -0.318191 1.60454
  639 189.389 -0.323789 -1.62173
  640 257.073 -5.82003 -1.42656
  641 257.062 -5.78646 1.41515
  642 295.356 -32.7536 39.2910
  643 339.212 37.8878 -30.7615
  644 225.360 -10.5928 -14.2318
  645 225.195 -10.4132 14.1269
  646 267.564 -19.3106 -7.92423
  647 421.852 91.9335 2.32050
  648 316.754 -30.6354 -0.541668
  649 274.762 -6.58183 -0.588603
  650 274.720 -6.54836 0.589258
  651 378.345 41.3603 23.4837
  652 317.321 -4.55659 -13.2125
  653 280.153 -0.354595 -10.7849
  654 129.414 -4.41612 -41.6726
  655 129.818 -4.54213 41.3279
  656 266.879 -23.0890 -12.8518
  657 400.497 88.4101 0.196409
  658 310.308 42.0376 -10.0993
  659 205.460 -1.91023 -4.97273
  660 205.507 -1.88351 4.93176
  661 289.658 -8.17721 -1.48027
  662 289.714 -8.18726 1.54317
  663 540.639 70.6293 31.0926
  664 342.713 -0.908829 0.743190
  665 330.957 -1.29107 4.69644
  666 329.641 -1.31865 -5.49727
  667 312.854 -29.1143 5.09510
  668 229.774 -2.71123 -1.24894
  669 229.796 -2.69149 1.24311
  670 334.034 53.5958 21.5020
  671 429.015 95.4120 -5.31795
  672 234.342 -17.5060 -20.1649
  673 234.271 -17.3321 20.0609
  674 293.500 -30.2578 -5.92583
  675 309.423 18.3867 -30.8336
  676 367.859 0.931448 13.4850
  677 243.637 -4.57014 -2.46642
  678 243.643 -4.53999 2.45580
  679 210.752 -18.5226 -40.9752
  680 309.883 -29.9632 -2.21965
  681 257.398 -28.5538 36.4503
  682 122.979 38.8956 -80.9340
  683 240.222 -22.3176 28.1130
  684 289.716 0.0774100 9.96912
  685 210.944 -18.3114 40.6964
  686 303.433 -13.3868 9.17609
  687 240.306 -22.2253 -28.3740
  688 245.737 3.17854 2.41727
  689 189.992 -5.16762 15.0945
  690 189.821 -5.17380 -15.2031
  691 257.546 -29.2947 -36.8585
  692 318.504 -20.9704 -20.4105
  693 292.040 -4.07180 -0.383582
  694 292.087 -4.11498 0.385347
  695 325.549 -20.7208 20.2329
  696 295.773 -30.9171 7.09767
  697 359.483 32.9688 29.8246
  698 324.243 -6.06424 32.0214
  699 312.000 -11.1792 19.5307
  700 297.801 24.4733 -19.3808
  701 358.511 60.3432 23.5870
  702 309.433 -4.27323 -18.9235
  703 308.488 -10.2036 10.0883
  704 318.660 49.9355 5.46011
  705 313.803 -5.30639 16.4945
  706 98.6898 67.0673 84.8189
  707 292.100 -33.5910 -22.5829
  708 338.219 6.15608 32.5686
  709 341.553 -10.5609 -23.2404
  710 341.059 -0.435704 1.51728
  711 311.810 -10.6910 -15.3960
  712 292.516 -33.8560 20.4954
  713 567.190 50.2203 -8.41436
  714 173.655 -0.760480 5.77667
  715 173.445 -0.768902 -5.83229
  716 316.354 -5.71616 -7.20058
  717 343.106 -0.330210 -1.47766
  718 266.384 -23.4614 12.9205
  719 320.103 -11.8974 29.0920
  720 487.009 115.950 -35.3334
  721 303.403 -21.9917 9.39789
  722 336.525 -22.1440 -12.0632
  723 308.604 -9.92832 -9.92751
  724 342.999 -0.575621 -0.484402
  725 312.355 -0.0255643 33.2757
  726 14.3450 12.9650 17.9303
  727 352.942 -13.6266 -51.4777
  728 383.899 22.6987 14.8376
  729 319.698 -32.6499 14.9878
  730 227.386 -5.51807 6.20136
  731 227.387 -5.59568 -6.23246
  732 298.723 150.433 -156.460
  733 325.696 -21.5274 -18.7130
  734 244.767 1.25727 -4.62058
  735 285.764 1.56847 21.3529
  736 314.114 -15.7027 23.4229
  737 301.083 -25.3729 4.78623
  738 313.253 -28.5395 -42.2191
  739 299.221 -23.6773 -5.33284
  740 353.759 -16.9455 -4.20340
  741 325.765 -2.62825 4.21169
  742 290.529 -17.4669 2.84978
  743 528.517 105.671 -56.2315
  744 309.997 -8.26409 8.01104
  745 306.483 5.00900 -32.3922
  746 261.917 -2.95158 89.2791
  747 328.429 26.4558 33.0929
  748 282.495 -22.2746 2.86775
  749 217.885 -17.2331 -29.9256
  750 217.903 -17.1844 29.6784
  751 300.130 33.7466 -4.51708
  752 305.480 -3.53156 28.9267
  753 308.860 -7.34281 -24.6893
  754 290.861 -17.8229 -2.94471
  755 281.186 -25.2371 7.10507
  756 321.124 53.0339 -6.17148
  757 300.711 -26.0261 -3.59968
  758 301.449 -19.0764 9.13433
  759 305.532 -3.88573 1.42514
  760 305.723 -3.77914 -1.41579
  761 411.057 90.3627 2.22168
  762 336.276 -28.5860 -9.79581
  763 312.762 -9.55137 15.3279
  764 325.896 -2.61918 -3.83615
  765 329.090 2.19228 -33.6689
  766 374.900 19.6656 -19.9089
  767 182.990 -0.186807 -2.69368
  768 183.110 -0.184137 2.66601
  769 2.62107 -5.75894 -4.07944
  770 319.276 -0.363968 6.18530
  771 292.372 -0.490212 -23.6274
  772 302.139 -2.82772 20.8458
  773 276.200 34.0387 131.094
  774 343.941 70.8163 -0.748004
  775 244.408 -17.5686 15.6898
  776 42.3845 0.969271 -16.3351
  777 43.6355 0.714920 16.5105
  778 299.420 -2.13496 -23.5097
  779 245.079 -17.7452 -15.6852
  780 323.970 -2.88283 3.20661
  781 164.994 -7.09036 28.3025
  782 163.571 -7.06600 -28.3182
  783 309.980 -8.02256 -7.80343
  784 197.367 -5.03959 -13.1337
  785 197.466 -5.00598 13.0151
  786 322.878 -3.01754 -9.14275
  787 246.079 -6.62024 -4.25051
  788 246.085 -6.57622 4.25186
  789 352.589 -2.24095 -23.2923
  790 317.093 -3.31677 -33.4025
  791 160.593 -1.04364 -7.37009
  792 160.909 -1.03394 7.28341
  793 7.69930 4.04217 -9.87105
  794 9.13615 4.26374 10.3881
  795 256.502 1.22269 -8.37482
  796 289.659 -32.5483 -16.7703
  797 -3.34296 -2.31606 5.75922
  798 -2.92785 -2.72773 -5.71881
  799 301.516 -6.01485 3.04668
  800 327.034 -25.5039 -10.7251
  801 337.453 50.0413 -25.0977
  802 325.376 -2.58919 -3.04647
  803 696.670 140.164 -130.866
  804 301.454 -5.99480 -3.00725
  805 453.987 86.6538 6.94909
  806 322.537 9.39036 -34.8254
  807 356.446 26.8843 -30.5204
  808 59.2899 -0.699271 -15.1072
  809 60.4035 -0.788108 15.0795
  810 200.619 -2.93592 7.77200
  811 200.548 -2.96069 -7.84264
  812 191.353 -0.466244 1.45256
  813 191.295 -0.471092 -1.46453
  814 360.335 60.7002 -23.3916
  815 212.462 -1.35598 -2.13992
  816 212.499 -1.34030 2.12756
  817 306.425 -3.08557 -30.1913
  818 443.110 45.0525 37.5988
  819 275.483 6.12912 -18.4051
  820 94.9210 -0.858934 16.2043
  821 94.1031 -0.866825 -16.3335
  822 357.130 9.53823 93.9707
  823 316.028 -5.76344 7.43193
  824 282.088 18.6962 -7.66837
  825 129.900 -0.215935 11.0563
  826 129.225 -0.155168 -11.1392
  827 195.509 -1.02177 -3.80478
  828 195.580 -1.00708 3.76884
  829 34.9773 31.1793 26.7683
  830 294.277 7.00087 27.3726
  831 327.614 48.1724 -21.5004
  832 352.706 40.9494 -30.3190
  833 231.350 -8.80844 -9.94607
  834 231.213 -8.74140 9.93142
  835 365.230 77.8373 10.6370
  836 315.485 -2.58075 -0.405022
  837 315.503 -2.56125 0.458454
  838 312.044 -9.33471 -19.6907
  839 261.180 -17.4561 9.05002
  840 287.875 -32.3534 16.8610
  841 338.563 -27.7425 26.2894
  842 258.825 -7.53955 -2.46285
  843 258.821 -7.51027 2.44542
  844 296.027 27.4260 12.4437
  845 278.052 3.77820 -19.8820
  846 77.3103 90.9248 88.2916
  847 282.070 -25.0324 -6.40922
  848 282.993 -12.6539 0.731388
  849 283.145 -12.6783 -0.746521
  850 311.336 -4.57953 31.7492
  851 308.828 -20.2820 -14.6451
  852 275.666 -18.2881 -3.48371
  853 630.211 20.4084 -31.2539
  854 262.023 -24.8407 17.7994
  855 261.816 -25.1650 -18.0906
  856 311.039 -3.70658 16.0994
  857 468.628 120.943 -26.6584
  858 245.789 -22.3936 -22.3161
  859 271.700 -30.6195 21.1390
  860 245.720 -22.1224 22.1164
  861 266.515 -10.7573 -2.80775
  862 266.506 -10.7199 2.78657
  863 39.2926 16.7871 23.2788
  864 334.318 24.9841 -33.5110
  865 255.690 -10.0202 -4.58320
  866 255.736 -9.91809 4.59999
  867 252.477 -4.20044 -0.552737
  868 252.472 -4.17094 0.548925
  869 277.886 -5.51759 -0.0150505
  870 277.852 -5.48056 0.0132593
  871 225.535 -4.46691 -5.36893
  872 225.552 -4.41640 5.34567
  873 256.676 -13.5576 -6.96001
  874 256.708 -13.4635 6.99013
  875 6.16621 -2.39169 -2.86438
  876 387.431 72.6862 17.4828
  877 333.289 -11.6763 -26.8575
  878 271.481 -30.1765 -21.3668
  879 293.310 -9.43404 2.84680
  880 293.179 -9.33552 -2.76448
  881 319.802 0.406090 34.1233
  882 347.938 -24.8262 -14.3873
  883 308.014 21.7631 -113.690
  884 139.732 -2.24059 56.0888
  885 -5.33643 3.25957 -3.78123
  886 -4.64378 3.67807 4.19491
  887 39.0262 17.8541 -23.7629
  888 312.648 -8.95626 12.0794
  889 329.088 -2.11939 -5.09181
  890 295.893 -28.4459 48.5534
  891 139.398 -2.09051 -56.3149
  892 329.746 -26.9717 7.55865
  893 367.370 -10.9095 42.1312
  894 265.926 1.06845 8.87905
  895 305.164 29.0260 21.1994
  896 164.926 -9.31591 41.2854
  897 164.284 -9.39138 -41.5630
  898 197.883 -9.48213 -23.1440
  899 208.120 -10.1625 -71.5612
  900 329.803 -7.70198 30.1590
  901 453.339 106.388 16.0456
  902 331.077 12.7390 34.1731
  903 312.956 -6.65631 -17.9595
  904 212.516 -9.10524 73.3425
  905 399.095 73.5335 -12.9056
  906 39.4302 33.5937 -33.0193
  907 288.910 -0.585702 -9.50940
  908 198.090 -9.40334 22.9352
  909 241.713 -5.36661 3.75142
  910 241.707 -5.40411 -3.76018
  911 309.280 -20.1741 15.1215
  912 321.294 -2.00142 1.22748
  913 236.203 2.19254 -88.9781
  914 338.820 -0.731700 2.41080
  915 336.255 -0.599156 -3.07666
  916 250.620 2.16095 -7.69971
  917 324.866 -1.31496 -5.48399
  918 242.535 -11.4085 -9.15643
  919 242.698 -11.2363 9.18393
  920 -8.02147 2.95092 -4.62185
  921 -11.0448 1.77950 4.88368
  922 321.287 -1.85622 -1.24477
  923 105.904 -2.38988 37.8425
  924 105.259 -2.16058 -38.0606
  925 343.017 50.0708 26.5031
  926 615.403 11.1107 9.67918
  927 322.803 35.9169 27.8305
  928 366.063 -12.9245 11.6701
  929 317.946 -17.6843 23.6095
  930 395.930 83.0064 -9.82438
  931 245.208 1.02617 5.80335
  932 305.944 -7.16009 -4.85178
  933 317.728 17.0838 -33.6732
  934 384.324 11.2981 -6.64748
  935 298.167 -18.4112 -7.18972
  936 151.717 -0.860613 -8.25308
  937 151.879 -0.830204 8.13527
  938 314.681 -7.36106 -14.0813
  939 10.4099 13.2367 2.63465
  940 302.054 -31.3111 -2.91827
  941 261.229 7.69468 -0.794305
  942 393.180 86.4956 -6.52462
  943 61.9934 46.1336 -54.8928
  944 302.160 -2.24855 -18.6794
  945 209.022 -3.53773 -7.25563
  946 209.062 -3.49576 7.19307
  947 1.78940 -8.63843 6.58492
  948 205.026 -15.3200 -33.2135
  949 307.675 -17.7695 -14.2104
  950 190.659 0.408934 -0.600950
  951 190.705 0.410939 0.596754
  952 310.513 37.6891 -16.9832
  953 333.484 -0.952767 -0.487506
  954 333.492 -0.966614 0.638495
  955 205.116 -15.2770 32.9853
  956 311.330 -0.417884 -7.38593
  957 358.421 2.57997 22.4613
  958 317.939 -4.44564 5.74690
  959 50.5239 12.8989 -29.4510
  960 329.766 -1.96482 4.61583
  961 298.789 2.39551 29.3115
  962 315.123 43.6715 15.1085
  963 315.406 3.65543 -34.4500
  964 216.971 -11.7012 -19.8456
  965 340.592 -12.0530 22.4333
  966 217.112 -11.6548 19.6424
  967 9.91636 10.8346 -0.868774
  968 37.0300 6.42574 21.5768
  969 176.814 -3.16428 13.6482
  970 176.596 -3.16743 -13.7274
  971 306.159 -7.29824 5.11012
  972 328.969 57.2688 8.36622
  973 167.378 15.3777 -84.2171
  974 275.142 -17.2082 3.02097
  975 258.251 -27.0349 -26.8519
  976 376.667 72.2207 18.1667
  977 289.703 -5.09161 0.456214
  978 289.692 -5.06297 -0.458072
  979 317.547 -5.83627 -10.1191
  980 293.245 25.3014 -11.4799
  981 665.724 197.150 133.019
  982 60.8335 3.46182 -28.4427
  983 61.8011 2.87796 28.5077
  984 4.52252 -5.91015 1.44840
  985 294.159 16.2824 23.5637
  986 258.174 -27.1979 26.6511
  987 320.142 -15.1107 -26.8512
  988 348.343 28.4744 33.0616
  989 335.018 -27.0523 -32.3690
  990 489.458 103.032 33.9961
  991 284.373 -4.58135 -0.118336
  992 284.336 -4.54251 0.118627
  993 332.994 -13.5617 25.4726
  994 22.9643 37.7704 39.5531
  995 149.255 -3.16661 19.5551
  996 148.782 -3.12615 -19.7680
  997 178.443 -8.79087 26.7222
  998 177.824 -8.65770 -26.8254
  999 201.080 -8.35453 19.1801
  1000 219.823 -1.77877 -0.971044
  1001 219.854 -1.76537 0.966947
  1002 550.651 174.965 -111.423
  1003 498.450 124.880 51.1154
  1004 200.916 -8.39805 -19.3445
  1005 343.004 -1.57230 28.0968
  1006 306.623 31.8175 -20.4153
  1007 216.628 -18.6123 59.3240
  1008 278.459 -32.8931 -31.8500
  1009 318.291 -2.59520 -10.8259
  1010 143.313 9.90173 68.5236
  1011 183.933 -14.0597 47.4068
  1012 281.046 14.3828 -14.7544
  1013 321.824 -6.36494 -32.3825
  1014 411.183 166.709 178.667
  1015 265.337 8.09403 10.5009
  1016 361.616 78.0193 -1.28099
  1017 265.895 10.4053 -101.128
  1018 270.228 -28.4736 -18.2182
  1019 343.411 -0.347368 -1.20634
  1020 329.170 30.2411 -32.2345
  1021 192.311 -1.26812 4.89713
  1022 192.221 -1.28105 -4.94424
  1023 7.02445 3.47369 -10.0394
  1024 217.116 -9.98171 -16.5403
  1025 183.710 -14.2416 -47.7690
  1026 216.947 -9.95844 16.3548
  1027 314.565 -9.56397 29.9458
  1028 282.168 -17.4587 -0.472131
  1029 296.262 5.43553 -28.3925
  1030 304.826 38.0832 5.95933
  1031 414.100 24.8708 14.5505
  1032 311.683 -23.6663 14.4182
  1033 196.716 -15.7767 -36.3431
  1034 293.719 10.3760 -26.5704
  1035 218.524 -18.3616 -59.6423
  1036 420.017 91.2731 -1.61606
  1037 285.415 18.7180 13.4226
  1038 361.188 -2.14167 -17.2633
  1039 271.911 -28.4839 16.7465
  1040 311.668 -9.85934 23.1609
  1041 309.672 -16.3306 16.6881
  1042 307.973 -15.4700 14.4672
  1043 380.422 48.2869 -24.1249
  1044 307.490 -4.94806 23.4982
  1045 277.998 -32.9852 31.3285
  1046 296.744 -12.1141 4.81441
  1047 196.839 -15.8058 36.1362
  1048 278.562 -20.5582 -3.70766
  1049 161.676 -7.84226 -50.7029
  1050 230.906 -23.9956 40.2078
  1051 313.210 -2.10904 -12.5642
  1052 304.990 -3.43764 -26.7006
  1053 264.152 -20.9442 -11.0826
  1054 161.956 -8.07128 50.3005
  1055 284.249 0.678630 -18.5598
  1056 211.377 -14.0931 -25.7129
  1057 383.460 81.7228 11.4752
  1058 85.2315 14.2016 -48.1006
  1059 657.005 46.4349 63.3581
  1060 153.491 11.5122 -71.7564
  1061 307.917 -25.5006 -8.90051
  1062 211.433 -13.9714 25.4993
  1063 281.195 2.95594 20.7501
  1064 157.353 -3.22002 16.1876
  1065 157.268 -3.29987 -16.3541
  1066 311.647 -8.65996 -27.7539
  1067 331.759 -1.62858 1.89206
  1068 325.116 -0.715556 5.54326
  1069 321.419 10.6749 34.7425
  1070 300.590 -2.26310 25.0776
  1071 233.255 24.8193 109.395
  1072 345.633 -0.247685 0.585495
  1073 323.495 43.8652 22.1538
  1074 273.567 3.94136 17.8724
  1075 329.296 -1.23752 5.32628
  1076 211.000 -2.30417 -4.05299
  1077 211.037 -2.27777 4.02587
  1078 134.125 -3.82765 -26.9919
  1079 134.661 -3.96527 26.8041
  1080 274.438 13.6588 7.49900
  1081 415.527 22.1045 -29.9847
  1082 381.791 -0.563915 -57.3682
  1083 303.730 -0.264556 -7.65718
  1084 230.997 -24.1759 -40.5146
  1085 264.706 -19.9195 9.89137
  1086 305.505 -0.695303 7.99174
  1087 320.087 -23.2051 -16.9819
  1088 198.996 -0.475552 2.42240
  1089 198.946 -0.483858 -2.43791
  1090 307.328 -26.2309 8.89555
  1091 292.056 -5.94539 0.943148
  1092 292.007 -5.95094 -0.923775
  1093 284.153 -28.6414 10.4970
  1094 366.676 -11.8725 -3.60677
  1095 164.911 -0.299573 -4.58964
  1096 165.183 -0.289130 4.54014
  1097 249.492 -15.7374 -68.3326
  1098 265.143 -6.33670 1.31456
  1099 265.169 -6.37291 -1.32696
  1100 160.578 86.0544 120.189
  1101 368.044 30.1552 -27.1939
  1102 53.9171 26.3650 -36.2759
  1103 318.127 -4.69295 -5.55394
  1104 84.6401 29.1488 -55.1542
  1105 176.265 -11.1362 -34.5197
  1106 345.757 -0.354615 0.361967
  1107 345.896 -0.331190 -0.267317
  1108 312.783 -17.8381 -20.2303
  1109 276.992 -31.0678 -43.8381
  1110 85.2807 12.0891 45.8354
  1111 340.229 33.6888 31.3898
  1112 308.973 -3.06617 -0.496875
  1113 309.008 -3.06887 0.526475
  1114 337.773 -21.7857 53.1170
  1115 348.346 69.8592 12.0952
  1116 206.247 -5.02392 -10.3933
  1117 206.298 -4.99971 10.3174
  1118 156.903 18.0013 84.9986
  1119 295.540 1.48972 -27.4818
  1120 92.4683 29.8940 59.3218
  1121 380.555 -6.59469 -17.5270
  1122 373.266 82.6704 3.68164
  1123 256.495 -20.3553 13.5387
  1124 235.976 1.23068 -1.13121
  1125 326.095 -2.82947 6.83170
  1126 337.744 -0.405859 2.66606
  1127 73.1116 0.138751 -13.5752
  1128 74.1348 0.102635 13.4815
  1129 264.940 4.39423 -13.2343
  1130 273.588 -8.05101 -0.882221
  1131 273.524 -8.01205 0.876685
  1132 28.6899 44.4681 -42.0714
  1133 45.7075 98.0020 -84.5337
  1134 277.113 -10.8328 0.610763
  1135 277.223 -10.8332 -0.625750
  1136 286.413 -6.88419 1.00818
  1137 286.372 -6.86886 -0.983377
  1138 74.8853 47.8774 59.6456
  1139 225.449 -2.82599 -1.94221
  1140 225.475 -2.80518 1.93253
  1141 283.890 21.4284 -0.313469
  1142 363.619 45.3508 -126.346
  1143 346.820 59.8604 -20.7223
  1144 316.522 -12.1368 -28.3285
  1145 311.811 -15.5296 -20.5120
  1146 256.656 -20.5468 -13.7671
  1147 257.664 0.827563 8.16993
  1148 290.361 18.0752 -19.6945
  1149 286.266 15.3660 18.8068
  1150 296.548 -11.7598 -4.72700
  1151 282.896 -17.1059 0.263277
  1152 256.998 -16.6727 -10.1429
  1153 306.179 -1.79234 14.8930
  1154 542.657 54.8163 7.65486
  1155 308.295 -6.56309 27.1341
  1156 309.209 20.2994 29.6264
  1157 285.489 -28.1221 -7.79923
  1158 35.0396 5.90857 -20.8048
  1159 290.843 -13.4481 -3.39824
  1160 192.046 -0.317075 -0.117443
  1161 192.087 -0.315783 0.116048
  1162 354.744 -9.40970 14.7873
  1163 338.070 -28.4523 11.8335
  1164 485.885 87.1345 21.1895
  1165 114.895 -0.248732 -11.3262
  1166 115.599 -0.223642 11.2392
  1167 259.384 -5.26747 -1.10733
  1168 259.371 -5.23363 1.09868
  1169 291.773 -25.7583 -0.551254
  1170 238.114 1.05786 3.70214
  1171 298.837 -21.2769 6.86172
  1172 16.7208 19.8765 -9.47753
  1173 53.3747 26.7221 35.4807
  1174 199.689 -10.8001 66.0593
  1175 345.431 65.9110 -14.7904
  1176 330.516 -0.902514 -4.20546
  1177 347.240 -0.542251 0.248298
  1178 347.586 -0.745109 -0.159775
  1179 200.043 -0.501985 -0.394089
  1180 200.085 -0.498081 0.390954
  1181 318.332 20.3580 33.6517
  1182 471.944 80.8186 -1.71370
  1183 327.884 54.2817 -15.0125
  1184 245.365 -17.9906 67.8929
  1185 198.625 -10.3741 -65.9356
  1186 220.552 -14.8511 -23.0337
  1187 306.318 -8.51749 6.50485
  1188 427.858 94.1457 2.99729
  1189 220.567 -14.7607 22.8484
  1190 313.097 -5.41214 4.92393
  1191 278.678 10.3149 17.9415
  1192 307.599 9.51816 32.3125
  1193 439.039 98.1236 10.0733
  1194 259.889 -6.81013 2.07298
  1195 259.904 -6.84428 -2.08870
  1196 317.129 -5.90335 10.5070
  1197 186.859 -2.03782 7.68109
  1198 186.726 -2.05869 -7.75280
  1199 310.248 -4.16139 -2.22502
  1200 127.467 75.8116 -116.132
  1201 268.628 -15.1112 -72.6882
  1202 252.695 -7.96922 -3.92079
  1203 252.719 -7.93170 3.92195
  1204 333.162 -1.51750 1.70246
  1205 314.998 -4.06208 3.94024
  1206 17.0422 21.2525 15.5220
  1207 343.103 -0.365578 1.40585
  1208 40.4908 51.0501 50.6536
  1209 307.573 -4.53602 -2.85490
  1210 -0.410502 -7.57279 -6.62829
  1211 217.036 -21.1710 -51.1181
  1212 216.425 -20.6546 50.6007
  1213 343.094 -0.587019 -1.55140
  1214 292.703 -15.4388 -4.03431
  1215 332.908 -1.37846 -1.75172
  1216 265.682 -8.62276 -1.92310
  1217 265.653 -8.58940 1.89923
  1218 310.046 -4.13069 2.09330
  1219 290.632 -13.1861 3.36266
  1220 279.523 -8.99051 -0.142439
  1221 279.625 -9.01684 0.177257
  1222 332.638 -1.42130 -1.43251
  1223 286.774 -30.1531 -49.4659
  1224 325.353 -1.94321 -1.47167
  1225 308.904 -4.66541 3.06097
  1226 214.446 -2.40139 -2.99257
  1227 214.480 -2.37765 2.97410
  1228 239.954 -3.56633 -1.50844
  1229 239.965 -3.54103 1.50039
  1230 390.170 60.7788 20.3164
  1231 327.786 -25.1535 12.7332
  1232 224.564 -1.00486 83.9680
  1233 178.743 -0.318573 2.94790
  1234 178.591 -0.321927 -2.97825
  1235 310.280 -5.71090 20.4150
  1236 297.107 -4.44886 0.634596
  1237 297.121 -4.43314 -0.634193
  1238 339.839 66.2740 6.90221
  1239 311.788 -32.6180 39.0342
  1240 179.239 -2.57740 10.7999
  1241 179.059 -2.59728 -10.8817
  1242 296.633 -7.20110 2.49101
  1243 296.568 -7.25010 -2.42154
  1244 306.155 -8.41066 -6.27235
  1245 280.582 0.0505097 9.61159
  1246 487.114 121.010 -39.7949
  1247 311.751 -11.3752 -18.1187
  1248 52.9070 12.7293 30.2973
  1249 322.114 -17.1392 25.0680
  1250 257.656 5.58793 -7.23757
  1251 19.4428 14.4757 10.8043
  1252 425.307 47.0113 -3.03093
  1253 314.504 -14.2821 -25.2877
  1254 258.909 3.64421 11.0833
  1255 177.516 -11.1537 34.4544
  1256 319.633 -24.7165 15.1889
  1257 465.148 88.1693 26.9671
  1258 106.802 15.8878 58.4003
  1259 321.311 -3.76484 -9.04359
  1260 620.512 6.90778 -6.27216
  1261 641.428 9.66251 28.0081
  1262 685.353 23.4410 -66.4775
  1263 311.292 -9.68969 -22.4945
  1264 311.364 -14.1825 19.2180
  1265 316.409 -22.4955 18.0045
  1266 -9.32229 1.04166 5.93579
  1267 -8.49337 0.823426 -6.44978
  1268 308.077 -34.0169 -17.9432
  1269 315.732 -31.8883 -27.1292
  1270 239.869 1.50643 -4.57403
  1271 306.829 -34.6365 27.1158
  1272 327.697 -15.5189 -25.4543
  1273 6.21533 9.66882 0.899784
  1274 265.910 -4.86142 0.817513
  1275 265.930 -4.89720 -0.819683
  1276 325.906 -2.55651 6.17250
  1277 313.083 -5.31387 -4.63148
  1278 294.651 -32.1742 -9.32950
  1279 268.810 -14.5930 4.13040
  1280 267.441 -14.3907 -4.53045
  1281 315.884 -6.63428 14.3707
  1282 323.683 -11.8701 -29.1859
  1283 20.1830 15.0932 -10.4337
</Section>

newXOutput 43

<Section columns = "stress_xx | stress_yy | stress_xy">
  1 357.552 -0.0527682 0.706736
  2 357.568 -0.0474644 -0.708987
  3 193.453 -0.0776874 -0.255948
  4 -2.45699 -2.43424 -3.53159
  5 647.125 254.258 205.490
  6 641.050 263.646 -205.611
  7 -2.85233 -2.31709 3.75224
  8 193.411 -0.0784317 0.255215
  9 360.104 -0.588234 0.218500
  10 359.326 -0.934715 -0.171564
  11 358.472 -0.613549 0.821975
  12 357.618 -0.854228 0.242555
  13 355.783 -0.715506 1.29559
  14 354.121 -0.725437 0.952917
  15 350.227 -0.642457 1.85654
  16 344.688 -0.432512 2.73275
  17 339.743 -0.467807 3.03679
  18 332.429 -0.668179 3.66567
  19 322.314 -0.0388493 5.41160
  20 312.968 -0.493202 5.13758
  21 302.359 -0.649123 7.22999
  22 287.032 0.460959 6.28425
  23 275.962 0.686084 7.42374
  24 261.524 1.16219 5.80400
  25 251.546 1.20427 5.84901
  26 237.087 1.70136 2.98057
  27 234.046 2.68136 3.19309
  28 232.219 2.18912 -0.942059
  29 234.725 1.25285 -2.07515
  30 239.335 1.22848 -2.54361
  31 250.164 1.55841 -5.08032
  32 260.681 1.23032 -6.43312
  33 276.136 0.260643 -7.63196
  34 288.506 -0.163465 -6.95896
  35 301.709 -0.517634 -6.84371
  36 313.672 -0.384150 -4.83563
  37 323.968 -0.398665 -4.14026
  38 332.469 -0.652216 -3.47902
  39 340.092 -0.461919 -2.43062
  40 344.863 -0.544762 -2.58216
  41 349.471 -0.678242 -1.88881
  42 353.838 -0.807108 -0.832948
  43 356.081 -0.647405 -0.975914
  44 357.271 -0.390639 -0.611412
  45 356.422 -0.203867 -0.557367
  46 359.700 -0.944643 0.112412
  47 360.218 -0.613519 -0.225418
  48 348.299 -0.239240 -0.437011
  49 340.406 -1.40926 -0.785726
  50 330.776 -2.08155 -0.515662
  51 319.041 -3.10505 -0.705822
  52 307.926 -3.40567 -0.876492
  53 296.069 -4.28401 -0.832719
  54 285.580 -4.77745 -0.462308
  55 276.381 -5.36184 -0.172707
  56 265.770 -4.45457 -0.169192
  57 253.542 -4.17203 -0.276084
  58 241.752 -3.30154 -0.0818809
  59 230.579 -2.11426 -0.0274663
  60 219.955 -1.51263 0.0204471
  61 210.629 -0.783290 0.100694
  62 201.081 -0.216265 -0.293713
  63 193.570 0.269795 0.364208
  64 190.212 0.768050 0.243064
  65 192.525 0.00336658 0.578685
  66 189.987 -0.108868 0.696481
  67 187.644 -0.160132 0.869005
  68 184.458 -0.0236573 1.13572
  69 180.437 -0.0135778 1.43286
  70 177.482 -0.244947 2.77062
  71 168.953 0.248105 3.02718
  72 162.962 -0.0200632 3.47103
  73 154.039 -0.160257 3.93587
  74 143.754 -0.268473 4.79268
  75 130.902 -0.0630984 5.81912
  76 115.233 0.0710694 6.41018
  77 101.740 -0.146418 9.15625
  78 75.0129 0.855712 8.62759
  79 56.8536 0.738567 9.13623
  80 35.1373 -0.153400 10.1142
  81 17.1483 1.69775 10.4912
  82 -3.30869 2.52609 6.24948
  83 -18.1261 2.56330 2.15808
  84 -17.5047 2.45874 -1.00700
  85 -16.5688 2.03719 -5.00935
  86 -9.73009 -0.674555 -4.73901
  87 -1.20585 -9.34112 -5.22345
  88 0.896686 -17.2384 -6.55693
  89 2.52765 -27.3374 -3.69657
  90 5.63502 -28.1294 0.159415
  91 11.9549 -7.35942 15.5972
  92 35.8230 53.7828 53.5418
  93 212.071 195.510 183.417
  94 782.615 116.596 131.397
  95 704.304 16.7244 42.9029
  96 654.059 6.90442 13.1289
  97 635.493 5.84662 1.02722
  98 645.268 7.80347 -11.3473
  99 702.584 15.5364 -33.9357
  100 830.324 56.2600 -113.471
  101 125.699 199.483 -153.178
  102 26.8382 37.2337 -44.1953
  103 13.0399 -6.04899 -16.3592
  104 5.26440 -28.2159 -2.66116
  105 1.45710 -20.8637 4.26068
  106 1.85999 -21.7143 5.69696
  107 0.0786866 -8.08630 5.78288
  108 -10.1535 -0.447141 4.50106
  109 -17.0971 1.52887 4.37687
  110 -18.4284 2.99095 1.10818
  111 -18.7173 2.52613 -1.99002
  112 -4.60811 2.58903 -5.84763
  113 15.9954 1.71278 -9.99836
  114 33.9595 0.0259233 -9.94760
  115 55.6408 0.798745 -9.15684
  116 73.9109 0.878595 -8.69545
  117 100.884 -0.150196 -9.23565
  118 114.499 0.0795010 -6.47418
  119 130.262 -0.0604164 -5.89404
  120 143.424 -0.296799 -4.83016
  121 153.599 -0.152702 -3.94717
  122 162.629 -0.00897958 -3.50826
  123 168.681 0.244948 -3.06176
  124 177.288 -0.247293 -2.79996
  125 180.282 -0.0151006 -1.45094
  126 184.341 -0.0250979 -1.15061
  127 187.557 -0.162506 -0.880835
  128 189.921 -0.110899 -0.704760
  129 192.471 0.00160137 -0.583991
  130 190.165 0.767055 -0.245546
  131 193.527 0.269316 -0.365752
  132 201.037 -0.218298 0.292851
  133 210.588 -0.788372 -0.102625
  134 219.919 -1.52385 -0.0227139
  135 230.552 -2.12987 0.0252744
  136 241.737 -3.32403 0.0797339
  137 253.540 -4.20037 0.274411
  138 265.784 -4.48727 0.167555
  139 276.406 -5.39827 0.172029
  140 285.613 -4.81370 0.463550
  141 296.115 -4.31699 0.836407
  142 307.964 -3.42855 0.889769
  143 319.068 -3.12550 0.769180
  144 330.834 -1.96465 0.527305
  145 340.647 -1.37073 0.768524
  146 348.355 -0.293107 0.430536
  147 311.170 -29.2282 -2.46106
  148 310.913 -28.8358 2.57243
  149 326.262 46.9080 -16.2204
  150 347.996 20.5249 34.4305
  151 263.545 -25.3232 -57.7316
  152 265.667 -25.2964 55.8584
  153 255.744 -10.9072 6.80849
  154 255.767 -11.0608 -6.81477
  155 369.211 13.2423 -26.4643
  156 310.338 -11.1340 7.15347
  157 310.208 -10.8631 -7.06354
  158 401.176 89.6781 4.30976
  159 317.510 -0.509127 -33.5612
  160 234.683 -18.5445 -25.8251
  161 234.685 -18.3878 25.5928
  162 318.126 -7.18810 30.3312
  163 301.905 22.0051 19.9720
  164 124.455 20.1123 -68.8831
  165 138.095 19.0461 72.5998
  166 390.024 4.36125 3.71959
  167 319.043 -12.2133 -21.1431
  168 422.709 92.8626 -2.22654
  169 287.195 -8.09790 0.146515
  170 287.133 -8.07136 -0.120608
  171 322.942 -3.85335 -3.13214
  172 323.983 -3.45461 2.70905
  173 225.026 -3.28045 -4.07706
  174 225.053 -3.24596 4.05481
  175 347.161 -9.28201 73.3496
  176 292.171 12.0919 -21.5061
  177 190.830 -14.3395 -41.5744
  178 191.402 -14.2342 41.2967
  179 214.284 -7.10044 -13.5482
  180 214.303 -7.01792 13.4443
  181 320.618 -8.39167 17.9671
  182 291.268 -20.0199 -0.416160
  183 290.230 -19.8707 0.889690
  184 331.480 -32.0461 -5.14740
  185 333.190 -30.5294 1.01377
  186 458.289 107.806 -15.3523
  187 332.701 53.4858 15.1772
  188 333.409 20.4821 -34.5363
  189 346.004 -3.07871 -85.3453
  190 331.021 -18.6804 -24.2430
  191 333.853 -13.3276 28.5017
  192 278.163 -31.5971 28.1371
  193 278.242 -31.3763 -28.0478
  194 297.249 3.76576 25.8624
  195 135.616 -3.28014 -50.8011
  196 135.956 -3.57337 50.4844
  197 517.286 77.5743 11.1528
  198 313.463 -18.6598 13.2654
  199 325.201 -5.93477 -11.7248
  200 257.291 -6.32989 -3.07526
  201 257.294 -6.29639 3.06478
  202 311.916 -4.04631 -23.3581
  203 355.328 52.1913 -27.7092
  204 296.838 26.6482 -4.00532
  205 192.771 -6.89584 19.0992
  206 192.473 -6.91868 -19.2456
  207 330.180 -3.61526 6.44169
  208 321.173 6.03971 34.5041
  209 260.902 -19.0746 -12.3172
  210 259.112 -18.0624 12.6288
  211 378.928 56.1958 25.5116
  212 446.262 60.7523 9.36301
  213 29.9571 23.5340 -19.0940
  214 27.6945 21.7559 16.2100
  215 183.407 52.3947 121.703
  216 310.306 -20.6125 -10.2418
  217 331.399 -3.47347 -5.82081
  218 293.839 2.56134 -23.8130
  219 205.591 -2.08865 -6.00537
  220 205.655 -2.06491 5.95099
  221 279.046 -13.1228 -2.38909
  222 279.174 -13.2018 2.22964
  223 314.653 -4.23130 19.8882
  224 362.876 -21.0320 7.66050
  225 359.832 73.6793 -8.05387
  226 282.187 -27.3007 -13.1208
  227 357.281 -6.21093 22.2533
  228 304.246 -5.07064 1.18766
  229 304.251 -5.02785 -1.18584
  230 280.088 -27.1698 13.6532
  231 321.111 -20.3522 19.7650
  232 452.390 57.9601 -27.8371
  233 99.8240 59.4332 -87.9731
  234 271.195 9.48023 5.12350
  235 322.245 28.4181 29.0534
  236 343.672 -2.39756 -30.8538
  237 320.968 -11.5371 -28.3949
  238 170.351 -5.53403 -23.9476
  239 170.948 -5.44962 23.8677
  240 321.523 -3.85615 -15.4041
  241 306.430 -7.72489 3.79739
  242 306.286 -7.71334 -3.67385
  243 63.9985 5.96639 -32.2949
  244 65.0430 5.23137 32.1889
  245 341.740 -29.8830 -25.9934
  246 338.161 -1.15916 0.899968
  247 338.531 -1.18184 -0.974338
  248 314.641 26.0756 -26.5851
  249 276.664 5.28307 15.5593
  250 580.980 93.0578 62.4043
  251 576.264 65.6083 -39.1026
  252 416.585 89.9917 -0.636440
  253 259.970 -12.4984 76.8937
  254 238.517 -8.08324 -80.4442
  255 273.403 -5.61661 -1.03545
  256 273.377 -5.57941 1.02742
  257 226.601 -6.12898 8.24777
  258 226.602 -6.21443 -8.32335
  259 329.701 -3.51867 9.53397
  260 319.824 -22.7588 -16.3110
  261 206.588 -0.409082 -1.39843
  262 206.633 -0.402195 1.38930
  263 315.798 -12.7567 -12.9640
  264 133.322 -4.38115 -33.1903
  265 133.910 -4.39541 32.9464
  266 319.679 -13.8387 22.7835
  267 243.879 -25.8841 46.4248
  268 244.510 -26.3482 -46.2839
  269 275.220 10.4977 -7.24159
  270 237.477 -3.68219 -2.74429
  271 237.496 -3.65649 2.73313
  272 299.426 -0.758267 19.1041
  273 358.063 65.6331 19.2354
  274 191.183 -2.37064 10.1990
  275 191.035 -2.39083 -10.2884
  276 328.506 -27.4112 11.5438
  277 304.105 -34.0969 -30.9111
  278 339.374 -1.59522 3.00172
  279 235.099 -14.0116 -17.6186
  280 234.684 -13.8534 17.5491
  281 418.442 43.3772 107.983
  282 196.742 -15.8642 55.4645
  283 317.570 44.6194 -1.72252
  284 402.312 44.3708 -16.8904
  285 303.134 -23.4540 4.17566
  286 304.318 -35.0328 27.8191
  287 197.352 -15.6020 -56.1015
  288 36.4572 44.9457 40.7153
  289 315.852 -12.8034 13.2012
  290 414.475 54.0973 13.2984
  291 342.098 -1.42340 -2.60245
  292 309.307 10.8086 -30.5994
  293 305.473 -17.2688 7.20645
  294 299.067 -25.2594 0.493798
  295 308.152 14.1343 29.4735
  296 326.920 -27.4228 -10.3414
  297 463.307 90.2235 -7.76827
  298 305.390 -16.5973 -6.89645
  299 252.822 72.3932 -149.163
  300 312.341 -33.1012 -5.73667
  301 310.121 -34.0021 9.30249
  302 227.500 -20.6341 -36.4990
  303 204.720 -0.804940 -3.04835
  304 204.776 -0.790974 3.02323
  305 227.593 -20.6490 36.2967
  306 330.299 -0.550158 -34.7253
  307 356.798 -14.7685 -14.8809
  308 271.358 -16.3926 -6.42339
  309 271.176 -16.4298 6.54424
  310 325.017 -27.9734 49.6390
  311 324.190 -2.58002 11.6633
  312 394.370 1.75561 17.1488
  313 265.772 -9.41569 -3.51273
  314 265.789 -9.38274 3.49158
  315 241.865 -6.34434 -5.40016
  316 241.865 -6.28391 5.39128
  317 273.773 3.65831 -15.0498
  318 352.198 25.8065 -33.4038
  319 545.166 146.916 -69.5985
  320 321.019 -2.78015 -1.05276
  321 320.831 -2.74240 1.08007
  322 171.609 -0.270870 69.2068
  323 240.667 -10.9819 -11.6142
  324 240.204 -10.9427 11.6432
  325 171.578 -0.667000 -68.9432
  326 335.575 39.6163 -28.3429
  327 375.928 18.5844 25.1832
  328 325.033 -23.1965 -55.1622
  329 298.591 -11.5168 3.20687
  330 298.283 -11.4309 -3.07521
  331 318.823 -6.57322 -6.31639
  332 299.644 -0.574143 -17.8685
  333 336.441 1.45541 34.0331
  334 335.839 -2.32476 -6.57871
  335 201.402 -12.2900 27.8518
  336 201.180 -12.3599 -28.0712
  337 312.804 -0.712367 31.8526
  338 192.285 -1.59761 -6.04303
  339 192.409 -1.58252 5.98634
  340 321.162 -7.35112 9.81359
  341 385.141 78.7200 -14.2821
  342 318.657 -6.62432 6.55035
  343 339.365 42.6359 28.4544
  344 324.825 -6.03351 33.0842
  345 256.958 -4.83501 1.11206
  346 256.961 -4.86569 -1.12003
  347 307.263 -1.10390 -28.2592
  348 407.072 85.6173 9.26907
  349 338.183 62.0568 0.594716
  350 207.249 24.1147 -102.999
  351 21.0734 9.35814 -13.9489
  352 23.1491 10.1226 15.0261
  353 -1.11860 2.34753 6.30529
  354 0.163391 1.29497 -6.57833
  355 595.396 41.2934 14.2200
  356 280.225 -22.7936 -7.60156
  357 321.420 -7.10129 -9.57613
  358 289.863 -5.08959 0.439440
  359 289.829 -5.04781 -0.441098
  360 310.003 34.2419 -14.3943
  361 264.606 -27.0075 23.1436
  362 23.0499 34.2462 -25.1306
  363 264.864 -27.0027 -23.5731
  364 314.085 35.7247 15.3181
  365 320.600 -8.53169 -17.1185
  366 340.182 -18.9687 -20.7184
  367 362.256 76.5884 5.55735
  368 340.981 -21.2759 17.1618
  369 140.435 -3.52809 22.2404
  370 139.583 -3.46017 -22.3872
  371 79.2807 1.96419 -30.8169
  372 80.1368 1.64291 30.6779
  373 278.145 0.896342 15.2271
  374 529.377 154.392 59.6402
  375 331.555 -2.09522 -8.34410
  376 257.788 -21.8342 -17.7019
  377 257.568 -21.7759 17.6774
  378 318.649 -7.33989 -21.6557
  379 363.206 -17.5588 2.95215
  380 280.214 -22.7718 7.83969
  381 398.829 2.77460 -32.2236
  382 224.798 -1.84046 -1.04923
  383 224.830 -1.82440 1.04128
  384 313.319 -1.82013 -13.8118
  385 168.286 -2.45630 -14.5197
  386 168.395 -2.53444 14.3406
  387 374.536 47.8247 -28.3220
  388 202.320 14.3064 95.6464
  389 293.144 -15.3989 1.60009
  390 293.433 -15.3710 -1.61445
  391 344.407 58.3135 -18.0268
  392 326.110 -9.66128 -31.3718
  393 327.167 -33.4215 26.9669
  394 272.446 -7.25274 -1.60698
  395 272.413 -7.21650 1.58989
  396 314.704 -24.2806 11.0112
  397 339.081 -1.60817 4.89299
  398 210.898 -7.75067 -16.9747
  399 210.982 -7.74992 16.8271
  400 319.484 10.7177 -34.0279
  401 301.656 -6.53408 1.79640
  402 301.643 -6.54903 -1.75567
  403 311.975 -3.67589 25.9844
  404 290.611 21.1549 6.90061
  405 323.524 -13.6544 27.4094
  406 467.835 97.9919 17.3175
  407 155.923 -8.40079 -44.5001
  408 156.362 -8.40365 44.1566
  409 69.5773 37.3747 -52.9173
  410 346.971 -1.00770 1.36224
  411 175.441 -1.50811 -9.18586
  412 175.678 -1.47615 9.10542
  413 318.912 -8.31183 21.2178
  414 289.275 -31.4158 15.1324
  415 326.859 -4.03919 4.47394
  416 332.837 16.9014 35.4983
  417 72.9726 39.7955 55.2023
  418 289.714 -31.2411 -13.8993
  419 299.385 -27.8414 -2.53725
  420 97.2642 -1.95372 -27.9499
  421 98.0106 -2.02791 27.7545
  422 229.833 -18.3649 -66.8936
  423 343.743 -5.12821 30.1121
  424 228.947 -18.6447 66.3000
  425 317.523 -17.8262 -17.7969
  426 294.727 19.8616 -15.1272
  427 317.580 -13.7127 16.8907
  428 341.962 -1.51686 -3.31036
  429 10.3162 10.9391 4.71732
  430 69.1195 79.5573 78.3323
  431 305.460 -1.12418 13.3133
  432 256.022 3.48864 6.58933
  433 260.502 4.25718 -8.94198
  434 222.259 -3.71074 -5.81846
  435 222.281 -3.66284 5.77936
  436 313.085 -24.2666 -10.1001
  437 316.254 -6.19339 -29.0966
  438 257.412 4.80376 -2.42908
  439 467.734 111.374 22.6877
  440 64.4447 21.4796 -39.6300
  441 71.0726 19.7149 42.3632
  442 292.874 -10.4410 1.46362
  443 292.762 -10.4149 -1.38473
  444 390.495 86.3948 -1.13759
  445 244.433 100.343 152.478
  446 375.956 -5.30664 -5.63448
  447 215.565 -11.2947 -23.0302
  448 215.666 -11.2161 22.8315
  449 216.876 -4.88400 9.08331
  450 216.836 -4.92053 -9.16734
  451 293.008 6.48735 -24.5145
  452 348.771 -0.492521 -0.906846
  453 284.776 13.0435 13.7620
  454 360.299 44.4875 30.6401
  455 299.935 -22.2749 -3.04344
  456 326.734 -3.84270 -4.34596
  457 343.381 -1.37267 3.04937
  458 347.773 -0.525999 0.518504
  459 348.060 -0.594249 -0.382392
  460 190.970 -0.351143 2.23333
  461 190.874 -0.356332 -2.25714
  462 328.161 -20.8487 21.5092
  463 295.833 11.6551 23.7405
  464 309.351 1.24878 -31.0644
  465 323.231 -6.80146 12.7290
  466 466.857 78.1529 -90.6979
  467 323.972 -17.9763 -24.0163
  468 3.03415 6.12127 2.45141
  469 3.01056 6.21658 -0.848313
  470 256.472 -14.5696 9.94252
  471 255.609 -14.3761 -9.82429
  472 403.171 7.34384 48.6904
  473 112.621 102.290 -115.487
  474 319.651 -0.970014 10.3563
  475 362.640 -21.1349 -27.6063
  476 192.784 -11.1399 32.2576
  477 388.396 68.9172 -20.5241
  478 319.310 -17.2833 20.1421
  479 267.924 -12.8353 -4.86999
  480 268.160 -12.6215 4.85529
  481 278.076 1.47894 -13.4476
  482 192.178 -11.0970 -32.4611
  483 285.187 0.119554 13.5237
  484 273.524 -31.2781 -41.4292
  485 272.836 -31.3258 41.5739
  486 329.650 -2.18120 9.20926
  487 299.259 28.2095 2.85274
  488 304.361 5.17275 104.176
  489 447.458 91.1622 -0.571922
  490 309.007 -5.19421 2.06424
  491 309.025 -5.17515 -2.13427
  492 237.324 -4.23984 -3.67403
  493 237.340 -4.20407 3.65975
  494 125.245 5.81341 58.1020
  495 320.723 -15.4476 -23.4954
  496 290.790 -6.32359 0.317275
  497 290.760 -6.30072 -0.310759
  498 253.205 -26.8303 33.9116
  499 127.675 7.67437 -59.5818
  500 321.204 -26.1762 -11.5585
  501 5.50236 1.10498 2.58478
  502 280.457 14.4654 1.00192
  503 310.145 -3.57249 -0.681711
  504 310.137 -3.62221 0.666795
  505 253.364 -26.7852 -34.1771
  506 363.019 -18.7157 35.3710
  507 359.654 13.0580 31.1992
  508 332.014 -2.23589 -2.16211
  509 320.222 -26.5461 11.7198
  510 200.164 -0.199599 -0.396916
  511 200.208 -0.197757 0.393469
  512 319.727 -12.2777 -25.0442
  513 309.532 22.9027 25.9872
  514 355.234 8.77047 -30.8126
  515 198.954 -0.323473 -1.25546
  516 199.006 -0.319021 1.24663
  517 620.556 89.6305 -80.2430
  518 322.143 38.3768 22.8974
  519 332.307 -2.05748 1.92640
  520 300.052 -28.4539 3.26012
  521 252.053 -8.36894 5.47076
  522 252.052 -8.43364 -5.45963
  523 349.357 -21.2777 9.59457
  524 335.658 -6.70631 -31.7247
  525 375.218 73.9849 17.1822
  526 312.055 5.36470 32.2097
  527 314.841 -6.03837 4.01634
  528 305.983 -32.6438 -39.8510
  529 317.280 -7.85189 24.6658
  530 613.402 28.1203 -11.2409
  531 346.804 -26.1492 -0.826368
  532 329.951 -2.16573 -0.517136
  533 330.030 -2.30621 0.456378
  534 619.773 41.5892 39.4180
  535 304.246 -0.105574 27.3939
  536 426.525 71.5943 -7.49444
  537 320.391 -8.70367 -12.3782
  538 144.315 -1.36770 -9.93225
  539 144.769 -1.30201 9.83003
  540 216.726 -20.3047 -46.4817
  541 216.896 -19.9639 46.1337
  542 314.668 -5.78687 -3.97871
  543 342.427 12.5654 -34.6703
  544 300.830 -20.4769 4.19306
  545 323.575 37.1084 -23.7646
  546 326.101 -3.78097 12.3958
  547 408.910 20.3965 -4.33068
  548 278.853 -9.56869 -1.34448
  549 278.767 -9.53419 1.32668
  550 302.968 -14.2985 5.38459
  551 446.869 88.4595 -6.29385
  552 319.129 13.9598 33.4575
  553 136.403 35.1131 85.9365
  554 308.486 -18.5181 69.5718
  555 407.758 19.6024 -76.6344
  556 326.282 26.9789 -31.1446
  557 289.540 -25.0157 -60.3020
  558 313.562 -34.3600 -11.7479
  559 327.521 -33.1545 -17.3167
  560 42.8669 55.4632 -52.5848
  561 329.199 -4.14950 -7.64413
  562 495.308 96.3623 -27.9832
  563 304.591 -13.7123 -5.99594
  564 307.126 -9.98436 4.94522
  565 306.840 -9.75533 -4.74730
  566 211.526 -1.24047 -2.76562
  567 211.570 -1.22440 2.74666
  568 29.8767 3.15423 -16.9294
  569 31.5579 3.30588 17.3237
  570 157.444 -7.34885 -33.9587
  571 158.654 -7.38839 33.9033
  572 311.334 -16.8649 -11.2701
  573 317.239 -34.4997 12.7251
  574 326.101 -30.9527 2.25971
  575 267.202 -4.73245 -0.980699
  576 267.186 -4.69801 0.975460
  577 253.557 -26.5833 -51.6228
  578 283.965 -23.2793 63.8147
  579 247.398 -24.9966 51.9190
  580 320.254 -7.11152 -31.2773
  581 200.408 -3.37185 10.2352
  582 200.309 -3.40730 -10.3218
  583 305.256 16.8575 -26.0971
  584 305.683 -0.535159 -12.0827
  585 381.918 83.0101 -7.75593
  586 249.326 -3.79626 -0.975388
  587 249.333 -3.77059 0.970611
  588 325.977 -0.963359 -6.81407
  589 224.864 -7.65390 -11.3157
  590 224.868 -7.62634 11.2158
  591 183.812 8.53611 82.2796
  592 317.264 -14.5884 -17.0773
  593 176.896 -9.33276 59.1015
  594 311.775 -16.1497 11.5086
  595 328.293 -4.61554 8.43821
  596 324.204 -2.94505 -1.91609
  597 227.450 -2.84800 -2.56556
  598 227.478 -2.82435 2.55174
  599 366.302 73.2173 -15.4640
  600 176.770 -8.97652 -59.3268
  601 310.740 -13.4431 -9.21723
  602 280.185 -5.20617 -0.470908
  603 280.156 -5.16717 0.468936
  604 526.660 70.9361 -12.5251
  605 185.536 -1.21085 5.65275
  606 185.374 -1.22273 -5.70650
  607 289.490 6.61896 22.3628
  608 414.390 34.5824 -5.24096
  609 195.893 1.39938 -81.6754
  610 100.064 2.57455 -44.4722
  611 100.902 1.99754 44.2360
  612 245.643 -14.4018 13.9985
  613 248.223 -14.8260 -13.5904
  614 418.793 84.3591 7.82204
  615 322.866 -3.05346 1.73543
  616 276.832 7.76024 -13.5029
  617 345.270 62.1112 14.2585
  618 344.018 64.4577 -9.48094
  619 282.719 -15.6970 -2.21422
  620 284.882 -15.3407 1.20196
  621 202.839 44.1570 -117.459
  622 242.839 -8.36304 -7.76513
  623 242.858 -8.26656 7.73730
  624 617.045 126.278 95.0701
  625 319.867 -10.4742 27.0189
  626 182.379 -6.50520 -21.7581
  627 497.229 114.968 76.5867
  628 182.806 -6.46833 21.6735
  629 306.001 -11.6993 -81.2851
  630 215.424 -1.08826 -1.01991
  631 215.463 -1.07879 1.01457
  632 266.843 2.37860 11.7773
  633 121.028 -1.82072 -19.5378
  634 121.711 -1.82525 19.3825
  635 279.073 -19.7962 5.80346
  636 292.724 -23.4726 -1.48605
  637 345.278 -0.740509 -2.78558
  638 194.121 -0.324115 1.64579
  639 194.048 -0.329829 -1.66331
  640 263.188 -5.95615 -1.47469
  641 263.177 -5.92195 1.46303
  642 302.268 -33.5249 40.2811
  643 347.194 38.7769 -31.3928
  644 230.769 -10.8359 -14.5893
  645 230.601 -10.6524 14.4822
  646 273.897 -19.7599 -8.15647
  647 431.704 94.0609 2.44209
  648 324.167 -31.3561 -0.466325
  649 281.259 -6.73907 -0.622925
  650 281.216 -6.70498 0.623537
  651 387.169 42.3356 23.9038
  652 324.761 -4.66953 -13.4741
  653 286.850 -0.360725 -11.0156
  654 132.586 -4.52509 -42.6838
  655 132.999 -4.65379 42.3317
  656 273.191 -23.6272 -13.2028
  657 409.888 90.4488 0.194425
  658 317.671 43.0316 -10.3133
  659 210.458 -1.95124 -5.09830
  660 210.507 -1.92397 5.05653
  661 296.476 -8.37380 -1.48326
  662 296.534 -8.38390 1.54740
  663 553.028 72.2384 31.8073
  664 350.637 -0.934677 0.755139
  665 338.672 -1.32561 4.78597
  666 337.332 -1.35313 -5.60441
  667 320.184 -29.7995 5.12800
  668 235.304 -2.77160 -1.28219
  669 235.326 -2.75149 1.27624
  670 341.921 54.8508 21.9461
  671 439.018 97.6222 -5.52016
  672 239.935 -17.9118 -20.6710
  673 239.863 -17.7342 20.5649
  674 300.398 -30.9672 -6.13547
  675 316.746 18.8228 -31.4880
  676 376.414 0.959178 13.6772
  677 249.463 -4.67491 -2.53650
  678 249.470 -4.64419 2.52566
  679 215.790 -18.9598 -41.9711
  680 317.146 -30.6678 -2.18792
  681 263.475 -29.2268 37.3570
  682 125.932 39.8163 -82.9096
  683 245.932 -22.8397 28.8132
  684 296.612 0.0794924 10.1804
  685 215.988 -18.7438 41.6862
  686 310.558 -13.7052 9.33100
  687 246.017 -22.7450 -29.0797
  688 251.703 3.26111 2.47017
  689 194.618 -5.28481 15.4618
  690 194.443 -5.29102 -15.5726
  691 263.626 -29.9851 -37.7748
  692 325.974 -21.4661 -20.7959
  693 298.907 -4.17502 -0.385265
  694 298.954 -4.21911 0.387047
  695 333.173 -21.2111 20.6077
  696 302.720 -31.6427 7.33645
  697 367.895 33.7419 30.4061
  698 331.859 -6.21039 32.6746
  699 319.329 -11.4466 19.9169
  700 304.882 25.0580 -19.7959
  701 366.935 61.7525 24.0506
  702 316.723 -4.37619 -19.3126
  703 315.724 -10.4490 10.2689
  704 326.213 51.1111 5.57529
  705 321.177 -5.43537 16.8267
  706 101.061 68.6916 86.8970
  707 298.951 -34.3808 -23.1820
  708 346.149 6.29779 33.2255
  709 349.536 -10.8103 -23.6752
  710 348.958 -0.450543 1.54331
  711 319.128 -10.9477 -15.6923
  712 299.379 -34.6518 21.0454
  713 580.113 51.3667 -8.60472
  714 177.934 -0.776665 5.91691
  715 177.719 -0.785252 -5.97366
  716 323.752 -5.85807 -7.32925
  717 351.047 -0.341886 -1.50356
  718 272.686 -24.0085 13.2732
  719 327.621 -12.1807 29.6792
  720 498.184 118.721 -36.3360
  721 310.529 -22.5095 9.54308
  722 344.384 -22.6652 -12.2418
  723 315.842 -10.1675 -10.1050
  724 350.927 -0.594045 -0.490970
  725 319.723 -0.0275521 33.9726
  726 14.7033 13.3663 18.4116
  727 361.103 -13.9237 -52.7771
  728 392.821 23.2448 15.0497
  729 327.162 -33.4163 15.4256
  730 232.855 -5.64300 6.36379
  731 232.857 -5.72223 -6.39548
  732 305.471 154.149 -160.165
  733 333.323 -22.0359 -19.0530
  734 250.712 1.29420 -4.72182
  735 292.576 1.60888 21.8103
  736 321.492 -16.0755 23.8854
  737 308.155 -25.9689 4.82332
  738 320.551 -29.2096 -43.2839
  739 306.253 -24.2337 -5.38574
  740 361.990 -17.3389 -4.19083
  741 333.355 -2.69811 4.28492
  742 297.370 -17.8771 2.85954
  743 540.675 108.098 -57.5549
  744 317.261 -8.46494 8.15087
  745 313.733 5.12906 -33.0779
  746 268.039 -3.01559 91.4332
  747 336.168 27.0765 33.7828
  748 289.156 -22.7957 2.99363
  749 223.101 -17.6353 -30.6576
  750 223.120 -17.5857 30.4051
  751 307.269 34.5500 -4.61318
  752 312.697 -3.61619 29.5322
  753 316.139 -7.51809 -25.1972
  754 297.709 -18.2419 -2.95617
  755 287.815 -25.8272 7.33142
  756 328.731 54.2804 -6.29969
  757 307.774 -26.6375 -3.60912
  758 308.532 -19.5263 9.27901
  759 312.686 -3.98605 1.44329
  760 312.880 -3.87707 -1.43368
  761 420.673 92.4506 2.21643
  762 344.108 -29.2555 -10.1222
  763 320.101 -9.78109 15.6244
  764 333.486 -2.68911 -3.90170
  765 336.820 2.24161 -34.3582
  766 383.629 20.1371 -20.2454
  767 187.497 -0.189477 -2.76023
  768 187.620 -0.186753 2.73201
  769 2.69249 -5.87076 -4.15585
  770 326.773 -0.374929 6.31054
  771 299.319 -0.498694 -24.1299
  772 309.286 -2.89500 21.2821
  773 282.590 34.8850 134.215
  774 352.065 72.4675 -0.763394
  775 250.228 -17.9759 16.0943
  776 43.5116 0.990286 -16.7408
  777 44.7895 0.730029 16.9203
  778 306.511 -2.18498 -24.0048
  779 250.913 -18.1562 -16.0899
  780 331.517 -2.95942 3.25954
  781 169.020 -7.25622 28.9849
  782 167.564 -7.23118 -29.0003
  783 317.243 -8.21789 -7.93938
  784 202.162 -5.15316 -13.4548
  785 202.264 -5.11889 13.3338
  786 330.428 -3.09484 -9.32019
  787 251.954 -6.77230 -4.37000
  788 251.961 -6.72742 4.37143
  789 360.819 -2.29214 -23.7212
  790 324.559 -3.39655 -34.0956
  791 164.565 -1.06680 -7.54729
  792 164.887 -1.05688 7.45880
  793 7.95848 4.13864 -10.1282
  794 9.42685 4.36575 10.6578
  795 262.700 1.25429 -8.55643
  796 296.464 -33.3124 -17.2316
  797 -3.41771 -2.36651 5.89165
  798 -2.99463 -2.78970 -5.85215
  799 308.589 -6.16364 3.08846
  800 334.682 -26.1048 -10.8789
  801 345.410 51.2143 -25.6133
  802 332.952 -2.65865 -3.09708
  803 712.253 143.385 -133.792
  804 308.525 -6.14325 -3.04838
  805 464.544 88.6420 7.13843
  806 330.133 9.61060 -35.5511
  807 364.788 27.5164 -31.1201
  808 60.8363 -0.717069 -15.4781
  809 61.9735 -0.807932 15.4498
  810 205.503 -3.00113 7.96489
  811 205.430 -3.02638 -8.03694
  812 196.060 -0.475307 1.48921
  813 196.001 -0.480256 -1.50140
  814 368.798 62.1197 -23.8480
  815 217.621 -1.38420 -2.19545
  816 217.658 -1.36822 2.18285
  817 313.664 -3.15852 -30.8244
  818 453.266 46.1958 38.6328
  819 282.080 6.28230 -18.8032
  820 97.3234 -0.879304 16.5972
  821 96.4884 -0.887395 -16.7292
  822 365.342 9.80905 96.2407
  823 323.420 -5.90645 7.56471
  824 288.832 19.1489 -7.83393
  825 133.142 -0.219702 11.3214
  826 132.453 -0.157504 -11.4060
  827 200.294 -1.04289 -3.90034
  828 200.366 -1.02790 3.86369
  829 35.8529 31.9502 27.4676
  830 301.271 7.17091 27.9587
  831 335.357 49.3040 -21.9484
  832 360.983 41.9105 -30.9263
  833 236.898 -9.00987 -10.2021
  834 236.759 -8.94155 10.1873
  835 373.827 79.6459 10.8378
  836 322.846 -2.65142 -0.410329
  837 322.864 -2.63142 0.464904
  838 319.378 -9.55906 -20.0841
  839 267.374 -17.8619 9.30457
  840 294.641 -33.1130 17.3226
  841 346.434 -28.3872 26.9981
  842 264.976 -7.71519 -2.54384
  843 264.972 -7.68542 2.52604
  844 303.073 28.0813 12.7114
  845 284.703 3.87359 -20.3107
  846 79.1534 93.2547 90.4542
  847 288.719 -25.6175 -6.61972
  848 289.668 -12.9517 0.704933
  849 289.824 -12.9770 -0.720533
  850 318.677 -4.68934 32.4102
  851 316.079 -20.7610 -14.9080
  852 282.179 -18.7147 -3.61491
  853 644.419 20.8676 -31.9376
  854 268.224 -25.4206 18.2655
  855 268.012 -25.7521 -18.5634
  856 318.364 -3.79641 16.4293
  857 479.477 123.779 -27.4116
  858 251.630 -22.9155 -22.8805
  859 278.109 -31.3372 21.6918
  860 251.560 -22.6383 22.6763
  861 272.831 -11.0083 -2.90572
  862 272.823 -10.9702 2.88404
  863 40.2883 17.1906 23.8834
  864 342.182 25.5706 -34.2021
  865 261.772 -10.2526 -4.71964
  866 261.819 -10.1483 4.73684
  867 258.495 -4.29842 -0.569628
  868 258.490 -4.26834 0.565734
  869 284.450 -5.65129 -0.0298404
  870 284.415 -5.61353 0.0279701
  871 230.968 -4.56719 -5.50841
  872 230.985 -4.51564 5.48472
  873 262.775 -13.8715 -7.15816
  874 262.808 -13.7755 7.18917
  875 6.32717 -2.39140 -2.97217
  876 396.492 74.3870 17.7785
  877 341.093 -11.9536 -27.3813
  878 277.883 -30.8836 -21.9245
  879 300.208 -9.65996 2.87436
  880 300.075 -9.55937 -2.79042
  881 327.331 0.413445 34.8322
  882 356.022 -25.4022 -14.8272
  883 315.131 22.3171 -116.411
  884 143.115 -2.30389 57.4565
  885 -5.41145 3.33831 -3.89159
  886 -4.70411 3.76721 4.31481
  887 40.0175 18.2830 -24.3810
  888 319.977 -9.17281 12.3062
  889 336.754 -2.17620 -5.18546
  890 302.806 -29.1158 49.7591
  891 142.773 -2.15093 -57.6874
  892 337.449 -27.6074 7.63720
  893 375.859 -11.1373 43.2183
  894 272.325 1.09561 9.07104
  895 312.407 29.7152 21.6521
  896 168.923 -9.53806 42.2835
  897 168.266 -9.61528 -42.5669
  898 202.667 -9.70101 -23.7064
  899 213.054 -10.4134 -73.2950
  900 337.537 -7.88668 30.7639
  901 463.831 108.904 16.5735
  902 338.861 13.0360 34.8779
  903 320.311 -6.81729 -18.3213
  904 217.549 -9.32999 75.1187
  905 408.407 75.2616 -13.0825
  906 40.4159 34.4174 -33.8739
  907 295.789 -0.598154 -9.71095
  908 202.879 -9.62054 23.4933
  909 247.496 -5.48969 3.85546
  910 247.489 -5.52790 -3.86437
  911 316.541 -20.6505 15.3949
  912 328.779 -2.05847 1.24516
  913 241.749 2.23823 -91.1213
  914 346.685 -0.752393 2.45474
  915 344.076 -0.616573 -3.13479
  916 256.692 2.21653 -7.86764
  917 332.470 -1.34738 -5.59401
  918 248.326 -11.6712 -9.39980
  919 248.493 -11.4953 9.42815
  920 -8.19357 3.02582 -4.71840
  921 -11.2906 1.82474 4.98927
  922 328.771 -1.90977 -1.26333
  923 108.523 -2.45147 38.7675
  924 107.865 -2.21712 -38.9904
  925 351.094 51.2424 27.0431
  926 629.294 11.3635 9.88732
  927 330.430 36.7617 28.4150
  928 374.552 -13.2125 12.0561
  929 325.409 -18.1034 24.0705
  930 405.197 84.9402 -9.96064
  931 251.165 1.05561 5.93020
  932 313.114 -7.33583 -4.92708
  933 325.228 17.4870 -34.3820
  934 393.240 11.5830 -6.67045
  935 305.177 -18.8450 -7.29249
  936 155.479 -0.879485 -8.45050
  937 155.643 -0.848395 8.33014
  938 322.060 -7.54001 -14.3548
  939 10.6845 13.5753 2.73701
  940 309.140 -32.0464 -3.06424
  941 267.526 7.88838 -0.811540
  942 402.399 88.5018 -6.61444
  943 63.5162 47.2607 -56.2734
  944 309.307 -2.30209 -19.0703
  945 214.093 -3.61626 -7.43769
  946 214.134 -3.57342 7.37387
  947 1.84125 -8.83058 6.72768
  948 209.950 -15.6783 -34.0199
  949 314.900 -18.1900 -14.4679
  950 195.358 0.419181 -0.616512
  951 195.406 0.421221 0.612237
  952 317.877 38.5810 -17.3433
  953 341.217 -0.983306 -0.496248
  954 341.225 -0.997391 0.650354
  955 210.043 -15.6344 33.7869
  956 318.666 -0.430060 -7.53814
  957 366.780 2.64176 22.8667
  958 325.367 -4.55819 5.84694
  959 51.8018 13.2033 -30.1987
  960 337.444 -2.01783 4.69988
  961 305.873 2.45516 29.9352
  962 322.592 44.7014 15.4286
  963 322.844 3.74139 -35.1722
  964 222.186 -11.9711 -20.3349
  965 348.552 -12.3393 22.8497
  966 222.330 -11.9239 20.1275
  967 10.1815 11.1132 -0.927087
  968 37.9914 6.57638 22.1263
  969 181.142 -3.23562 13.9780
  970 180.919 -3.23873 -14.0587
  971 313.334 -7.47689 5.19069
  972 336.753 58.6117 8.54011
  973 171.366 15.7313 -86.2583
  974 281.644 -17.6101 3.13950
  975 264.357 -27.6684 -27.5314
  976 385.499 73.9048 18.4983
  977 296.520 -5.21720 0.452522
  978 296.509 -5.18800 -0.454463
  979 324.979 -5.98030 -10.3097
  980 300.230 25.9079 -11.7266
  981 680.640 201.717 136.089
  982 62.3827 3.54009 -29.1498
  983 63.3710 2.94277 29.2160
  984 4.63807 -5.99749 1.51505
  985 301.157 16.6740 24.0701
  986 264.280 -27.8355 27.3262
  987 327.657 -15.4691 -27.3859
  988 356.511 29.1403 33.7278
  989 342.803 -27.6813 -33.2175
  990 500.779 105.405 34.8361
  991 291.075 -4.69450 -0.125997
  992 291.037 -4.65487 0.126276
  993 340.789 -13.8840 25.9648
  994 23.5243 38.8167 40.5640
  995 152.935 -3.23949 20.0249
  996 152.452 -3.19807 -20.2421
  997 182.779 -8.99497 27.3682
  998 182.147 -8.85847 -27.4733
  999 205.942 -8.54675 19.6491
  1000 225.141 -1.81675 -0.995498
  1001 225.172 -1.80310 0.991323
  1002 563.106 179.129 -114.138
  1003 509.963 127.774 52.3826
  1004 205.775 -8.59111 -19.8169
  1005 351.029 -1.61218 28.6436
  1006 313.898 32.5722 -20.8497
  1007 221.770 -19.0593 60.7645
  1008 285.004 -33.6674 -32.6587
  1009 325.760 -2.65985 -11.0441
  1010 146.761 10.1245 70.1948
  1011 188.352 -14.3957 48.5569
  1012 287.765 14.7327 -15.0736
  1013 329.387 -6.51752 -33.0455
  1014 420.375 170.852 182.853
  1015 271.721 8.29523 10.7300
  1016 370.139 79.8319 -1.30570
  1017 272.090 10.6597 -103.556
  1018 276.607 -29.1395 -18.6999
  1019 351.354 -0.360395 -1.22711
  1020 336.928 30.9519 -32.9057
  1021 197.020 -1.29488 5.01841
  1022 196.928 -1.30807 -5.06646
  1023 7.20491 3.64835 -10.3291
  1024 222.340 -10.2110 -16.9498
  1025 188.124 -14.5818 -48.9269
  1026 222.168 -10.1874 16.7605
  1027 321.968 -9.79205 30.5594
  1028 288.825 -17.8676 -0.534947
  1029 303.295 5.56754 -28.9986
  1030 312.068 38.9861 6.08635
  1031 423.644 25.5047 15.0380
  1032 318.995 -24.2243 14.6699
  1033 201.446 -16.1474 -37.2252
  1034 300.703 10.6269 -27.1402
  1035 223.707 -18.8032 -61.0892
  1036 429.837 93.3758 -1.67883
  1037 292.229 19.1699 13.7131
  1038 369.600 -2.18666 -17.5473
  1039 278.329 -29.1505 17.1956
  1040 318.998 -10.0952 23.6287
  1041 316.943 -16.7176 17.0025
  1042 315.205 -15.8369 14.7343
  1043 389.301 49.4247 -24.5613
  1044 314.742 -5.06693 23.9850
  1045 284.534 -33.7616 32.1248
  1046 303.719 -12.4023 4.87812
  1047 201.572 -16.1774 37.0142
  1048 285.137 -21.0377 -3.84855
  1049 165.580 -8.03458 -51.9321
  1050 236.394 -24.5618 41.1930
  1051 320.579 -2.16199 -12.8210
  1052 312.195 -3.51972 -27.2594
  1053 270.407 -21.4318 -11.3890
  1054 165.866 -8.26862 51.5212
  1055 291.028 0.697479 -18.9571
  1056 216.456 -14.4203 -26.3422
  1057 392.459 83.6195 11.6742
  1058 87.3322 14.5317 -49.2931
  1059 671.774 47.4753 64.7479
  1060 157.172 11.7712 -73.5016
  1061 315.142 -26.1008 -9.02677
  1062 216.513 -14.2960 26.1242
  1063 287.911 3.03127 21.1970
  1064 161.227 -3.29415 16.5769
  1065 161.141 -3.37579 -16.7470
  1066 318.985 -8.86629 -28.3244
  1067 339.465 -1.67479 1.92213
  1068 332.726 -0.735337 5.65374
  1069 328.992 10.9243 35.4684
  1070 307.705 -2.31659 25.6055
  1071 238.716 25.4123 112.016
  1072 353.620 -0.256785 0.594401
  1073 331.146 44.8966 22.6185
  1074 280.124 4.04101 18.2593
  1075 336.985 -1.26972 5.43115
  1076 216.122 -2.35386 -4.15650
  1077 216.160 -2.32691 4.12885
  1078 137.436 -3.91774 -27.6426
  1079 137.983 -4.05863 27.4511
  1080 281.017 13.9930 7.66206
  1081 425.084 22.6732 -30.8199
  1082 390.576 -0.535096 -58.8104
  1083 310.913 -0.271913 -7.81672
  1084 236.486 -24.7461 -41.5066
  1085 270.975 -20.3834 10.1698
  1086 312.726 -0.712671 8.15798
  1087 327.588 -23.7531 -17.2856
  1088 203.866 -0.484027 2.48287
  1089 203.815 -0.492502 -2.49869
  1090 314.540 -26.8482 9.02155
  1091 298.924 -6.09124 0.944703
  1092 298.874 -6.09698 -0.924990
  1093 290.844 -29.3120 10.8063
  1094 375.182 -12.1407 -3.80809
  1095 168.990 -0.305955 -4.70031
  1096 169.268 -0.295290 4.64981
  1097 255.357 -16.1162 -69.9907
  1098 271.432 -6.48624 1.36332
  1099 271.459 -6.52312 -1.37601
  1100 164.350 88.1396 123.073
  1101 376.639 30.8671 -27.7070
  1102 55.2604 26.9992 -37.2017
  1103 325.558 -4.81124 -5.65029
  1104 86.7138 29.8381 -56.5240
  1105 180.535 -11.3979 -35.3543
  1106 353.739 -0.367258 0.368613
  1107 353.880 -0.343292 -0.272000
  1108 320.128 -18.2606 -20.6197
  1109 283.492 -31.8013 -44.9285
  1110 87.3834 12.3701 46.9717
  1111 348.230 34.4781 32.0325
  1112 316.198 -3.14803 -0.503749
  1113 316.233 -3.15073 0.533950
  1114 345.601 -22.2802 54.4462
  1115 356.564 71.4876 12.3375
  1116 211.247 -5.13716 -10.6513
  1117 211.299 -5.11250 10.5740
  1118 160.650 18.4185 87.0612
  1119 302.555 1.52753 -28.0668
  1120 94.7230 30.6031 60.7892
  1121 389.356 -6.72747 -18.0560
  1122 382.050 84.5846 3.74915
  1123 262.581 -20.8284 13.8994
  1124 241.735 1.26522 -1.15600
  1125 333.706 -2.90162 6.96101
  1126 345.595 -0.419046 2.71592
  1127 75.0003 0.141035 -13.9052
  1128 76.0450 0.104137 13.8096
  1129 271.314 4.50647 -13.5221
  1130 280.059 -8.24111 -0.929435
  1131 279.994 -8.20145 0.923714
  1132 29.3908 45.7218 -43.1511
  1133 46.7995 100.591 -86.6161
  1134 283.660 -11.0876 0.661076
  1135 283.772 -11.0879 -0.676528
  1136 293.161 -7.05022 1.00692
  1137 293.119 -7.03467 -0.981672
  1138 76.7117 49.0356 61.1324
  1139 230.886 -2.88862 -1.99389
  1140 230.912 -2.86742 1.98403
  1141 290.673 21.9457 -0.319854
  1142 371.935 46.5167 -129.360
  1143 354.992 61.2606 -21.1385
  1144 323.961 -12.4252 -28.9022
  1145 319.135 -15.8983 -20.9125
  1146 262.744 -21.0241 -14.1334
  1147 263.888 0.850124 8.34752
  1148 297.279 18.5105 -20.1185
  1149 293.096 15.7376 19.2130
  1150 303.519 -12.0399 -4.78915
  1151 289.568 -17.5068 0.320809
  1152 263.100 -17.0591 -10.4198
  1153 313.408 -1.83610 15.2022
  1154 555.080 56.0643 7.82702
  1155 315.566 -6.71979 27.6964
  1156 316.530 20.7801 30.2557
  1157 292.210 -28.7801 -8.04666
  1158 35.9563 6.04650 -21.3358
  1159 297.689 -13.7661 -3.42839
  1160 196.777 -0.322503 -0.120920
  1161 196.820 -0.321184 0.119500
  1162 363.008 -9.62949 15.0177
  1163 345.942 -29.1172 12.2086
  1164 497.131 89.1301 21.7074
  1165 117.785 -0.253117 -11.5984
  1166 118.504 -0.227435 11.5097
  1167 265.550 -5.39125 -1.14415
  1168 265.536 -5.35676 1.13531
  1169 298.637 -26.3619 -0.631074
  1170 243.921 1.08684 3.78357
  1171 305.862 -21.7774 6.95233
  1172 17.1496 20.3853 -9.75668
  1173 54.7019 27.3660 36.3847
  1174 204.440 -11.0661 67.6601
  1175 353.581 67.4498 -15.0883
  1176 338.231 -0.925832 -4.28856
  1177 355.253 -0.557152 0.251884
  1178 355.605 -0.764568 -0.161564
  1179 204.941 -0.510747 -0.404651
  1180 204.985 -0.506767 0.401459
  1181 325.848 20.8372 34.3608
  1182 482.886 82.6639 -1.75335
  1183 335.640 55.5552 -15.3244
  1184 251.142 -18.4222 69.5407
  1185 203.350 -10.6308 -67.5330
  1186 225.838 -15.1951 -23.6017
  1187 313.500 -8.72407 6.61210
  1188 437.813 96.3554 3.19281
  1189 225.855 -15.1029 23.4125
  1190 320.420 -5.54773 5.00488
  1191 285.345 10.5677 18.3302
  1192 314.876 9.74465 32.9980
  1193 449.261 100.398 10.3993
  1194 266.065 -6.96931 2.14061
  1195 266.080 -7.00408 -2.15668
  1196 324.553 -6.04930 10.7055
  1197 191.434 -2.08266 7.86957
  1198 191.298 -2.10396 -7.94271
  1199 317.503 -4.26815 -2.25605
  1200 130.496 77.6354 -118.936
  1201 274.916 -15.4693 -74.4538
  1202 258.713 -8.15349 -4.03642
  1203 258.738 -8.11528 4.03764
  1204 340.894 -1.56047 1.73101
  1205 322.358 -4.16660 4.00432
  1206 17.4733 21.8167 15.9501
  1207 351.050 -0.377011 1.43048
  1208 41.4864 52.3468 51.9401
  1209 314.774 -4.65138 -2.89594
  1210 -0.415636 -7.74415 -6.77935
  1211 222.196 -21.6754 -52.3609
  1212 221.572 -21.1471 51.8319
  1213 351.041 -0.603279 -1.57912
  1214 299.591 -15.8028 -4.07437
  1215 340.636 -1.41836 -1.77986
  1216 271.981 -8.82465 -1.99537
  1217 271.952 -8.79072 1.97096
  1218 317.297 -4.23683 2.12197
  1219 297.474 -13.4977 3.39251
  1220 286.123 -9.20393 -0.114031
  1221 286.226 -9.23066 0.149511
  1222 340.358 -1.46238 -1.45513
  1223 293.485 -30.8642 -50.6907
  1224 332.922 -1.99828 -1.49360
  1225 316.133 -4.78366 3.10646
  1226 219.644 -2.45330 -3.07072
  1227 219.679 -2.42908 3.05190
  1228 245.702 -3.64763 -1.55160
  1229 245.713 -3.62184 1.54339
  1230 399.273 62.2075 20.6628
  1231 335.450 -25.7471 12.9332
  1232 229.856 -1.03489 85.9961
  1233 183.151 -0.324292 3.02042
  1234 182.996 -0.327716 -3.05138
  1235 317.586 -5.84832 20.8330
  1236 304.081 -4.56129 0.637553
  1237 304.095 -4.54525 -0.637150
  1238 347.868 67.8218 7.04298
  1239 319.061 -33.3826 40.0257
  1240 183.632 -2.63506 11.0618
  1241 183.447 -2.65534 -11.1452
  1242 303.602 -7.37627 2.51820
  1243 303.535 -7.42655 -2.44736
  1244 313.333 -8.61502 -6.37491
  1245 287.289 0.0526028 9.81682
  1246 498.381 123.815 -40.7986
  1247 319.072 -11.6472 -18.4739
  1248 54.2398 13.0303 31.0643
  1249 329.669 -17.5456 25.5582
  1250 263.876 5.73001 -7.39529
  1251 19.9549 14.8288 11.1033
  1252 435.125 48.1571 -3.26050
  1253 321.894 -14.6211 -25.7931
  1254 265.157 3.73809 11.3252
  1255 181.815 -11.4160 35.2883
  1256 327.121 -25.2996 15.4518
  1257 475.848 90.3196 27.7845
  1258 109.401 16.2573 59.8388
  1259 328.824 -3.86062 -9.21554
  1260 634.505 7.06741 -6.40926
  1261 655.850 9.87637 28.6135
  1262 700.699 23.9487 -67.9270
  1263 318.613 -9.92168 -22.9486
  1264 318.676 -14.5198 19.5917
  1265 323.829 -23.0270 18.3352
  1266 -9.53849 1.06978 6.07037
  1267 -8.68909 0.846894 -6.59751
  1268 315.284 -34.8169 -18.4431
  1269 323.099 -32.6370 -27.8478
  1270 245.712 1.54630 -4.67426
  1271 314.002 -35.4500 27.8287
  1272 335.376 -15.8866 -25.9494
  1273 6.39519 9.91090 0.953015
  1274 272.217 -4.97743 0.839439
  1275 272.237 -5.01392 -0.841666
  1276 333.509 -2.62389 6.28677
  1277 320.404 -5.44725 -4.70673
  1278 301.571 -32.9291 -9.62030
  1279 275.175 -14.9329 4.26804
  1280 273.775 -14.7256 -4.67600
  1281 323.292 -6.79591 14.6533
  1282 331.279 -12.1524 -29.7719
  1283 20.7136 15.4613 -10.7271
</Section>

newXOutput 44

<Section columns = "stress_xx | stress_yy | stress_xy">
  1 365.588 -0.0573535 0.720775
  2 365.603 -0.0518568 -0.723050
  3 198.120 -0.0783160 -0.260999
  4 -2.51482 -2.49114 -3.61480
  5 660.999 260.180 210.080
  6 654.802 269.765 -210.151
  7 -2.91958 -2.37089 3.84115
  8 198.077 -0.0790746 0.260257
  9 368.189 -0.603019 0.222286
  10 367.398 -0.957521 -0.176717
  11 366.532 -0.630008 0.836950
  12 365.664 -0.875770 0.244650
  13 363.801 -0.734087 1.31908
  14 362.112 -0.743949 0.968760
  15 358.151 -0.658691 1.89092
  16 352.510 -0.445572 2.78395
  17 347.475 -0.480705 3.09496
  18 340.024 -0.684440 3.73729
  19 329.712 -0.0416705 5.51918
  20 320.186 -0.505132 5.24129
  21 309.364 -0.663570 7.37803
  22 293.731 0.470972 6.41451
  23 282.434 0.702664 7.57897
  24 267.699 1.18923 5.92660
  25 257.512 1.23480 5.97315
  26 242.753 1.74212 3.04422
  27 239.648 2.74521 3.26169
  28 237.782 2.24260 -0.962463
  29 240.340 1.28579 -2.11936
  30 245.047 1.25909 -2.59802
  31 256.102 1.59596 -5.18846
  32 266.837 1.26004 -6.56885
  33 282.610 0.268725 -7.79217
  34 295.233 -0.166115 -7.10313
  35 308.701 -0.528973 -6.98374
  36 320.902 -0.393579 -4.93352
  37 331.400 -0.409040 -4.22285
  38 340.064 -0.668283 -3.54724
  39 347.830 -0.474050 -2.47664
  40 352.687 -0.559846 -2.63031
  41 357.379 -0.695664 -1.92368
  42 361.823 -0.827330 -0.846417
  43 364.104 -0.664043 -0.993004
  44 365.312 -0.402020 -0.621324
  45 364.442 -0.211929 -0.566489
  46 367.778 -0.967251 0.116304
  47 368.305 -0.628757 -0.229311
  48 356.153 -0.250941 -0.445745
  49 348.105 -1.44946 -0.802665
  50 338.281 -2.13885 -0.524981
  51 326.309 -3.18605 -0.719058
  52 314.966 -3.49300 -0.892077
  53 302.864 -4.38919 -0.847863
  54 292.157 -4.89202 -0.469418
  55 282.766 -5.48671 -0.173719
  56 271.934 -4.55733 -0.169825
  57 259.449 -4.26637 -0.279571
  58 247.413 -3.37445 -0.0811298
  59 236.007 -2.15918 -0.0261674
  60 225.163 -1.54351 0.0224170
  61 215.645 -0.797654 0.104009
  62 205.901 -0.219001 -0.299348
  63 198.239 0.276587 0.373164
  64 194.810 0.784866 0.249738
  65 197.166 0.00416230 0.593332
  66 194.569 -0.110290 0.714438
  67 192.170 -0.162646 0.891293
  68 188.909 -0.0231922 1.16412
  69 184.795 -0.0132471 1.46818
  70 181.766 -0.249001 2.83674
  71 173.042 0.253991 3.09899
  72 166.912 -0.0199400 3.55215
  73 157.781 -0.163147 4.02820
  74 147.258 -0.273703 4.90470
  75 134.109 -0.0638876 5.95516
  76 118.077 0.0730553 6.56088
  77 104.264 -0.148698 9.37200
  78 76.9176 0.874986 8.83275
  79 58.3284 0.755102 9.35372
  80 36.0902 -0.158360 10.3576
  81 17.6610 1.73567 10.7473
  82 -3.30048 2.58438 6.40919
  83 -18.4930 2.62291 2.22188
  84 -17.8815 2.51796 -1.01695
  85 -16.9475 2.08718 -5.12007
  86 -9.95498 -0.687794 -4.84715
  87 -1.23147 -9.55697 -5.34355
  88 0.921125 -17.6316 -6.70357
  89 2.59085 -27.9393 -3.76753
  90 5.77260 -28.7075 0.190123
  91 12.2420 -7.36969 16.0058
  92 36.6571 55.2869 54.8455
  93 216.705 200.280 187.567
  94 799.496 119.160 134.173
  95 719.614 17.0881 43.7922
  96 668.383 7.05841 13.4010
  97 649.454 5.97909 1.04714
  98 659.428 7.97754 -11.5853
  99 717.873 15.8788 -34.6408
  100 848.091 57.4948 -115.829
  101 128.481 204.418 -156.677
  102 27.4614 38.4089 -45.2903
  103 13.3548 -6.02772 -16.8015
  104 5.39380 -28.7861 -2.75726
  105 1.49700 -21.3149 4.34066
  106 1.90769 -22.2116 5.82289
  107 0.0820810 -8.27146 5.91610
  108 -10.3886 -0.454506 4.60301
  109 -17.4877 1.56642 4.47278
  110 -18.8258 3.06270 1.12007
  111 -19.0954 2.58454 -2.05012
  112 -4.62711 2.64875 -5.99798
  113 16.4847 1.75100 -10.2430
  114 34.8886 0.0251029 -10.1870
  115 57.0908 0.816600 -9.37468
  116 75.7931 0.898340 -8.90201
  117 103.392 -0.152567 -9.45301
  118 117.329 0.0816747 -6.62619
  119 133.456 -0.0611704 -6.03164
  120 146.922 -0.302657 -4.94288
  121 157.332 -0.155399 -4.03966
  122 166.572 -0.00861195 -3.59013
  123 172.765 0.250772 -3.13425
  124 181.567 -0.251393 -2.86666
  125 184.636 -0.0147994 -1.48661
  126 188.790 -0.0246617 -1.17930
  127 192.081 -0.165069 -0.903345
  128 194.501 -0.112364 -0.722870
  129 197.110 0.00236292 -0.598735
  130 194.762 0.783859 -0.252263
  131 198.194 0.276102 -0.374736
  132 205.857 -0.221072 0.298475
  133 215.602 -0.802832 -0.105972
  134 225.126 -1.55494 -0.0247209
  135 235.980 -2.17508 0.0239405
  136 247.398 -3.39736 0.0789471
  137 259.448 -4.29524 0.277869
  138 271.947 -4.59064 0.168155
  139 282.792 -5.52385 0.173024
  140 292.190 -4.92898 0.470682
  141 302.912 -4.42281 0.851625
  142 315.006 -3.51632 0.905619
  143 326.337 -3.20688 0.783715
  144 338.341 -2.01928 0.536822
  145 348.351 -1.41005 0.785078
  146 356.211 -0.306041 0.439124
  147 318.293 -29.8982 -2.43692
  148 318.030 -29.4966 2.55076
  149 333.800 47.9861 -16.5519
  150 355.964 20.9925 35.1126
  151 269.590 -25.9107 -59.1094
  152 271.762 -25.8825 57.1942
  153 261.689 -11.1528 6.99415
  154 261.712 -11.3096 -7.00046
  155 377.614 13.5491 -26.9451
  156 317.443 -11.3942 7.26447
  157 317.309 -11.1174 -7.17327
  158 410.357 91.7003 4.36885
  159 324.821 -0.520831 -34.2463
  160 240.151 -18.9650 -26.4495
  161 240.153 -18.8050 26.2124
  162 325.438 -7.35572 30.9411
  163 308.914 22.5195 20.3898
  164 127.393 20.5673 -70.5302
  165 141.339 19.4785 74.3330
  166 398.841 4.47743 3.67303
  167 326.355 -12.4974 -21.5500
  168 432.333 94.9732 -2.17244
  169 293.806 -8.28636 0.122250
  170 293.743 -8.25940 -0.0958838
  171 330.297 -3.95107 -3.17888
  172 331.358 -3.54346 2.74885
  173 230.332 -3.35104 -4.18119
  174 230.360 -3.31587 4.15854
  175 354.986 -9.46765 75.1041
  176 298.972 12.3788 -21.9573
  177 195.313 -14.6706 -42.5568
  178 195.899 -14.5629 42.2735
  179 219.340 -7.25792 -13.8753
  180 219.359 -7.17370 13.7694
  181 327.961 -8.58890 18.3135
  182 297.965 -20.4768 -0.483274
  183 296.905 -20.3243 0.966340
  184 339.029 -32.7810 -5.35845
  185 340.781 -31.2296 1.13238
  186 468.670 110.257 -15.8101
  187 340.381 54.7104 15.4858
  188 341.071 20.9518 -35.2361
  189 353.791 -3.11740 -87.3683
  190 338.589 -19.1117 -24.6977
  191 341.488 -13.6370 29.0508
  192 284.556 -32.3212 28.8390
  193 284.635 -32.0949 -28.7480
  194 304.149 3.85640 26.4011
  195 138.842 -3.36441 -52.0081
  196 139.188 -3.66382 51.6848
  197 528.911 79.3008 11.4104
  198 320.643 -19.0900 13.4929
  199 332.628 -6.07717 -11.9439
  200 263.274 -6.47277 -3.16415
  201 263.277 -6.43867 3.15347
  202 319.102 -4.14074 -23.8314
  203 363.481 53.3837 -28.2534
  204 303.745 27.2718 -4.08867
  205 197.346 -7.04989 19.5518
  206 197.041 -7.07311 -19.7011
  207 337.695 -3.70612 6.55479
  208 328.567 6.17860 35.2105
  209 266.946 -19.5063 -12.6409
  210 265.119 -18.4709 12.9577
  211 387.581 57.4799 25.9793
  212 456.299 62.1989 9.74364
  213 30.7028 24.0982 -19.5952
  214 28.3858 22.2773 16.6383
  215 187.622 53.6202 124.552
  216 317.415 -21.0864 -10.4011
  217 338.937 -3.56062 -5.92267
  218 300.668 2.62469 -24.3096
  219 210.482 -2.13254 -6.15149
  220 210.548 -2.10833 6.09607
  221 285.484 -13.4219 -2.48344
  222 285.616 -13.5029 2.32047
  223 321.893 -4.33036 20.2880
  224 371.097 -21.5052 7.94549
  225 368.112 75.3527 -8.20747
  226 288.679 -27.9229 -13.4787
  227 365.414 -6.35418 22.6451
  228 311.212 -5.19440 1.19762
  229 311.217 -5.15072 -1.19579
  230 286.537 -27.7891 14.0219
  231 328.461 -20.8219 20.1275
  232 462.521 59.3600 -28.6381
  233 102.175 60.8293 -90.0800
  234 277.564 9.71021 5.23280
  235 329.681 29.0725 29.6513
  236 351.527 -2.45496 -31.4510
  237 328.332 -11.8049 -28.9570
  238 174.417 -5.65882 -24.5095
  239 175.028 -5.57262 24.4283
  240 328.893 -3.94881 -15.7071
  241 313.447 -7.90810 3.84748
  242 313.299 -7.89647 -3.72152
  243 65.5742 6.10012 -33.0835
  244 66.6404 5.34844 32.9747
  245 349.492 -30.5642 -26.6783
  246 345.817 -1.19463 0.912232
  247 346.194 -1.21789 -0.988688
  248 321.917 26.6796 -27.1355
  249 283.144 5.41349 15.8880
  250 593.916 95.1270 63.8033
  251 589.079 67.0667 -39.9681
  252 426.099 92.0168 -0.620724
  253 265.920 -12.7904 78.7112
  254 243.995 -8.27908 -82.3410
  255 279.726 -5.74676 -1.07244
  256 279.699 -5.70886 1.06422
  257 231.930 -6.26436 8.45431
  258 231.931 -6.35157 -8.53138
  259 337.221 -3.60560 9.71289
  260 327.143 -23.2828 -16.5954
  261 211.517 -0.415619 -1.43364
  262 211.564 -0.408600 1.42434
  263 323.027 -13.0540 -13.1951
  264 136.529 -4.48326 -33.9734
  265 137.129 -4.49781 33.7245
  266 327.006 -14.1598 23.2230
  267 249.514 -26.4821 47.5354
  268 250.158 -26.9568 -47.3910
  269 281.672 10.7513 -7.39464
  270 243.047 -3.76294 -2.81486
  271 243.067 -3.73676 2.80349
  272 306.367 -0.773899 19.4984
  273 366.293 67.1272 19.6098
  274 195.746 -2.42158 10.4412
  275 195.595 -2.44215 -10.5324
  276 336.006 -28.0418 11.7114
  277 311.047 -34.8799 -31.6904
  278 347.065 -1.63983 3.05173
  279 240.590 -14.3268 -18.0502
  280 240.167 -14.1652 17.9794
  281 427.735 44.4860 110.529
  282 201.333 -16.2368 56.7787
  283 324.924 45.6483 -1.75747
  284 411.434 45.4030 -17.1328
  285 310.086 -23.9910 4.20027
  286 311.269 -35.8368 28.5282
  287 201.955 -15.9690 -57.4291
  288 37.3406 46.0396 41.7349
  289 323.082 -13.1015 13.4369
  290 423.859 55.3521 13.4533
  291 349.842 -1.46336 -2.64585
  292 316.460 11.0614 -31.2333
  293 312.477 -17.6663 7.30746
  294 305.930 -25.8369 0.573008
  295 315.284 14.4634 30.0858
  296 334.387 -28.0531 -10.4839
  297 473.812 92.2426 -7.97550
  298 312.392 -16.9796 -6.99250
  299 258.513 74.1030 -152.612
  300 319.480 -33.8597 -5.94890
  301 317.212 -34.7816 9.59413
  302 232.796 -21.1065 -37.3694
  303 209.603 -0.820578 -3.12404
  304 209.660 -0.806335 3.09845
  305 232.892 -21.1220 37.1630
  306 337.877 -0.564303 -35.4227
  307 364.910 -15.1055 -15.1069
  308 277.630 -16.7642 -6.61262
  309 277.445 -16.8023 6.73656
  310 332.393 -28.6085 50.8526
  311 331.616 -2.64302 11.8922
  312 403.261 1.82786 17.6670
  313 271.932 -9.62913 -3.62073
  314 271.949 -9.59564 3.59915
  315 247.522 -6.48546 -5.54167
  316 247.522 -6.42383 5.53267
  317 280.194 3.74895 -15.3674
  318 360.259 26.3973 -34.0606
  319 557.383 150.244 -71.2476
  320 328.328 -2.85393 -1.06697
  321 328.138 -2.81527 1.09486
  322 175.620 -0.289456 70.8471
  323 246.287 -11.2280 -11.9074
  324 245.814 -11.1882 11.9373
  325 175.588 -0.695522 -70.5772
  326 343.300 40.5248 -28.9172
  327 384.476 19.0137 25.6301
  328 332.402 -23.7218 -56.5015
  329 305.444 -11.7838 3.23500
  330 305.130 -11.6962 -3.10065
  331 326.101 -6.73180 -6.41982
  332 306.589 -0.586094 -18.2368
  333 344.148 1.48541 34.7097
  334 343.477 -2.38406 -6.70025
  335 206.145 -12.5685 28.5130
  336 205.918 -12.6398 -28.7368
  337 320.018 -0.728022 32.5058
  338 196.886 -1.63109 -6.18834
  339 197.013 -1.61570 6.13056
  340 328.498 -7.52653 9.98835
  341 393.959 80.5081 -14.5289
  342 325.933 -6.78383 6.65830
  343 347.173 43.6110 29.0285
  344 332.281 -6.17464 33.7481
  345 262.936 -4.94457 1.14662
  346 262.939 -4.97583 -1.15475
  347 314.361 -1.12818 -28.8401
  348 416.362 87.5605 9.38734
  349 345.989 63.4746 0.606571
  350 212.014 24.6635 -105.416
  351 21.6272 9.57661 -14.3113
  352 23.7498 10.3595 15.4131
  353 -1.12640 2.41207 6.43419
  354 0.181715 1.33698 -6.71440
  355 608.577 42.2092 14.5262
  356 286.682 -23.3121 -7.82959
  357 328.761 -7.27126 -9.74635
  358 296.529 -5.21148 0.438810
  359 296.495 -5.16887 -0.440532
  360 317.189 35.0356 -14.6930
  361 270.716 -27.6235 23.7228
  362 23.6193 35.1032 -25.7823
  363 270.978 -27.6182 -24.1614
  364 321.358 36.5512 15.6358
  365 327.941 -8.73241 -17.4466
  366 347.943 -19.4059 -21.0858
  367 370.591 78.3264 5.66239
  368 348.755 -21.7662 17.4480
  369 143.825 -3.60788 22.7634
  370 142.956 -3.53838 -22.9130
  371 81.2361 2.00651 -31.5557
  372 82.1098 1.67820 31.4136
  373 284.656 0.923186 15.5471
  374 541.226 157.931 61.1323
  375 339.120 -2.14806 -8.50420
  376 263.758 -22.3291 -18.1498
  377 263.535 -22.2699 18.1248
  378 325.961 -7.51208 -22.0833
  379 371.442 -17.9570 2.90569
  380 286.672 -23.2900 8.07330
  381 407.796 2.87237 -33.0810
  382 230.105 -1.87889 -1.07879
  383 230.138 -1.86253 1.07070
  384 320.535 -1.86376 -14.0905
  385 172.328 -2.51028 -14.8597
  386 172.440 -2.59027 14.6768
  387 383.087 48.9199 -28.8513
  388 206.985 14.6310 97.8991
  389 299.883 -15.7518 1.58524
  390 300.178 -15.7234 -1.59980
  391 352.340 59.6458 -18.3852
  392 333.588 -9.88569 -31.9945
  393 334.608 -34.1857 27.6675
  394 278.748 -7.41914 -1.66640
  395 278.714 -7.38227 1.64892
  396 321.909 -24.8381 11.1807
  397 346.782 -1.65001 4.98204
  398 215.874 -7.92292 -17.3806
  399 215.959 -7.92231 17.2300
  400 326.847 10.9656 -34.7266
  401 308.570 -6.69034 1.81011
  402 308.557 -6.70574 -1.76865
  403 319.164 -3.76207 26.5124
  404 297.386 21.6536 7.04649
  405 330.939 -13.9713 27.9445
  406 478.437 100.192 17.7645
  407 159.621 -8.59832 -45.5526
  408 160.069 -8.60114 45.2019
  409 71.2506 38.2503 -54.2150
  410 354.807 -1.03751 1.38370
  411 179.657 -1.53971 -9.40164
  412 179.899 -1.50708 9.31963
  413 326.228 -8.50631 21.6343
  414 295.918 -32.1341 15.5430
  415 334.299 -4.14058 4.54639
  416 340.485 17.2881 36.2189
  417 74.7190 40.7278 56.5489
  418 296.365 -31.9549 -14.2817
  419 306.252 -28.4777 -2.66585
  420 99.6475 -2.00107 -28.6144
  421 100.409 -2.07684 28.4148
  422 235.136 -18.7971 -68.4777
  423 351.596 -5.24910 30.6916
  424 234.233 -19.0824 67.8713
  425 324.796 -18.2378 -18.1226
  426 301.586 20.3295 -15.4442
  427 324.853 -14.0315 17.2038
  428 349.709 -1.55821 -3.36729
  429 10.5768 11.2328 4.87372
  430 70.7565 81.4927 80.2298
  431 312.523 -1.14968 13.5851
  432 262.077 3.57756 6.72989
  433 266.649 4.36406 -9.13180
  434 227.503 -3.79081 -5.96435
  435 227.526 -3.74195 5.92450
  436 320.255 -24.8236 -10.2502
  437 323.528 -6.33791 -29.6840
  438 263.495 4.92487 -2.48059
  439 478.318 113.906 23.3136
  440 66.0105 21.9766 -40.6066
  441 72.7902 20.1706 43.4014
  442 299.606 -10.6827 1.45811
  443 299.491 -10.6562 -1.37765
  444 399.448 88.3430 -1.15457
  445 249.887 102.777 156.004
  446 384.475 -5.41687 -5.64035
  447 220.628 -11.5492 -23.5804
  448 220.731 -11.4690 23.3778
  449 221.998 -4.99088 9.30603
  450 221.957 -5.02810 -9.39170
  451 299.823 6.64363 -25.0275
  452 356.641 -0.509650 -0.920349
  453 291.426 13.3551 14.0526
  454 368.547 45.5030 31.2366
  455 306.819 -22.7849 -3.04705
  456 334.170 -3.93983 -4.41668
  457 351.157 -1.41074 3.10171
  458 355.619 -0.544629 0.526139
  459 355.911 -0.614532 -0.387465
  460 195.560 -0.357418 2.28811
  461 195.462 -0.362711 -2.31237
  462 335.664 -21.3298 21.9038
  463 302.710 11.9309 24.2377
  464 316.496 1.27899 -31.7040
  465 330.618 -6.96380 12.9665
  466 477.203 80.0770 -92.9011
  467 331.389 -18.3917 -24.4726
  468 3.14596 6.26828 2.53452
  469 3.12007 6.36755 -0.894575
  470 262.427 -14.8984 10.2061
  471 261.546 -14.7002 -10.0841
  472 412.216 7.56982 49.9185
  473 115.206 104.753 -118.205
  474 326.992 -0.994878 10.5629
  475 370.835 -21.6059 -28.3407
  476 197.330 -11.3935 33.0197
  477 397.264 70.4910 -20.8811
  478 326.623 -17.6829 20.5189
  479 274.126 -13.1259 -5.01649
  480 274.368 -12.9075 5.00157
  481 284.586 1.51605 -13.7297
  482 196.711 -11.3494 -33.2271
  483 291.842 0.125470 13.8058
  484 279.803 -31.9983 -42.4355
  485 279.099 -32.0471 42.5849
  486 337.179 -2.23538 9.38679
  487 306.218 28.8687 2.91292
  488 311.241 5.31485 106.616
  489 457.634 93.2038 -0.584556
  490 316.073 -5.32133 2.08849
  491 316.091 -5.30187 -2.16007
  492 242.889 -4.33293 -3.77068
  493 242.905 -4.29647 3.75614
  494 128.214 5.93788 59.4928
  495 328.072 -15.8053 -23.9468
  496 297.476 -6.47302 0.305028
  497 297.446 -6.44975 -0.298440
  498 259.058 -27.4450 34.7341
  499 130.699 7.84055 -61.0065
  500 328.549 -26.7780 -11.7329
  501 5.64565 1.16657 2.61290
  502 287.019 14.8113 1.02373
  503 317.232 -3.66361 -0.688863
  504 317.223 -3.71437 0.673612
  505 259.219 -27.3986 -35.0055
  506 371.220 -19.1271 36.2789
  507 367.858 13.3556 31.7940
  508 339.551 -2.29640 -2.19465
  509 327.544 -27.1560 11.8981
  510 204.964 -0.202095 -0.407539
  511 205.010 -0.200217 0.404033
  512 327.060 -12.5625 -25.5344
  513 316.699 23.4342 26.5272
  514 363.341 8.97078 -31.4017
  515 203.724 -0.328926 -1.28650
  516 203.778 -0.324387 1.27750
  517 634.282 91.6162 -82.0016
  518 329.586 39.2597 23.3692
  519 339.849 -2.11431 1.95502
  520 306.934 -29.1046 3.40563
  521 257.923 -8.55688 5.62044
  522 257.922 -8.62286 -5.60900
  523 357.302 -21.7658 9.70509
  524 343.339 -6.86348 -32.3464
  525 383.820 75.6648 17.4994
  526 319.259 5.49000 32.8740
  527 322.032 -6.18479 4.07496
  528 312.958 -33.3936 -40.8347
  529 324.568 -8.03555 25.1566
  530 626.933 28.7458 -11.4855
  531 354.687 -26.7470 -0.741908
  532 337.441 -2.22516 -0.522906
  533 337.521 -2.36875 0.460745
  534 633.447 42.5050 40.2685
  535 311.285 -0.106278 27.9590
  536 436.177 73.2563 -7.51089
  537 327.716 -8.90931 -12.6046
  538 147.820 -1.39788 -10.1642
  539 148.284 -1.33072 10.0599
  540 221.771 -20.7744 -47.5848
  541 221.945 -20.4259 47.2293
  542 321.855 -5.92778 -4.03714
  543 350.271 12.8520 -35.3598
  544 307.733 -20.9461 4.22343
  545 331.047 37.9632 -24.2523
  546 333.557 -3.87341 12.6343
  547 418.131 20.8944 -4.57053
  548 285.289 -9.78807 -1.40651
  549 285.201 -9.75303 1.38825
  550 309.916 -14.6284 5.45199
  551 456.956 90.5086 -6.59522
  552 326.488 14.2818 34.1465
  553 139.588 35.9270 87.9805
  554 315.489 -18.9363 71.2310
  555 416.864 20.1200 -78.4818
  556 333.801 27.6002 -31.7823
  557 296.143 -25.5918 -61.7455
  558 320.723 -35.1479 -12.0977
  559 334.974 -33.9142 -17.7991
  560 43.8920 56.8330 -53.8796
  561 336.697 -4.25260 -7.78079
  562 506.481 98.5242 -28.6625
  563 311.574 -14.0298 -6.07776
  564 314.160 -10.2182 5.01327
  565 313.867 -9.98427 -4.81151
  566 216.554 -1.26522 -2.83523
  567 216.600 -1.24883 2.81592
  568 30.6701 3.22518 -17.3467
  569 32.3873 3.38051 17.7502
  570 161.199 -7.51784 -34.7591
  571 162.435 -7.55838 34.7031
  572 318.466 -17.2546 -11.4582
  573 324.479 -35.2910 13.0989
  574 333.541 -31.6633 2.21929
  575 273.395 -4.84170 -1.00959
  576 273.379 -4.80661 1.00423
  577 259.394 -27.1989 -52.8565
  578 290.448 -23.8160 65.3375
  579 253.102 -25.5762 53.1585
  580 327.612 -7.27705 -31.9061
  581 205.174 -3.44488 10.4809
  582 205.073 -3.48103 -10.5692
  583 312.330 17.2520 -26.6408
  584 312.750 -0.547747 -12.3292
  585 390.680 84.8876 -7.89218
  586 255.145 -3.88092 -1.00175
  587 255.152 -3.85477 0.996877
  588 333.443 -0.987253 -6.94869
  589 230.150 -7.82347 -11.5943
  590 230.154 -7.79545 11.4924
  591 188.080 8.72166 84.2245
  592 324.530 -14.9267 -17.3930
  593 181.038 -9.55754 60.5029
  594 318.916 -16.5228 11.7026
  595 335.775 -4.72885 8.59064
  596 331.580 -3.02242 -1.94349
  597 232.810 -2.90912 -2.63241
  598 232.839 -2.88502 2.61834
  599 374.715 74.8807 -15.7554
  600 180.909 -9.19375 -60.7327
  601 317.857 -13.7554 -9.36733
  602 286.650 -5.32852 -0.488280
  603 286.620 -5.28877 0.486247
  604 538.471 72.5144 -12.8126
  605 189.987 -1.23642 5.78699
  606 189.822 -1.24853 -5.84179
  607 296.233 6.77819 22.8323
  608 423.742 35.4058 -5.20894
  609 200.430 1.41897 -83.6034
  610 102.474 2.62621 -45.5394
  611 103.330 2.03675 45.2977
  612 251.364 -14.7260 14.3508
  613 253.998 -15.1598 -13.9346
  614 428.313 86.2860 7.87642
  615 330.216 -3.13329 1.75913
  616 283.315 7.94942 -13.7880
  617 353.226 63.5284 14.5423
  618 351.950 65.9277 -9.66991
  619 289.235 -16.0548 -2.31096
  620 291.444 -15.6910 1.27621
  621 207.482 45.1831 -120.208
  622 248.512 -8.54945 -7.96537
  623 248.532 -8.45100 7.93706
  624 630.730 129.088 97.1925
  625 327.207 -10.7179 27.5529
  626 186.719 -6.65096 -22.2704
  627 508.269 117.736 78.5354
  628 187.155 -6.61340 22.1844
  629 312.940 -11.9593 -83.2086
  630 220.538 -1.10941 -1.04548
  631 220.578 -1.09977 1.04004
  632 273.122 2.43894 12.0265
  633 123.979 -1.86197 -19.9964
  634 124.676 -1.86662 19.8379
  635 285.508 -20.2464 5.98671
  636 299.450 -24.0082 -1.58222
  637 353.098 -0.761282 -2.83533
  638 198.784 -0.329958 1.68711
  639 198.708 -0.335786 -1.70496
  640 269.296 -6.09198 -1.52336
  641 269.285 -6.05717 1.51146
  642 309.167 -34.2949 41.2726
  643 355.163 39.6643 -32.0187
  644 236.174 -11.0783 -14.9472
  645 236.003 -10.8908 14.8379
  646 280.221 -20.2081 -8.39034
  647 441.534 96.1832 2.56643
  648 331.565 -32.0756 -0.387167
  649 287.746 -6.89612 -0.658082
  650 287.702 -6.86143 0.658648
  651 395.975 43.3096 24.3173
  652 332.188 -4.78254 -13.7331
  653 293.539 -0.366743 -11.2448
  654 135.758 -4.63409 -43.6947
  655 136.180 -4.76549 43.3352
  656 279.494 -24.1643 -13.5553
  657 419.262 92.4822 0.192147
  658 325.025 44.0241 -10.5258
  659 215.456 -1.99200 -5.22403
  660 215.506 -1.96418 5.18146
  661 303.282 -8.57023 -1.48485
  662 303.342 -8.58038 1.55022
  663 565.380 73.8425 32.5199
  664 358.541 -0.960673 0.766831
  665 346.371 -1.36028 4.87444
  666 345.007 -1.38771 -5.71041
  667 327.500 -30.4835 5.15697
  668 240.830 -2.83171 -1.31555
  669 240.853 -2.81122 1.30949
  670 349.795 56.1036 22.3867
  671 449.000 99.8271 -5.72543
  672 245.523 -18.3166 -21.1776
  673 245.450 -18.1353 21.0694
  674 307.284 -31.6754 -6.34789
  675 324.059 19.2583 -32.1382
  676 384.950 0.987202 13.8634
  677 255.283 -4.77938 -2.60697
  678 255.290 -4.74809 2.59593
  679 220.823 -19.3963 -42.9666
  680 324.396 -31.3712 -2.15250
  681 269.544 -29.8987 38.2643
  682 128.883 40.7356 -84.8852
  683 251.636 -23.3609 29.5138
  684 303.500 0.0815829 10.3903
  685 221.026 -19.1755 42.6758
  686 317.671 -14.0232 9.48295
  687 251.722 -23.2638 -29.7859
  688 257.668 3.34390 2.52281
  689 199.243 -5.40160 15.8290
  690 199.065 -5.40783 -15.9419
  691 269.695 -30.6743 -38.6918
  692 333.430 -21.9611 -21.1764
  693 305.761 -4.27837 -0.386626
  694 305.810 -4.32337 0.388423
  695 340.783 -21.7006 20.9773
  696 309.655 -32.3671 7.57801
  697 376.291 34.5136 30.9812
  698 339.461 -6.35641 33.3222
  699 326.645 -11.7138 20.2992
  700 311.954 25.6422 -20.2084
  701 375.344 63.1590 24.5093
  702 324.001 -4.47908 -19.6986
  703 322.946 -10.6941 10.4467
  704 333.755 52.2846 5.68967
  705 328.537 -5.56432 17.1559
  706 103.429 70.3153 88.9754
  707 305.790 -35.1692 -23.7830
  708 354.065 6.43917 33.8763
  709 357.504 -11.0592 -24.1042
  710 356.839 -0.465556 1.56888
  711 326.431 -11.2041 -15.9853
  712 306.229 -35.4463 21.5975
  713 592.996 52.5097 -8.79441
  714 182.214 -0.792742 6.05710
  715 181.994 -0.801493 -6.11495
  716 331.135 -6.00006 -7.45593
  717 358.970 -0.353712 -1.52904
  718 278.979 -24.5545 13.6274
  719 335.126 -12.4638 30.2610
  720 509.327 121.489 -37.3443
  721 317.643 -23.0264 9.68466
  722 352.226 -23.1855 -12.4153
  723 323.066 -10.4064 -10.2798
  724 358.836 -0.612647 -0.497320
  725 327.080 -0.0295731 34.6645
  726 15.0619 13.7714 18.8949
  727 369.244 -14.2191 -54.0783
  728 401.722 23.7907 15.2554
  729 334.612 -34.1813 15.8664
  730 238.321 -5.76748 6.52666
  731 238.322 -5.84833 -6.55893
  732 312.195 157.868 -163.864
  733 340.934 -22.5436 -19.3879
  734 256.656 1.33140 -4.82255
  735 299.380 1.64939 22.2648
  736 328.858 -16.4478 24.3431
  737 315.214 -26.5638 4.85700
  738 327.834 -29.8786 -44.3502
  739 313.273 -24.7891 -5.43532
  740 370.202 -17.7314 -4.17328
  741 340.929 -2.76821 4.35690
  742 304.199 -18.2867 2.86676
  743 552.800 110.517 -58.8760
  744 324.511 -8.66574 8.28833
  745 320.972 5.24904 -33.7591
  746 274.149 -3.07923 93.5861
  747 343.894 27.6962 34.4674
  748 295.807 -23.3157 3.12188
  749 228.311 -18.0367 -31.3895
  750 228.331 -17.9861 31.1318
  751 314.399 35.3525 -4.70864
  752 319.903 -3.70074 30.1334
  753 323.406 -7.69317 -25.7010
  754 304.545 -18.6601 -2.96506
  755 294.433 -26.4162 7.56001
  756 336.328 55.5247 -6.42691
  757 314.825 -27.2480 -3.61519
  758 315.602 -19.9754 9.42034
  759 319.827 -4.08658 1.46074
  760 320.024 -3.97523 -1.45087
  761 430.270 94.5334 2.20864
  762 351.922 -29.9236 -10.4523
  763 327.426 -10.0106 15.9176
  764 341.060 -2.75929 -3.96606
  765 344.537 2.29079 -35.0417
  766 392.339 20.6082 -20.5755
  767 192.005 -0.192064 -2.82681
  768 192.131 -0.189285 2.79804
  769 2.76426 -5.98126 -4.23121
  770 334.255 -0.385980 6.43468
  771 306.258 -0.507014 -24.6291
  772 316.422 -2.96220 21.7152
  773 288.963 35.7321 137.332
  774 360.177 74.1152 -0.778661
  775 256.042 -18.3821 16.4998
  776 44.6429 1.01119 -17.1468
  777 45.9476 0.745037 17.3303
  778 313.592 -2.23489 -24.4966
  779 256.740 -18.5662 -16.4955
  780 339.047 -3.03627 3.31140
  781 173.045 -7.42174 29.6669
  782 171.557 -7.39603 -29.6820
  783 324.493 -8.41318 -8.07301
  784 206.956 -5.26631 -13.7759
  785 207.060 -5.23139 13.6525
  786 337.964 -3.17230 -9.49568
  787 257.824 -6.92393 -4.49014
  788 257.831 -6.87820 4.49164
  789 369.031 -2.34312 -24.1441
  790 332.012 -3.47625 -34.7834
  791 168.538 -1.08986 -7.72434
  792 168.867 -1.07972 7.63405
  793 8.22091 4.23502 -10.3860
  794 9.72064 4.46767 10.9283
  795 268.895 1.28598 -8.73703
  796 303.256 -34.0752 -17.6950
  797 -3.49214 -2.41668 6.02370
  798 -3.06119 -2.85145 -5.98521
  799 315.648 -6.31248 3.12886
  800 342.315 -26.7048 -11.0279
  801 353.355 52.3850 -26.1247
  802 340.511 -2.72836 -3.14669
  803 727.773 146.597 -136.706
  804 315.582 -6.29177 -3.08816
  805 475.077 90.6245 7.32857
  806 337.716 9.83048 -36.2714
  807 373.113 28.1475 -31.7135
  808 62.3872 -0.734894 -15.8490
  809 63.5478 -0.827778 15.8202
  810 210.385 -3.06604 8.15788
  811 210.311 -3.09179 -8.23132
  812 200.769 -0.484268 1.52589
  813 200.708 -0.489317 -1.53832
  814 377.247 63.5365 -24.2995
  815 222.777 -1.41221 -2.25110
  816 222.816 -1.39593 2.23827
  817 320.891 -3.23134 -31.4531
  818 463.393 47.3412 39.6717
  819 288.671 6.43564 -19.1991
  820 99.7295 -0.899642 16.9900
  821 98.8775 -0.907933 -17.1247
  822 373.532 10.0816 98.5094
  823 330.798 -6.04955 7.69543
  824 295.569 19.6016 -7.99854
  825 136.387 -0.223399 11.5864
  826 135.684 -0.159773 -11.6727
  827 205.079 -1.06384 -3.99598
  828 205.153 -1.04855 3.95864
  829 36.7294 32.7215 28.1689
  830 308.256 7.34091 28.5412
  831 343.088 50.4336 -22.3930
  832 369.245 42.8699 -31.5278
  833 242.442 -9.21070 -10.4586
  834 242.300 -9.14111 10.4438
  835 382.410 81.4503 11.0360
  836 330.192 -2.72239 -0.415444
  837 330.211 -2.70189 0.471156
  838 326.698 -9.78323 -20.4738
  839 273.559 -18.2668 9.56051
  840 301.395 -33.8712 17.7863
  841 354.287 -29.0304 27.7097
  842 271.120 -7.89044 -2.62570
  843 271.117 -7.86018 2.60753
  844 310.111 28.7360 12.9775
  845 291.347 3.96912 -20.7370
  846 80.9943 95.5894 92.6169
  847 295.356 -26.2014 -6.83252
  848 296.333 -13.2491 0.676604
  849 296.491 -13.2752 -0.692677
  850 326.006 -4.79903 33.0663
  851 323.317 -21.2393 -15.1668
  852 288.682 -19.1404 -3.74806
  853 658.574 21.3250 -32.6178
  854 274.417 -25.9993 18.7329
  855 274.199 -26.3380 -19.0374
  856 325.675 -3.88621 16.7564
  857 490.299 126.610 -28.1690
  858 257.463 -23.4362 -23.4456
  859 284.507 -32.0536 22.2462
  860 257.392 -23.1530 23.2371
  861 279.139 -11.2587 -3.00491
  862 279.131 -11.2201 2.98274
  863 41.2856 17.5937 24.4897
  864 350.033 26.1561 -34.8876
  865 267.845 -10.4844 -4.85709
  866 267.894 -10.3779 4.87471
  867 264.506 -4.39617 -0.586659
  868 264.501 -4.36553 0.582685
  869 291.004 -5.78493 -0.0452344
  870 290.968 -5.74644 0.0432834
  871 236.397 -4.66707 -5.64823
  872 236.415 -4.61450 5.62410
  873 268.867 -14.1845 -7.35748
  874 268.900 -14.0867 7.38939
  875 6.48861 -2.38843 -3.08169
  876 405.535 76.0846 18.0686
  877 348.882 -12.2305 -27.8993
  878 284.275 -31.5894 -22.4838
  879 307.095 -9.88565 2.90015
  880 306.959 -9.78302 -2.81460
  881 334.847 0.420721 35.5357
  882 364.089 -25.9768 -15.2709
  883 322.230 22.8721 -119.129
  884 146.497 -2.36757 58.8240
  885 -5.48396 3.41700 -4.00277
  886 -4.76202 3.85633 4.43551
  887 41.0104 18.7116 -25.0008
  888 327.292 -9.38924 12.5302
  889 344.404 -2.23321 -5.27781
  890 309.706 -29.7846 50.9656
  891 146.147 -2.21176 -59.0597
  892 345.137 -28.2420 7.71117
  893 384.325 -11.3633 44.3079
  894 278.719 1.12282 9.26193
  895 319.640 30.4036 22.1019
  896 172.919 -9.75996 43.2811
  897 172.247 -9.83894 -43.5703
  898 207.449 -9.91931 -24.2687
  899 217.980 -10.6645 -75.0282
  900 345.257 -8.07119 31.3630
  901 474.298 111.416 17.1070
  902 346.632 13.3324 35.5770
  903 327.654 -6.97819 -18.6798
  904 222.574 -9.55484 76.8943
  905 417.699 76.9868 -13.2534
  906 41.4025 35.2412 -34.7306
  907 302.660 -0.610526 -9.91115
  908 207.666 -9.83718 24.0513
  909 253.273 -5.61240 3.96002
  910 253.266 -5.65132 -3.96907
  911 323.789 -21.1262 15.6642
  912 336.248 -2.11585 1.26232
  913 247.286 2.28358 -93.2632
  914 354.533 -0.773204 2.49804
  915 351.880 -0.634107 -3.19220
  916 262.762 2.27224 -8.03468
  917 340.059 -1.37980 -5.70302
  918 254.112 -11.9332 -9.64398
  919 254.282 -11.7536 9.67319
  920 -8.36459 3.10086 -4.81422
  921 -11.5354 1.87007 5.09424
  922 336.239 -1.96365 -1.28140
  923 111.144 -2.51321 39.6925
  924 110.471 -2.27382 -39.9201
  925 359.158 52.4118 27.5783
  926 643.135 11.6155 10.0942
  927 338.045 37.6051 28.9953
  928 383.022 -13.4992 12.4466
  929 332.858 -18.5219 24.5264
  930 414.446 86.8699 -10.0924
  931 257.121 1.08525 6.05639
  932 320.271 -7.51159 -5.00056
  933 332.716 17.8898 -35.0859
  934 402.135 11.8684 -6.68739
  935 312.175 -19.2781 -7.39214
  936 159.242 -0.898261 -8.64771
  937 159.410 -0.866492 8.52483
  938 329.425 -7.71891 -14.6253
  939 10.9600 13.9146 2.84110
  940 316.214 -32.7804 -3.21342
  941 273.819 8.08235 -0.828681
  942 411.601 90.5033 -6.70127
  943 65.0393 48.3878 -57.6557
  944 316.443 -2.35557 -19.4583
  945 219.161 -3.69443 -7.61992
  946 219.203 -3.65074 7.55487
  947 1.89347 -9.02188 6.86963
  948 214.870 -16.0358 -34.8261
  949 322.112 -18.6100 -14.7215
  950 200.059 0.429439 -0.632107
  951 200.108 0.431514 0.627755
  952 325.231 39.4717 -17.7010
  953 348.931 -1.01414 -0.504857
  954 348.941 -1.02846 0.662055
  955 214.965 -15.9912 34.5884
  956 325.991 -0.442322 -7.68913
  957 375.121 2.70357 23.2660
  958 332.780 -4.67090 5.94528
  959 53.0816 13.5072 -30.9477
  960 345.106 -2.07105 4.78273
  961 312.948 2.51489 30.5548
  962 330.050 45.7297 15.7464
  963 330.270 3.82724 -35.8892
  964 227.397 -12.2402 -20.8244
  965 356.496 -12.6252 23.2603
  966 227.544 -12.1922 20.6127
  967 10.4477 11.3924 -0.987085
  968 38.9554 6.72674 22.6769
  969 185.470 -3.30668 14.3076
  970 185.242 -3.30976 -14.3898
  971 320.497 -7.65554 5.26939
  972 344.526 59.9522 8.71267
  973 175.348 16.0840 -88.2987
  974 288.136 -18.0111 3.25993
  975 270.455 -28.3007 -28.2120
  976 394.315 75.5854 18.8250
  977 303.326 -5.34283 0.448208
  978 303.314 -5.31306 -0.450233
  979 332.396 -6.12439 -10.4980
  980 307.208 26.5138 -11.9718
  981 695.497 206.273 139.150
  982 63.9349 3.61808 -29.8574
  983 64.9435 3.00734 29.9248
  984 4.75385 -6.08224 1.58313
  985 308.146 17.0655 24.5736
  986 270.377 -28.4719 28.0023
  987 335.159 -15.8269 -27.9153
  988 364.664 29.8050 34.3878
  989 350.572 -28.3089 -34.0685
  990 512.071 107.773 35.6763
  991 297.767 -4.80768 -0.133857
  992 297.728 -4.76726 0.134123
  993 348.570 -14.2058 26.4514
  994 24.0843 39.8685 41.5770
  995 156.617 -3.31217 20.4943
  996 156.124 -3.26980 -20.7158
  997 187.115 -9.19858 28.0139
  998 186.468 -9.05877 -28.1209
  999 210.803 -8.73843 20.1182
  1000 230.456 -1.85449 -1.01998
  1001 230.488 -1.84058 1.01573
  1002 575.518 183.287 -116.852
  1003 521.446 130.660 53.6504
  1004 210.632 -8.78362 -20.2892
  1005 359.038 -1.65206 29.1843
  1006 321.163 33.3259 -21.2813
  1007 226.906 -19.5060 62.2046
  1008 291.537 -34.4404 -33.4688
  1009 333.215 -2.72456 -11.2604
  1010 150.208 10.3465 71.8660
  1011 192.769 -14.7314 49.7067
  1012 294.477 15.0827 -15.3910
  1013 336.938 -6.66994 -33.7029
  1014 429.532 174.997 187.031
  1015 278.100 8.49661 10.9579
  1016 378.649 81.6405 -1.33012
  1017 278.272 10.9142 -105.983
  1018 282.976 -29.8042 -19.1831
  1019 359.278 -0.373610 -1.24752
  1020 344.673 31.6614 -33.5718
  1021 201.730 -1.32145 5.13975
  1022 201.635 -1.33491 -5.18872
  1023 7.38577 3.82711 -10.6209
  1024 227.561 -10.4397 -17.3595
  1025 192.535 -14.9218 -50.0843
  1026 227.386 -10.4158 17.1664
  1027 329.358 -10.0199 31.1679
  1028 295.471 -18.2756 -0.599935
  1029 310.320 5.69954 -29.6007
  1030 319.302 39.8879 6.21255
  1031 433.164 26.1399 15.5311
  1032 326.295 -24.7815 14.9172
  1033 206.172 -16.5176 -38.1070
  1034 307.678 10.8776 -27.7066
  1035 228.884 -19.2444 -62.5355
  1036 439.637 95.4729 -1.74259
  1037 299.035 19.6216 14.0019
  1038 377.995 -2.23125 -17.8253
  1039 284.737 -29.8158 17.6464
  1040 326.315 -10.3308 24.0923
  1041 324.202 -17.1040 17.3129
  1042 322.423 -16.2033 14.9977
  1043 398.161 50.5607 -24.9912
  1044 321.983 -5.18570 24.4681
  1045 291.059 -34.5367 32.9224
  1046 310.682 -12.6901 4.93954
  1047 206.301 -16.5484 37.8920
  1048 291.701 -21.5163 -3.99157
  1049 169.482 -8.22694 -53.1609
  1050 241.876 -25.1271 42.1782
  1051 327.935 -2.21499 -13.0756
  1052 319.389 -3.60171 -27.8142
  1053 276.653 -21.9183 -11.6968
  1054 169.774 -8.46597 52.7414
  1055 297.800 0.716432 -19.3519
  1056 221.530 -14.7467 -26.9715
  1057 401.442 85.5119 11.8697
  1058 89.4338 14.8610 -50.4865
  1059 686.487 48.5117 66.1309
  1060 160.850 12.0292 -75.2464
  1061 322.355 -26.7000 -9.14910
  1062 221.589 -14.6199 26.7491
  1063 294.621 3.10675 21.6413
  1064 165.103 -3.36807 16.9660
  1065 165.015 -3.45149 -17.1396
  1066 326.311 -9.07237 -28.8903
  1067 347.153 -1.72126 1.95152
  1068 340.321 -0.755218 5.76316
  1069 336.552 11.1733 36.1889
  1070 314.811 -2.36998 26.1297
  1071 244.166 26.0047 114.636
  1072 361.587 -0.266010 0.603085
  1073 338.784 45.9263 23.0798
  1074 286.675 4.14082 18.6441
  1075 344.658 -1.30201 5.53495
  1076 221.242 -2.40325 -4.26018
  1077 221.281 -2.37577 4.23202
  1078 140.749 -4.00766 -28.2930
  1079 141.308 -4.15183 28.0977
  1080 287.590 14.3273 7.82422
  1081 434.614 23.2434 -31.6595
  1082 399.338 -0.504319 -60.2543
  1083 318.086 -0.279310 -7.97507
  1084 241.968 -25.3155 -42.4988
  1085 277.234 -20.8463 10.4498
  1086 319.936 -0.730058 8.32298
  1087 335.075 -24.3003 -17.5845
  1088 208.737 -0.492363 2.54339
  1089 208.685 -0.501004 -2.55950
  1090 321.739 -27.4645 9.14363
  1091 305.780 -6.23709 0.945356
  1092 305.729 -6.24304 -0.925309
  1093 297.523 -29.9813 11.1180
  1094 383.668 -12.4078 -4.01429
  1095 173.071 -0.312295 -4.81091
  1096 173.356 -0.301409 4.75941
  1097 261.213 -16.4947 -71.6482
  1098 277.713 -6.63553 1.41278
  1099 277.740 -6.67308 -1.42576
  1100 168.116 90.2241 125.954
  1101 385.216 31.5780 -28.2136
  1102 56.6048 27.6331 -38.1292
  1103 332.973 -4.92967 -5.74499
  1104 88.7877 30.5263 -57.8948
  1105 184.804 -11.6591 -36.1884
  1106 361.700 -0.380065 0.375167
  1107 361.843 -0.355559 -0.276605
  1108 327.460 -18.6826 -21.0045
  1109 289.980 -32.5337 -46.0197
  1110 89.4870 12.6505 48.1088
  1111 356.217 35.2660 32.6698
  1112 323.408 -3.23015 -0.510403
  1113 323.444 -3.23286 0.541199
  1114 353.411 -22.7730 55.7767
  1115 364.769 73.1127 12.5775
  1116 216.245 -5.24997 -10.9095
  1117 216.299 -5.22486 10.8307
  1118 164.394 18.8346 89.1231
  1119 309.561 1.56543 -28.6480
  1120 96.9775 31.3112 62.2574
  1121 398.134 -6.85893 -18.5893
  1122 390.818 86.4942 3.81569
  1123 268.658 -21.3006 14.2614
  1124 247.494 1.29996 -1.18065
  1125 341.302 -2.97389 7.08872
  1126 353.428 -0.432372 2.76513
  1127 76.8936 0.143274 -14.2352
  1128 77.9596 0.105598 14.1376
  1129 277.683 4.61894 -13.8082
  1130 286.521 -8.43090 -0.977725
  1131 286.455 -8.39057 0.971816
  1132 30.0917 46.9830 -44.2330
  1133 47.8903 103.189 -88.6991
  1134 290.197 -11.3421 0.712877
  1135 290.311 -11.3421 -0.728800
  1136 299.897 -7.21613 1.00457
  1137 299.854 -7.20037 -0.978885
  1138 78.5380 50.1933 62.6205
  1139 236.319 -2.95097 -2.04574
  1140 236.346 -2.92937 2.03570
  1141 297.449 22.4626 -0.326185
  1142 380.226 47.6853 -132.372
  1143 363.152 62.6582 -21.5507
  1144 331.388 -12.7133 -29.4708
  1145 326.447 -16.2666 -21.3087
  1146 268.824 -21.5004 -14.5009
  1147 270.109 0.872792 8.52413
  1148 304.189 18.9455 -20.5400
  1149 299.918 16.1091 19.6169
  1150 310.477 -12.3198 -4.84904
  1151 296.230 -17.9070 0.380505
  1152 269.194 -17.4447 -10.6978
  1153 320.627 -1.87987 15.5089
  1154 567.465 57.3083 7.99852
  1155 322.826 -6.87632 28.2543
  1156 323.841 21.2601 30.8810
  1157 298.920 -29.4368 -8.29652
  1158 36.8758 6.18416 -21.8677
  1159 304.525 -14.0836 -3.45631
  1160 201.510 -0.327829 -0.124422
  1161 201.555 -0.326484 0.122978
  1162 371.254 -9.84879 15.2423
  1163 353.796 -29.7807 12.5874
  1164 508.349 91.1198 22.2251
  1165 120.679 -0.257424 -11.8704
  1166 121.413 -0.231151 11.7799
  1167 271.708 -5.51480 -1.18138
  1168 271.694 -5.47966 1.17235
  1169 305.490 -26.9643 -0.713724
  1170 249.726 1.11597 3.86460
  1171 312.874 -22.2771 7.03965
  1172 17.5793 20.8953 -10.0380
  1173 56.0303 28.0096 37.2905
  1174 209.185 -11.3321 69.2604
  1175 361.719 68.9856 -15.3835
  1176 345.929 -0.949204 -4.37083
  1177 363.245 -0.572120 0.255368
  1178 363.604 -0.784074 -0.163265
  1179 209.839 -0.519356 -0.415250
  1180 209.884 -0.515299 0.412002
  1181 333.351 21.3156 35.0649
  1182 493.801 84.5036 -1.79291
  1183 343.384 56.8265 -15.6339
  1184 256.910 -18.8535 71.1879
  1185 208.070 -10.8877 -69.1299
  1186 231.120 -15.5383 -24.1699
  1187 320.669 -8.93056 6.71716
  1188 447.747 98.5612 3.39353
  1189 231.138 -15.4443 23.9769
  1190 327.728 -5.68344 5.08418
  1191 292.005 10.8206 18.7167
  1192 322.144 9.97090 33.6788
  1193 459.460 102.667 10.7286
  1194 272.233 -7.12817 2.20895
  1195 272.248 -7.16355 -2.22536
  1196 331.962 -6.19531 10.9015
  1197 196.009 -2.12728 8.05806
  1198 195.870 -2.14901 -8.13261
  1199 324.744 -4.37510 -2.28610
  1200 133.522 79.4580 -121.738
  1201 281.191 -15.8269 -76.2190
  1202 264.724 -8.33730 -4.15288
  1203 264.750 -8.29840 4.15415
  1204 348.607 -1.60368 1.75903
  1205 329.703 -4.27132 4.06706
  1206 17.9050 22.3830 16.3805
  1207 358.978 -0.388548 1.45471
  1208 42.4823 53.6457 53.2288
  1209 321.961 -4.76693 -2.93577
  1210 -0.420547 -7.91489 -6.92991
  1211 227.350 -22.1793 -53.6035
  1212 226.713 -21.6390 53.0629
  1213 358.968 -0.619618 -1.60642
  1214 306.468 -16.1663 -4.11195
  1215 348.346 -1.45852 -1.80739
  1216 278.272 -9.02613 -2.06870
  1217 278.243 -8.99165 2.04375
  1218 324.534 -4.34318 2.14970
  1219 304.305 -13.8088 3.42014
  1220 292.712 -9.41706 -0.0842826
  1221 292.818 -9.44418 0.120415
  1222 348.059 -1.50371 -1.47723
  1223 300.183 -31.5742 -51.9162
  1224 340.474 -2.05365 -1.51494
  1225 323.348 -4.90208 3.15073
  1226 224.840 -2.50491 -3.14906
  1227 224.876 -2.48021 3.12990
  1228 251.445 -3.72866 -1.59503
  1229 251.456 -3.70240 1.58666
  1230 408.357 63.6338 21.0028
  1231 343.099 -26.3397 13.1284
  1232 235.140 -1.06516 88.0231
  1233 187.561 -0.329920 3.09295
  1234 187.402 -0.333413 -3.12451
  1235 324.880 -5.98564 21.2475
  1236 311.043 -4.67384 0.639985
  1237 311.057 -4.65750 -0.639583
  1238 355.885 69.3666 7.18253
  1239 326.319 -34.1458 41.0187
  1240 188.025 -2.69249 11.3235
  1241 187.836 -2.71315 -11.4085
  1242 310.558 -7.55138 2.54399
  1243 310.489 -7.60295 -2.47177
  1244 320.498 -8.81932 -6.47532
  1245 293.990 0.0547340 10.0208
  1246 509.620 126.614 -41.8034
  1247 326.381 -11.9188 -18.8253
  1248 55.5745 13.3308 31.8325
  1249 337.210 -17.9515 26.0432
  1250 270.093 5.87235 -7.55217
  1251 20.4687 15.1818 11.4040
  1252 444.917 49.3029 -3.49673
  1253 329.271 -14.9597 -26.2937
  1254 271.400 3.83219 11.5659
  1255 186.113 -11.6778 36.1218
  1256 334.595 -25.8818 15.7100
  1257 486.518 92.4700 28.6084
  1258 112.000 16.6260 61.2780
  1259 336.321 -3.95657 -9.38542
  1260 648.448 7.22664 -6.54568
  1261 670.218 10.0893 29.2155
  1262 715.984 24.4536 -69.3691
  1263 325.922 -10.1535 -23.3986
  1264 325.975 -14.8567 19.9613
  1265 331.236 -23.5576 18.6611
  1266 -9.75416 1.09802 6.20448
  1267 -8.88428 0.870517 -6.74480
  1268 322.477 -35.6155 -18.9457
  1269 330.451 -33.3844 -28.5687
  1270 251.554 1.58631 -4.77398
  1271 321.162 -36.2619 28.5438
  1272 343.041 -16.2538 -26.4390
  1273 6.57635 10.1533 1.00767
  1274 278.515 -5.09330 0.861443
  1275 278.536 -5.13049 -0.863728
  1276 341.096 -2.69147 6.39950
  1277 327.711 -5.58078 -4.78038
  1278 308.478 -33.6826 -9.91379
  1279 281.530 -15.2721 4.40723
  1280 280.101 -15.0598 -4.82301
  1281 330.688 -6.95751 14.9330
  1282 338.863 -12.4343 -30.3524
  1283 21.2460 15.8293 -11.0222
</Section>

newXOutput 45

<Section columns = "stress_xx | stress_yy | stress_xy">
  1 373.602 -0.0620722 0.734698
  2 373.617 -0.0563801 -0.736997
  3 202.789 -0.0788922 -0.266006
  4 -2.57261 -2.54800 -3.69796
  5 674.808 266.095 214.657
  6 668.490 275.877 -214.675
  7 -2.98680 -2.42462 3.93003
  8 202.744 -0.0796649 0.265255
  9 376.253 -0.617832 0.226014
  10 375.449 -0.980344 -0.181911
  11 374.571 -0.646538 0.851736
  12 373.690 -0.897357 0.246596
  13 371.799 -0.752728 1.34226
  14 370.085 -0.762510 0.984324
  15 366.056 -0.674962 1.92489
  16 360.315 -0.458747 2.83457
  17 355.192 -0.493677 3.15254
  18 347.605 -0.700716 3.80824
  19 337.099 -0.0445733 5.62588
  20 327.393 -0.517067 5.34422
  21 316.360 -0.677974 7.52505
  22 300.423 0.480943 6.54394
  23 288.900 0.719254 7.73327
  24 273.870 1.21625 6.04852
  25 263.478 1.26540 6.09664
  26 248.420 1.78290 3.10754
  27 245.250 2.80905 3.32997
  28 243.345 2.29614 -0.982778
  29 245.956 1.31888 -2.16333
  30 250.759 1.28977 -2.65216
  31 262.038 1.63353 -5.29604
  32 272.991 1.28978 -6.70381
  33 289.078 0.276888 -7.95144
  34 301.952 -0.168712 -7.24637
  35 315.683 -0.540270 -7.12279
  36 328.121 -0.403019 -5.03069
  37 338.818 -0.419452 -4.30475
  38 347.644 -0.684372 -3.61484
  39 355.552 -0.486228 -2.52216
  40 360.495 -0.575017 -2.67790
  41 365.270 -0.713136 -1.95813
  42 369.788 -0.847591 -0.859628
  43 372.107 -0.680728 -1.00984
  44 373.332 -0.413485 -0.631047
  45 372.441 -0.220120 -0.575442
  46 375.835 -0.989858 0.120242
  47 376.371 -0.644017 -0.233144
  48 363.988 -0.262881 -0.454408
  49 355.785 -1.48992 -0.819527
  50 345.771 -2.19645 -0.534176
  51 333.562 -3.26731 -0.732145
  52 321.993 -3.58056 -0.907443
  53 309.648 -4.49447 -0.862812
  54 298.724 -5.00659 -0.476367
  55 289.142 -5.61142 -0.174605
  56 278.089 -4.65991 -0.170319
  57 265.350 -4.36047 -0.282930
  58 253.070 -3.44710 -0.0802683
  59 241.433 -2.20386 -0.0247892
  60 230.369 -1.57416 0.0244469
  61 220.660 -0.811831 0.107360
  62 210.723 -0.221634 -0.304926
  63 202.909 0.283396 0.382129
  64 199.410 0.801619 0.256445
  65 201.808 0.00498895 0.608011
  66 199.153 -0.111663 0.732447
  67 196.699 -0.165105 0.913641
  68 193.363 -0.0226829 1.19258
  69 189.154 -0.0128879 1.50355
  70 186.051 -0.252977 2.90285
  71 177.134 0.259876 3.17078
  72 170.864 -0.0197902 3.63320
  73 161.526 -0.165995 4.12045
  74 150.766 -0.278879 5.01662
  75 137.319 -0.0646437 6.09108
  76 120.925 0.0750558 6.71148
  77 106.793 -0.150923 9.58762
  78 78.8274 0.894213 9.03787
  79 59.8085 0.771594 9.57118
  80 37.0482 -0.163373 10.6011
  81 18.1783 1.77348 11.0036
  82 -3.28839 2.64258 6.56938
  83 -18.8570 2.68246 2.28624
  84 -18.2566 2.57722 -1.02626
  85 -17.3256 2.13724 -5.23041
  86 -10.1796 -0.700906 -4.95508
  87 -1.25695 -9.77252 -5.46346
  88 0.945702 -18.0241 -6.84977
  89 2.65419 -28.5390 -3.83773
  90 5.91033 -29.2814 0.222027
  91 12.5292 -7.37266 16.4161
  92 37.4903 56.8005 56.1501
  93 221.322 205.054 191.706
  94 816.303 121.715 136.934
  95 734.861 17.4503 44.6760
  96 682.653 7.21195 13.6715
  97 663.365 6.11126 1.06687
  98 673.535 8.15111 -11.8219
  99 733.100 16.2202 -35.3415
  100 865.774 58.7252 -118.172
  101 131.254 209.360 -160.169
  102 28.0839 39.5966 -46.3868
  103 13.6698 -5.99912 -17.2462
  104 5.52337 -29.3517 -2.85481
  105 1.53713 -21.7641 4.41968
  106 1.95554 -22.7081 5.94838
  107 0.0855432 -8.45629 6.04911
  108 -10.6235 -0.461726 4.70472
  109 -17.8776 1.60403 4.56831
  110 -19.2213 3.13448 1.13131
  111 -19.4705 2.64288 -2.11077
  112 -4.64207 2.70839 -6.14881
  113 16.9788 1.78912 -10.4878
  114 35.8230 0.0242242 -10.4266
  115 58.5464 0.834407 -9.59248
  116 77.6806 0.918035 -9.10853
  117 105.903 -0.154882 -9.67024
  118 120.162 0.0838625 -6.77809
  119 136.653 -0.0618925 -6.16910
  120 150.423 -0.308459 -5.05548
  121 161.068 -0.158054 -4.13206
  122 170.517 -0.00821845 -3.67191
  123 176.851 0.256597 -3.20671
  124 185.848 -0.255415 -2.93334
  125 188.992 -0.0144695 -1.52232
  126 193.241 -0.0241810 -1.20803
  127 196.607 -0.167575 -0.925914
  128 199.084 -0.113777 -0.741031
  129 201.751 0.00315571 -0.613510
  130 199.361 0.800601 -0.259014
  131 202.862 0.282903 -0.383729
  132 210.677 -0.223743 0.304042
  133 220.616 -0.817105 -0.109355
  134 230.331 -1.58580 -0.0267874
  135 241.404 -2.22005 0.0225278
  136 253.054 -3.47042 0.0780504
  137 265.349 -4.38987 0.281200
  138 278.103 -4.69384 0.168616
  139 289.168 -5.64926 0.173892
  140 298.758 -5.04425 0.477653
  141 309.697 -4.52873 0.866648
  142 322.034 -3.60431 0.921249
  143 333.591 -3.28853 0.798092
  144 345.832 -2.07421 0.546213
  145 356.037 -1.44963 0.801556
  146 364.048 -0.319212 0.447643
  147 325.403 -30.5670 -2.40933
  148 325.134 -30.1563 2.52561
  149 341.327 49.0624 -16.8811
  150 363.917 21.4592 35.7888
  151 275.623 -26.4974 -60.4872
  152 277.846 -26.4679 58.5301
  153 267.627 -11.3978 7.18075
  154 267.651 -11.5578 -7.18707
  155 386.000 13.8555 -27.4195
  156 324.535 -11.6542 7.37301
  157 324.398 -11.3715 -7.28058
  158 419.522 93.7175 4.42611
  159 332.119 -0.532491 -34.9265
  160 245.612 -19.3845 -27.0742
  161 245.615 -19.2213 26.8323
  162 332.739 -7.52316 31.5462
  163 315.914 23.0335 20.8052
  164 130.331 21.0212 -72.1774
  165 144.581 19.9099 76.0662
  166 407.638 4.59422 3.62079
  167 333.654 -12.7812 -21.9527
  168 441.938 97.0794 -2.11388
  169 300.408 -8.47460 0.0968495
  170 300.343 -8.44723 -0.0700314
  171 337.637 -4.04900 -3.22447
  172 338.718 -3.63257 2.78764
  173 235.636 -3.42130 -4.28559
  174 235.664 -3.38546 4.26254
  175 362.791 -9.65171 76.8588
  176 305.766 12.6657 -22.4058
  177 199.794 -15.0012 -43.5386
  178 200.392 -14.8912 43.2498
  179 224.393 -7.41487 -14.2026
  180 224.412 -7.32897 14.0947
  181 335.292 -8.78599 18.6564
  182 304.651 -20.9329 -0.552752
  183 303.570 -20.7770 1.04528
  184 346.563 -33.5146 -5.57320
  185 348.356 -31.9285 1.25496
  186 479.028 112.703 -16.2716
  187 348.050 55.9328 15.7920
  188 348.721 21.4208 -35.9306
  189 361.557 -3.15454 -89.3906
  190 346.144 -19.5423 -25.1472
  191 349.110 -13.9460 29.5945
  192 290.938 -33.0440 29.5422
  193 291.018 -32.8123 -29.4494
  194 311.040 3.94709 26.9365
  195 142.067 -3.44894 -53.2149
  196 142.421 -3.75450 52.8850
  197 540.505 81.0222 11.6676
  198 327.810 -19.5194 13.7168
  199 340.042 -6.21960 -12.1605
  200 269.250 -6.61529 -3.25367
  201 269.254 -6.58061 3.24279
  202 326.278 -4.23508 -24.3011
  203 371.620 54.5738 -28.7927
  204 310.644 27.8948 -4.17151
  205 201.919 -7.20349 20.0042
  206 201.608 -7.22708 -20.1564
  207 345.195 -3.79717 6.66622
  208 335.949 6.31730 35.9121
  209 272.982 -19.9369 -12.9658
  210 271.119 -18.8785 13.2876
  211 396.217 58.7617 26.4410
  212 466.310 63.6456 10.1308
  213 31.4498 24.6625 -20.0984
  214 29.0785 22.7989 17.0684
  215 191.831 54.8448 127.400
  216 324.512 -21.5596 -10.5568
  217 346.460 -3.64795 -6.02301
  218 307.490 2.68814 -24.8032
  219 215.372 -2.17617 -6.29771
  220 215.441 -2.15149 6.24126
  221 291.913 -13.7204 -2.57933
  222 292.048 -13.8035 2.41285
  223 329.121 -4.42934 20.6847
  224 379.299 -21.9772 8.23478
  225 376.379 77.0226 -8.35944
  226 295.162 -28.5438 -13.8385
  227 373.531 -6.49715 23.0310
  228 318.166 -5.31825 1.20683
  229 318.170 -5.27369 -1.20500
  230 292.976 -28.4072 14.3923
  231 335.798 -21.2910 20.4855
  232 472.624 60.7609 -29.4448
  233 104.525 62.2245 -92.1871
  234 283.928 9.94038 5.34154
  235 337.107 29.7260 30.2452
  236 359.368 -2.51232 -32.0423
  237 335.684 -12.0723 -29.5143
  238 178.484 -5.78329 -25.0709
  239 179.107 -5.69531 24.9884
  240 336.250 -4.04149 -16.0074
  241 320.451 -8.09125 3.89590
  242 320.300 -8.07954 -3.76755
  243 67.1521 6.23347 -33.8731
  244 68.2399 5.46517 33.7612
  245 357.227 -31.2440 -27.3659
  246 353.456 -1.23040 0.924123
  247 353.840 -1.25426 -1.00268
  248 329.183 27.2828 -27.6823
  249 289.620 5.54412 16.2149
  250 606.813 97.1898 65.1984
  251 601.854 68.5207 -40.8307
  252 435.596 94.0368 -0.603731
  253 271.860 -13.0822 80.5279
  254 249.464 -8.47505 -84.2369
  255 286.040 -5.87673 -1.10993
  256 286.013 -5.83814 1.10151
  257 237.257 -6.39928 8.66122
  258 237.257 -6.48822 -8.73978
  259 344.727 -3.69266 9.88980
  260 334.449 -23.8060 -16.8755
  261 216.447 -0.422017 -1.46892
  262 216.495 -0.414868 1.45946
  263 330.242 -13.3509 -13.4230
  264 139.737 -4.58526 -34.7561
  265 140.350 -4.60011 34.5023
  266 334.320 -14.4804 23.6582
  267 255.141 -27.0792 48.6460
  268 255.798 -27.5645 -48.4982
  269 288.119 11.0049 -7.54684
  270 248.613 -3.84337 -2.88563
  271 248.633 -3.81673 2.87406
  272 313.300 -0.789424 19.8901
  273 374.509 68.6182 19.9805
  274 200.310 -2.47226 10.6834
  275 200.155 -2.49323 -10.7763
  276 343.492 -28.6713 11.8745
  277 317.977 -35.6616 -32.4715
  278 354.740 -1.68471 3.10087
  279 246.076 -14.6411 -18.4822
  280 245.645 -14.4763 18.4101
  281 436.998 45.5982 113.073
  282 205.919 -16.6093 58.0926
  283 332.269 46.6756 -1.79216
  284 420.536 46.4343 -17.3684
  285 317.026 -24.5270 4.22177
  286 318.207 -36.6393 29.2392
  287 206.552 -16.3358 -58.7562
  288 38.2247 47.1345 42.7566
  289 330.299 -13.3992 13.6694
  290 433.221 56.6055 13.6013
  291 357.568 -1.50356 -2.68849
  292 323.603 11.3140 -31.8632
  293 319.468 -18.0632 7.40553
  294 312.781 -26.4134 0.655020
  295 322.405 14.7923 30.6943
  296 341.840 -28.6823 -10.6219
  297 484.294 94.2561 -8.18360
  298 319.381 -17.3613 -7.08572
  299 264.189 75.8121 -156.056
  300 326.606 -34.6169 -6.16429
  301 324.289 -35.5597 9.88868
  302 238.086 -21.5781 -38.2398
  303 214.486 -0.836063 -3.19984
  304 214.545 -0.821546 3.17379
  305 238.185 -21.5941 38.0292
  306 345.441 -0.578455 -36.1146
  307 373.005 -15.4418 -15.3276
  308 283.893 -17.1349 -6.80331
  309 283.705 -17.1739 6.93035
  310 339.752 -29.2423 52.0674
  311 339.029 -2.70608 12.1192
  312 412.130 1.90150 18.1897
  313 278.084 -9.84207 -3.72972
  314 278.102 -9.80805 3.70770
  315 253.174 -6.62613 -5.68368
  316 253.174 -6.56332 5.67456
  317 286.609 3.83974 -15.6832
  318 368.306 26.9871 -34.7116
  319 569.566 153.566 -72.8959
  320 335.623 -2.92800 -1.08074
  321 335.429 -2.88844 1.10921
  322 179.627 -0.308572 72.4870
  323 251.901 -11.4734 -12.2013
  324 251.419 -11.4330 12.2320
  325 179.595 -0.724596 -72.2108
  326 351.014 41.4319 -29.4871
  327 393.007 19.4425 26.0704
  328 339.755 -24.2459 -57.8418
  329 312.286 -12.0505 3.26114
  330 311.966 -11.9612 -3.12412
  331 333.365 -6.89043 -6.52131
  332 313.525 -0.597970 -18.6027
  333 351.842 1.51527 35.3806
  334 351.099 -2.44352 -6.82033
  335 210.885 -12.8464 29.1739
  336 210.653 -12.9191 -29.4021
  337 327.220 -0.743600 33.1545
  338 201.486 -1.66437 -6.33367
  339 201.616 -1.64867 6.27481
  340 335.820 -7.70193 10.1607
  341 402.761 82.2923 -14.7718
  342 333.195 -6.94338 6.76427
  343 354.968 44.5845 29.5981
  344 339.724 -6.31563 34.4067
  345 268.908 -5.05388 1.18150
  346 268.911 -5.08569 -1.18979
  347 321.450 -1.15235 -29.4171
  348 425.633 89.4995 9.50130
  349 353.783 64.8897 0.618323
  350 216.772 25.2112 -107.831
  351 22.1833 9.79488 -14.6751
  352 24.3526 10.5961 15.8013
  353 -1.13337 2.47700 6.56215
  354 0.200683 1.37949 -6.84955
  355 621.715 43.1221 14.8311
  356 293.130 -23.8295 -8.05955
  357 336.087 -7.44125 -9.91417
  358 303.185 -5.33338 0.437726
  359 303.150 -5.28994 -0.439513
  360 324.365 35.8282 -14.9897
  361 276.817 -28.2383 24.3030
  362 24.1896 35.9619 -26.4364
  363 277.084 -28.2325 -24.7507
  364 328.622 37.3767 15.9515
  365 335.270 -8.93302 -17.7714
  366 355.688 -19.8423 -21.4479
  367 378.913 80.0607 5.76627
  368 356.513 -22.2556 17.7290
  369 147.218 -3.68749 23.2861
  370 146.330 -3.61640 -23.4384
  371 83.1945 2.04864 -32.2946
  372 84.0856 1.71333 32.1494
  373 291.162 0.950267 15.8654
  374 553.042 161.464 62.6269
  375 346.670 -2.20102 -8.66269
  376 269.721 -22.8229 -18.5988
  377 269.494 -22.7629 18.5733
  378 333.261 -7.68415 -22.5071
  379 379.660 -18.3544 2.85432
  380 293.120 -23.8072 8.30882
  381 416.739 2.97159 -33.9420
  382 235.409 -1.91708 -1.10854
  383 235.443 -1.90043 1.10031
  384 327.740 -1.90741 -14.3671
  385 176.372 -2.56405 -15.1993
  386 176.485 -2.64589 15.0128
  387 391.622 50.0133 -29.3743
  388 211.642 14.9549 100.151
  389 306.610 -16.1040 1.56820
  390 306.912 -16.0752 -1.58296
  391 360.262 60.9755 -18.7406
  392 341.054 -10.1098 -32.6119
  393 342.034 -34.9485 28.3705
  394 285.041 -7.58523 -1.72668
  395 285.007 -7.54774 1.70881
  396 329.100 -25.3948 11.3462
  397 354.467 -1.69200 5.06996
  398 220.847 -8.09463 -17.7864
  399 220.935 -8.09416 17.6329
  400 334.199 11.2133 -35.4205
  401 315.472 -6.84660 1.82263
  402 315.459 -6.86246 -1.78044
  403 326.342 -3.84818 27.0366
  404 304.154 22.1520 7.19156
  405 338.341 -14.2877 28.4747
  406 489.015 102.386 18.2128
  407 163.318 -8.79572 -46.6046
  408 163.776 -8.79851 46.2469
  409 72.9245 39.1252 -55.5143
  410 362.624 -1.06754 1.40472
  411 183.874 -1.57112 -9.61725
  412 184.121 -1.53782 9.53368
  413 333.531 -8.70061 22.0470
  414 302.549 -32.8511 15.9556
  415 341.723 -4.24216 4.61744
  416 348.121 17.6742 36.9342
  417 76.4657 41.6595 57.8968
  418 303.005 -32.6673 -14.6662
  419 313.107 -29.1129 -2.79728
  420 102.034 -2.04845 -29.2788
  421 102.810 -2.12578 29.0751
  422 240.431 -19.2291 -70.0612
  423 359.435 -5.36989 31.2651
  424 239.511 -19.5197 69.4422
  425 332.055 -18.6488 -18.4442
  426 308.438 20.7971 -15.7594
  427 332.112 -14.3499 17.5132
  428 357.439 -1.59978 -3.42332
  429 10.8380 11.5279 5.03205
  430 72.3929 83.4298 82.1284
  431 319.577 -1.17512 13.8550
  432 268.130 3.66674 6.86973
  433 272.794 4.47118 -9.32061
  434 232.745 -3.87051 -6.11050
  435 232.769 -3.82069 6.06992
  436 327.412 -25.3796 -10.3966
  437 330.790 -6.48227 -30.2668
  438 269.576 5.04626 -2.53182
  439 488.878 116.433 23.9428
  440 67.5776 22.4729 -41.5847
  441 74.5088 20.6257 44.4408
  442 306.327 -10.9240 1.45094
  443 306.210 -10.8972 -1.36892
  444 408.386 90.2865 -1.17112
  445 255.325 105.213 159.526
  446 392.975 -5.52632 -5.64080
  447 225.687 -11.8031 -24.1306
  448 225.792 -11.7213 23.9241
  449 227.117 -5.09734 9.52896
  450 227.075 -5.13525 -9.61625
  451 306.631 6.79999 -25.5375
  452 364.492 -0.526996 -0.933523
  453 298.069 13.6667 14.3416
  454 376.781 46.5165 31.8273
  455 313.691 -23.2939 -3.04779
  456 341.590 -4.03718 -4.48606
  457 358.915 -1.44904 3.15322
  458 363.446 -0.563502 0.533582
  459 363.742 -0.635059 -0.392375
  460 200.150 -0.363603 2.34295
  461 200.050 -0.368999 -2.36766
  462 343.153 -21.8102 22.2934
  463 309.579 12.2067 24.7320
  464 323.630 1.30924 -32.3393
  465 337.992 -7.12614 13.2013
  466 487.516 82.0039 -95.1057
  467 338.794 -18.8064 -24.9240
  468 3.25953 6.41535 2.61872
  469 3.23125 6.51865 -0.941995
  470 268.375 -15.2264 10.4707
  471 267.476 -15.0234 -10.3449
  472 421.236 7.79808 51.1494
  473 117.785 107.218 -120.922
  474 334.322 -1.01982 10.7678
  475 379.011 -22.0754 -29.0783
  476 201.874 -11.6465 33.7814
  477 406.114 72.0619 -21.2326
  478 333.922 -18.0820 20.8913
  479 280.321 -13.4159 -5.16422
  480 280.568 -13.1930 5.14908
  481 291.090 1.55324 -14.0101
  482 201.242 -11.6012 -33.9926
  483 298.491 0.131520 14.0862
  484 286.071 -32.7174 -43.4426
  485 285.352 -32.7673 43.5967
  486 344.694 -2.28965 9.56258
  487 313.169 29.5273 2.97277
  488 318.103 5.45781 109.055
  489 467.788 95.2399 -0.597149
  490 323.125 -5.44857 2.11171
  491 323.144 -5.42870 -2.18485
  492 248.449 -4.42567 -3.86768
  493 248.466 -4.38853 3.85290
  494 131.182 6.06174 60.8839
  495 335.408 -16.1626 -24.3936
  496 304.152 -6.62236 0.291972
  497 304.121 -6.59871 -0.285317
  498 264.903 -28.0587 35.5572
  499 133.721 8.00599 -62.4314
  500 335.880 -27.3788 -11.9030
  501 5.78949 1.22973 2.63953
  502 293.575 15.1572 1.04545
  503 324.305 -3.75495 -0.695644
  504 324.297 -3.80675 0.680059
  505 265.066 -28.0110 -35.8345
  506 379.402 -19.5369 37.1894
  507 376.045 13.6526 32.3825
  508 347.071 -2.35719 -2.22642
  509 334.853 -27.7649 12.0722
  510 209.766 -0.204495 -0.418208
  511 209.813 -0.202581 0.414642
  512 334.379 -12.8470 -26.0202
  513 323.856 23.9650 27.0639
  514 371.432 9.17077 -31.9845
  515 208.496 -0.334283 -1.31757
  516 208.552 -0.329657 1.30841
  517 647.961 93.5955 -83.7536
  518 337.017 40.1413 23.8377
  519 347.375 -2.17146 1.98293
  520 313.803 -29.7541 3.55396
  521 263.786 -8.74432 5.77089
  522 263.785 -8.81156 -5.75914
  523 365.232 -22.2530 9.81063
  524 351.005 -7.02050 -32.9624
  525 392.408 77.3412 17.8127
  526 326.453 5.61522 33.5339
  527 329.209 -6.33128 4.13206
  528 319.919 -34.1422 -41.8198
  529 331.844 -8.21905 25.6434
  530 640.417 29.3693 -11.7292
  531 362.553 -27.3436 -0.653064
  532 344.915 -2.28490 -0.528410
  533 344.997 -2.43158 0.464849
  534 647.073 43.4177 41.1152
  535 318.315 -0.106893 28.5203
  536 445.807 74.9164 -7.52056
  537 335.027 -9.11486 -12.8281
  538 151.329 -1.42796 -10.3960
  539 151.802 -1.35931 10.2896
  540 226.810 -21.2436 -48.6876
  541 226.989 -20.8872 48.3246
  542 329.028 -6.06879 -4.09408
  543 358.101 13.1380 -36.0435
  544 314.624 -21.4145 4.25091
  545 338.509 38.8167 -24.7367
  546 340.999 -3.96593 12.8705
  547 427.329 21.3928 -4.81610
  548 291.715 -10.0070 -1.46976
  549 291.625 -9.97149 1.45104
  550 316.853 -14.9579 5.51685
  551 467.019 92.5552 -6.90286
  552 333.835 14.6034 34.8309
  553 142.771 36.7399 90.0244
  554 322.476 -19.3534 72.8901
  555 425.944 20.6398 -80.3300
  556 341.310 28.2205 -32.4156
  557 302.733 -26.1670 -63.1893
  558 327.871 -35.9344 -12.4505
  559 342.413 -34.6727 -18.2845
  560 44.9171 58.2049 -55.1762
  561 344.180 -4.35587 -7.91558
  562 517.627 100.680 -29.3422
  563 318.545 -14.3469 -6.15705
  564 321.181 -10.4519 5.07927
  565 320.882 -10.2130 -4.87369
  566 221.581 -1.28976 -2.90499
  567 221.628 -1.27306 2.88533
  568 31.4670 3.29594 -17.7647
  569 33.2201 3.45496 18.1772
  570 164.953 -7.68655 -35.5590
  571 166.215 -7.72811 35.5025
  572 325.586 -17.6437 -11.6430
  573 331.704 -36.0809 13.4756
  574 340.967 -32.3728 2.17490
  575 279.580 -4.95078 -1.03871
  576 279.564 -4.91504 1.03323
  577 265.222 -27.8137 -54.0903
  578 296.919 -24.3520 66.8602
  579 258.797 -26.1551 54.3981
  580 334.958 -7.44238 -32.5299
  581 209.939 -3.51758 10.7267
  582 209.836 -3.55444 -10.8166
  583 319.395 17.6462 -27.1811
  584 319.807 -0.560328 -12.5740
  585 399.426 86.7608 -8.02638
  586 260.959 -3.96530 -1.02823
  587 260.966 -3.93869 1.02327
  588 340.896 -1.01119 -7.08214
  589 235.433 -7.99248 -11.8732
  590 235.438 -7.96401 11.7693
  591 192.342 8.90643 86.1687
  592 331.784 -15.2647 -17.7049
  593 185.177 -9.78243 61.9039
  594 326.045 -16.8955 11.8933
  595 343.244 -4.84230 8.74105
  596 338.942 -3.10006 -1.97014
  597 238.167 -2.96995 -2.69948
  598 238.197 -2.94541 2.68517
  599 383.113 76.5405 -16.0435
  600 185.045 -9.41112 -62.1381
  601 324.961 -14.0674 -9.51453
  602 293.105 -5.45077 -0.505900
  603 293.074 -5.41027 0.503807
  604 550.250 74.0880 -13.0997
  605 194.440 -1.26184 5.92118
  606 194.271 -1.27419 -5.97702
  607 302.970 6.93748 23.2990
  608 433.071 36.2293 -5.17034
  609 204.961 1.43797 -85.5305
  610 104.885 2.67746 -46.6069
  611 105.759 2.07559 46.3597
  612 257.079 -15.0494 14.7039
  613 259.768 -15.4928 -14.2796
  614 437.813 88.2093 7.92526
  615 337.551 -3.21339 1.78211
  616 289.794 8.13879 -14.0715
  617 361.170 64.9429 14.8238
  618 359.870 67.3947 -9.85730
  619 295.741 -16.4119 -2.40951
  620 297.996 -16.0407 1.35235
  621 212.118 46.2080 -122.954
  622 254.180 -8.73528 -8.16620
  623 254.200 -8.63487 8.13743
  624 644.371 131.888 99.3086
  625 334.535 -10.9612 28.0823
  626 191.058 -6.79632 -22.7825
  627 519.273 120.506 80.4888
  628 191.503 -6.75807 22.6949
  629 319.864 -12.2185 -85.1314
  630 225.650 -1.13036 -1.07109
  631 225.691 -1.12054 1.06555
  632 279.397 2.49944 12.2743
  633 126.933 -1.90311 -20.4546
  634 127.644 -1.90789 20.2930
  635 291.934 -20.6957 6.17180
  636 306.166 -24.5427 -1.68090
  637 360.900 -0.782181 -2.88440
  638 203.447 -0.335719 1.72851
  639 203.370 -0.341661 -1.74669
  640 275.396 -6.22754 -1.57259
  641 275.385 -6.19211 1.56044
  642 316.052 -35.0637 42.2652
  643 363.118 40.5503 -32.6395
  644 241.575 -11.3200 -15.3055
  645 241.401 -11.1286 15.1940
  646 286.536 -20.6553 -8.62582
  647 451.345 98.3003 2.69349
  648 338.950 -32.7938 -0.304219
  649 294.223 -7.05300 -0.694066
  650 294.178 -7.01772 0.694584
  651 404.763 44.2821 24.7241
  652 339.602 -4.89562 -13.9895
  653 300.222 -0.372649 -11.4726
  654 138.931 -4.74314 -44.7053
  655 139.361 -4.87721 44.3384
  656 285.788 -24.7002 -13.9093
  657 428.618 94.5103 0.189578
  658 332.370 45.0152 -10.7369
  659 220.453 -2.03251 -5.34990
  660 220.504 -2.00415 5.30655
  661 310.078 -8.76650 -1.48505
  662 310.139 -8.77668 1.55165
  663 577.696 75.4415 33.2305
  664 366.426 -0.986814 0.778266
  665 354.054 -1.39506 4.96185
  666 352.666 -1.42238 -5.81526
  667 334.802 -31.1663 5.18202
  668 246.353 -2.89156 -1.34901
  669 246.376 -2.87070 1.34285
  670 357.657 57.3540 22.8238
  671 458.961 102.027 -5.93372
  672 251.104 -18.7204 -21.6848
  673 251.030 -18.5355 21.5745
  674 314.157 -32.3823 -6.56306
  675 331.361 19.6934 -32.7841
  676 393.467 1.01552 14.0438
  677 261.098 -4.88353 -2.67785
  678 261.105 -4.85169 2.66661
  679 225.852 -19.8321 -43.9619
  680 331.632 -32.0734 -2.11341
  681 275.603 -30.5695 39.1723
  682 131.831 41.6537 -86.8606
  683 257.332 -23.8810 30.2150
  684 310.380 0.0836815 10.5988
  685 226.060 -19.6066 43.6652
  686 324.771 -14.3408 9.63198
  687 257.419 -23.7815 -30.4926
  688 263.631 3.42691 2.57517
  689 203.868 -5.51798 16.1961
  690 203.685 -5.52423 -16.3111
  691 275.756 -31.3624 -39.6094
  692 340.872 -22.4553 -21.5520
  693 312.604 -4.38187 -0.387668
  694 312.653 -4.42776 0.389479
  695 348.378 -22.1894 21.3418
  696 316.578 -33.0901 7.82236
  697 384.671 35.2841 31.5500
  698 347.050 -6.50231 33.9643
  699 333.949 -11.9808 20.6776
  700 319.018 26.2258 -20.6184
  701 383.739 64.5627 24.9632
  702 331.268 -4.58190 -20.0814
  703 330.155 -10.9391 10.6217
  704 341.286 53.4563 5.80325
  705 335.885 -5.69324 17.4821
  706 105.796 71.9385 91.0539
  707 312.616 -35.9563 -24.3861
  708 361.967 6.58023 34.5211
  709 365.456 -11.3077 -24.5275
  710 364.700 -0.480741 1.59399
  711 333.722 -11.4603 -16.2749
  712 313.068 -36.2394 22.1517
  713 605.837 53.6492 -8.98343
  714 186.495 -0.808714 6.19723
  715 186.271 -0.817626 -6.25618
  716 338.504 -6.14214 -7.58062
  717 366.874 -0.365686 -1.55410
  718 285.263 -25.0993 13.9831
  719 342.617 -12.7464 30.8374
  720 520.438 124.255 -38.3583
  721 324.745 -23.5424 9.82264
  722 360.052 -23.7049 -12.5838
  723 330.277 -10.6453 -10.4518
  724 366.725 -0.631425 -0.503455
  725 334.425 -0.0316255 35.3514
  726 15.4208 14.1803 19.3801
  727 377.364 -14.5130 -55.3813
  728 410.604 24.3363 15.4546
  729 342.046 -34.9449 16.3103
  730 243.783 -5.89153 6.68995
  731 243.783 -5.97398 -6.72281
  732 318.895 161.587 -167.558
  733 348.531 -23.0506 -19.7178
  734 262.598 1.36888 -4.92276
  735 306.176 1.69000 22.7165
  736 336.210 -16.8196 24.7962
  737 322.261 -27.1577 4.88727
  738 335.101 -30.5463 -45.4178
  739 320.280 -25.3435 -5.48162
  740 378.397 -18.1229 -4.15079
  741 348.487 -2.83854 4.42764
  742 311.016 -18.6955 2.87145
  743 564.891 112.930 -60.1946
  744 331.748 -8.86647 8.42345
  745 328.200 5.36894 -34.4356
  746 280.246 -3.14248 95.7377
  747 351.608 28.3148 35.1469
  748 302.447 -23.8348 3.25248
  749 233.516 -18.4372 -32.1213
  750 233.537 -18.3858 31.8586
  751 321.521 36.1540 -4.80349
  752 327.098 -3.78520 30.7302
  753 330.662 -7.86806 -26.2007
  754 311.370 -19.0777 -2.97140
  755 301.041 -27.0040 7.79082
  756 343.914 56.7669 -6.55315
  757 321.864 -27.8573 -3.61793
  758 322.660 -20.4237 9.55835
  759 326.953 -4.18732 1.47751
  760 327.155 -4.07360 -1.46736
  761 439.848 96.6110 2.19832
  762 359.720 -30.5904 -10.7861
  763 334.738 -10.2400 16.2075
  764 348.618 -2.82971 -4.02926
  765 352.240 2.33984 -35.7194
  766 401.031 21.0791 -20.8992
  767 196.515 -0.194568 -2.89340
  768 196.644 -0.191736 2.86409
  769 2.83637 -6.09045 -4.30552
  770 341.725 -0.397121 6.55772
  771 313.188 -0.515175 -25.1250
  772 323.547 -3.02932 22.1452
  773 295.321 36.5799 140.446
  774 368.276 75.7595 -0.793807
  775 261.849 -18.7874 16.9061
  776 45.7784 1.03197 -17.5531
  777 47.1096 0.759944 17.7407
  778 320.663 -2.28471 -24.9849
  779 262.561 -18.9752 -16.9020
  780 346.562 -3.11337 3.36221
  781 177.069 -7.58694 30.3485
  782 175.550 -7.56054 -30.3631
  783 331.728 -8.60842 -8.20433
  784 211.749 -5.37904 -14.0969
  785 211.855 -5.34347 13.9712
  786 345.484 -3.24990 -9.66923
  787 263.687 -7.07512 -4.61092
  788 263.695 -7.02855 4.61250
  789 377.227 -2.39387 -24.5609
  790 339.454 -3.55586 -35.4659
  791 172.513 -1.11282 -7.90124
  792 172.849 -1.10246 7.80918
  793 8.48657 4.33130 -10.6446
  794 10.0175 4.56949 11.1995
  795 275.086 1.31774 -8.91662
  796 310.036 -34.8366 -18.1606
  797 -3.56627 -2.46658 6.15538
  798 -3.12754 -2.91300 -6.11798
  799 322.695 -6.46138 3.16791
  800 349.933 -27.3038 -11.1723
  801 361.286 53.5537 -26.6317
  802 348.054 -2.79832 -3.19531
  803 743.231 149.800 -139.608
  804 322.627 -6.44034 -3.12658
  805 485.587 92.6014 7.51948
  806 345.287 10.0500 -36.9863
  807 381.423 28.7776 -32.3006
  808 63.9425 -0.752747 -16.2201
  809 65.1263 -0.847644 16.1907
  810 215.267 -3.13066 8.35097
  811 215.190 -3.15690 -8.42579
  812 205.479 -0.493126 1.56262
  813 205.416 -0.498275 -1.57528
  814 385.681 64.9507 -24.7460
  815 227.933 -1.44000 -2.30688
  816 227.973 -1.42342 2.29383
  817 328.107 -3.30404 -32.0772
  818 473.490 48.4885 40.7154
  819 295.256 6.58914 -19.5927
  820 102.139 -0.919949 17.3826
  821 101.271 -0.928440 -17.5201
  822 381.700 10.3559 100.777
  823 338.161 -6.19273 7.82410
  824 302.299 20.0540 -8.16220
  825 139.635 -0.227027 11.8511
  826 138.918 -0.161975 -11.9390
  827 209.864 -1.08462 -4.09172
  828 209.940 -1.06904 4.05369
  829 37.6069 33.4932 28.8723
  830 315.232 7.51090 29.1200
  831 350.808 51.5613 -22.8343
  832 377.493 43.8277 -32.1236
  833 247.980 -9.41092 -10.7157
  834 247.836 -9.34007 10.7008
  835 390.978 83.2508 11.2316
  836 337.522 -2.79366 -0.420368
  837 337.542 -2.77267 0.477210
  838 334.005 -10.0072 -20.8598
  839 279.737 -18.6708 9.81785
  840 308.137 -34.6280 18.2522
  841 362.122 -29.6722 28.4242
  842 277.257 -8.06531 -2.70843
  843 277.253 -8.03456 2.68988
  844 317.141 29.3900 13.2421
  845 297.985 4.06480 -21.1607
  846 82.8329 97.9290 94.7796
  847 301.983 -26.7842 -7.04758
  848 302.986 -13.5459 0.646419
  849 303.149 -13.5730 -0.662969
  850 333.323 -4.90861 33.7174
  851 330.542 -21.7169 -15.4215
  852 295.175 -19.5652 -3.88313
  853 672.678 21.7808 -33.2947
  854 280.600 -26.5768 19.2015
  855 280.377 -26.9226 -19.5128
  856 332.975 -3.97598 17.0808
  857 501.094 129.436 -28.9305
  858 263.288 -23.9558 -24.0115
  859 290.895 -32.7687 22.8020
  860 263.217 -23.6667 23.7986
  861 285.438 -11.5087 -3.10533
  862 285.430 -11.4694 3.08266
  863 42.2846 17.9966 25.0975
  864 357.871 26.7406 -35.5677
  865 273.912 -10.7156 -4.99556
  866 273.962 -10.6071 5.01359
  867 270.510 -4.49370 -0.603829
  868 270.505 -4.46251 0.599774
  869 297.547 -5.91849 -0.0612274
  870 297.511 -5.87928 0.0591941
  871 241.822 -4.76656 -5.78837
  872 241.841 -4.71296 5.76382
  873 274.950 -14.4968 -7.55795
  874 274.985 -14.3972 7.59078
  875 6.65052 -2.38279 -3.19293
  876 414.560 77.7791 18.3531
  877 356.656 -12.5071 -28.4116
  878 290.656 -32.2939 -23.0445
  879 313.970 -10.1111 2.92419
  880 313.831 -10.0065 -2.83705
  881 342.351 0.427922 36.2338
  882 372.137 -26.5501 -15.7184
  883 329.310 23.4282 -121.845
  884 149.877 -2.43164 60.1914
  885 -5.55394 3.49567 -4.11478
  886 -4.81752 3.94541 4.55700
  887 42.0051 19.1399 -25.6222
  888 334.594 -9.60557 12.7513
  889 352.037 -2.29044 -5.36888
  890 316.592 -30.4523 52.1729
  891 149.520 -2.27301 -60.4319
  892 352.809 -28.8756 7.78059
  893 392.771 -11.5875 45.3999
  894 285.110 1.15007 9.45173
  895 326.863 31.0910 22.5489
  896 176.913 -9.98163 44.2782
  897 176.227 -10.0623 -44.5731
  898 212.228 -10.1371 -24.8308
  899 222.900 -10.9157 -76.7607
  900 352.963 -8.25550 31.9565
  901 484.739 113.924 17.6462
  902 354.389 13.6282 36.2706
  903 334.983 -7.13902 -19.0351
  904 227.592 -9.77979 78.6691
  905 426.971 78.7090 -13.4183
  906 42.3902 36.0651 -35.5896
  907 309.523 -0.622818 -10.1100
  908 212.451 -10.0533 24.6091
  909 259.045 -5.73474 4.06507
  910 259.038 -5.77437 -4.07427
  911 331.024 -21.6011 15.9294
  912 343.700 -2.17356 1.27897
  913 252.812 2.32859 -95.4037
  914 362.363 -0.794131 2.54073
  915 359.667 -0.651758 -3.24890
  916 268.829 2.32808 -8.20084
  917 347.634 -1.41224 -5.81101
  918 259.891 -12.1944 -9.88895
  919 260.065 -12.0112 9.91903
  920 -8.53454 3.17602 -4.90929
  921 -11.7791 1.91548 5.19860
  922 343.691 -2.01786 -1.29899
  923 113.765 -2.57508 40.6176
  924 113.080 -2.33069 -40.8498
  925 367.208 53.5790 28.1089
  926 656.926 11.8666 10.3000
  927 345.648 38.4471 29.5715
  928 391.471 -13.7846 12.8413
  929 340.293 -18.9399 24.9773
  930 423.676 88.7955 -10.2198
  931 263.075 1.11509 6.18192
  932 327.415 -7.68737 -5.07223
  933 340.193 18.2919 -35.7848
  934 411.010 12.1543 -6.69836
  935 319.161 -19.7105 -7.48871
  936 163.009 -0.916939 -8.84471
  937 163.179 -0.884494 8.71932
  938 336.777 -7.89777 -14.8929
  939 11.2364 14.2546 2.94691
  940 323.275 -33.5131 -3.36577
  941 280.107 8.27658 -0.845729
  942 420.785 92.5002 -6.78514
  943 66.5628 49.5149 -59.0398
  944 323.568 -2.40899 -19.8434
  945 224.228 -3.77225 -7.80232
  946 224.271 -3.72771 7.73605
  947 1.94606 -9.21233 7.01075
  948 219.786 -16.3927 -35.6320
  949 329.311 -19.0294 -14.9713
  950 204.762 0.439710 -0.647737
  951 204.813 0.441820 0.643308
  952 332.575 40.3612 -18.0564
  953 356.628 -1.04527 -0.513333
  954 356.638 -1.05982 0.673600
  955 219.884 -16.3473 35.3896
  956 333.304 -0.454670 -7.83892
  957 383.445 2.76540 23.6590
  958 340.178 -4.78376 6.04192
  959 54.3635 13.8107 -31.6980
  960 352.752 -2.12448 4.86438
  961 320.014 2.57468 31.1704
  962 337.499 46.7564 16.0622
  963 337.684 3.91297 -36.6010
  964 232.603 -12.5087 -21.3139
  965 364.425 -12.9108 23.6652
  966 232.755 -12.4599 21.0980
  967 10.7149 11.6722 -1.04876
  968 39.9219 6.87683 23.2284
  969 189.798 -3.37749 14.6370
  970 189.565 -3.38052 -14.7207
  971 327.646 -7.83418 5.34624
  972 352.287 61.2902 8.88390
  973 179.327 16.4357 -90.3384
  974 294.619 -18.4112 3.38222
  975 276.543 -28.9319 -28.8935
  976 403.115 77.2626 19.1469
  977 310.120 -5.46848 0.443277
  978 310.107 -5.43815 -0.445389
  979 339.799 -6.26853 -10.6839
  980 314.177 27.1193 -12.2156
  981 710.296 210.818 142.203
  982 65.4899 3.69579 -30.5656
  983 66.5188 3.07166 30.6341
  984 4.86987 -6.16440 1.65262
  985 315.127 17.4566 25.0740
  986 276.466 -29.1071 28.6794
  987 342.648 -16.1843 -28.4395
  988 372.802 30.4684 35.0416
  989 358.322 -28.9352 -34.9220
  990 523.335 110.134 36.5168
  991 304.448 -4.92088 -0.141913
  992 304.408 -4.87968 0.142167
  993 356.335 -14.5272 26.9324
  994 24.6442 40.9258 42.5918
  995 160.301 -3.38465 20.9633
  996 159.798 -3.34133 -21.1891
  997 191.449 -9.40173 28.6592
  998 190.789 -9.25858 -28.7681
  999 215.661 -8.92959 20.5872
  1000 235.768 -1.89197 -1.04449
  1001 235.802 -1.87782 1.04016
  1002 587.886 187.441 -119.565
  1003 532.900 133.539 54.9186
  1004 215.486 -8.97559 -20.7615
  1005 367.031 -1.69195 29.7190
  1006 328.419 34.0787 -21.7100
  1007 232.036 -19.9524 63.6442
  1008 298.059 -35.2120 -34.2801
  1009 340.656 -2.78931 -11.4747
  1010 153.651 10.5676 73.5370
  1011 197.182 -15.0668 50.8560
  1012 301.182 15.4325 -15.7066
  1013 344.476 -6.82220 -34.3549
  1014 438.651 179.145 191.201
  1015 284.474 8.69814 11.1845
  1016 387.145 83.4449 -1.35426
  1017 284.441 11.1687 -108.408
  1018 289.335 -30.4675 -19.6679
  1019 367.182 -0.387012 -1.26757
  1020 352.405 32.3698 -34.2328
  1021 206.440 -1.34784 5.26114
  1022 206.343 -1.36156 -5.31102
  1023 7.56704 4.00995 -10.9146
  1024 232.778 -10.6677 -17.7694
  1025 196.942 -15.2613 -51.2413
  1026 232.600 -10.6435 17.5725
  1027 336.735 -10.2474 31.7713
  1028 302.106 -18.6828 -0.667078
  1029 317.335 5.83152 -30.1991
  1030 326.526 40.7885 6.33794
  1031 442.658 26.7764 16.0299
  1032 333.581 -25.3378 15.1603
  1033 210.895 -16.8870 -38.9885
  1034 314.644 11.1283 -28.2696
  1035 234.053 -19.6854 -63.9814
  1036 449.418 97.5646 -1.80733
  1037 305.835 20.0731 14.2890
  1038 386.371 -2.27546 -18.0973
  1039 291.134 -30.4798 18.0988
  1040 333.621 -10.5661 24.5517
  1041 331.448 -17.4898 17.6192
  1042 329.628 -16.5691 15.2575
  1043 407.003 51.6951 -25.4144
  1044 329.213 -5.30438 24.9475
  1045 297.572 -35.3105 33.7213
  1046 317.633 -12.9776 4.99870
  1047 211.027 -16.9188 38.7695
  1048 298.255 -21.9938 -4.13670
  1049 173.382 -8.41934 -54.3892
  1050 247.350 -25.6915 43.1636
  1051 335.279 -2.26807 -13.3280
  1052 326.571 -3.68361 -28.3649
  1053 282.890 -22.4038 -12.0061
  1054 173.681 -8.66334 53.9613
  1055 304.564 0.735488 -19.7443
  1056 226.601 -15.0724 -27.6008
  1057 410.408 87.4000 12.0617
  1058 91.5361 15.1896 -51.6806
  1059 701.145 49.5440 67.5071
  1060 164.526 12.2863 -76.9909
  1061 329.554 -27.2982 -9.26754
  1062 226.662 -14.9431 27.3740
  1063 301.324 3.18237 22.0830
  1064 168.980 -3.44179 17.3547
  1065 168.891 -3.52699 -17.5318
  1066 333.624 -9.27820 -29.4516
  1067 354.824 -1.76799 1.98025
  1068 347.901 -0.775198 5.87152
  1069 344.100 11.4219 36.9041
  1070 321.906 -2.42329 26.6502
  1071 249.606 26.5966 117.253
  1072 369.534 -0.275360 0.611546
  1073 346.412 46.9542 23.5377
  1074 293.221 4.24078 19.0266
  1075 352.316 -1.33439 5.63768
  1076 226.360 -2.45235 -4.36403
  1077 226.400 -2.42434 4.33536
  1078 144.063 -4.09743 -28.9429
  1079 144.633 -4.24486 28.7440
  1080 294.157 14.6616 7.98550
  1081 444.117 23.8149 -32.5034
  1082 408.076 -0.471590 -61.6999
  1083 325.249 -0.286748 -8.13225
  1084 247.443 -25.8839 -43.4910
  1085 283.485 -21.3081 10.7313
  1086 327.134 -0.747461 8.48673
  1087 342.549 -24.8467 -17.8787
  1088 213.608 -0.500560 2.60395
  1089 213.554 -0.509367 -2.62035
  1090 328.925 -28.0798 9.26181
  1091 312.625 -6.38294 0.945116
  1092 312.572 -6.38909 -0.924740
  1093 304.192 -30.6493 11.4318
  1094 392.134 -12.6739 -4.22535
  1095 177.154 -0.318594 -4.92142
  1096 177.445 -0.307488 4.86894
  1097 267.058 -16.8730 -73.3052
  1098 283.986 -6.78457 1.46293
  1099 284.013 -6.82278 -1.47620
  1100 171.875 92.3080 128.833
  1101 393.775 32.2879 -28.7136
  1102 57.9504 28.2665 -39.0585
  1103 340.374 -5.04824 -5.83804
  1104 90.8619 31.2136 -59.2666
  1105 189.072 -11.9199 -37.0221
  1106 369.642 -0.393033 0.381629
  1107 369.787 -0.367988 -0.281134
  1108 334.778 -19.1039 -21.3848
  1109 296.457 -33.2650 -47.1118
  1110 91.5915 12.9303 49.2466
  1111 364.191 36.0525 33.3017
  1112 330.604 -3.31255 -0.516837
  1113 330.641 -3.31526 0.548224
  1114 361.202 -23.2641 57.1086
  1115 372.961 74.7343 12.8152
  1116 221.242 -5.36235 -11.1679
  1117 221.297 -5.33682 11.0876
  1118 168.134 19.2498 91.1844
  1119 316.557 1.60339 -29.2255
  1120 99.2317 32.0184 63.7265
  1121 406.891 -6.98907 -19.1269
  1122 399.572 88.3991 3.88126
  1123 274.728 -21.7716 14.6246
  1124 253.252 1.33491 -1.20518
  1125 348.883 -3.04629 7.21485
  1126 361.244 -0.445837 2.81370
  1127 78.7915 0.145468 -14.5651
  1128 79.8787 0.107017 14.4655
  1129 284.048 4.73163 -14.0928
  1130 292.973 -8.62039 -1.02708
  1131 292.906 -8.57938 1.02098
  1132 30.7925 48.2517 -45.3172
  1133 48.9799 105.796 -90.7825
  1134 296.725 -11.5960 0.766154
  1135 296.841 -11.5958 -0.782552
  1136 306.623 -7.38193 1.00115
  1137 306.579 -7.36596 -0.975026
  1138 80.3640 51.3506 64.1100
  1139 241.748 -3.01303 -2.09776
  1140 241.776 -2.99103 2.08754
  1141 304.218 22.9794 -0.332463
  1142 388.492 48.8567 -135.380
  1143 371.298 64.0530 -21.9591
  1144 338.802 -13.0009 -30.0343
  1145 333.745 -16.6343 -21.7005
  1146 274.896 -21.9756 -14.8697
  1147 276.327 0.895564 8.69978
  1148 311.091 19.3803 -20.9589
  1149 306.733 16.4804 20.0185
  1150 317.424 -12.5993 -4.90670
  1151 302.881 -18.3064 0.442348
  1152 275.281 -17.8293 -10.9771
  1153 327.834 -1.92364 15.8133
  1154 579.815 58.5485 8.16936
  1155 330.074 -7.03268 28.8078
  1156 331.141 21.7395 31.5021
  1157 305.618 -30.0922 -8.54878
  1158 37.7980 6.32154 -22.4008
  1159 311.348 -14.4006 -3.48200
  1160 206.245 -0.333055 -0.127948
  1161 206.291 -0.331682 0.126481
  1162 379.483 -10.0676 15.4613
  1163 361.634 -30.4429 12.9700
  1164 519.539 93.1038 22.7427
  1165 123.577 -0.261653 -12.1422
  1166 124.326 -0.234789 12.0499
  1167 277.859 -5.63811 -1.21902
  1168 277.844 -5.60234 1.20979
  1169 312.331 -27.5656 -0.799185
  1170 255.531 1.14524 3.94523
  1171 319.874 -22.7758 7.12369
  1172 18.0099 21.4062 -10.3214
  1173 57.3596 28.6528 38.1979
  1174 213.924 -11.5983 70.8600
  1175 369.844 70.5182 -15.6759
  1176 353.612 -0.972629 -4.45227
  1177 371.217 -0.587152 0.258751
  1178 371.582 -0.803629 -0.164880
  1179 214.738 -0.527810 -0.425886
  1180 214.784 -0.523679 0.422583
  1181 340.843 21.7932 35.7642
  1182 504.690 86.3377 -1.83238
  1183 351.117 58.0955 -15.9410
  1184 262.668 -19.2844 72.8346
  1185 212.785 -11.1447 -70.7262
  1186 236.398 -15.8807 -24.7382
  1187 327.825 -9.13696 6.82006
  1188 457.658 100.763 3.59940
  1189 236.416 -15.7849 24.5414
  1190 335.022 -5.81929 5.16183
  1191 298.659 11.0736 19.1011
  1192 329.400 10.1969 34.3552
  1193 469.637 104.931 11.0613
  1194 278.393 -7.28669 2.27798
  1195 278.409 -7.32268 -2.29474
  1196 339.358 -6.34139 11.0951
  1197 200.585 -2.17169 8.24655
  1198 200.443 -2.19384 -8.32251
  1199 331.971 -4.48225 -2.31518
  1200 136.544 81.2794 -124.539
  1201 287.454 -16.1839 -77.9838
  1202 270.729 -8.52063 -4.27015
  1203 270.755 -8.48106 4.27149
  1204 356.303 -1.64713 1.78650
  1205 337.034 -4.37625 4.12845
  1206 18.3375 22.9514 16.8131
  1207 366.888 -0.400189 1.47853
  1208 43.4785 54.9469 54.5195
  1209 329.134 -4.88264 -2.97440
  1210 -0.425234 -8.08501 -7.07998
  1211 232.497 -22.6826 -54.8458
  1212 231.848 -22.1304 54.2935
  1213 366.877 -0.636035 -1.63330
  1214 313.333 -16.5291 -4.14706
  1215 356.039 -1.49893 -1.83431
  1216 284.555 -9.22722 -2.14307
  1217 284.525 -9.19219 2.11758
  1218 331.757 -4.44972 2.17650
  1219 311.124 -14.1194 3.44557
  1220 299.291 -9.62990 -0.0532048
  1221 299.399 -9.65740 0.0899820
  1222 355.744 -1.54530 -1.49883
  1223 306.867 -32.2831 -53.1424
  1224 348.010 -2.10933 -1.53570
  1225 330.549 -5.02066 3.19377
  1226 230.034 -2.55622 -3.22761
  1227 230.072 -2.53105 3.20810
  1228 257.182 -3.80942 -1.63871
  1229 257.194 -3.78269 1.63018
  1230 417.421 65.0578 21.3364
  1231 350.732 -26.9313 13.3188
  1232 240.414 -1.09567 90.0492
  1233 191.973 -0.335458 3.16549
  1234 191.810 -0.339019 -3.19764
  1235 332.161 -6.12286 21.6586
  1236 317.992 -4.78654 0.641895
  1237 318.007 -4.76989 -0.641495
  1238 363.890 70.9082 7.32086
  1239 333.561 -34.9076 42.0134
  1240 192.418 -2.74969 11.5851
  1241 192.226 -2.77073 -11.6717
  1242 317.502 -7.72644 2.56836
  1243 317.431 -7.77930 -2.49479
  1244 327.649 -9.02355 -6.57361
  1245 300.684 0.0569031 10.2234
  1246 520.831 129.406 -42.8094
  1247 333.677 -12.1902 -19.1730
  1248 56.9110 13.6309 32.6019
  1249 344.737 -18.3569 26.5229
  1250 276.306 6.01494 -7.70820
  1251 20.9842 15.5348 11.7063
  1252 454.684 50.4487 -3.73957
  1253 336.636 -15.2977 -26.7895
  1254 277.640 3.92651 11.8054
  1255 190.408 -11.9391 36.9549
  1256 342.055 -26.4631 15.9636
  1257 497.159 94.6203 29.4390
  1258 114.599 16.9939 62.7176
  1259 343.804 -4.05266 -9.55323
  1260 662.340 7.38547 -6.68141
  1261 684.533 10.3012 29.8142
  1262 731.208 24.9557 -70.8037
  1263 333.219 -10.3850 -23.8445
  1264 333.262 -15.1932 20.3268
  1265 338.628 -24.0875 18.9824
  1266 -9.96932 1.12639 6.33813
  1267 -9.07895 0.894293 -6.89164
  1268 329.656 -36.4127 -19.4509
  1269 337.788 -34.1305 -29.2921
  1270 257.395 1.62646 -4.87320
  1271 328.307 -37.0725 29.2610
  1272 350.692 -16.6204 -26.9231
  1273 6.75878 10.3959 1.06374
  1274 284.804 -5.20903 0.883525
  1275 284.826 -5.24691 -0.885868
  1276 348.667 -2.75926 6.51070
  1277 335.004 -5.71443 -4.85245
  1278 315.373 -34.4347 -10.2099
  1279 287.877 -15.6106 4.54795
  1280 286.417 -15.3932 -4.97147
  1281 338.070 -7.11909 15.2097
  1282 346.432 -12.7159 -30.9274
  1283 21.7801 16.1973 -11.3191
</Section>

newXOutput 46

<Section columns = "stress_xx | stress_yy | stress_xy">
  1 381.596 -0.0669232 0.748507
  2 381.611 -0.0610330 -0.750827
  3 207.460 -0.0794161 -0.270970
  4 -2.63037 -2.60481 -3.78108
  5 688.552 272.003 219.219
  6 682.113 281.981 -219.183
  7 -3.05400 -2.47830 4.01890
  8 207.414 -0.0802027 0.270210
  9 384.296 -0.632672 0.229685
  10 383.479 -1.00318 -0.187145
  11 382.589 -0.663138 0.866335
  12 381.696 -0.918989 0.248397
  13 379.778 -0.771427 1.36515
  14 378.038 -0.781118 0.999613
  15 373.944 -0.691269 1.95846
  16 368.103 -0.472034 2.88463
  17 362.892 -0.506722 3.20955
  18 355.171 -0.717007 3.87855
  19 344.473 -0.0475572 5.73168
  20 334.589 -0.529009 5.44636
  21 323.347 -0.692334 7.67104
  22 307.108 0.490873 6.67254
  23 295.361 0.735855 7.88665
  24 280.039 1.24325 6.16976
  25 269.441 1.29609 6.21946
  26 254.086 1.82369 3.17054
  27 250.853 2.87290 3.39792
  28 248.909 2.34974 -1.00301
  29 251.572 1.35209 -2.20708
  30 256.471 1.32050 -2.70602
  31 267.972 1.67112 -5.40306
  32 279.142 1.31954 -6.83801
  33 295.541 0.285132 -8.10978
  34 308.664 -0.171256 -7.38869
  35 322.657 -0.551526 -7.26087
  36 335.330 -0.412472 -5.12713
  37 346.224 -0.429902 -4.38599
  38 355.210 -0.700484 -3.68184
  39 363.258 -0.498453 -2.56720
  40 368.285 -0.590275 -2.72495
  41 373.142 -0.730659 -1.99216
  42 377.735 -0.867890 -0.872581
  43 380.091 -0.697459 -1.02643
  44 381.332 -0.425031 -0.640583
  45 380.420 -0.228438 -0.584227
  46 383.872 -1.01246 0.124227
  47 384.415 -0.659297 -0.236917
  48 371.804 -0.275059 -0.463002
  49 363.448 -1.53063 -0.836311
  50 353.244 -2.25434 -0.543250
  51 340.801 -3.34883 -0.745086
  52 329.008 -3.66834 -0.922592
  53 316.421 -4.59984 -0.877568
  54 305.280 -5.12116 -0.483157
  55 295.510 -5.73599 -0.175365
  56 284.237 -4.76233 -0.170675
  57 271.246 -4.45434 -0.286163
  58 258.722 -3.51949 -0.0792974
  59 246.855 -2.24830 -0.0233325
  60 235.574 -1.60459 0.0265363
  61 225.674 -0.825824 0.110748
  62 215.546 -0.224163 -0.310447
  63 207.581 0.290220 0.391104
  64 204.013 0.818310 0.263187
  65 206.452 0.00584636 0.622721
  66 203.740 -0.112985 0.750507
  67 201.229 -0.167507 0.936048
  68 197.818 -0.0221295 1.22108
  69 193.516 -0.0125003 1.53895
  70 190.339 -0.256877 2.96895
  71 181.228 0.265761 3.24253
  72 174.819 -0.0196137 3.71416
  73 165.274 -0.168803 4.21262
  74 154.277 -0.284004 5.12842
  75 140.533 -0.0653667 6.22686
  76 123.778 0.0770710 6.86197
  77 109.327 -0.153092 9.80311
  78 80.7422 0.913394 9.24296
  79 61.2938 0.788043 9.78862
  80 38.0112 -0.168437 10.8446
  81 18.7002 1.81119 11.2603
  82 -3.27243 2.70070 6.73004
  83 -19.2182 2.74194 2.35114
  84 -18.6298 2.63651 -1.03495
  85 -17.7029 2.18736 -5.34036
  86 -10.4038 -0.713892 -5.06280
  87 -1.28229 -9.98776 -5.58317
  88 0.970416 -18.4158 -6.99554
  89 2.71766 -29.1365 -3.90715
  90 6.04821 -29.8512 0.255125
  91 12.8165 -7.36833 16.8279
  92 38.3225 58.3237 57.4558
  93 225.921 209.831 195.835
  94 833.035 124.261 139.680
  95 750.046 17.8111 45.5543
  96 696.869 7.36504 13.9403
  97 677.226 6.24315 1.08642
  98 687.591 8.32418 -12.0572
  99 748.265 16.5603 -36.0380
  100 883.372 59.9512 -120.500
  101 134.017 214.309 -163.654
  102 28.7056 40.7967 -47.4850
  103 13.9850 -5.96321 -17.6931
  104 5.65312 -29.9127 -2.95381
  105 1.57749 -22.2112 4.49775
  106 2.00354 -23.2037 6.07344
  107 0.0890730 -8.64078 6.18192
  108 -10.8580 -0.468798 4.80619
  109 -18.2667 1.64168 4.66347
  110 -19.6150 3.20628 1.14191
  111 -19.8425 2.70114 -2.17200
  112 -4.65298 2.76794 -6.30013
  113 17.4777 1.82713 -10.7330
  114 36.7626 0.0232877 -10.6662
  115 60.0073 0.852167 -9.81026
  116 79.5734 0.937680 -9.31501
  117 108.420 -0.157141 -9.88733
  118 123.000 0.0860645 -6.92986
  119 139.855 -0.0625828 -6.30643
  120 153.928 -0.314208 -5.16796
  121 164.807 -0.160667 -4.22438
  122 174.465 -0.00779915 -3.75360
  123 180.939 0.262422 -3.27913
  124 190.132 -0.259360 -3.00000
  125 193.350 -0.0141109 -1.55806
  126 197.693 -0.0236560 -1.23681
  127 201.135 -0.170026 -0.948539
  128 203.668 -0.115141 -0.759242
  129 206.393 0.00397959 -0.628315
  130 203.962 0.817281 -0.265798
  131 207.533 0.289721 -0.392730
  132 215.499 -0.226309 0.309553
  133 225.629 -0.831191 -0.112774
  134 235.534 -1.61643 -0.0289126
  135 246.825 -2.26477 0.0210372
  136 258.705 -3.54321 0.0770448
  137 271.243 -4.48425 0.284405
  138 284.251 -4.79687 0.168940
  139 295.536 -5.77452 0.174635
  140 305.316 -5.15952 0.484465
  141 316.470 -4.63474 0.881478
  142 329.049 -3.69252 0.936658
  143 340.831 -3.37044 0.812313
  144 353.306 -2.12944 0.555480
  145 363.706 -1.48946 0.817956
  146 371.865 -0.332619 0.456092
  147 332.500 -31.2347 -2.37830
  148 332.224 -30.8148 2.49702
  149 348.844 50.1371 -17.2079
  150 371.857 21.9250 36.4591
  151 281.647 -27.0834 -61.8650
  152 283.920 -27.0526 59.8662
  153 273.558 -11.6422 7.36827
  154 273.583 -11.8054 -7.37461
  155 394.369 14.1616 -27.8876
  156 331.614 -11.9140 7.47909
  157 331.473 -11.6253 -7.38548
  158 428.670 95.7298 4.48154
  159 339.407 -0.544107 -35.6018
  160 251.068 -19.8031 -27.6991
  161 251.072 -19.6366 27.4525
  162 340.028 -7.69041 32.1466
  163 322.906 23.5471 21.2180
  164 133.267 21.4741 -73.8248
  165 147.820 20.3404 77.7995
  166 416.414 4.71162 3.56290
  167 340.940 -13.0647 -22.3515
  168 451.524 99.1812 -2.05091
  169 306.999 -8.66261 0.0703240
  170 306.933 -8.63485 -0.0430603
  171 344.962 -4.14716 -3.26892
  172 346.063 -3.72193 2.82543
  173 240.936 -3.49122 -4.39026
  174 240.966 -3.45472 4.36680
  175 370.577 -9.83419 78.6136
  176 312.552 12.9525 -22.8517
  177 204.271 -15.3313 -44.5200
  178 204.883 -15.2190 44.2257
  179 229.443 -7.57132 -14.5299
  180 229.463 -7.48375 14.4201
  181 342.609 -8.98295 18.9959
  182 311.326 -21.3882 -0.624577
  183 310.224 -21.2289 1.12649
  184 354.081 -34.2469 -5.79164
  185 355.916 -32.6263 1.38148
  186 489.361 115.144 -16.7368
  187 355.708 57.1531 16.0960
  188 356.359 21.8890 -36.6199
  189 369.303 -3.19012 -91.4124
  190 353.684 -19.9723 -25.5916
  191 356.717 -14.2547 30.1327
  192 297.310 -33.7655 30.2466
  193 297.390 -33.5284 -30.1521
  194 317.924 4.03782 27.4685
  195 145.292 -3.53373 -54.4215
  196 145.653 -3.84541 54.0850
  197 552.069 82.7383 11.9245
  198 334.964 -19.9483 13.9369
  199 347.442 -6.36206 -12.3746
  200 275.220 -6.75745 -3.34380
  201 275.224 -6.72219 3.33272
  202 333.442 -4.32932 -24.7674
  203 379.746 55.7618 -29.3270
  204 317.536 28.5174 -4.25383
  205 206.491 -7.35663 20.4565
  206 206.173 -7.38059 -20.6115
  207 352.680 -3.88839 6.77600
  208 343.320 6.45581 36.6087
  209 279.011 -20.3666 -13.2919
  210 277.111 -19.2850 13.6187
  211 404.838 60.0413 26.8969
  212 476.294 65.0924 10.5244
  213 32.1983 25.2270 -20.6036
  214 29.7725 23.3207 17.5004
  215 196.032 56.0683 130.245
  216 331.597 -22.0319 -10.7090
  217 353.967 -3.73544 -6.12184
  218 314.303 2.75170 -25.2937
  219 220.262 -2.21955 -6.44402
  220 220.332 -2.19440 6.38655
  221 298.333 -14.0183 -2.67674
  222 298.471 -14.1035 2.50676
  223 336.337 -4.52824 21.0783
  224 387.483 -22.4479 8.52835
  225 384.633 78.6889 -8.50979
  226 301.634 -29.1634 -14.2001
  227 381.631 -6.63986 23.4111
  228 325.107 -5.44219 1.21529
  229 325.112 -5.39676 -1.21347
  230 299.404 -29.0241 14.7645
  231 343.122 -21.7594 20.8389
  232 482.699 62.1627 -30.2571
  233 106.873 63.6189 -94.2946
  234 290.287 10.1707 5.44973
  235 344.522 30.3784 30.8351
  236 367.194 -2.56964 -32.6278
  237 343.023 -12.3394 -30.0667
  238 182.551 -5.90745 -25.6320
  239 183.187 -5.81770 25.5482
  240 343.594 -4.13419 -16.3050
  241 327.442 -8.27433 3.94268
  242 327.288 -8.26256 -3.81195
  243 68.7322 6.36645 -34.6634
  244 69.8415 5.58157 34.5485
  245 364.945 -31.9224 -28.0562
  246 361.078 -1.26648 0.935645
  247 361.468 -1.29094 -1.01631
  248 336.439 27.8852 -28.2256
  249 296.089 5.67494 16.5400
  250 619.670 99.2462 66.5894
  251 614.589 69.9701 -41.6904
  252 445.074 96.0516 -0.585470
  253 277.788 -13.3737 82.3439
  254 254.924 -8.67116 -86.1318
  255 292.345 -6.00652 -1.14791
  256 292.318 -5.96725 1.13929
  257 242.580 -6.53372 8.86851
  258 242.580 -6.62439 -8.94853
  259 352.218 -3.77984 10.0647
  260 341.742 -24.3283 -17.1512
  261 221.376 -0.428276 -1.50427
  262 221.426 -0.420998 1.49464
  263 337.445 -13.6476 -13.6477
  264 142.946 -4.68716 -35.5384
  265 143.571 -4.70229 35.2798
  266 341.621 -14.8007 24.0891
  267 260.761 -27.6755 49.7568
  268 261.430 -28.1714 -49.6054
  269 294.561 11.2588 -7.69820
  270 254.174 -3.92350 -2.95660
  271 254.196 -3.89639 2.94482
  272 320.223 -0.804841 20.2792
  273 382.711 70.1062 20.3477
  274 204.873 -2.52271 10.9255
  275 204.715 -2.54405 -11.0201
  276 350.964 -29.2999 12.0331
  277 324.893 -36.4419 -33.2543
  278 362.397 -1.72985 3.14913
  279 251.557 -14.9546 -18.9146
  280 251.118 -14.7865 18.8412
  281 446.232 46.7137 115.617
  282 210.500 -16.9814 59.4060
  283 339.603 47.7015 -1.82659
  284 429.618 47.4646 -17.5974
  285 323.953 -25.0620 4.24016
  286 325.131 -37.4405 29.9520
  287 211.146 -16.7024 -60.0828
  288 39.1094 48.2304 43.7805
  289 337.503 -13.6966 13.8986
  290 442.561 57.8575 13.7426
  291 365.276 -1.54400 -2.73038
  292 330.736 11.5664 -32.4890
  293 326.447 -18.4595 7.50067
  294 319.620 -26.9889 0.739813
  295 329.518 15.1209 31.2989
  296 349.278 -29.3105 -10.7557
  297 494.752 96.2640 -8.39256
  298 326.359 -17.7425 -7.17612
  299 269.850 77.5207 -159.496
  300 333.718 -35.3727 -6.38280
  301 331.354 -36.3364 10.1861
  302 243.371 -22.0488 -39.1101
  303 219.369 -0.851394 -3.27575
  304 219.429 -0.836605 3.24924
  305 243.473 -22.0655 38.8954
  306 352.993 -0.592610 -36.8009
  307 381.083 -15.7773 -15.5429
  308 290.148 -17.5048 -6.99546
  309 289.957 -17.5447 7.12562
  310 347.095 -29.8748 53.2834
  311 346.428 -2.76920 12.3441
  312 420.978 1.97653 18.7170
  313 284.228 -10.0545 -3.83968
  314 284.246 -10.0200 3.81723
  315 258.821 -6.76636 -5.82619
  316 258.821 -6.70237 5.81696
  317 293.020 3.93069 -15.9973
  318 376.338 27.5759 -35.3566
  319 581.715 156.879 -74.5434
  320 342.903 -3.00235 -1.09407
  321 342.706 -2.96190 1.12311
  322 183.631 -0.328217 74.1265
  323 257.509 -11.7180 -12.4958
  324 257.018 -11.6771 12.5273
  325 183.598 -0.754219 -73.8439
  326 358.716 42.3375 -30.0528
  327 401.520 19.8709 26.5044
  328 347.091 -24.7688 -59.1831
  329 319.116 -12.3168 3.28530
  330 318.790 -12.2258 -3.14563
  331 340.615 -7.04913 -6.62087
  332 320.452 -0.609770 -18.9662
  333 359.522 1.54497 36.0458
  334 358.705 -2.50313 -6.93897
  335 215.623 -13.1237 29.8346
  336 215.386 -13.1977 -30.0671
  337 334.412 -0.759102 33.7987
  338 206.088 -1.69744 -6.47903
  339 206.221 -1.68146 6.41910
  340 343.129 -7.87732 10.3305
  341 411.547 84.0729 -15.0108
  342 340.443 -7.10297 6.86826
  343 362.752 45.5562 30.1633
  344 347.155 -6.45646 35.0599
  345 274.873 -5.16292 1.21670
  346 274.876 -5.19529 -1.22515
  347 328.528 -1.17642 -29.9902
  348 434.885 91.4343 9.61098
  349 361.566 66.3022 0.629972
  350 221.523 25.7577 -110.244
  351 22.7417 10.0130 -15.0401
  352 24.9576 10.8326 16.1908
  353 -1.13950 2.54231 6.68916
  354 0.220294 1.42250 -6.98378
  355 634.810 44.0321 15.1346
  356 299.568 -24.3459 -8.29142
  357 343.399 -7.61125 -10.0796
  358 309.830 -5.45526 0.436191
  359 309.794 -5.41100 -0.438044
  360 331.533 36.6199 -15.2846
  361 282.909 -28.8519 24.8843
  362 24.7607 36.8224 -27.0928
  363 283.180 -28.8456 -25.3411
  364 335.876 38.2012 16.2651
  365 342.585 -9.13350 -18.0929
  366 363.419 -20.2781 -21.8046
  367 387.222 81.7912 5.86898
  368 364.256 -22.7443 18.0048
  369 150.612 -3.76689 23.8084
  370 149.706 -3.69423 -23.9634
  371 85.1557 2.09058 -33.0336
  372 86.0640 1.74830 32.8854
  373 297.662 0.977586 16.1817
  374 564.824 164.991 64.1241
  375 354.205 -2.25409 -8.81958
  376 275.677 -23.3156 -19.0487
  377 275.446 -23.2547 19.0227
  378 340.548 -7.85608 -22.9272
  379 387.860 -18.7508 2.79805
  380 299.558 -24.3232 8.54624
  381 425.659 3.07226 -34.8068
  382 240.711 -1.95503 -1.13846
  383 240.746 -1.93809 1.13009
  384 334.935 -1.95106 -14.6416
  385 180.416 -2.61763 -15.5386
  386 180.531 -2.70130 15.3484
  387 400.140 51.1048 -29.8913
  388 216.292 15.2781 102.401
  389 313.326 -16.4557 1.54899
  390 313.634 -16.4263 -1.56394
  391 368.171 62.3029 -19.0929
  392 348.506 -10.3336 -33.2240
  393 349.444 -35.7099 29.0759
  394 291.326 -7.75103 -1.78780
  395 291.291 -7.71293 1.76955
  396 336.278 -25.9504 11.5078
  397 362.136 -1.73412 5.15674
  398 225.818 -8.26579 -18.1923
  399 225.908 -8.26547 18.0359
  400 341.540 11.4607 -36.1096
  401 322.362 -7.00285 1.83397
  402 322.348 -7.01916 -1.79105
  403 333.510 -3.93422 27.5570
  404 310.915 22.6502 7.33584
  405 345.730 -14.6037 28.9999
  406 499.569 104.574 18.6625
  407 167.014 -8.99299 -47.6563
  408 167.481 -8.99574 47.2915
  409 74.5989 39.9995 -56.8151
  410 370.422 -1.09780 1.42529
  411 188.092 -1.60233 -9.83270
  412 188.345 -1.56838 9.74758
  413 340.822 -8.89475 22.4561
  414 309.170 -33.5667 16.3703
  415 349.132 -4.34394 4.68710
  416 355.744 18.0596 37.6441
  417 78.2127 42.5904 59.2460
  418 309.634 -33.3784 -15.0527
  419 319.950 -29.7469 -2.93152
  420 104.423 -2.09585 -29.9431
  421 105.214 -2.17474 29.7353
  422 245.718 -19.6608 -71.6443
  423 367.258 -5.49056 31.8329
  424 244.782 -19.9568 71.0126
  425 339.302 -19.0592 -18.7616
  426 315.282 21.2646 -16.0727
  427 339.359 -14.6679 17.8188
  428 365.151 -1.64155 -3.47845
  429 11.0999 11.8245 5.19233
  430 74.0286 85.3685 84.0281
  431 326.620 -1.20051 14.1229
  432 274.181 3.75617 7.00886
  433 278.935 4.57853 -9.50842
  434 237.984 -3.94984 -6.25692
  435 238.009 -3.89908 6.21562
  436 334.555 -25.9348 -10.5392
  437 338.041 -6.62648 -30.8452
  438 275.653 5.16795 -2.58277
  439 499.413 118.954 24.5754
  440 69.1459 22.9685 -42.5641
  441 76.2283 21.0802 45.4814
  442 313.037 -11.1650 1.44213
  443 312.918 -11.1379 -1.35857
  444 417.308 92.2252 -1.18725
  445 260.746 107.651 163.043
  446 401.455 -5.63501 -5.63587
  447 230.742 -12.0563 -24.6809
  448 230.851 -11.9730 24.4704
  449 232.235 -5.20338 9.75211
  450 232.191 -5.24198 -9.84101
  451 313.430 6.95643 -26.0445
  452 372.324 -0.544556 -0.946371
  453 304.707 13.9783 14.6290
  454 384.999 47.5283 32.4125
  455 320.552 -23.8021 -3.04569
  456 348.995 -4.13474 -4.55409
  457 366.655 -1.48754 3.20390
  458 371.254 -0.582615 0.540836
  459 371.555 -0.655827 -0.397123
  460 204.743 -0.369698 2.39783
  461 204.640 -0.375196 -2.42299
  462 350.628 -22.2899 22.6781
  463 316.439 12.4824 25.2234
  464 330.754 1.33952 -32.9703
  465 345.352 -7.28847 13.4333
  466 497.795 83.9335 -97.3116
  467 346.185 -19.2206 -25.3705
  468 3.37485 6.56247 2.70403
  469 3.34411 6.66988 -0.990568
  470 274.316 -15.5536 10.7364
  471 273.398 -15.3458 -10.6067
  472 430.233 8.02863 52.3830
  473 120.360 109.684 -123.637
  474 341.639 -1.04483 10.9710
  475 387.168 -22.5435 -29.8191
  476 206.416 -11.8991 34.5427
  477 414.948 73.6299 -21.5785
  478 341.209 -18.4805 21.2593
  479 286.507 -13.7052 -5.31318
  480 286.759 -13.4777 5.29783
  481 297.589 1.59051 -14.2890
  482 205.770 -11.8526 -34.7578
  483 305.133 0.137701 14.3649
  484 292.328 -33.4354 -44.4504
  485 291.595 -33.4864 44.6093
  486 352.194 -2.34401 9.73664
  487 320.112 30.1853 3.03227
  488 324.950 5.60163 111.491
  489 477.920 97.2704 -0.609701
  490 330.165 -5.57592 2.13393
  491 330.184 -5.55564 -2.20861
  492 254.005 -4.51806 -3.96504
  493 254.023 -4.48024 3.95001
  494 134.149 6.18498 62.2751
  495 342.731 -16.5194 -24.8359
  496 310.817 -6.77162 0.278114
  497 310.785 -6.74758 -0.271394
  498 270.740 -28.6713 36.3809
  499 136.743 8.17071 -63.8565
  500 343.197 -27.9787 -12.0689
  501 5.93387 1.29446 2.66468
  502 300.125 15.5032 1.06708
  503 331.365 -3.84652 -0.702057
  504 331.357 -3.89935 0.686139
  505 270.905 -28.6222 -36.6640
  506 387.564 -19.9452 38.1026
  507 384.216 13.9491 32.9648
  508 354.575 -2.41826 -2.25742
  509 342.148 -28.3728 12.2421
  510 214.568 -0.206799 -0.428922
  511 214.617 -0.204849 0.425298
  512 341.686 -13.1312 -26.5015
  513 331.004 24.4952 27.5971
  514 379.507 9.37045 -32.5613
  515 213.269 -0.339542 -1.34869
  516 213.326 -0.334830 1.33937
  517 661.595 95.5683 -85.4989
  518 344.439 41.0216 24.3032
  519 354.884 -2.22891 2.01014
  520 320.660 -30.4024 3.70508
  521 269.644 -8.93125 5.92210
  522 269.642 -8.99973 -5.91004
  523 373.144 -22.7394 9.91121
  524 358.658 -7.17736 -33.5727
  525 400.980 79.0141 18.1220
  526 333.637 5.74034 34.1894
  527 336.373 -6.47786 4.18764
  528 326.866 -34.8895 -42.8063
  529 339.108 -8.40238 26.1261
  530 653.855 29.9909 -11.9719
  531 370.403 -27.9391 -0.559864
  532 352.372 -2.34494 -0.533650
  533 352.457 -2.49470 0.468691
  534 660.653 44.3272 41.9582
  535 325.335 -0.107419 29.0780
  536 455.414 76.5747 -7.52349
  537 342.324 -9.32032 -13.0487
  538 154.840 -1.45792 -10.6275
  539 155.323 -1.38781 10.5190
  540 231.844 -21.7121 -49.7901
  541 232.028 -21.3480 49.4197
  542 336.188 -6.20989 -4.14953
  543 365.917 13.4236 -36.7215
  544 321.504 -21.8820 4.27552
  545 345.961 39.6690 -25.2177
  546 348.426 -4.05855 13.1044
  547 436.505 21.8919 -5.06736
  548 298.132 -10.2256 -1.53423
  549 298.041 -10.1896 1.51505
  550 323.777 -15.2869 5.57922
  551 477.058 94.5993 -7.21671
  552 341.172 14.9246 35.5106
  553 145.950 37.5517 92.0680
  554 329.448 -19.7695 74.5492
  555 434.998 21.1620 -82.1789
  556 348.806 28.8400 -33.0444
  557 309.309 -26.7413 -64.6332
  558 335.005 -36.7196 -12.8061
  559 349.836 -35.4298 -18.7727
  560 45.9423 59.5788 -56.4744
  561 351.649 -4.45930 -8.04849
  562 528.745 102.831 -30.0223
  563 325.504 -14.6635 -6.23383
  564 328.190 -10.6854 5.14324
  565 327.885 -10.4416 -4.93386
  566 226.607 -1.31409 -2.97487
  567 226.656 -1.29709 2.95488
  568 32.2675 3.36652 -18.1833
  569 34.0564 3.52924 18.6048
  570 168.707 -7.85498 -36.3585
  571 169.996 -7.89756 36.3014
  572 332.693 -18.0323 -11.8244
  573 338.916 -36.8694 13.8552
  574 348.377 -33.0810 2.12658
  575 285.758 -5.05968 -1.06804
  576 285.741 -5.02331 1.06244
  577 271.040 -28.4277 -55.3242
  578 303.376 -24.8872 68.3829
  579 264.484 -26.7332 55.6376
  580 342.291 -7.60752 -33.1489
  581 214.704 -3.58996 10.9725
  582 214.598 -3.62753 -11.0641
  583 326.451 18.0401 -27.7182
  584 326.854 -0.572903 -12.8170
  585 408.158 88.6297 -8.15853
  586 266.767 -4.04943 -1.05484
  587 266.774 -4.02235 1.04978
  588 348.335 -1.03516 -7.21444
  589 240.712 -8.16092 -12.1524
  590 240.717 -8.13201 12.0465
  591 196.600 9.09042 88.1121
  592 339.024 -15.6022 -18.0131
  593 189.312 -10.0074 63.3046
  594 333.161 -17.2676 12.0806
  595 350.697 -4.95586 8.88947
  596 346.288 -3.17798 -1.99605
  597 243.521 -3.03049 -2.76677
  598 243.552 -3.00550 2.75221
  599 391.498 78.1969 -16.3284
  600 189.177 -9.62863 -63.5431
  601 332.052 -14.3790 -9.65887
  602 299.551 -5.57292 -0.523767
  603 299.519 -5.53168 0.521612
  604 561.996 75.6567 -13.3862
  605 198.894 -1.28712 6.05533
  606 198.721 -1.29970 -6.11220
  607 309.699 7.09685 23.7631
  608 442.377 37.0528 -5.12520
  609 209.486 1.45637 -87.4568
  610 107.297 2.72829 -47.6747
  611 108.189 2.11407 47.4220
  612 262.788 -15.3719 15.0577
  613 265.531 -15.8248 -14.6254
  614 447.293 90.1292 7.96862
  615 344.870 -3.29376 1.80437
  616 296.267 8.32834 -14.3535
  617 369.102 66.3547 15.1029
  618 367.778 68.8590 -10.0431
  619 302.238 -16.7683 -2.50985
  620 304.539 -16.3897 1.43034
  621 216.744 47.2318 -125.698
  622 259.842 -8.92054 -8.36762
  623 259.863 -8.81820 8.33838
  624 657.968 134.680 101.418
  625 341.850 -11.2043 28.6071
  626 195.396 -6.94126 -23.2942
  627 530.243 123.278 82.4467
  628 195.851 -6.90234 23.2052
  629 326.772 -12.4769 -87.0535
  630 230.761 -1.15109 -1.09675
  631 230.804 -1.14110 1.09112
  632 285.669 2.56010 12.5207
  633 129.890 -1.94416 -20.9125
  634 130.615 -1.94906 20.7478
  635 298.350 -21.1440 6.35872
  636 312.871 -25.0763 -1.78208
  637 368.685 -0.803207 -2.93280
  638 208.112 -0.341399 1.76999
  639 208.032 -0.347454 -1.78849
  640 281.490 -6.36281 -1.62236
  641 281.479 -6.32678 1.60997
  642 322.925 -35.8312 43.2592
  643 371.059 41.4347 -33.2551
  644 246.971 -11.5611 -15.6642
  645 246.794 -11.3657 15.5504
  646 292.842 -21.1016 -8.86290
  647 461.136 100.412 2.82324
  648 346.320 -33.5108 -0.217508
  649 300.691 -7.20971 -0.730871
  650 300.645 -7.17383 0.731337
  651 413.532 45.2532 25.1244
  652 347.001 -5.00876 -14.2434
  653 306.898 -0.378445 -11.6990
  654 142.104 -4.85223 -45.7155
  655 142.543 -4.98896 45.3413
  656 292.072 -25.2350 -14.2649
  657 437.956 96.5332 0.186718
  658 339.704 46.0048 -10.9466
  659 225.448 -2.07277 -5.47592
  660 225.501 -2.04387 5.43179
  661 316.862 -8.96261 -1.48389
  662 316.924 -8.97282 1.55168
  663 589.976 77.0356 33.9391
  664 374.292 -1.01310 0.789448
  665 361.721 -1.42998 5.04821
  666 360.309 -1.45714 -5.91898
  667 342.091 -31.8480 5.20319
  668 251.871 -2.95114 -1.38258
  669 251.895 -2.92992 1.37631
  670 365.508 58.6021 23.2573
  671 468.900 104.221 -6.14501
  672 256.680 -19.1233 -22.1924
  673 256.605 -18.9348 22.0801
  674 321.019 -33.0879 -6.78096
  675 338.653 20.1279 -33.4257
  676 401.964 1.04415 14.2182
  677 266.906 -4.98737 -2.74912
  678 266.915 -4.95498 2.73768
  679 230.875 -20.2673 -44.9569
  680 338.854 -32.7744 -2.07067
  681 281.652 -31.2393 40.0810
  682 134.778 42.5705 -88.8360
  683 263.022 -24.4001 30.9166
  684 317.252 0.0857879 10.8059
  685 231.089 -20.0370 44.6543
  686 331.858 -14.6580 9.77810
  687 263.109 -24.2982 -31.1998
  688 269.592 3.51015 2.62726
  689 208.491 -5.63397 16.5631
  690 208.305 -5.64022 -16.6802
  691 281.807 -32.0494 -40.5276
  692 348.301 -22.9488 -21.9228
  693 319.434 -4.48549 -0.388393
  694 319.485 -4.53227 0.390217
  695 355.959 -22.6774 21.7012
  696 323.488 -33.8118 8.06945
  697 393.034 36.0532 32.1124
  698 354.626 -6.64809 34.6008
  699 341.240 -12.2474 21.0522
  700 326.072 26.8089 -21.0259
  701 392.118 65.9637 25.4122
  702 338.522 -4.68465 -20.4612
  703 337.350 -11.1838 10.7940
  704 348.808 54.6260 5.91603
  705 343.220 -5.82212 17.8052
  706 108.161 73.5610 93.1326
  707 319.430 -36.7420 -24.9911
  708 369.853 6.72097 35.1599
  709 373.392 -11.5558 -24.9452
  710 372.544 -0.496097 1.61866
  711 341.000 -11.7163 -16.5611
  712 319.893 -37.0312 22.7079
  713 618.638 54.7852 -9.17179
  714 190.778 -0.824579 6.33730
  715 190.549 -0.833652 -6.39733
  716 345.858 -6.28429 -7.70334
  717 374.758 -0.377808 -1.57874
  718 291.537 -25.6430 14.3404
  719 350.096 -13.0288 31.4086
  720 531.518 127.018 -39.3779
  721 331.834 -24.0576 9.95706
  722 367.862 -24.2233 -12.7473
  723 337.475 -10.8839 -10.6211
  724 374.595 -0.650379 -0.509376
  725 341.759 -0.0337075 36.0333
  726 15.7801 14.5930 19.8672
  727 385.464 -14.8052 -56.6860
  728 419.466 24.8816 15.6474
  729 349.465 -35.7071 16.7573
  730 249.240 -6.01513 6.85368
  731 249.240 -6.09918 -6.88711
  732 325.572 165.309 -171.246
  733 356.114 -23.5567 -20.0427
  734 268.538 1.40664 -5.02246
  735 312.964 1.73070 23.1655
  736 343.549 -17.1909 25.2445
  737 329.295 -27.7505 4.91418
  738 342.353 -31.2129 -46.4868
  739 327.275 -25.8970 -5.52465
  740 386.573 -18.5134 -4.12337
  741 356.029 -2.90909 4.49716
  742 317.822 -19.1036 2.87364
  743 576.949 115.336 -61.5108
  744 338.972 -9.06714 8.55622
  745 335.418 5.48877 -35.1076
  746 286.332 -3.20537 97.8882
  747 359.309 28.9324 35.8213
  748 309.076 -24.3528 3.38542
  749 238.717 -18.8369 -32.8532
  750 238.739 -18.7846 32.5853
  751 328.634 36.9547 -4.89772
  752 334.282 -3.86958 31.3227
  753 337.905 -8.04277 -26.6963
  754 318.183 -19.4945 -2.97521
  755 307.638 -27.5906 8.02383
  756 351.490 58.0070 -6.67842
  757 328.890 -28.4656 -3.61735
  758 329.706 -20.8714 9.69304
  759 334.066 -4.28826 1.49358
  760 334.272 -4.17218 -1.48316
  761 449.407 98.6834 2.18549
  762 367.501 -31.2560 -11.1236
  763 342.037 -10.4692 16.4941
  764 356.160 -2.90036 -4.09129
  765 359.929 2.38875 -36.3914
  766 409.703 21.5497 -21.2164
  767 201.026 -0.196990 -2.96001
  768 201.158 -0.194103 2.93017
  769 2.90881 -6.19834 -4.37877
  770 349.181 -0.408353 6.67967
  771 320.109 -0.523176 -25.6177
  772 330.662 -3.09635 22.5721
  773 301.664 37.4284 143.556
  774 376.363 77.4004 -0.808833
  775 267.649 -19.1917 17.3132
  776 46.9180 1.05264 -17.9597
  777 48.2756 0.774752 18.1514
  778 327.724 -2.33443 -25.4698
  779 268.375 -19.3832 -17.3094
  780 354.061 -3.19071 3.41197
  781 181.094 -7.75181 31.0296
  782 179.542 -7.72471 -31.0438
  783 338.951 -8.80361 -8.33338
  784 216.541 -5.49135 -14.4179
  785 216.649 -5.45514 14.2898
  786 352.990 -3.32765 -9.84087
  787 269.545 -7.22587 -4.73233
  788 269.553 -7.17848 4.73398
  789 385.405 -2.44440 -24.9717
  790 346.882 -3.63539 -36.1432
  791 176.490 -1.13567 -8.07800
  792 176.833 -1.12509 7.98417
  793 8.75546 4.42749 -10.9039
  794 10.3174 4.67123 11.4715
  795 281.274 1.34959 -9.09521
  796 316.804 -35.5966 -18.6283
  797 -3.64008 -2.51620 6.28670
  798 -3.19367 -2.97433 -6.25047
  799 329.728 -6.61033 3.20560
  800 357.536 -27.9017 -11.3121
  801 369.205 54.7202 -27.1346
  802 355.580 -2.86852 -3.24295
  803 758.627 152.994 -142.498
  804 329.659 -6.58897 -3.16366
  805 496.073 94.5728 7.71117
  806 352.845 10.2692 -37.6958
  807 389.716 29.4068 -32.8814
  808 65.5022 -0.770626 -16.5912
  809 66.7091 -0.867531 16.5613
  810 220.147 -3.19500 8.54415
  811 220.069 -3.22171 -8.62033
  812 210.190 -0.501884 1.59940
  813 210.125 -0.507131 -1.61227
  814 394.099 66.3621 -25.1875
  815 233.086 -1.46757 -2.36278
  816 233.127 -1.45069 2.34951
  817 335.312 -3.37661 -32.6969
  818 483.559 49.6379 41.7639
  819 301.835 6.74280 -19.9841
  820 104.553 -0.940224 17.7751
  821 103.667 -0.948915 -17.9152
  822 389.845 10.6320 103.043
  823 345.509 -6.33599 7.95074
  824 309.022 20.5063 -8.32490
  825 142.885 -0.230584 12.1155
  826 142.155 -0.164109 -12.2051
  827 214.649 -1.10523 -4.18755
  828 214.727 -1.08935 4.14883
  829 38.4853 34.2654 29.5777
  830 322.199 7.68085 29.6953
  831 358.516 52.6870 -23.2722
  832 385.725 44.7838 -32.7136
  833 253.515 -9.61053 -10.9733
  834 253.367 -9.53844 10.9583
  835 399.531 85.0472 11.4247
  836 344.838 -2.86523 -0.425104
  837 344.858 -2.84373 0.483069
  838 341.300 -10.2311 -21.2420
  839 285.906 -19.0739 10.0766
  840 314.868 -35.3836 18.7201
  841 369.940 -30.3124 29.1414
  842 283.386 -8.23978 -2.79200
  843 283.382 -8.20856 2.77309
  844 324.162 30.0434 13.5050
  845 304.616 4.16063 -21.5819
  846 84.6693 100.273 96.9424
  847 308.599 -27.3658 -7.26490
  848 309.629 -13.8422 0.614392
  849 309.795 -13.8702 -0.631423
  850 340.629 -5.01808 34.3635
  851 337.754 -22.1937 -15.6723
  852 301.659 -19.9891 -4.02013
  853 686.731 22.2349 -33.9682
  854 286.775 -27.1531 19.6715
  855 286.546 -27.5060 -19.9893
  856 340.263 -4.06571 17.4026
  857 511.863 132.256 -29.6961
  858 269.107 -24.4743 -24.5781
  859 297.273 -33.4824 23.3594
  860 269.035 -24.1793 24.3609
  861 291.729 -11.7581 -3.20695
  862 291.721 -11.7182 3.18379
  863 43.2851 18.3992 25.7070
  864 365.696 27.3241 -36.2422
  865 279.971 -10.9463 -5.13503
  866 280.022 -10.8356 5.15346
  867 276.507 -4.59102 -0.621136
  868 276.503 -4.55928 0.617001
  869 304.081 -6.05198 -0.0778140
  870 304.044 -6.01206 0.0756968
  871 247.244 -4.86565 -5.92883
  872 247.263 -4.81104 5.90386
  873 281.026 -14.8083 -7.75958
  874 281.062 -14.7069 7.79332
  875 6.81291 -2.37450 -3.30588
  876 423.567 79.4704 18.6320
  877 364.416 -12.7832 -28.9182
  878 297.028 -32.9971 -23.6067
  879 320.833 -10.3364 2.94647
  880 320.691 -10.2297 -2.85776
  881 349.843 0.435049 36.9266
  882 380.167 -27.1220 -16.1697
  883 336.373 23.9853 -124.559
  884 153.256 -2.49608 61.5586
  885 -5.62142 3.57430 -4.22760
  886 -4.87061 4.03447 4.67929
  887 43.0015 19.5679 -26.2454
  888 341.883 -9.82179 12.9695
  889 359.654 -2.34786 -5.45867
  890 323.464 -31.1189 53.3810
  891 152.892 -2.33468 -61.8040
  892 360.465 -29.5081 7.84548
  893 401.195 -11.8100 46.4944
  894 291.495 1.17738 9.64045
  895 334.077 31.7777 22.9930
  896 180.906 -10.2030 45.2748
  897 180.205 -10.2855 -45.5753
  898 217.006 -10.3542 -25.3927
  899 227.814 -11.1670 -78.4926
  900 360.655 -8.43963 32.5443
  901 495.155 116.429 18.1909
  902 362.132 13.9235 36.9585
  903 342.300 -7.29976 -19.3870
  904 232.603 -10.0049 80.4432
  905 436.225 80.4284 -13.5774
  906 43.3789 36.8893 -36.4506
  907 316.377 -0.635029 -10.3076
  908 217.233 -10.2688 25.1668
  909 264.812 -5.85673 4.17062
  910 264.804 -5.89705 -4.17996
  911 338.245 -22.0753 16.1905
  912 351.137 -2.23159 1.29512
  913 258.329 2.37326 -97.5429
  914 370.175 -0.815174 2.58279
  915 367.436 -0.669524 -3.30489
  916 274.893 2.38404 -8.36611
  917 355.194 -1.44469 -5.91800
  918 265.664 -12.4550 -10.1347
  919 265.842 -12.2682 10.1657
  920 -8.70340 3.25132 -5.00362
  921 -12.0217 1.96098 5.30233
  922 351.127 -2.07240 -1.31608
  923 116.389 -2.63710 41.5426
  924 115.689 -2.38772 -41.7794
  925 375.244 54.7440 28.6349
  926 670.668 12.1170 10.5045
  927 353.240 39.2878 30.1436
  928 399.901 -14.0687 13.2404
  929 347.715 -19.3572 25.4233
  930 432.889 90.7172 -10.3428
  931 269.027 1.14512 6.30679
  932 334.546 -7.86316 -5.14210
  933 347.658 18.6935 -36.4787
  934 419.864 12.4407 -6.70340
  935 326.135 -20.1421 -7.58221
  936 166.777 -0.935521 -9.04151
  937 166.951 -0.902403 8.91362
  938 344.116 -8.07658 -15.1574
  939 11.5138 14.5953 3.05444
  940 330.323 -34.2444 -3.52128
  941 286.392 8.47108 -0.862684
  942 429.953 94.4926 -6.86606
  943 68.0866 50.6421 -60.4255
  944 330.683 -2.46234 -20.2258
  945 229.293 -3.84972 -7.98489
  946 229.337 -3.80434 7.91741
  947 1.99903 -9.40192 7.15106
  948 224.698 -16.7488 -36.4376
  949 336.497 -19.4481 -15.2173
  950 209.466 0.449992 -0.663400
  951 209.519 0.452136 0.658896
  952 339.910 41.2495 -18.4093
  953 364.306 -1.07669 -0.521678
  954 364.317 -1.09146 0.684990
  955 224.799 -16.7027 36.1905
  956 340.605 -0.467104 -7.98752
  957 391.752 2.82725 24.0460
  958 347.561 -4.89677 6.13690
  959 55.6473 14.1137 -32.4495
  960 360.381 -2.17811 4.94483
  961 327.070 2.63453 31.7820
  962 344.937 47.7815 16.3758
  963 345.086 3.99860 -37.3077
  964 237.806 -12.7765 -21.8036
  965 372.338 -13.1959 24.0645
  966 237.961 -12.7269 21.5835
  967 10.9832 11.9527 -1.11212
  968 40.8910 7.02664 23.7810
  969 194.127 -3.44802 14.9662
  970 193.889 -3.45101 -15.0514
  971 334.782 -8.01282 5.42125
  972 360.037 62.6258 9.05381
  973 183.300 16.7864 -92.3774
  974 301.092 -18.8106 3.50638
  975 282.623 -29.5618 -29.5759
  976 411.899 78.9364 19.4639
  977 316.902 -5.59415 0.437735
  978 316.889 -5.56327 -0.439936
  979 347.187 -6.41272 -10.8674
  980 321.138 27.7242 -12.4579
  981 725.037 215.353 145.248
  982 67.0477 3.77323 -31.2743
  983 68.0968 3.13575 31.3440
  984 4.98613 -6.24398 1.72353
  985 322.100 17.8476 25.5714
  986 282.545 -29.7411 29.3575
  987 350.123 -16.5412 -28.9585
  988 380.925 31.1307 35.6894
  989 366.056 -29.5600 -35.7779
  990 534.571 112.488 37.3574
  991 311.118 -5.03411 -0.150165
  992 311.078 -4.99214 0.150405
  993 364.086 -14.8481 27.4078
  994 25.2040 41.9887 43.6086
  995 163.986 -3.45692 21.4319
  996 163.473 -3.41265 -21.6619
  997 195.782 -9.60439 29.3041
  998 195.108 -9.45791 -29.4149
  999 220.517 -9.12022 21.0561
  1000 241.078 -1.92922 -1.06902
  1001 241.113 -1.91482 1.06461
  1002 600.211 191.590 -122.278
  1003 544.324 136.412 56.1873
  1004 220.339 -9.16703 -21.2338
  1005 375.009 -1.73184 30.2477
  1006 335.665 34.8305 -22.1360
  1007 237.159 -20.3985 65.0834
  1008 304.569 -35.9824 -35.0926
  1009 348.084 -2.85412 -11.6870
  1010 157.093 10.7878 75.2078
  1011 201.591 -15.4018 52.0050
  1012 307.881 15.7823 -16.0204
  1013 352.000 -6.97429 -35.0013
  1014 447.734 183.296 195.362
  1015 290.844 8.89984 11.4099
  1016 395.627 85.2453 -1.37813
  1017 290.596 11.4233 -110.831
  1018 295.684 -31.1295 -20.1541
  1019 375.067 -0.400599 -1.28726
  1020 360.125 33.0770 -34.8888
  1021 211.151 -1.37405 5.38257
  1022 211.051 -1.38802 -5.43336
  1023 7.74872 4.19685 -11.2104
  1024 237.992 -10.8951 -18.1795
  1025 201.346 -15.6006 -52.3979
  1026 237.811 -10.8705 17.9788
  1027 344.100 -10.4747 32.3696
  1028 308.731 -19.0893 -0.736359
  1029 324.341 5.96348 -30.7937
  1030 333.741 41.6879 6.46252
  1031 452.127 27.4142 16.5342
  1032 340.854 -25.8931 15.3991
  1033 215.614 -17.2558 -39.8697
  1034 321.602 11.3789 -28.8291
  1035 239.215 -20.1260 -65.4268
  1036 459.179 99.6507 -1.87304
  1037 312.627 20.5243 14.5745
  1038 394.729 -2.31927 -18.3634
  1039 297.522 -31.1425 18.5529
  1040 340.913 -10.8012 25.0069
  1041 338.680 -17.8751 17.9216
  1042 336.821 -16.9345 15.5136
  1043 415.827 52.8277 -25.8311
  1044 336.431 -5.42297 25.4231
  1045 304.074 -36.0830 34.5215
  1046 324.572 -13.2647 5.05561
  1047 215.749 -17.2885 39.6467
  1048 304.800 -22.4703 -4.28393
  1049 177.280 -8.61176 -55.6171
  1050 252.818 -26.2550 44.1490
  1051 342.610 -2.32120 -13.5784
  1052 333.743 -3.76540 -28.9116
  1053 289.119 -22.8882 -12.3169
  1054 177.585 -8.86070 55.1808
  1055 311.321 0.754648 -20.1343
  1056 231.668 -15.3974 -28.2300
  1057 419.357 89.2838 12.2503
  1058 93.6393 15.5175 -52.8755
  1059 715.748 50.5722 68.8765
  1060 168.198 12.5424 -78.7351
  1061 336.740 -27.8953 -9.38212
  1062 231.731 -15.2655 27.9989
  1063 308.019 3.25813 22.5220
  1064 172.859 -3.51531 17.7431
  1065 172.768 -3.60227 -17.9237
  1066 340.926 -9.48379 -30.0082
  1067 362.478 -1.81498 2.00831
  1068 355.467 -0.795277 5.97884
  1069 351.636 11.6700 37.6140
  1070 328.992 -2.47651 27.1671
  1071 255.035 27.1879 119.868
  1072 377.462 -0.284833 0.619788
  1073 354.028 47.9804 23.9924
  1074 299.760 4.34090 19.4070
  1075 359.958 -1.36684 5.73936
  1076 231.477 -2.50116 -4.46805
  1077 231.518 -2.47262 4.43888
  1078 147.379 -4.18704 -29.5924
  1079 147.960 -4.33774 29.3899
  1080 300.719 14.9959 8.14589
  1081 453.595 24.3878 -33.3516
  1082 416.791 -0.436912 -63.1472
  1083 332.401 -0.294226 -8.28825
  1084 252.912 -26.4515 -44.4832
  1085 289.727 -21.7690 11.0144
  1086 334.322 -0.764882 8.64926
  1087 350.008 -25.3923 -18.1681
  1088 218.480 -0.508620 2.66455
  1089 218.424 -0.517591 -2.68125
  1090 336.098 -28.6940 9.37612
  1091 319.457 -6.52879 0.943989
  1092 319.403 -6.53514 -0.923290
  1093 310.849 -31.3161 11.7479
  1094 400.581 -12.9390 -4.44122
  1095 181.239 -0.324850 -5.03186
  1096 181.536 -0.313526 4.97841
  1097 272.893 -17.2510 -74.9616
  1098 290.250 -6.93336 1.51375
  1099 290.278 -6.97222 -1.52732
  1100 175.627 94.3912 131.710
  1101 402.317 32.9968 -29.2072
  1102 59.2971 28.8995 -39.9896
  1103 347.760 -5.16694 -5.92946
  1104 92.9363 31.8998 -60.6394
  1105 193.337 -12.1802 -37.8554
  1106 377.563 -0.406161 0.388000
  1107 377.710 -0.380578 -0.285587
  1108 342.084 -19.5246 -21.7607
  1109 302.921 -33.9952 -48.2046
  1110 93.6968 13.2095 50.3852
  1111 372.151 36.8376 33.9283
  1112 337.786 -3.39522 -0.523056
  1113 337.824 -3.39793 0.555027
  1114 368.975 -23.7536 58.4418
  1115 381.140 76.3526 13.0505
  1116 226.236 -5.47432 -11.4264
  1117 226.293 -5.44836 11.3446
  1118 171.869 19.6640 93.2451
  1119 323.545 1.64144 -29.7993
  1120 101.486 32.7247 65.1963
  1121 415.626 -7.11789 -19.6688
  1122 408.311 90.2996 3.94586
  1123 280.790 -22.2417 14.9891
  1124 259.009 1.37005 -1.22958
  1125 356.448 -3.11881 7.33942
  1126 369.043 -0.459438 2.86164
  1127 80.6940 0.147616 -14.8949
  1128 81.8023 0.108396 14.7933
  1129 290.409 4.84454 -14.3759
  1130 299.416 -8.80957 -1.07749
  1131 299.347 -8.76790 1.07120
  1132 31.4933 49.5278 -46.4035
  1133 50.0682 108.411 -92.8665
  1134 303.242 -11.8496 0.820896
  1135 303.360 -11.8490 -0.837773
  1136 313.337 -7.54760 0.996649
  1137 313.293 -7.53144 -0.970104
  1138 82.1899 52.5073 65.6007
  1139 247.175 -3.07480 -2.14994
  1140 247.203 -3.05242 2.13955
  1141 310.981 23.4958 -0.338689
  1142 396.734 50.0307 -138.384
  1143 379.431 65.4452 -22.3635
  1144 346.203 -13.2882 -30.5928
  1145 341.031 -17.0016 -22.0881
  1146 280.960 -22.4497 -15.2397
  1147 282.541 0.918441 8.87447
  1148 317.985 19.8148 -21.3754
  1149 313.541 16.8516 20.4177
  1150 324.359 -12.8784 -4.96212
  1151 309.522 -18.7050 0.506320
  1152 281.359 -18.2130 -11.2575
  1153 335.030 -1.96741 16.1154
  1154 592.127 59.7847 8.33955
  1155 337.310 -7.18887 29.3571
  1156 338.431 22.2182 32.1191
  1157 312.306 -30.7464 -8.80342
  1158 38.7229 6.45865 -22.9348
  1159 318.161 -14.7171 -3.50549
  1160 210.981 -0.338180 -0.131499
  1161 211.028 -0.336781 0.130008
  1162 387.694 -10.2859 15.6747
  1163 369.454 -31.1037 13.3562
  1164 530.702 95.0821 23.2602
  1165 126.478 -0.265803 -12.4138
  1166 127.242 -0.238351 12.3198
  1167 284.001 -5.76120 -1.25705
  1168 283.987 -5.72480 1.24763
  1169 319.161 -28.1658 -0.887435
  1170 261.334 1.17466 4.02545
  1171 326.863 -23.2738 7.20449
  1172 18.4415 21.9183 -10.6071
  1173 58.6901 29.2956 39.1070
  1174 218.658 -11.8645 72.4590
  1175 377.956 72.0478 -15.9655
  1176 361.279 -0.996108 -4.53289
  1177 379.169 -0.602249 0.262032
  1178 379.539 -0.823231 -0.166410
  1179 219.637 -0.536113 -0.436559
  1180 219.685 -0.531908 0.433201
  1181 348.324 22.2701 36.4585
  1182 515.553 88.1662 -1.87176
  1183 358.839 59.3622 -16.2458
  1184 268.416 -19.7150 74.4809
  1185 217.493 -11.4018 -72.3219
  1186 241.671 -16.2223 -25.3067
  1187 334.967 -9.34328 6.92080
  1188 467.548 102.961 3.81038
  1189 241.690 -16.1247 25.1061
  1190 342.301 -5.95525 5.23785
  1191 305.306 11.3266 19.4833
  1192 336.646 10.4227 35.0271
  1193 479.792 107.190 11.3972
  1194 284.546 -7.44488 2.34771
  1195 284.561 -7.48146 -2.36481
  1196 346.739 -6.48753 11.2863
  1197 205.161 -2.21587 8.43505
  1198 205.015 -2.23844 -8.51239
  1199 339.184 -4.58959 -2.34330
  1200 139.562 83.0996 -127.338
  1201 293.705 -16.5405 -79.7480
  1202 276.726 -8.70350 -4.38823
  1203 276.754 -8.66327 4.38963
  1204 363.982 -1.69081 1.81343
  1205 344.350 -4.48139 4.18852
  1206 18.7706 23.5218 17.2479
  1207 374.778 -0.411931 1.50196
  1208 44.4748 56.2503 55.8124
  1209 336.293 -4.99853 -3.01185
  1210 -0.429699 -8.25453 -7.22956
  1211 237.638 -23.1854 -56.0877
  1212 236.977 -22.6213 55.5239
  1213 374.766 -0.652530 -1.65976
  1214 320.186 -16.8913 -4.17973
  1215 363.714 -1.53958 -1.86063
  1216 290.829 -9.42790 -2.21849
  1217 290.798 -9.39235 2.19246
  1218 338.965 -4.55646 2.20237
  1219 317.931 -14.4296 3.46882
  1220 305.860 -9.84245 -0.0208090
  1221 305.970 -9.87031 0.0582226
  1222 363.410 -1.58715 -1.51991
  1223 313.539 -32.9909 -54.3693
  1224 355.529 -2.16532 -1.55589
  1225 337.736 -5.13939 3.23560
  1226 235.226 -2.60723 -3.30634
  1227 235.265 -2.58159 3.28651
  1228 262.915 -3.88991 -1.68264
  1229 262.927 -3.86272 1.67396
  1230 426.468 66.4794 21.6635
  1231 358.351 -27.5220 13.5045
  1232 245.681 -1.12640 92.0741
  1233 196.386 -0.340905 3.23804
  1234 196.220 -0.344534 -3.27078
  1235 339.431 -6.25999 22.0662
  1236 324.929 -4.89936 0.643289
  1237 324.944 -4.88241 -0.642891
  1238 371.883 72.4467 7.45799
  1239 340.789 -35.6679 43.0097
  1240 196.812 -2.80665 11.8466
  1241 196.615 -2.82806 -11.9348
  1242 324.433 -7.90144 2.59134
  1243 324.361 -7.95559 -2.51644
  1244 334.788 -9.22771 -6.66978
  1245 307.371 0.0591100 10.4248
  1246 532.014 132.192 -43.8164
  1247 340.960 -12.4613 -19.5169
  1248 58.2494 13.9306 33.3725
  1249 352.251 -18.7617 26.9974
  1250 282.516 6.15779 -7.86340
  1251 21.5013 15.8878 12.0101
  1252 464.426 51.5945 -3.98897
  1253 343.987 -15.6354 -27.2805
  1254 283.876 4.02105 12.0436
  1255 194.702 -12.2001 37.7876
  1256 349.501 -27.0434 16.2126
  1257 507.771 96.7705 30.2761
  1258 117.197 17.3610 64.1577
  1259 351.272 -4.14892 -9.71900
  1260 676.181 7.54391 -6.81648
  1261 698.793 10.5122 30.4096
  1262 746.373 25.4550 -72.2309
  1263 340.503 -10.6164 -24.2864
  1264 340.535 -15.5293 20.6883
  1265 346.007 -24.6166 19.2990
  1266 -10.1840 1.15488 6.47130
  1267 -9.27308 0.918224 -7.03804
  1268 336.822 -37.2086 -19.9587
  1269 345.110 -34.8753 -30.0178
  1270 263.235 1.66674 -4.97190
  1271 335.438 -37.8816 29.9803
  1272 358.328 -16.9865 -27.4018
  1273 6.94248 10.6388 1.12123
  1274 291.086 -5.32461 0.905685
  1275 291.107 -5.36317 -0.908085
  1276 356.223 -2.82725 6.62038
  1277 342.282 -5.84822 -4.92295
  1278 322.256 -35.1855 -10.5087
  1279 294.214 -15.9483 4.69019
  1280 292.725 -15.7259 -5.12137
  1281 345.438 -7.28064 15.4836
  1282 353.988 -12.9970 -31.4969
  1283 22.3159 16.5652 -11.6178
</Section>

newXOutput 47

<Section columns = "stress_xx | stress_yy | stress_xy">
  1 389.570 -0.0719051 0.762202
  2 389.584 -0.0658143 -0.764543
  3 212.133 -0.0798881 -0.275890
  4 -2.68810 -2.66156 -3.86417
  5 702.231 277.905 223.768
  6 695.673 288.077 -223.674
  7 -3.12116 -2.53191 4.10774
  8 212.085 -0.0806885 0.275122
  9 392.318 -0.647538 0.233300
  10 391.488 -1.02604 -0.192419
  11 390.587 -0.679808 0.880747
  12 389.682 -0.940664 0.250053
  13 387.737 -0.790185 1.38774
  14 385.971 -0.799773 1.01463
  15 381.813 -0.707612 1.99163
  16 375.874 -0.485435 2.93412
  17 370.577 -0.519838 3.26597
  18 362.723 -0.733312 3.94821
  19 351.834 -0.0506220 5.83659
  20 341.775 -0.540956 5.54773
  21 330.325 -0.706650 7.81601
  22 313.786 0.500762 6.80031
  23 301.817 0.752465 8.03910
  24 286.204 1.27021 6.29033
  25 275.402 1.32686 6.34162
  26 259.753 1.86449 3.23322
  27 256.457 2.93676 3.46554
  28 254.474 2.40340 -1.02314
  29 257.188 1.38545 -2.25060
  30 262.183 1.35129 -2.75962
  31 273.905 1.70872 -5.50953
  32 285.289 1.34932 -6.97147
  33 301.999 0.293456 -8.26720
  34 315.369 -0.173746 -7.53010
  35 329.622 -0.562741 -7.39798
  36 342.527 -0.421937 -5.22284
  37 353.617 -0.440388 -4.46656
  38 362.761 -0.716616 -3.74823
  39 370.948 -0.510725 -2.61175
  40 376.059 -0.605618 -2.77146
  41 380.996 -0.748231 -2.02578
  42 385.662 -0.888227 -0.885281
  43 388.055 -0.714236 -1.04277
  44 389.312 -0.436658 -0.649933
  45 388.378 -0.236882 -0.592846
  46 391.887 -1.03507 0.128258
  47 392.439 -0.674598 -0.240631
  48 379.601 -0.287472 -0.471526
  49 371.094 -1.57160 -0.853017
  50 360.700 -2.31252 -0.552203
  51 348.026 -3.43061 -0.757880
  52 336.009 -3.75635 -0.937525
  53 323.182 -4.70531 -0.892132
  54 311.827 -5.23573 -0.489788
  55 301.868 -5.86041 -0.176001
  56 290.378 -4.86458 -0.170895
  57 277.135 -4.54797 -0.289271
  58 264.369 -3.59162 -0.0782180
  59 252.273 -2.29250 -0.0217978
  60 240.776 -1.63480 0.0286845
  61 230.689 -0.839633 0.114171
  62 220.369 -0.226590 -0.315912
  63 212.255 0.297060 0.400087
  64 208.618 0.834939 0.269963
  65 211.097 0.00673436 0.637462
  66 208.328 -0.114258 0.768617
  67 205.761 -0.169855 0.958514
  68 202.276 -0.0215323 1.24963
  69 197.880 -0.0120844 1.57439
  70 194.628 -0.260701 3.03505
  71 185.325 0.271645 3.31426
  72 178.777 -0.0194106 3.79505
  73 169.025 -0.171569 4.30471
  74 157.791 -0.289076 5.24012
  75 143.751 -0.0660566 6.36251
  76 126.634 0.0791010 7.01235
  77 111.864 -0.155205 10.0185
  78 82.6621 0.932528 9.44800
  79 62.7843 0.804450 10.0060
  80 38.9793 -0.173553 11.0883
  81 19.2267 1.84878 11.5172
  82 -3.25260 2.75875 6.89117
  83 -19.5764 2.80136 2.41660
  84 -19.0013 2.69583 -1.04301
  85 -18.0796 2.23754 -5.44992
  86 -10.6278 -0.726752 -5.17030
  87 -1.30750 -10.2027 -5.70269
  88 0.995266 -18.8067 -7.14089
  89 2.78126 -29.7317 -3.97582
  90 6.18624 -30.4169 0.289412
  91 13.1039 -7.35672 17.2413
  92 39.1537 59.8564 58.7623
  93 230.502 214.613 199.954
  94 849.693 126.797 142.411
  95 765.170 18.1704 46.4272
  96 711.032 7.51769 14.2074
  97 691.036 6.37474 1.10579
  98 701.595 8.49675 -12.2913
  99 763.370 16.8993 -36.7303
  100 900.886 61.1729 -122.815
  101 136.771 219.264 -167.131
  102 29.3266 42.0092 -48.5848
  103 14.3003 -5.92000 -18.1422
  104 5.78305 -30.4692 -3.05425
  105 1.61808 -22.6563 4.57485
  106 2.05169 -23.6983 6.19806
  107 0.0926704 -8.82494 6.31452
  108 -11.0922 -0.475725 4.90743
  109 -18.6551 1.67938 4.75826
  110 -20.0068 3.27810 1.15186
  111 -20.2115 2.75932 -2.23379
  112 -4.65987 2.82741 -6.45193
  113 17.9813 1.86503 -10.9784
  114 37.7076 0.0222940 -10.9059
  115 61.4737 0.869879 -10.0280
  116 81.4713 0.957276 -9.52144
  117 110.940 -0.159344 -10.1043
  118 125.842 0.0882807 -7.08153
  119 143.060 -0.0632413 -6.44361
  120 157.436 -0.319902 -5.28032
  121 168.549 -0.163238 -4.31662
  122 178.416 -0.00735415 -3.83521
  123 185.030 0.268247 -3.35152
  124 194.417 -0.263228 -3.06665
  125 197.710 -0.0137237 -1.59384
  126 202.148 -0.0230869 -1.26564
  127 205.665 -0.172420 -0.971220
  128 208.254 -0.116454 -0.777501
  129 211.037 0.00483440 -0.643149
  130 208.565 0.833899 -0.272616
  131 212.205 0.296554 -0.401741
  132 220.320 -0.228773 0.315007
  133 230.642 -0.845093 -0.116228
  134 240.736 -1.64684 -0.0310961
  135 252.243 -2.30924 0.0194694
  136 264.352 -3.61574 0.0759312
  137 277.132 -4.57840 0.287485
  138 290.392 -4.89972 0.169126
  139 301.895 -5.89962 0.175253
  140 311.863 -5.27478 0.491117
  141 323.233 -4.74084 0.896115
  142 336.052 -3.78095 0.951850
  143 348.057 -3.45260 0.826379
  144 360.764 -2.18497 0.564622
  145 371.356 -1.52955 0.834281
  146 379.664 -0.346259 0.464472
  147 339.585 -31.9012 -2.34385
  148 339.302 -31.4722 2.46500
  149 356.350 51.2100 -17.5324
  150 379.782 22.3900 37.1236
  151 287.660 -27.6688 -63.2428
  152 289.984 -27.6365 61.2023
  153 279.483 -11.8860 7.55672
  154 279.508 -12.0523 -7.56306
  155 402.720 14.4675 -28.3494
  156 338.680 -12.1735 7.58276
  157 338.537 -11.8790 -7.48798
  158 437.802 97.7371 4.53517
  159 346.683 -0.555676 -36.2723
  160 256.519 -20.2207 -28.3243
  161 256.523 -20.0511 28.0730
  162 347.304 -7.85749 32.7423
  163 329.890 24.0602 21.6284
  164 136.201 21.9258 -75.4724
  165 151.058 20.7699 79.5329
  166 425.169 4.82964 3.49939
  167 348.213 -13.3479 -22.7462
  168 461.089 101.279 -1.98354
  169 313.579 -8.85041 0.0426827
  170 313.512 -8.82225 -0.0149802
  171 352.272 -4.24554 -3.31225
  172 353.392 -3.81153 2.86222
  173 246.234 -3.56082 -4.49518
  174 246.265 -3.52365 4.47134
  175 378.343 -10.0151 80.3686
  176 319.331 13.2393 -23.2950
  177 208.746 -15.6609 -45.5010
  178 209.370 -15.5463 45.2013
  179 234.490 -7.72725 -14.8574
  180 234.512 -7.63802 14.7456
  181 349.913 -9.17977 19.3320
  182 317.991 -21.8425 -0.698730
  183 316.867 -21.6799 1.20996
  184 361.584 -34.9780 -6.01374
  185 363.461 -33.3229 1.51192
  186 499.671 117.580 -17.2057
  187 363.355 58.3713 16.3977
  188 363.984 22.3565 -37.3040
  189 377.029 -3.22417 -93.4335
  190 361.211 -20.4016 -26.0308
  191 364.310 -14.5629 30.6654
  192 303.672 -34.4858 30.9523
  193 303.751 -34.2433 -30.8561
  194 324.798 4.12860 27.9973
  195 148.516 -3.61878 -55.6278
  196 148.884 -3.93654 55.2848
  197 563.602 84.4492 12.1809
  198 342.105 -20.3765 14.1534
  199 354.828 -6.50454 -12.5862
  200 281.183 -6.89926 -3.43455
  201 281.187 -6.86342 3.42328
  202 340.595 -4.42346 -25.2301
  203 387.857 56.9476 -29.8564
  204 324.420 29.1395 -4.33564
  205 211.062 -7.50933 20.9086
  206 210.738 -7.53364 -21.0664
  207 360.149 -3.97980 6.88414
  208 350.680 6.59414 37.3004
  209 285.032 -20.7952 -13.6192
  210 283.096 -19.6906 13.9508
  211 413.441 61.3185 27.3468
  212 486.254 66.5392 10.9245
  213 32.9481 25.7916 -21.1109
  214 30.4680 23.8425 17.9341
  215 200.227 57.2909 133.087
  216 338.669 -22.5035 -10.8577
  217 361.458 -3.82310 -6.21918
  218 321.109 2.81537 -25.7813
  219 225.151 -2.26267 -6.59043
  220 225.223 -2.23707 6.53193
  221 304.743 -14.3156 -2.77564
  222 304.885 -14.4028 2.60218
  223 343.543 -4.62705 21.4688
  224 395.648 -22.9173 8.82616
  225 392.874 80.3517 -8.65853
  226 308.096 -29.7819 -14.5635
  227 389.714 -6.78230 23.7854
  228 332.036 -5.56623 1.22302
  229 332.040 -5.51992 -1.22120
  230 305.823 -29.6397 15.1385
  231 350.433 -22.2270 21.1879
  232 492.745 63.5654 -31.0749
  233 109.220 65.0123 -96.4025
  234 296.642 10.4013 5.55737
  235 351.926 31.0300 31.4209
  236 375.005 -2.62691 -33.2075
  237 350.349 -12.6061 -30.6144
  238 186.618 -6.03129 -26.1925
  239 187.267 -5.93978 26.1076
  240 350.926 -4.22692 -16.6000
  241 334.421 -8.45735 3.98782
  242 334.264 -8.44552 -3.85473
  243 70.3144 6.49907 -35.4545
  244 71.4450 5.69764 35.3366
  245 372.645 -32.5994 -28.7492
  246 368.682 -1.30287 0.946800
  247 369.079 -1.32793 -1.02959
  248 343.685 28.4869 -28.7653
  249 302.554 5.80595 16.8633
  250 632.488 101.296 67.9766
  251 627.285 71.4151 -42.5472
  252 454.533 98.0614 -0.565952
  253 283.706 -13.6650 84.1592
  254 260.374 -8.86740 -88.0258
  255 298.642 -6.13612 -1.18638
  256 298.614 -6.09618 1.17757
  257 247.899 -6.66770 9.07616
  258 247.899 -6.76009 -9.15764
  259 359.694 -3.86714 10.2377
  260 349.021 -24.8499 -17.4226
  261 226.306 -0.434397 -1.53969
  262 226.356 -0.426992 1.52990
  263 344.634 -13.9439 -13.8692
  264 146.157 -4.78894 -36.3204
  265 146.794 -4.80436 36.0568
  266 348.909 -15.1207 24.5156
  267 266.373 -28.2709 50.8676
  268 267.054 -28.7774 -50.7127
  269 300.997 11.5128 -7.84872
  270 259.732 -4.00332 -3.02776
  271 259.754 -3.97574 3.01578
  272 327.138 -0.820152 20.6658
  273 390.901 71.5912 20.7114
  274 209.436 -2.57291 11.1675
  275 209.275 -2.59464 -11.2637
  276 358.421 -29.9275 12.1873
  277 331.796 -37.2210 -34.0389
  278 370.037 -1.77525 3.19653
  279 257.033 -15.2673 -19.3475
  280 256.585 -15.0959 19.2728
  281 455.437 47.8324 118.159
  282 215.077 -17.3534 60.7190
  283 346.929 48.7259 -1.86077
  284 438.680 48.4940 -17.8196
  285 330.869 -25.5961 4.25548
  286 332.042 -38.2404 30.6668
  287 215.735 -17.0687 -61.4089
  288 39.9946 49.3273 44.8064
  289 344.693 -13.9937 14.1245
  290 451.881 59.1082 13.8771
  291 372.967 -1.58468 -2.77152
  292 337.860 11.8186 -33.1107
  293 333.414 -18.8551 7.59292
  294 326.448 -27.5632 0.827366
  295 336.621 15.4491 31.8998
  296 356.702 -29.9377 -10.8850
  297 505.186 98.2663 -8.60237
  298 333.324 -18.1231 -7.26372
  299 275.497 79.2286 -162.931
  300 340.817 -36.1273 -6.60443
  301 338.405 -37.1118 10.4865
  302 248.650 -22.5187 -39.9804
  303 224.251 -0.866573 -3.35177
  304 224.313 -0.851514 3.32481
  305 248.754 -22.5359 39.7616
  306 360.532 -0.606767 -37.4818
  307 389.144 -16.1122 -15.7528
  308 296.394 -17.8738 -7.18906
  309 296.200 -17.9147 7.32233
  310 354.422 -30.5058 54.5006
  311 353.814 -2.83238 12.5669
  312 429.803 2.05295 19.2488
  313 290.365 -10.2665 -3.95061
  314 290.383 -10.2314 3.92773
  315 264.463 -6.90615 -5.96919
  316 264.463 -6.84098 5.95985
  317 299.425 4.02179 -16.3096
  318 384.355 28.1637 -35.9958
  319 593.830 160.185 -76.1900
  320 350.169 -3.07699 -1.10696
  321 349.968 -3.03564 1.13658
  322 187.631 -0.348387 75.7654
  323 263.112 -11.9620 -12.7909
  324 262.612 -11.9206 12.8233
  325 187.597 -0.784389 -75.4766
  326 366.406 43.2416 -30.6141
  327 410.016 20.2987 26.9319
  328 354.411 -25.2904 -60.5253
  329 325.935 -12.5827 3.30749
  330 325.603 -12.4902 -3.16520
  331 347.852 -7.20788 -6.71851
  332 327.371 -0.621495 -19.3273
  333 367.189 1.57452 36.7053
  334 366.296 -2.56289 -7.05617
  335 220.358 -13.4003 30.4952
  336 220.116 -13.4757 -30.7320
  337 341.594 -0.774527 34.4385
  338 210.689 -1.73032 -6.62442
  339 210.825 -1.71404 6.56343
  340 350.423 -8.05270 10.4980
  341 420.317 85.8496 -15.2459
  342 347.677 -7.26261 6.97030
  343 370.522 46.5262 30.7241
  344 354.574 -6.59715 35.7080
  345 280.832 -5.27170 1.25222
  346 280.834 -5.30461 -1.26083
  347 335.596 -1.20040 -30.5593
  348 444.120 93.3650 9.71640
  349 369.338 67.7121 0.641519
  350 226.265 26.3032 -112.656
  351 23.3024 10.2308 -15.4065
  352 25.5647 11.0689 16.5816
  353 -1.14479 2.60801 6.81522
  354 0.240546 1.46600 -7.11709
  355 647.861 44.9392 15.4367
  356 305.997 -24.8612 -8.52517
  357 350.697 -7.78126 -10.2427
  358 316.465 -5.57714 0.434210
  359 316.428 -5.53207 -0.436130
  360 338.691 37.4106 -15.5776
  361 288.992 -29.4644 25.4668
  362 25.3327 37.6847 -27.7515
  363 289.268 -29.4575 -25.9326
  364 343.121 39.0245 16.5767
  365 349.887 -9.33385 -18.4110
  366 371.134 -20.7131 -22.1561
  367 395.517 83.5180 5.97053
  368 371.984 -23.2323 18.2755
  369 154.008 -3.84611 24.3303
  370 153.084 -3.77187 -24.4880
  371 87.1197 2.13233 -33.7728
  372 88.0452 1.78311 33.6216
  373 304.156 1.00514 16.4963
  374 576.574 168.512 65.6237
  375 361.725 -2.30728 -8.97488
  376 281.624 -23.8072 -19.4997
  377 281.390 -23.7455 19.4732
  378 347.823 -8.02788 -23.3436
  379 396.041 -19.1463 2.73693
  380 305.986 -24.8382 8.78555
  381 434.555 3.17437 -35.6751
  382 246.010 -1.99275 -1.16856
  383 246.046 -1.97551 1.16006
  384 342.118 -1.99473 -14.9140
  385 184.461 -2.67101 -15.8777
  386 184.579 -2.75652 15.6838
  387 408.642 52.1944 -30.4021
  388 220.935 15.6007 104.650
  389 320.032 -16.8067 1.52762
  390 320.346 -16.7769 -1.54277
  391 376.068 63.6278 -19.4422
  392 355.946 -10.5572 -33.8308
  393 356.839 -36.4700 29.7836
  394 297.602 -7.91653 -1.84977
  395 297.567 -7.87782 1.83113
  396 343.444 -26.5052 11.6657
  397 369.788 -1.77638 5.24241
  398 230.786 -8.43640 -18.5981
  399 230.878 -8.43625 18.4389
  400 348.870 11.7078 -36.7940
  401 329.241 -7.15909 1.84413
  402 329.226 -7.17586 -1.80051
  403 340.666 -4.02019 28.0735
  404 317.669 23.1482 7.47931
  405 353.106 -14.9193 29.5201
  406 510.099 106.756 19.1134
  407 170.709 -9.19014 -48.7075
  408 171.186 -9.19284 48.3358
  409 76.2739 40.8731 -58.1174
  410 378.202 -1.12829 1.44543
  411 192.312 -1.63336 -10.0480
  412 192.569 -1.59876 9.96133
  413 348.100 -9.08871 22.8614
  414 315.779 -34.2810 16.7871
  415 356.526 -4.44591 4.75537
  416 363.355 18.4444 38.3487
  417 79.9598 43.5206 60.5964
  418 316.253 -34.0881 -15.4414
  419 326.782 -30.3797 -3.06855
  420 106.814 -2.14328 -30.6072
  421 107.621 -2.22372 30.3955
  422 250.997 -20.0922 -73.2268
  423 375.067 -5.61112 32.3948
  424 250.045 -20.3936 72.5825
  425 346.535 -19.4690 -19.0750
  426 322.119 21.7318 -16.3841
  427 346.592 -14.9856 18.1207
  428 372.846 -1.68353 -3.53271
  429 11.3625 12.1225 5.35454
  430 75.6637 87.3089 85.9290
  431 333.655 -1.22584 14.3890
  432 280.229 3.84585 7.14728
  433 285.073 4.68613 -9.69522
  434 243.221 -4.02882 -6.40360
  435 243.246 -3.97711 6.36159
  436 341.686 -26.4889 -10.6780
  437 345.280 -6.77053 -31.4191
  438 281.729 5.28993 -2.63345
  439 509.923 121.470 25.2114
  440 70.7155 23.4636 -43.5449
  441 77.9489 21.5341 46.5232
  442 319.737 -11.4057 1.43168
  443 319.615 -11.3782 -1.34659
  444 426.214 94.1592 -1.20296
  445 266.152 110.091 166.554
  446 409.917 -5.74292 -5.62560
  447 235.795 -12.3088 -25.2311
  448 235.905 -12.2240 25.0166
  449 237.350 -5.30901 9.97546
  450 237.305 -5.34828 -10.0660
  451 320.222 7.11295 -26.5484
  452 380.137 -0.562328 -0.958896
  453 311.338 14.2900 14.9148
  454 393.203 48.5381 32.9919
  455 327.401 -24.3093 -3.04077
  456 356.385 -4.23251 -4.62080
  457 374.378 -1.52626 3.25376
  458 379.043 -0.601966 0.547902
  459 379.348 -0.676834 -0.401711
  460 209.336 -0.375703 2.45277
  461 209.231 -0.381303 -2.47836
  462 358.089 -22.7689 23.0578
  463 323.292 12.7580 25.7118
  464 337.868 1.36985 -33.5970
  465 352.698 -7.45079 13.6626
  466 508.040 85.8658 -99.5187
  467 353.562 -19.6341 -25.8121
  468 3.49192 6.70964 2.79042
  469 3.45864 6.82123 -1.04029
  470 280.250 -15.8800 11.0031
  471 279.314 -15.6674 -10.8695
  472 439.205 8.26144 53.6193
  473 122.931 112.151 -126.350
  474 348.944 -1.06991 11.1726
  475 395.305 -23.0101 -30.5630
  476 210.955 -12.1511 35.3037
  477 423.764 75.1950 -21.9189
  478 348.482 -18.8785 21.6231
  479 292.685 -13.9938 -5.46335
  480 292.943 -13.7618 5.44779
  481 304.082 1.62787 -14.5662
  482 210.296 -12.1034 -35.5225
  483 311.768 0.144014 14.6419
  484 298.575 -34.1522 -45.4589
  485 297.827 -34.2043 45.6227
  486 359.679 -2.39846 9.90897
  487 327.047 30.8427 3.09144
  488 331.780 5.74629 113.925
  489 488.031 99.2952 -0.622212
  490 337.192 -5.70337 2.15513
  491 337.211 -5.68270 -2.23136
  492 259.557 -4.61010 -4.06274
  493 259.575 -4.57161 4.04747
  494 137.116 6.30761 63.6666
  495 350.041 -16.8757 -25.2737
  496 317.471 -6.92080 0.263461
  497 317.439 -6.89638 -0.256681
  498 276.568 -29.2829 37.2050
  499 139.764 8.33469 -65.2817
  500 350.501 -28.5775 -12.2306
  501 6.07879 1.36075 2.68835
  502 306.670 15.8493 1.08862
  503 338.412 -3.93830 -0.708105
  504 338.404 -3.99215 0.691854
  505 276.735 -29.2324 -37.4940
  506 395.707 -20.3519 39.0184
  507 392.371 14.2452 33.5408
  508 362.063 -2.47961 -2.28766
  509 349.430 -28.9797 12.4078
  510 219.371 -0.209007 -0.439681
  511 219.422 -0.207022 0.435998
  512 348.980 -13.4150 -26.9783
  513 338.143 25.0248 28.1270
  514 387.567 9.56982 -33.1319
  515 218.042 -0.344705 -1.37984
  516 218.101 -0.339908 1.37037
  517 675.183 97.5347 -87.2376
  518 351.849 41.9005 24.7654
  519 362.377 -2.28666 2.03666
  520 327.506 -31.0495 3.85898
  521 275.495 -9.11766 6.07407
  522 275.492 -9.18739 -6.06170
  523 381.041 -23.2249 10.0069
  524 366.297 -7.33406 -34.1774
  525 409.537 80.6834 18.4275
  526 340.810 5.86538 34.8405
  527 343.523 -6.62451 4.24173
  528 333.800 -35.6356 -43.7941
  529 346.360 -8.58555 26.6048
  530 667.246 30.6107 -12.2135
  531 378.236 -28.5334 -0.462338
  532 359.814 -2.40527 -0.538630
  533 359.900 -2.55811 0.472274
  534 674.185 45.2335 42.7974
  535 332.345 -0.107855 29.6319
  536 464.999 78.2312 -7.51975
  537 349.608 -9.52568 -13.2666
  538 158.354 -1.48778 -10.8588
  539 158.846 -1.41620 10.7482
  540 236.873 -22.1800 -50.8924
  541 237.061 -21.8081 50.5145
  542 343.333 -6.35109 -4.20352
  543 373.719 13.7087 -37.3936
  544 328.372 -22.3487 4.29728
  545 353.401 40.5200 -25.6953
  546 355.840 -4.15126 13.3358
  547 445.658 22.3916 -5.32425
  548 304.540 -10.4438 -1.59990
  549 304.447 -10.4072 1.58025
  550 330.690 -15.6153 5.63909
  551 487.072 96.6409 -7.53674
  552 348.497 15.2453 36.1858
  553 149.127 38.3626 94.1113
  554 336.405 -20.1847 76.2083
  555 444.025 21.6864 -84.0285
  556 356.292 29.4585 -33.6688
  557 315.873 -27.3147 -66.0773
  558 342.125 -37.5034 -13.1647
  559 357.243 -36.1855 -19.2639
  560 46.9676 60.9548 -57.7744
  561 359.102 -4.56289 -8.17956
  562 539.835 104.975 -30.7026
  563 332.451 -14.9798 -6.30811
  564 335.186 -10.9187 5.20517
  565 334.875 -10.6700 -4.99205
  566 231.633 -1.33822 -3.04490
  567 231.682 -1.32091 3.02456
  568 33.0715 3.43692 -18.6025
  569 34.8960 3.60333 19.0330
  570 172.461 -8.02314 -37.1575
  571 173.776 -8.06673 37.1000
  572 339.787 -18.4203 -12.0025
  573 346.114 -37.6566 14.2377
  574 355.774 -33.7881 2.07435
  575 291.927 -5.16840 -1.09759
  576 291.911 -5.13141 1.09187
  577 276.850 -29.0410 -56.5581
  578 309.822 -25.4216 69.9057
  579 270.162 -27.3107 56.8771
  580 349.613 -7.77247 -33.7629
  581 219.467 -3.66202 11.2183
  582 219.359 -3.70029 -11.3115
  583 333.498 18.4337 -28.2518
  584 333.892 -0.585471 -13.0583
  585 416.874 90.4942 -8.28867
  586 272.569 -4.13329 -1.08157
  587 272.577 -4.10575 1.07641
  588 355.761 -1.05917 -7.34559
  589 245.988 -8.32881 -12.4319
  590 245.994 -8.29946 12.3241
  591 200.852 9.27363 90.0548
  592 346.251 -15.9393 -18.3174
  593 193.444 -10.2325 64.7049
  594 340.264 -17.6392 12.2646
  595 358.135 -5.06955 9.03590
  596 353.619 -3.25617 -2.02123
  597 248.872 -3.09073 -2.83428
  598 248.904 -3.06530 2.81948
  599 399.869 79.8498 -16.6100
  600 193.306 -9.84627 -64.9477
  601 339.130 -14.6903 -9.80035
  602 305.987 -5.69497 -0.541878
  603 305.955 -5.65300 0.539660
  604 573.710 77.2207 -13.6722
  605 203.348 -1.31226 6.18943
  606 203.172 -1.32507 -6.24731
  607 316.421 7.25629 24.2244
  608 451.661 37.8764 -5.07357
  609 214.005 1.47418 -89.3822
  610 109.711 2.77870 -48.7427
  611 110.620 2.15219 48.4845
  612 268.491 -15.6937 15.4122
  613 271.287 -16.1561 -14.9719
  614 456.753 92.0454 8.00652
  615 352.175 -3.37440 1.82593
  616 302.734 8.51808 -14.6339
  617 377.022 67.7637 15.3796
  618 375.674 70.3204 -10.2274
  619 308.724 -17.1240 -2.61196
  620 311.071 -16.7380 1.51018
  621 221.363 48.2545 -128.440
  622 265.500 -9.10524 -8.56962
  623 265.521 -9.00097 8.53993
  624 671.520 137.464 103.521
  625 349.153 -11.4471 29.1273
  626 199.734 -7.08580 -23.8056
  627 541.178 126.050 84.4091
  628 200.198 -7.04621 23.7151
  629 333.665 -12.7345 -88.9749
  630 235.871 -1.17162 -1.12245
  631 235.914 -1.16146 1.11673
  632 291.936 2.62092 12.7658
  633 132.850 -1.98511 -21.3700
  634 133.588 -1.99013 21.2022
  635 304.757 -21.5914 6.54745
  636 319.564 -25.6088 -1.88574
  637 376.453 -0.824356 -2.98052
  638 212.777 -0.346999 1.81154
  639 212.696 -0.353165 -1.83036
  640 287.576 -6.49781 -1.67267
  641 287.564 -6.46117 1.66003
  642 329.783 -36.5975 44.2544
  643 378.987 42.3176 -33.8655
  644 252.363 -11.8014 -16.0232
  645 252.183 -11.6022 15.9073
  646 299.139 -21.5468 -9.10155
  647 470.906 102.519 2.95567
  648 353.675 -34.2266 -0.127059
  649 307.149 -7.36623 -0.768487
  650 307.103 -7.32977 0.768900
  651 422.283 46.2229 25.5182
  652 354.387 -5.12196 -14.4947
  653 313.567 -0.384130 -11.9240
  654 145.278 -4.96136 -46.7254
  655 145.725 -5.10073 46.3440
  656 298.347 -25.7687 -14.6220
  657 447.277 98.5508 0.183569
  658 347.029 46.9930 -11.1548
  659 230.443 -2.11278 -5.60209
  660 230.497 -2.08335 5.55719
  661 323.635 -9.15855 -1.48136
  662 323.698 -9.16878 1.55035
  663 602.220 78.6246 34.6456
  664 382.139 -1.03953 0.800379
  665 369.372 -1.46502 5.13353
  666 367.937 -1.49200 -6.02158
  667 349.366 -32.5286 5.22049
  668 257.386 -3.01045 -1.41626
  669 257.410 -2.98888 1.40988
  670 373.345 59.8478 23.6874
  671 478.819 106.411 -6.35929
  672 262.249 -19.5253 -22.7005
  673 262.174 -19.3331 22.5862
  674 327.869 -33.7921 -7.00157
  675 345.934 20.5618 -34.0630
  676 410.443 1.07307 14.3869
  677 272.710 -5.09089 -2.82079
  678 272.718 -5.05796 2.80914
  679 235.894 -20.7018 -45.9516
  680 346.063 -33.4742 -2.02432
  681 287.692 -31.9080 40.9903
  682 137.721 43.4861 -90.8113
  683 268.704 -24.9182 31.6188
  684 324.115 0.0879022 11.0116
  685 236.112 -20.4668 45.6432
  686 338.933 -14.9748 9.92133
  687 268.792 -24.8138 -31.9074
  688 275.551 3.59360 2.67908
  689 213.114 -5.74955 16.9300
  690 212.923 -5.75581 -17.0491
  691 287.848 -32.7353 -41.4464
  692 355.716 -23.4415 -22.2888
  693 326.253 -4.58924 -0.388804
  694 326.305 -4.63690 0.390641
  695 363.525 -23.1648 22.0555
  696 330.386 -34.5322 8.31928
  697 401.381 36.8210 32.6686
  698 362.188 -6.79374 35.2318
  699 348.517 -12.5139 21.4229
  700 333.119 27.3914 -21.4308
  701 400.483 67.3619 25.8564
  702 345.765 -4.78734 -20.8378
  703 344.533 -11.4284 10.9635
  704 356.319 55.7939 6.02803
  705 350.542 -5.95097 18.1254
  706 110.525 75.1830 95.2116
  707 326.231 -37.5264 -25.5981
  708 377.725 6.86141 35.7928
  709 381.312 -11.8035 -25.3571
  710 380.368 -0.511621 1.64287
  711 348.264 -11.9720 -16.8439
  712 326.706 -37.8215 23.2663
  713 631.399 55.9178 -9.35949
  714 195.063 -0.840340 6.47731
  715 194.829 -0.849570 -6.53841
  716 353.198 -6.42652 -7.82411
  717 382.624 -0.390076 -1.60296
  718 297.803 -26.1855 14.6992
  719 357.560 -13.3107 31.9745
  720 542.567 129.779 -40.4031
  721 338.910 -24.5719 10.0879
  722 375.657 -24.7409 -12.9059
  723 344.660 -11.1224 -10.7877
  724 382.445 -0.669505 -0.515086
  725 349.080 -0.0358170 36.7102
  726 16.1398 15.0096 20.3562
  727 393.544 -15.0958 -57.9924
  728 428.307 25.4268 15.8338
  729 356.869 -36.4680 17.2073
  730 254.694 -6.13830 7.01783
  731 254.694 -6.22393 -7.05182
  732 332.224 169.032 -174.928
  733 363.682 -24.0621 -20.3626
  734 274.476 1.44467 -5.12165
  735 319.745 1.77151 23.6116
  736 350.876 -17.5617 25.6883
  737 336.317 -28.3423 4.93774
  738 349.590 -31.8783 -47.5573
  739 334.258 -26.4495 -5.56445
  740 394.732 -18.9030 -4.09107
  741 363.555 -2.97986 4.56547
  742 324.617 -19.5109 2.87334
  743 588.974 117.736 -62.8247
  744 346.181 -9.26775 8.68669
  745 342.625 5.60853 -35.7751
  746 292.405 -3.26787 100.037
  747 366.998 29.5489 36.4906
  748 315.694 -24.8698 3.52067
  749 243.912 -19.2358 -33.5850
  750 243.936 -19.1827 33.3121
  751 335.738 37.7544 -4.99134
  752 341.456 -3.95387 31.9109
  753 345.137 -8.21728 -27.1879
  754 324.986 -19.9105 -2.97651
  755 314.224 -28.1761 8.25903
  756 359.055 59.2449 -6.80272
  757 335.904 -29.0728 -3.61348
  758 336.739 -21.3183 9.82445
  759 341.166 -4.38940 1.50897
  760 341.375 -4.27097 -1.49828
  761 458.948 100.751 2.17018
  762 375.265 -31.9203 -11.4649
  763 349.323 -10.6982 16.7775
  764 363.685 -2.97125 -4.15217
  765 367.604 2.43753 -37.0577
  766 418.357 22.0200 -21.5273
  767 205.539 -0.199329 -3.02664
  768 205.674 -0.196390 2.99627
  769 2.98160 -6.30492 -4.45097
  770 356.623 -0.419674 6.80054
  771 327.022 -0.531017 -26.1073
  772 337.767 -3.16331 22.9958
  773 307.990 38.2777 146.663
  774 384.438 79.0379 -0.823739
  775 273.442 -19.5951 17.7212
  776 48.0618 1.07320 -18.3665
  777 49.4456 0.789460 18.5623
  778 334.775 -2.38405 -25.9513
  779 274.181 -19.7902 -17.7176
  780 361.544 -3.26828 3.46070
  781 185.118 -7.91634 31.7102
  782 183.534 -7.88856 -31.7240
  783 346.159 -8.99876 -8.46015
  784 221.331 -5.60323 -14.7388
  785 221.442 -5.56640 14.6085
  786 360.481 -3.40555 -10.0106
  787 275.396 -7.37619 -4.85436
  788 275.405 -7.32798 4.85610
  789 393.567 -2.49471 -25.3766
  790 354.299 -3.71482 -36.8152
  791 180.470 -1.15842 -8.25461
  792 180.819 -1.14763 8.15902
  793 9.02756 4.52358 -11.1640
  794 10.6204 4.77287 11.7442
  795 287.458 1.38151 -9.27279
  796 323.561 -36.3553 -19.0982
  797 -3.71358 -2.56554 6.41764
  798 -3.25959 -3.03545 -6.38268
  799 336.749 -6.75934 3.24195
  800 365.124 -28.4987 -11.4472
  801 377.111 55.8847 -27.6333
  802 363.090 -2.93897 -3.28961
  803 773.961 156.180 -145.377
  804 336.679 -6.73766 -3.19942
  805 506.536 96.5386 7.90361
  806 360.391 10.4880 -38.3999
  807 397.994 30.0349 -33.4559
  808 67.0662 -0.788532 -16.9623
  809 68.2961 -0.887438 16.9319
  810 225.027 -3.25905 8.73742
  811 224.947 -3.28624 -8.81495
  812 214.902 -0.510540 1.63621
  813 214.835 -0.515885 -1.64930
  814 402.503 67.7708 -25.6241
  815 238.238 -1.49493 -2.41881
  816 238.280 -1.47775 2.40531
  817 342.506 -3.44906 -33.3121
  818 493.598 50.7893 42.8170
  819 308.407 6.89662 -20.3732
  820 106.970 -0.960467 18.1675
  821 106.068 -0.969358 -18.3102
  822 397.967 10.9097 105.308
  823 352.844 -6.47932 8.07536
  824 315.738 20.9584 -8.48667
  825 146.139 -0.234072 12.3797
  826 145.395 -0.166177 -12.4710
  827 219.434 -1.12568 -4.28346
  828 219.515 -1.10951 4.24407
  829 39.3647 35.0380 30.2851
  830 329.157 7.85079 30.2670
  831 366.212 53.8108 -23.7068
  832 393.943 45.7383 -33.2979
  833 259.044 -9.80953 -11.2313
  834 258.894 -9.73622 11.2163
  835 408.071 86.8396 11.6153
  836 352.138 -2.93709 -0.429654
  837 352.159 -2.91510 0.488735
  838 348.582 -10.4547 -21.6206
  839 292.066 -19.4761 10.3366
  840 321.586 -36.1377 19.1900
  841 377.740 -30.9513 29.8615
  842 289.507 -8.41386 -2.87641
  843 289.504 -8.38218 2.85714
  844 331.175 30.6962 13.7664
  845 311.240 4.25660 -22.0007
  846 86.5035 102.622 99.1051
  847 315.204 -27.9463 -7.48445
  848 316.262 -14.1381 0.580537
  849 316.431 -14.1669 -0.598055
  850 347.922 -5.12743 35.0048
  851 344.953 -22.6698 -15.9190
  852 308.132 -20.4121 -4.15902
  853 700.732 22.6874 -34.6384
  854 292.941 -27.7283 20.1427
  855 292.706 -28.0882 -20.4672
  856 347.538 -4.15541 17.7216
  857 522.606 135.072 -30.4659
  858 274.918 -24.9917 -25.1455
  859 303.641 -34.1949 23.9183
  860 274.846 -24.6909 24.9239
  861 298.011 -12.0069 -3.30978
  862 298.003 -11.9664 3.28611
  863 44.2873 18.8015 26.3181
  864 373.507 27.9067 -36.9113
  865 286.023 -11.1764 -5.27548
  866 286.075 -11.0637 5.29433
  867 282.498 -4.68811 -0.638579
  868 282.494 -4.65583 0.634365
  869 310.605 -6.18539 -0.0949889
  870 310.567 -6.14477 0.0927864
  871 252.662 -4.96436 -6.06960
  872 252.682 -4.90874 6.04422
  873 287.095 -15.1191 -7.96234
  874 287.132 -15.0159 7.99700
  875 6.97577 -2.36355 -3.42053
  876 432.556 81.1585 18.9052
  877 372.161 -13.0590 -29.4192
  878 303.389 -33.6989 -24.1704
  879 327.684 -10.5614 2.96703
  880 327.540 -10.4527 -2.87677
  881 357.321 0.442105 37.6140
  882 388.179 -27.6925 -16.6247
  883 343.418 24.5435 -127.270
  884 156.634 -2.56090 62.9257
  885 -5.68640 3.65289 -4.34124
  886 -4.92130 4.12350 4.80236
  887 43.9996 19.9956 -26.8702
  888 349.158 -10.0379 13.1848
  889 367.254 -2.40549 -5.54720
  890 330.322 -31.7844 54.5899
  891 156.262 -2.39676 -63.1758
  892 368.107 -30.1396 7.90588
  893 409.598 -12.0307 47.5913
  894 297.876 1.20473 9.82808
  895 341.281 32.4635 23.4344
  896 184.897 -10.4242 46.2708
  897 184.182 -10.5084 -46.5770
  898 221.780 -10.5708 -25.9544
  899 232.720 -11.4185 -80.2238
  900 368.333 -8.62355 33.1264
  901 505.545 118.930 18.7412
  902 369.863 14.2182 37.6408
  903 349.604 -7.46043 -19.7358
  904 237.606 -10.2300 82.2166
  905 445.459 82.1450 -13.7307
  906 44.3685 37.7135 -37.3138
  907 323.223 -0.647162 -10.5038
  908 222.013 -10.4838 25.7242
  909 270.572 -5.97835 4.27667
  910 270.564 -6.01936 -4.28615
  911 345.454 -22.5488 16.4475
  912 358.558 -2.28995 1.31076
  913 263.836 2.41760 -99.6807
  914 377.970 -0.836331 2.62425
  915 375.189 -0.687405 -3.36018
  916 280.955 2.44013 -8.53049
  917 362.740 -1.47715 -6.02399
  918 271.431 -12.7149 -10.3813
  919 271.613 -12.5245 10.4131
  920 -8.87119 3.32675 -5.09721
  921 -12.2632 2.00656 5.40545
  922 358.548 -2.12726 -1.33269
  923 119.013 -2.69925 42.4676
  924 118.301 -2.44491 -42.7091
  925 383.267 55.9069 29.1562
  926 684.361 12.3666 10.7079
  927 360.821 40.1270 30.7115
  928 408.311 -14.3516 13.6437
  929 355.124 -19.7740 25.8644
  930 442.084 92.6348 -10.4614
  931 274.978 1.17535 6.43101
  932 341.663 -8.03896 -5.21019
  933 355.111 19.0945 -37.1678
  934 428.697 12.7276 -6.70253
  935 333.096 -20.5731 -7.67267
  936 170.548 -0.954007 -9.23811
  937 170.724 -0.920219 9.10772
  938 351.441 -8.25533 -15.4190
  939 11.7921 14.9367 3.16367
  940 337.359 -34.9745 -3.67993
  941 292.672 8.66583 -0.879546
  942 439.103 96.4803 -6.94406
  943 69.6107 51.7692 -61.8130
  944 337.788 -2.51564 -20.6054
  945 234.356 -3.92684 -8.16763
  946 234.402 -3.88063 8.09894
  947 2.05237 -9.59067 7.29055
  948 229.606 -17.1042 -37.2429
  949 343.670 -19.8663 -15.4595
  950 214.172 0.460287 -0.679095
  951 214.226 0.462464 0.674517
  952 347.234 42.1365 -18.7599
  953 371.967 -1.10840 -0.529893
  954 371.979 -1.12339 0.696226
  955 229.710 -17.0573 36.9912
  956 347.894 -0.479623 -8.13492
  957 400.041 2.88914 24.4268
  958 354.930 -5.00993 6.23021
  959 56.9330 14.4163 -33.2023
  960 367.994 -2.23194 5.02411
  961 334.116 2.69446 32.3897
  962 352.364 48.8050 16.6873
  963 352.477 4.08411 -38.0092
  964 243.005 -13.0436 -22.2935
  965 380.234 -13.4806 24.4582
  966 243.164 -12.9931 22.0692
  967 11.2526 12.2338 -1.17714
  968 41.8626 7.17618 24.3346
  969 198.456 -3.51830 15.2952
  970 198.213 -3.52123 -15.3818
  971 341.904 -8.19144 5.49443
  972 367.776 63.9589 9.22239
  973 187.269 17.1362 -94.4156
  974 307.555 -19.2091 3.63237
  975 288.693 -30.1906 -30.2593
  976 420.666 80.6067 19.7762
  977 323.673 -5.71984 0.431588
  978 323.660 -5.68841 -0.433878
  979 354.561 -6.55696 -11.0486
  980 328.092 28.3287 -12.6987
  981 739.719 219.876 148.284
  982 68.6083 3.85040 -31.9836
  983 69.6775 3.19960 32.0544
  984 5.10261 -6.32098 1.79585
  985 329.064 18.2383 26.0658
  986 288.615 -30.3739 30.0365
  987 357.584 -16.8976 -29.4723
  988 389.034 31.7917 36.3312
  989 373.772 -30.1834 -36.6362
  990 545.779 114.837 38.1982
  991 317.778 -5.14736 -0.158610
  992 317.736 -5.10462 0.158835
  993 371.821 -15.1686 27.8776
  994 25.7637 43.0571 44.6272
  995 167.672 -3.52899 21.9002
  996 167.149 -3.48378 -22.1343
  997 200.114 -9.80658 29.9487
  998 199.426 -9.65677 -30.0613
  999 225.371 -9.31033 21.5250
  1000 246.385 -1.96622 -1.09358
  1001 246.421 -1.95158 1.08909
  1002 612.492 195.734 -124.989
  1003 555.719 139.278 57.4565
  1004 225.188 -9.35794 -21.7059
  1005 382.971 -1.77173 30.7704
  1006 342.902 35.5814 -22.5591
  1007 242.275 -20.8442 66.5222
  1008 311.068 -36.7516 -35.9065
  1009 355.498 -2.91898 -11.8974
  1010 160.532 11.0072 76.8785
  1011 205.998 -15.7365 53.1535
  1012 314.573 16.1321 -16.3324
  1013 359.511 -7.12622 -35.6423
  1014 456.781 187.449 199.514
  1015 297.210 9.10170 11.6342
  1016 404.095 87.0417 -1.40171
  1017 296.738 11.6779 -113.252
  1018 302.023 -31.7902 -20.6418
  1019 382.932 -0.414368 -1.30659
  1020 367.833 33.7830 -35.5399
  1021 215.861 -1.40006 5.50405
  1022 215.760 -1.41429 -5.55574
  1023 7.93080 4.38780 -11.5082
  1024 243.202 -11.1219 -18.5897
  1025 205.747 -15.9395 -53.5539
  1026 243.017 -11.0970 18.3853
  1027 351.453 -10.7017 32.9630
  1028 315.345 -19.4949 -0.807760
  1029 331.339 6.09543 -31.3845
  1030 340.947 42.5861 6.58629
  1031 461.572 28.0533 17.0440
  1032 348.113 -26.4476 15.6337
  1033 220.330 -17.6240 -40.7506
  1034 328.551 11.6293 -29.3851
  1035 244.371 -20.5663 -66.8717
  1036 468.920 101.731 -1.93971
  1037 319.413 20.9754 14.8584
  1038 403.069 -2.36268 -18.6237
  1039 303.900 -31.8040 19.0086
  1040 348.193 -11.0361 25.4580
  1041 345.900 -18.2599 18.2201
  1042 344.001 -17.2994 15.7661
  1043 424.633 53.9586 -26.2413
  1044 343.637 -5.54145 25.8950
  1045 310.566 -36.8543 35.3230
  1046 331.498 -13.5515 5.11029
  1047 220.468 -17.6575 40.5237
  1048 311.334 -22.9459 -4.43323
  1049 181.175 -8.80422 -56.8445
  1050 258.279 -26.8177 45.1344
  1051 349.929 -2.37439 -13.8266
  1052 340.904 -3.84711 -29.4543
  1053 295.339 -23.3715 -12.6292
  1054 181.487 -9.05808 56.3998
  1055 318.071 0.773910 -20.5218
  1056 236.732 -15.7216 -28.8593
  1057 428.290 91.1633 12.4354
  1058 95.7432 15.8446 -54.0712
  1059 730.295 51.5965 70.2393
  1060 171.867 12.7975 -80.4788
  1061 343.914 -28.4915 -9.49285
  1062 236.796 -15.5872 28.6238
  1063 314.708 3.33404 22.9585
  1064 176.738 -3.58862 18.1312
  1065 176.646 -3.67735 -18.3153
  1066 348.216 -9.68914 -30.5603
  1067 370.114 -1.86222 2.03571
  1068 363.018 -0.815453 6.08512
  1069 359.159 11.9177 38.3186
  1070 336.067 -2.52965 27.6804
  1071 260.453 27.7787 122.481
  1072 385.370 -0.294428 0.627813
  1073 361.633 49.0049 24.4437
  1074 306.294 4.44117 19.7853
  1075 367.585 -1.39938 5.83999
  1076 236.592 -2.54967 -4.57224
  1077 236.634 -2.52061 4.54256
  1078 150.696 -4.27649 -30.2414
  1079 151.288 -4.43045 30.0354
  1080 307.274 15.3303 8.30541
  1081 463.048 24.9621 -34.2040
  1082 425.482 -0.400292 -64.5960
  1083 339.542 -0.301743 -8.44309
  1084 258.373 -27.0182 -45.4755
  1085 295.960 -22.2289 11.2989
  1086 341.500 -0.782319 8.81055
  1087 357.453 -25.9370 -18.4528
  1088 223.351 -0.516543 2.72520
  1089 223.294 -0.525676 -2.74217
  1090 343.258 -29.3072 9.48659
  1091 326.278 -6.67463 0.941983
  1092 326.223 -6.68119 -0.920967
  1093 317.496 -31.9816 12.0661
  1094 409.008 -13.2031 -4.66189
  1095 185.327 -0.331065 -5.14222
  1096 185.629 -0.319525 5.08779
  1097 278.718 -17.6288 -76.6175
  1098 296.506 -7.08190 1.56525
  1099 296.534 -7.12140 -1.57912
  1100 179.372 96.4737 134.584
  1101 410.841 33.7047 -29.6943
  1102 60.6450 29.5321 -40.9225
  1103 355.131 -5.28578 -6.01926
  1104 95.0110 32.5851 -62.0131
  1105 197.601 -12.4400 -38.6882
  1106 385.464 -0.419447 0.394282
  1107 385.613 -0.393327 -0.289964
  1108 349.377 -19.9448 -22.1321
  1109 309.374 -34.7243 -49.2982
  1110 95.8030 13.4880 51.5245
  1111 380.097 37.6212 34.5495
  1112 344.954 -3.47815 -0.529059
  1113 344.993 -3.48086 0.561610
  1114 376.729 -24.2413 59.7762
  1115 389.306 77.9675 13.2836
  1116 231.229 -5.58587 -11.6850
  1117 231.287 -5.55949 11.6018
  1118 175.601 20.0772 95.3051
  1119 330.523 1.67956 -30.3694
  1120 103.739 33.4300 66.6669
  1121 424.340 -7.24539 -20.2150
  1122 417.036 92.1954 4.00951
  1123 286.844 -22.7106 15.3548
  1124 264.766 1.40540 -1.25386
  1125 363.998 -3.19145 7.46244
  1126 376.824 -0.473176 2.90896
  1127 82.6011 0.149720 -15.2246
  1128 83.7302 0.109734 15.1211
  1129 296.765 4.95768 -14.6574
  1130 305.849 -8.99844 -1.12895
  1131 305.779 -8.95612 1.12247
  1132 32.1940 50.8115 -47.4921
  1133 51.1553 111.035 -94.9509
  1134 309.750 -12.1027 0.877088
  1135 309.870 -12.1019 -0.894449
  1136 320.041 -7.71316 0.991091
  1137 319.995 -7.69680 -0.964129
  1138 84.0156 53.6636 67.0928
  1139 252.598 -3.13629 -2.20229
  1140 252.627 -3.11352 2.19173
  1141 317.736 24.0120 -0.344863
  1142 404.950 51.2074 -141.386
  1143 387.550 66.8348 -22.7641
  1144 353.591 -13.5751 -31.1462
  1145 348.304 -17.3684 -22.4715
  1146 287.016 -22.9227 -15.6109
  1147 288.752 0.941422 9.04820
  1148 324.872 20.2491 -21.7894
  1149 320.341 17.2227 20.8147
  1150 331.281 -13.1573 -5.01534
  1151 316.152 -19.1029 0.572405
  1152 287.429 -18.5957 -11.5391
  1153 342.215 -2.01117 16.4152
  1154 604.404 61.0170 8.50909
  1155 344.535 -7.34488 29.9021
  1156 345.711 22.6963 32.7321
  1157 318.982 -31.3993 -9.06043
  1158 39.6506 6.59547 -23.4699
  1159 324.962 -15.0332 -3.52678
  1160 215.718 -0.343205 -0.135074
  1161 215.767 -0.341780 0.133560
  1162 395.888 -10.5037 15.8825
  1163 377.258 -31.7632 13.7460
  1164 541.837 97.0546 23.7775
  1165 129.384 -0.269875 -12.6851
  1166 130.161 -0.241834 12.5894
  1167 290.136 -5.88405 -1.29548
  1168 290.122 -5.84703 1.28586
  1169 325.979 -28.7648 -0.978453
  1170 267.137 1.20421 4.10529
  1171 333.839 -23.7708 7.28207
  1172 18.8739 22.4314 -10.8948
  1173 60.0215 29.9381 40.0177
  1174 223.386 -12.1309 74.0574
  1175 386.056 73.5743 -16.2525
  1176 368.930 -1.01964 -4.61270
  1177 387.100 -0.617408 0.265215
  1178 387.477 -0.842879 -0.167855
  1179 224.536 -0.544263 -0.447267
  1180 224.585 -0.539985 0.443855
  1181 355.793 22.7463 37.1480
  1182 526.391 89.9892 -1.91105
  1183 366.549 60.6267 -16.5482
  1184 274.155 -20.1452 76.1266
  1185 222.196 -11.6592 -73.9169
  1186 246.939 -16.5630 -25.8753
  1187 342.097 -9.54952 7.01940
  1188 477.416 105.155 4.02644
  1189 246.960 -16.4636 25.6711
  1190 349.567 -6.09134 5.31225
  1191 311.947 11.5796 19.8633
  1192 343.882 10.6483 35.6945
  1193 489.925 109.443 11.7364
  1194 290.691 -7.60274 2.41813
  1195 290.706 -7.63991 -2.43557
  1196 354.106 -6.63373 11.4750
  1197 209.737 -2.25984 8.62354
  1198 209.588 -2.28283 -8.70226
  1199 346.382 -4.69712 -2.37047
  1200 142.576 84.9186 -130.135
  1201 299.944 -16.8966 -81.5118
  1202 282.717 -8.88589 -4.50711
  1203 282.745 -8.84501 4.50857
  1204 371.642 -1.73472 1.83983
  1205 351.651 -4.58672 4.24726
  1206 19.2043 24.0942 17.6848
  1207 382.650 -0.423774 1.52499
  1208 45.4714 57.5559 57.1074
  1209 343.438 -5.11457 -3.04812
  1210 -0.433941 -8.42343 -7.37866
  1211 242.773 -23.6876 -57.3294
  1212 242.099 -23.1116 56.7541
  1213 382.637 -0.669102 -1.68581
  1214 327.028 -17.2530 -4.20997
  1215 371.371 -1.58049 -1.88635
  1216 297.094 -9.62818 -2.29494
  1217 297.064 -9.59211 2.26837
  1218 346.160 -4.66340 2.22732
  1219 324.728 -14.7392 3.48990
  1220 312.419 -10.0547 0.0128937
  1221 312.531 -10.0829 0.0251481
  1222 371.059 -1.62924 -1.54049
  1223 320.198 -33.6976 -55.5968
  1224 363.032 -2.22160 -1.57551
  1225 344.910 -5.25828 3.27623
  1226 240.416 -2.65794 -3.38527
  1227 240.456 -2.63185 3.36510
  1228 268.642 -3.97014 -1.72682
  1229 268.655 -3.94249 1.71800
  1230 435.495 67.8987 21.9843
  1231 365.954 -28.1118 13.6855
  1232 250.938 -1.15738 94.0981
  1233 200.801 -0.346262 3.31059
  1234 200.631 -0.349958 -3.34391
  1235 346.689 -6.39702 22.4704
  1236 331.854 -5.01231 0.644172
  1237 331.868 -4.99506 -0.643776
  1238 379.863 73.9822 7.59392
  1239 348.001 -36.4269 44.0076
  1240 201.206 -2.86337 12.1079
  1241 201.005 -2.88516 -12.1977
  1242 331.353 -8.07637 2.61294
  1243 331.279 -8.13182 -2.53671
  1244 341.913 -9.43180 -6.76386
  1245 314.051 0.0613544 10.6249
  1246 543.169 134.971 -44.8245
  1247 348.230 -12.7322 -19.8572
  1248 59.5895 14.2299 34.1443
  1249 359.751 -19.1659 27.4667
  1250 288.722 6.30089 -8.01777
  1251 22.0202 16.2408 12.3156
  1252 474.143 52.7404 -4.24488
  1253 351.325 -15.9726 -27.7667
  1254 290.108 4.11581 12.2805
  1255 198.994 -12.4605 38.6199
  1256 356.933 -27.6229 16.4570
  1257 518.354 98.9208 31.1196
  1258 119.794 17.7272 65.5984
  1259 358.725 -4.24532 -9.88273
  1260 689.973 7.70196 -6.95087
  1261 713.001 10.7223 31.0016
  1262 761.478 25.9516 -73.6508
  1263 347.775 -10.8475 -24.7242
  1264 347.796 -15.8650 21.0457
  1265 353.373 -25.1448 19.6110
  1266 -10.3981 1.18350 6.60401
  1267 -9.46669 0.942308 -7.18400
  1268 343.973 -38.0032 -20.4690
  1269 352.417 -35.6187 -30.7458
  1270 269.074 1.70716 -5.07010
  1271 342.555 -38.6893 30.7017
  1272 365.949 -17.3520 -27.8751
  1273 7.12746 10.8820 1.18013
  1274 297.359 -5.44005 0.927920
  1275 297.381 -5.47929 -0.930378
  1276 363.762 -2.89543 6.72855
  1277 349.546 -5.98213 -4.99189
  1278 329.127 -35.9349 -10.8102
  1279 300.543 -16.2852 4.83393
  1280 299.024 -16.0578 -5.27269
  1281 352.792 -7.44216 15.7546
  1282 361.530 -13.2779 -32.0611
  1283 22.8534 16.9332 -11.9182
</Section>

newXOutput 48

<Section columns = "stress_xx | stress_yy | stress_xy">
  1 397.522 -0.0770166 0.775784
  2 397.536 -0.0707226 -0.778145
  3 216.807 -0.0803084 -0.280768
  4 -2.74580 -2.71827 -3.94721
  5 715.846 283.800 228.303
  6 709.169 294.165 -228.150
  7 -3.18829 -2.58546 4.19656
  8 216.758 -0.0811224 0.279990
  9 400.319 -0.662431 0.236858
  10 399.476 -1.04891 -0.197732
  11 398.564 -0.696547 0.894975
  12 397.647 -0.962381 0.251565
  13 395.676 -0.809001 1.41003
  14 393.886 -0.818475 1.02937
  15 389.664 -0.723990 2.02441
  16 383.629 -0.498946 2.98305
  17 378.247 -0.533027 3.32182
  18 370.261 -0.749631 4.01723
  19 359.183 -0.0537672 5.94063
  20 348.950 -0.552908 5.64832
  21 337.294 -0.720924 7.95998
  22 320.458 0.510610 6.92726
  23 308.268 0.769086 8.19064
  24 292.366 1.29715 6.41023
  25 281.362 1.35771 6.46314
  26 265.420 1.90530 3.29558
  27 262.061 3.00061 3.53284
  28 260.040 2.45712 -1.04320
  29 262.805 1.41894 -2.29389
  30 267.894 1.38215 -2.81294
  31 279.836 1.74635 -5.61543
  32 291.434 1.37911 -7.10416
  33 308.452 0.301860 -8.42370
  34 322.067 -0.176183 -7.67059
  35 336.577 -0.573915 -7.53413
  36 349.713 -0.431414 -5.31784
  37 360.998 -0.450911 -4.54647
  38 370.298 -0.732771 -3.81403
  39 378.623 -0.523043 -2.65582
  40 383.816 -0.621046 -2.81742
  41 388.832 -0.765852 -2.05900
  42 393.571 -0.908602 -0.897728
  43 396.000 -0.731059 -1.05887
  44 397.272 -0.448365 -0.659100
  45 396.317 -0.245451 -0.601299
  46 399.882 -1.05767 0.132334
  47 400.441 -0.689920 -0.244287
  48 387.379 -0.300118 -0.479981
  49 378.721 -1.61282 -0.869647
  50 368.141 -2.37100 -0.561036
  51 355.236 -3.51265 -0.770529
  52 342.998 -3.84458 -0.952245
  53 329.932 -4.81088 -0.906507
  54 318.364 -5.35030 -0.496263
  55 308.218 -5.98467 -0.176514
  56 296.511 -4.96666 -0.170979
  57 283.017 -4.64137 -0.292255
  58 270.011 -3.66350 -0.0770310
  59 257.689 -2.33645 -0.0201860
  60 245.976 -1.66478 0.0308911
  61 235.702 -0.853259 0.117630
  62 225.193 -0.228915 -0.321321
  63 216.930 0.303915 0.409079
  64 213.225 0.851506 0.276773
  65 215.745 0.00765280 0.652233
  66 212.918 -0.115480 0.786778
  67 210.295 -0.172147 0.981038
  68 206.735 -0.0208915 1.27822
  69 202.245 -0.0116404 1.60987
  70 198.920 -0.264448 3.10113
  71 189.424 0.277529 3.38596
  72 182.737 -0.0191810 3.87585
  73 172.778 -0.174294 4.39672
  74 161.309 -0.294096 5.35170
  75 146.972 -0.0667136 6.49804
  76 129.495 0.0811459 7.16263
  77 114.406 -0.157263 10.2337
  78 84.5870 0.951617 9.65301
  79 64.2801 0.820814 10.2234
  80 39.9525 -0.178721 11.3321
  81 19.7578 1.88627 11.7743
  82 -3.22892 2.81671 7.05278
  83 -19.9317 2.86072 2.48261
  84 -19.3710 2.75517 -1.05045
  85 -18.4555 2.28779 -5.55910
  86 -10.8515 -0.739486 -5.27759
  87 -1.33256 -10.4174 -5.82201
  88 1.02025 -19.1968 -7.28581
  89 2.84500 -30.3248 -4.04372
  90 6.32441 -30.9785 0.324886
  91 13.3913 -7.33787 17.6563
  92 39.9839 61.3986 60.0698
  93 235.065 219.398 204.063
  94 866.277 129.325 145.127
  95 780.232 18.5282 47.2947
  96 725.142 7.66990 14.4728
  97 704.796 6.50604 1.12498
  98 715.548 8.66883 -12.5240
  99 778.414 17.2372 -37.4185
  100 918.317 62.3902 -125.115
  101 139.515 224.227 -170.602
  102 29.9467 43.2341 -49.6861
  103 14.6158 -5.86953 -18.5936
  104 5.91315 -31.0212 -3.15613
  105 1.65890 -23.0993 4.65100
  106 2.09999 -24.1921 6.32224
  107 0.0963351 -9.00877 6.44693
  108 -11.3261 -0.482507 5.00844
  109 -19.0427 1.71714 4.85268
  110 -20.3968 3.34995 1.16116
  111 -20.5775 2.81742 -2.29613
  112 -4.66274 2.88679 -6.60422
  113 18.4897 1.90282 -11.2241
  114 38.6577 0.0212437 -11.1457
  115 62.9454 0.887544 -10.2457
  116 83.3744 0.976823 -9.72782
  117 113.465 -0.161492 -10.3211
  118 128.689 0.0905112 -7.23307
  119 146.268 -0.0638679 -6.58065
  120 160.947 -0.325542 -5.39256
  121 172.293 -0.165768 -4.40878
  122 182.369 -0.00688354 -3.91672
  123 189.123 0.274072 -3.42387
  124 198.704 -0.267019 -3.13328
  125 202.073 -0.0133081 -1.62965
  126 206.605 -0.0224741 -1.29450
  127 210.196 -0.174760 -0.993957
  128 212.842 -0.117717 -0.795809
  129 215.682 0.00571997 -0.658012
  130 213.171 0.850455 -0.279466
  131 216.879 0.303402 -0.410760
  132 225.143 -0.231134 0.320406
  133 235.654 -0.858811 -0.119717
  134 245.935 -1.67701 -0.0333373
  135 257.658 -2.35347 0.0178249
  136 269.993 -3.68801 0.0747106
  137 283.015 -4.67230 0.290442
  138 296.525 -5.00239 0.169178
  139 308.245 -6.02457 0.175748
  140 318.400 -5.39002 0.497612
  141 329.984 -4.84702 0.910561
  142 343.041 -3.86960 0.966827
  143 355.268 -3.53502 0.840291
  144 368.206 -2.24080 0.573641
  145 378.989 -1.56990 0.850529
  146 387.443 -0.360129 0.472783
  147 346.656 -32.5665 -2.30601
  148 346.367 -32.1284 2.42959
  149 363.846 52.2812 -17.8545
  150 387.693 22.8541 37.7823
  151 293.662 -28.2534 -64.6206
  152 296.037 -28.2197 62.5386
  153 285.401 -12.1291 7.74607
  154 285.426 -12.2986 -7.75241
  155 411.054 14.7730 -28.8050
  156 345.734 -12.4328 7.68401
  157 345.587 -12.1324 -7.58812
  158 446.916 99.7396 4.58699
  159 353.948 -0.567198 -36.9379
  160 261.963 -20.6374 -28.9499
  161 261.969 -20.4646 28.6938
  162 354.569 -8.02438 33.3332
  163 336.865 24.5730 22.0363
  164 139.135 22.3765 -77.1201
  165 154.293 21.1985 81.2663
  166 433.904 4.94828 3.43030
  167 355.474 -13.6307 -23.1368
  168 470.635 103.372 -1.91182
  169 320.150 -9.03798 0.0139353
  170 320.082 -9.00945 0.0141994
  171 359.568 -4.34413 -3.35446
  172 360.708 -3.90138 2.89802
  173 251.530 -3.63008 -4.60036
  174 251.561 -3.59226 4.57613
  175 386.091 -10.1944 82.1237
  176 326.102 13.5260 -23.7356
  177 213.217 -15.9901 -46.4815
  178 213.855 -15.8732 46.1764
  179 239.536 -7.88268 -15.1850
  180 239.558 -7.79179 15.0712
  181 357.204 -9.37647 19.6648
  182 324.645 -22.2959 -0.775192
  183 323.500 -22.1300 1.29566
  184 369.072 -35.7078 -6.23947
  185 370.991 -34.0182 1.64625
  186 509.957 120.011 -17.6782
  187 370.991 59.5873 16.6972
  188 371.597 22.8232 -37.9829
  189 384.735 -3.25667 -95.4541
  190 368.723 -20.8303 -26.4649
  191 371.890 -14.8707 31.1927
  192 310.023 -35.2048 31.6592
  193 310.102 -34.9569 -31.5613
  194 331.665 4.21943 28.5228
  195 151.740 -3.70409 -56.8339
  196 152.115 -4.02789 56.4845
  197 575.104 86.1549 12.4369
  198 349.234 -20.8040 14.3663
  199 362.200 -6.64704 -12.7954
  200 287.139 -7.04070 -3.52591
  201 287.144 -7.00430 3.51444
  202 347.738 -4.51752 -25.6894
  203 395.955 58.1312 -30.3809
  204 331.296 29.7610 -4.41694
  205 215.632 -7.66158 21.3605
  206 215.301 -7.68624 -21.5210
  207 367.603 -4.07138 6.99066
  208 358.028 6.73228 37.9872
  209 291.045 -21.2229 -13.9476
  210 289.073 -20.0953 14.2840
  211 422.028 62.5935 27.7909
  212 496.187 67.9861 11.3309
  213 33.6992 26.3563 -21.6201
  214 31.1647 24.3645 18.3697
  215 204.415 58.5125 135.928
  216 345.729 -22.9744 -11.0030
  217 368.934 -3.91092 -6.31504
  218 327.907 2.87914 -26.2658
  219 230.040 -2.30555 -6.73692
  220 230.113 -2.27948 6.67742
  221 311.145 -14.6123 -2.87604
  222 311.289 -14.7016 2.69911
  223 350.737 -4.72579 21.8562
  224 403.795 -23.3855 9.12818
  225 401.101 82.0110 -8.80567
  226 314.547 -30.3991 -14.9287
  227 397.781 -6.92446 24.1539
  228 338.953 -5.69034 1.23002
  229 338.957 -5.64318 -1.22820
  230 312.232 -30.2541 15.5142
  231 357.731 -22.6940 21.5323
  232 502.764 64.9689 -31.8982
  233 111.565 66.4049 -98.5106
  234 302.992 10.6320 5.66446
  235 359.319 31.6805 32.0028
  236 382.801 -2.68414 -33.7814
  237 357.663 -12.8725 -31.1573
  238 190.685 -6.15482 -26.7526
  239 191.347 -6.06155 26.6665
  240 358.244 -4.31968 -16.8924
  241 341.387 -8.64029 4.03133
  242 341.228 -8.62841 -3.89591
  243 71.8988 6.63132 -36.2464
  244 73.0506 5.81338 36.1254
  245 380.329 -33.2751 -29.4449
  246 376.269 -1.33956 0.957592
  247 376.672 -1.36522 -1.04251
  248 350.922 29.0879 -29.3016
  249 309.013 5.93717 17.1848
  250 645.267 103.340 69.3599
  251 639.941 72.8556 -43.4011
  252 463.975 100.066 -0.545185
  253 289.614 -13.9560 85.9737
  254 265.816 -9.06377 -89.9188
  255 304.931 -6.26554 -1.22534
  256 304.902 -6.22494 1.21633
  257 253.215 -6.80121 9.28417
  258 253.215 -6.89531 -9.36709
  259 367.155 -3.95456 10.4086
  260 356.287 -25.3706 -17.6897
  261 231.235 -0.440382 -1.57517
  262 231.287 -0.432851 1.56523
  263 351.811 -14.2399 -14.0875
  264 149.369 -4.89061 -37.1019
  265 150.018 -4.90632 36.8335
  266 356.185 -15.4402 24.9379
  267 271.976 -28.8656 51.9786
  268 272.670 -29.3826 -51.8201
  269 307.429 11.7669 -7.99841
  270 265.285 -4.08283 -3.09912
  271 265.308 -4.05479 3.08694
  272 334.044 -0.835356 21.0498
  273 399.076 73.0733 21.0715
  274 214.000 -2.62288 11.4094
  275 213.835 -2.64497 -11.5073
  276 365.864 -30.5541 12.3370
  277 338.685 -37.9989 -34.8251
  278 377.660 -1.82090 3.24307
  279 262.504 -15.5792 -19.7807
  280 262.048 -15.4045 19.7048
  281 464.613 48.9545 120.699
  282 219.649 -17.7250 62.0316
  283 354.244 49.7489 -1.89469
  284 447.721 49.5223 -18.0353
  285 337.773 -26.1292 4.26775
  286 338.941 -39.0389 31.3834
  287 220.319 -17.4348 -62.7345
  288 40.8804 50.4252 45.8344
  289 351.871 -14.2905 14.3472
  290 461.178 60.3575 14.0050
  291 380.641 -1.62559 -2.81192
  292 344.973 12.0706 -33.7284
  293 340.370 -19.2501 7.68229
  294 333.265 -28.1365 0.917658
  295 343.714 15.7771 32.4968
  296 364.112 -30.5639 -11.0101
  297 515.597 100.263 -8.81303
  298 340.277 -18.5031 -7.34854
  299 281.129 80.9359 -166.361
  300 347.903 -36.8805 -6.82914
  301 345.443 -37.8859 10.7896
  302 253.923 -22.9877 -40.8505
  303 229.133 -0.881600 -3.42789
  304 229.197 -0.866273 3.40048
  305 254.031 -23.0056 40.6277
  306 368.058 -0.620922 -38.1572
  307 397.188 -16.4464 -15.9573
  308 302.631 -18.2421 -7.38408
  309 302.434 -18.2838 7.52048
  310 361.733 -31.1355 55.7190
  311 361.187 -2.89562 12.7878
  312 438.607 2.13075 19.7850
  313 296.493 -10.4780 -4.06249
  314 296.513 -10.4424 4.03918
  315 270.100 -7.04549 -6.11268
  316 270.101 -6.97917 6.10323
  317 305.826 4.11304 -16.6202
  318 392.358 28.7505 -36.6291
  319 605.912 163.484 -77.8358
  320 357.419 -3.15191 -1.11942
  321 357.215 -3.10966 1.14961
  322 191.628 -0.369081 77.4040
  323 268.710 -12.2054 -13.0866
  324 268.201 -12.1634 13.1198
  325 191.593 -0.815105 -77.1088
  326 374.083 44.1442 -31.1712
  327 418.493 20.7260 27.3530
  328 361.715 -25.8109 -61.8684
  329 332.743 -12.8484 3.32775
  330 332.404 -12.7542 -3.18285
  331 355.074 -7.36668 -6.81426
  332 334.280 -0.633144 -19.6859
  333 374.842 1.60392 37.3591
  334 373.871 -2.62281 -7.17195
  335 225.091 -13.6763 31.1555
  336 224.843 -13.7531 -31.3966
  337 348.764 -0.789872 35.0738
  338 215.292 -1.76300 -6.76982
  339 215.430 -1.74643 6.70778
  340 357.703 -8.22806 10.6630
  341 429.071 87.6227 -15.4771
  342 354.897 -7.42229 7.07039
  343 378.281 47.4944 31.2805
  344 361.980 -6.73768 36.3508
  345 286.784 -5.38022 1.28806
  346 286.786 -5.41367 -1.29683
  347 342.654 -1.22427 -31.1246
  348 453.337 95.2916 9.81760
  349 377.099 69.1193 0.652963
  350 231.000 26.8475 -115.066
  351 23.8653 10.4485 -15.7742
  352 26.1740 11.3049 16.9736
  353 -1.14925 2.67408 6.94034
  354 0.261438 1.51000 -7.24948
  355 660.870 45.8434 15.7375
  356 312.415 -25.3754 -8.76080
  357 357.982 -7.95128 -10.4034
  358 323.089 -5.69901 0.431787
  359 323.052 -5.65313 -0.433775
  360 345.841 38.2004 -15.8687
  361 295.067 -30.0756 26.0502
  362 25.9055 38.5487 -28.4125
  363 295.347 -30.0682 -26.5250
  364 350.356 39.8468 16.8863
  365 357.176 -9.53407 -18.7259
  366 378.835 -21.1475 -22.5023
  367 403.799 85.2410 6.07092
  368 379.696 -23.7194 18.5411
  369 157.405 -3.92513 24.8519
  370 156.464 -3.84931 -25.0122
  371 89.0865 2.17390 -34.5121
  372 90.0290 1.81775 34.3579
  373 310.645 1.03293 16.8090
  374 588.290 172.027 67.1258
  375 369.231 -2.36059 -9.12860
  376 287.564 -24.2977 -19.9517
  377 287.326 -24.2352 19.9247
  378 355.085 -8.19955 -23.7564
  379 404.204 -19.5408 2.67098
  380 312.404 -25.3522 9.02673
  381 443.429 3.27793 -36.5471
  382 251.307 -2.03023 -1.19883
  383 251.344 -2.01270 1.19020
  384 349.290 -2.03840 -15.1843
  385 188.508 -2.72418 -16.2164
  386 188.627 -2.81153 16.0189
  387 417.127 53.2822 -30.9069
  388 225.572 15.9225 106.898
  389 326.726 -17.1571 1.50412
  390 327.047 -17.1268 -1.51945
  391 383.953 64.9502 -19.7885
  392 363.373 -10.7805 -34.4324
  393 364.218 -37.2286 30.4937
  394 303.869 -8.08172 -1.91258
  395 303.834 -8.04243 1.89355
  396 350.596 -27.0590 11.8196
  397 377.423 -1.81878 5.32697
  398 235.752 -8.60648 -19.0039
  399 235.846 -8.60649 18.8418
  400 356.188 11.9547 -37.4736
  401 336.107 -7.31532 1.85313
  402 336.092 -7.33256 -1.80881
  403 347.812 -4.10608 28.5862
  404 324.416 23.6460 7.62199
  405 360.469 -15.2346 30.0355
  406 520.605 108.933 19.5656
  407 174.403 -9.38716 -49.7583
  408 174.890 -9.38982 49.3796
  409 77.9495 41.7461 -59.4213
  410 385.964 -1.15900 1.46512
  411 196.533 -1.66421 -10.2631
  412 196.795 -1.62895 10.1749
  413 355.366 -9.28251 23.2630
  414 322.377 -34.9940 17.2058
  415 363.905 -4.54806 4.82228
  416 370.953 18.8285 39.0480
  417 81.7072 44.4501 61.9482
  418 322.860 -34.7965 -15.8321
  419 333.602 -31.0114 -3.20835
  420 109.209 -2.19073 -31.2713
  421 110.030 -2.27272 31.0555
  422 256.269 -20.5234 -74.8088
  423 382.861 -5.73157 32.9510
  424 255.300 -20.8301 74.1520
  425 353.756 -19.8783 -19.3843
  426 328.948 22.1988 -16.6937
  427 353.813 -15.3030 18.4190
  428 380.524 -1.72571 -3.58608
  429 11.6257 12.4220 5.51867
  430 77.2980 89.2508 87.8310
  431 340.679 -1.25111 14.6531
  432 286.274 3.93578 7.28499
  433 291.208 4.79395 -9.88103
  434 248.454 -4.10743 -6.55054
  435 248.481 -4.05479 6.50782
  436 348.805 -27.0422 -10.8131
  437 352.507 -6.91444 -31.9886
  438 287.801 5.41219 -2.68385
  439 520.409 123.981 25.8506
  440 72.2863 23.9579 -44.5271
  441 79.6704 21.9873 47.5663
  442 326.425 -11.6460 1.41961
  443 326.301 -11.6183 -1.33300
  444 435.105 96.0885 -1.21826
  445 271.542 112.532 170.061
  446 418.359 -5.85006 -5.61002
  447 240.843 -12.5608 -25.7812
  448 240.957 -12.4745 25.5629
  449 242.462 -5.41423 10.1990
  450 242.416 -5.45417 -10.2911
  451 327.006 7.26956 -27.0493
  452 387.931 -0.580309 -0.971101
  453 317.962 14.6017 15.1990
  454 401.392 49.5461 33.5658
  455 334.238 -24.8156 -3.03305
  456 363.760 -4.33048 -4.68620
  457 382.083 -1.56518 3.30282
  458 386.813 -0.621553 0.554782
  459 387.123 -0.698077 -0.406139
  460 213.931 -0.381620 2.50775
  461 213.823 -0.387320 -2.53378
  462 365.537 -23.2472 23.4326
  463 330.138 13.0335 26.1974
  464 344.971 1.40021 -34.2196
  465 360.030 -7.61311 13.8893
  466 518.253 87.8009 -101.727
  467 360.927 -20.0471 -26.2490
  468 3.61073 6.85686 2.87790
  469 3.57483 6.97271 -1.09116
  470 286.177 -16.2056 11.2708
  471 285.223 -15.9882 -11.1334
  472 448.152 8.49651 54.8582
  473 125.497 114.620 -129.061
  474 356.237 -1.09507 11.3725
  475 403.423 -23.4752 -31.3100
  476 215.492 -12.4026 36.0642
  477 432.563 76.7573 -22.2537
  478 355.743 -19.2759 21.9826
  479 298.855 -14.2817 -5.61472
  480 299.118 -14.0453 5.59895
  481 310.569 1.66530 -14.8417
  482 214.820 -12.3537 -36.2869
  483 318.397 0.150457 14.9172
  484 304.812 -34.8681 -46.4681
  485 304.049 -34.9212 46.6368
  486 367.151 -2.45299 10.0796
  487 333.974 31.4996 3.15028
  488 338.593 5.89181 116.357
  489 498.120 101.315 -0.634683
  490 344.206 -5.83093 2.17534
  491 344.225 -5.80986 -2.25311
  492 265.104 -4.70179 -4.16079
  493 265.123 -4.66264 4.14528
  494 140.082 6.42964 65.0583
  495 357.338 -17.2316 -25.7069
  496 324.115 -7.06988 0.248020
  497 324.082 -7.04509 -0.241183
  498 282.389 -29.8934 38.0297
  499 142.783 8.49795 -66.7070
  500 357.792 -29.1754 -12.3882
  501 6.22425 1.42860 2.71054
  502 313.209 16.1954 1.11006
  503 345.446 -4.03029 -0.713791
  504 345.438 -4.08516 0.697208
  505 282.558 -29.8415 -38.3244
  506 403.830 -20.7572 39.9369
  507 400.510 14.5407 34.1105
  508 369.534 -2.54123 -2.31714
  509 356.699 -29.5856 12.5693
  510 224.175 -0.211119 -0.450483
  511 224.227 -0.209100 0.446743
  512 356.262 -13.6984 -27.4508
  513 345.272 25.5539 28.6535
  514 395.611 9.76890 -33.6965
  515 222.817 -0.349773 -1.41103
  516 222.877 -0.344891 1.40140
  517 688.726 99.4948 -88.9698
  518 359.250 42.7781 25.2246
  519 369.854 -2.34470 2.06249
  520 334.340 -31.6954 4.01564
  521 281.340 -9.30357 6.22678
  522 281.337 -9.37453 -6.21409
  523 388.920 -23.7095 10.0976
  524 373.922 -7.49060 -34.7765
  525 418.080 82.3492 18.7292
  526 347.973 5.99033 35.4872
  527 350.659 -6.77123 4.29433
  528 340.720 -36.3805 -44.7832
  529 353.600 -8.76855 27.0794
  530 680.592 31.2285 -12.4543
  531 386.053 -29.1266 -0.360513
  532 367.240 -2.46590 -0.543350
  533 367.328 -2.62181 0.475600
  534 687.671 46.1366 43.6329
  535 339.347 -0.108201 30.1821
  536 474.562 79.8859 -7.50936
  537 356.879 -9.73095 -13.4816
  538 161.870 -1.51753 -11.0898
  539 162.371 -1.44449 10.9772
  540 241.896 -22.6472 -51.9943
  541 242.089 -22.2677 51.6091
  542 350.466 -6.49239 -4.25604
  543 381.507 13.9932 -38.0601
  544 335.228 -22.8146 4.31621
  545 360.832 41.3697 -26.1697
  546 363.241 -4.24405 13.5650
  547 454.788 22.8919 -5.58675
  548 310.939 -10.6616 -1.66676
  549 310.844 -10.6246 1.64665
  550 337.591 -15.9433 5.69650
  551 497.062 98.6802 -7.86288
  552 355.812 15.5657 36.8564
  553 152.300 39.1725 96.1543
  554 343.347 -20.5988 77.8673
  555 453.027 22.2131 -85.8788
  556 363.766 30.0762 -34.2888
  557 322.424 -27.8873 -67.5216
  558 349.232 -38.2859 -13.5261
  559 364.636 -36.9399 -19.7579
  560 47.9929 62.3329 -59.0760
  561 366.540 -4.66663 -8.30879
  562 550.898 107.114 -31.3834
  563 339.385 -15.2956 -6.37993
  564 342.170 -11.1517 5.26510
  565 341.852 -10.8982 -5.04827
  566 236.657 -1.36214 -3.11505
  567 236.708 -1.34452 3.09438
  568 33.8791 3.50713 -19.0223
  569 35.7390 3.67725 19.4618
  570 176.215 -8.19102 -37.9560
  571 177.556 -8.23564 37.8981
  572 346.869 -18.8078 -12.1773
  573 353.298 -38.4425 14.6231
  574 363.156 -34.4940 2.01824
  575 298.089 -5.27696 -1.12736
  576 298.072 -5.23934 1.12152
  577 282.651 -29.6535 -57.7921
  578 316.255 -25.9552 71.4284
  579 275.832 -27.8875 58.1166
  580 356.923 -7.93721 -34.3721
  581 224.230 -3.73377 11.4642
  582 224.120 -3.77272 -11.5590
  583 340.535 18.8270 -28.7822
  584 340.920 -0.598034 -13.2979
  585 425.575 92.3544 -8.41679
  586 278.366 -4.21688 -1.10842
  587 278.374 -4.18890 1.10317
  588 363.173 -1.08322 -7.47560
  589 251.260 -8.49614 -12.7118
  590 251.267 -8.46636 12.6019
  591 205.099 9.45608 91.9966
  592 353.466 -16.2759 -18.6180
  593 197.573 -10.4577 66.1048
  594 347.355 -18.0103 12.4454
  595 365.559 -5.18336 9.18036
  596 360.936 -3.33463 -2.04568
  597 254.220 -3.15067 -2.90200
  598 254.253 -3.12481 2.88696
  599 408.225 81.4992 -16.8884
  600 197.431 -10.0641 -66.3519
  601 346.196 -15.0012 -9.93901
  602 312.414 -5.81692 -0.560231
  603 312.382 -5.77421 0.557951
  604 585.393 78.7800 -13.9578
  605 207.804 -1.33725 6.32348
  606 207.624 -1.35029 -6.38237
  607 323.136 7.41580 24.6830
  608 460.923 38.7001 -5.01550
  609 218.518 1.49140 -91.3067
  610 112.125 2.82869 -49.8110
  611 113.053 2.18995 49.5473
  612 274.187 -16.0146 15.7674
  613 277.038 -16.4865 -15.3192
  614 466.192 93.9582 8.03901
  615 359.465 -3.45530 1.84678
  616 309.197 8.70800 -14.9127
  617 384.930 69.1701 15.6539
  618 383.559 71.7789 -10.4101
  619 315.201 -17.4789 -2.71584
  620 317.593 -17.0856 1.59184
  621 225.972 49.2761 -131.180
  622 271.152 -9.28938 -8.77219
  623 271.174 -9.18320 8.74205
  624 685.029 140.239 105.618
  625 356.444 -11.6896 29.6429
  626 204.071 -7.22993 -24.3167
  627 552.078 128.823 86.3759
  628 204.545 -7.18968 24.2247
  629 340.542 -12.9912 -90.8957
  630 240.979 -1.19195 -1.14820
  631 241.024 -1.18162 1.14238
  632 298.199 2.68190 13.0096
  633 135.812 -2.02596 -21.8272
  634 136.564 -2.03110 21.6563
  635 311.155 -22.0379 6.73797
  636 326.247 -26.1402 -1.99185
  637 384.203 -0.845629 -3.02757
  638 217.444 -0.352518 1.85317
  639 217.361 -0.358796 -1.87230
  640 293.654 -6.63252 -1.72351
  641 293.643 -6.59528 1.71062
  642 336.629 -37.3625 45.2508
  643 386.902 43.1989 -34.4708
  644 257.751 -12.0411 -16.3826
  645 257.567 -11.8380 16.2645
  646 305.427 -21.9911 -9.34178
  647 480.657 104.621 3.09076
  648 361.017 -34.9411 -0.0328983
  649 313.598 -7.52257 -0.806909
  650 313.551 -7.48554 0.807265
  651 431.015 47.1912 25.9054
  652 361.759 -5.23522 -14.7434
  653 320.229 -0.389705 -12.1476
  654 148.452 -5.07054 -47.7349
  655 148.907 -5.21254 47.3463
  656 304.613 -26.3013 -14.9806
  657 456.580 100.563 0.180135
  658 354.345 47.9799 -11.3617
  659 235.436 -2.15254 -5.72839
  660 235.491 -2.12258 5.68273
  661 330.396 -9.35433 -1.47748
  662 330.460 -9.36457 1.54765
  663 614.429 80.2087 35.3502
  664 389.966 -1.06610 0.811060
  665 377.006 -1.50018 5.21782
  666 375.549 -1.52694 -6.12306
  667 356.627 -33.2080 5.23395
  668 262.896 -3.06951 -1.45004
  669 262.922 -3.04759 1.44356
  670 381.171 61.0913 24.1139
  671 488.716 108.595 -6.57651
  672 267.813 -19.9263 -23.2092
  673 267.737 -19.7305 23.0928
  674 334.707 -34.4951 -7.22487
  675 353.205 20.9952 -34.6962
  676 418.904 1.10230 14.5498
  677 278.507 -5.19411 -2.89284
  678 278.516 -5.16064 2.88099
  679 240.908 -21.1356 -46.9460
  680 353.259 -34.1728 -1.97436
  681 293.723 -32.5756 41.9002
  682 140.663 44.4003 -92.7864
  683 274.379 -25.4353 32.3214
  684 330.971 0.0900243 11.2160
  685 241.131 -20.8959 46.6317
  686 345.996 -15.2913 10.0617
  687 274.468 -25.3285 -32.6155
  688 281.508 3.67728 2.73063
  689 217.735 -5.86474 17.2968
  690 217.541 -5.87100 -17.4179
  691 293.881 -33.4201 -42.3658
  692 363.117 -23.9335 -22.6500
  693 333.061 -4.69311 -0.388904
  694 333.114 -4.74165 0.390751
  695 371.077 -23.6514 22.4047
  696 337.272 -35.2514 8.57183
  697 409.712 37.5875 33.2185
  698 369.737 -6.93925 35.8573
  699 355.782 -12.7800 21.7899
  700 340.156 27.9734 -21.8332
  701 408.833 68.7574 26.2958
  702 352.996 -4.88996 -21.2114
  703 351.702 -11.6728 11.1303
  704 363.819 56.9598 6.13924
  705 357.851 -6.07979 18.4427
  706 112.886 76.8043 97.2906
  707 333.020 -38.3094 -26.2071
  708 385.583 7.00153 36.4199
  709 389.216 -12.0507 -25.7635
  710 388.174 -0.527312 1.66664
  711 355.515 -12.2276 -17.1235
  712 333.507 -38.6106 23.8266
  713 644.119 57.0470 -9.54653
  714 199.348 -0.855995 6.61725
  715 199.110 -0.865381 -6.67942
  716 360.523 -6.56883 -7.94295
  717 390.470 -0.402488 -1.62677
  718 304.059 -26.7269 15.0594
  719 365.012 -13.5924 32.5352
  720 553.584 132.537 -41.4338
  721 345.974 -25.0854 10.2153
  722 383.435 -25.2576 -13.0596
  723 351.831 -11.3607 -10.9517
  724 390.277 -0.688803 -0.520586
  725 356.391 -0.0379524 37.3822
  726 16.4998 15.4299 20.8472
  727 401.604 -15.3848 -59.3005
  728 437.129 25.9717 16.0139
  729 364.258 -37.2274 17.6602
  730 260.144 -6.26104 7.18239
  731 260.143 -6.34824 -7.21694
  732 338.853 172.756 -178.604
  733 371.236 -24.5667 -20.6776
  734 280.413 1.48298 -5.22033
  735 326.518 1.81241 24.0551
  736 358.189 -17.9320 26.1274
  737 343.326 -28.9330 4.95797
  738 356.810 -32.5424 -48.6290
  739 341.229 -27.0010 -5.60102
  740 402.872 -19.2917 -4.05392
  741 371.065 -3.05086 4.63256
  742 331.401 -19.9175 2.87058
  743 600.966 120.129 -64.1361
  744 353.378 -9.46829 8.81485
  745 349.821 5.72822 -36.4380
  746 298.466 -3.33000 102.186
  747 374.673 30.1643 37.1548
  748 322.302 -25.3858 3.65821
  749 249.103 -19.6338 -34.3168
  750 249.128 -19.5799 34.0388
  751 342.833 38.5532 -5.08435
  752 348.618 -4.03807 32.4947
  753 352.357 -8.39160 -27.6755
  754 331.776 -20.3259 -2.97531
  755 320.800 -28.7605 8.49640
  756 366.610 60.4808 -6.92606
  757 342.905 -29.6789 -3.60635
  758 343.760 -21.7645 9.95260
  759 348.252 -4.49073 1.52369
  760 348.464 -4.36996 -1.51273
  761 468.469 102.813 2.15240
  762 383.013 -32.5833 -11.8097
  763 356.595 -10.9271 17.0576
  764 371.195 -3.04237 -4.21190
  765 375.266 2.48618 -37.7183
  766 426.992 22.4900 -21.8318
  767 210.053 -0.201586 -3.09328
  768 210.190 -0.198594 3.06240
  769 3.05472 -6.41021 -4.52213
  770 364.053 -0.431084 6.92033
  771 333.926 -0.538700 -26.5936
  772 344.861 -3.23018 23.4165
  773 314.301 39.1277 149.766
  774 392.500 80.6720 -0.838526
  775 279.229 -19.9975 18.1300
  776 49.2097 1.09365 -18.7737
  777 50.6195 0.804069 18.9736
  778 341.816 -2.43356 -26.4294
  779 279.982 -20.1963 -18.1267
  780 369.011 -3.34610 3.50839
  781 189.141 -8.08055 32.3904
  782 187.526 -8.05207 -32.4038
  783 353.354 -9.19385 -8.58468
  784 226.120 -5.71470 -15.0597
  785 226.233 -5.67724 14.9271
  786 367.958 -3.48359 -10.1784
  787 281.241 -7.52608 -4.97701
  788 281.250 -7.47706 4.97883
  789 401.713 -2.54478 -25.7755
  790 361.703 -3.79416 -37.4819
  791 184.451 -1.18106 -8.43107
  792 184.807 -1.17005 8.33374
  793 9.30286 4.61958 -11.4247
  794 10.9264 4.87442 12.0175
  795 293.640 1.41352 -9.44938
  796 330.305 -37.1126 -19.5703
  797 -3.78677 -2.61461 6.54821
  798 -3.32530 -3.09637 -6.51460
  799 343.757 -6.90839 3.27696
  800 372.697 -29.0947 -11.5779
  801 385.004 57.0470 -28.1279
  802 370.585 -3.00966 -3.33531
  803 789.234 159.356 -148.244
  804 343.685 -6.88641 -3.23386
  805 516.975 98.4989 8.09681
  806 367.924 10.7065 -39.0987
  807 406.255 30.6621 -34.0243
  808 68.6347 -0.806463 -17.3336
  809 69.8874 -0.907365 17.3026
  810 229.905 -3.32281 8.93078
  811 229.823 -3.35047 -9.00964
  812 219.615 -0.519096 1.67305
  813 219.546 -0.524539 -1.68637
  814 410.891 69.1769 -26.0559
  815 243.388 -1.52207 -2.47496
  816 243.432 -1.50460 2.46124
  817 349.690 -3.52138 -33.9229
  818 503.609 51.9427 43.8749
  819 314.974 7.05061 -20.7602
  820 109.391 -0.980678 18.5597
  821 108.472 -0.989770 -18.7051
  822 406.068 11.1892 107.572
  823 360.164 -6.62273 8.19798
  824 322.448 21.4104 -8.64749
  825 149.396 -0.237491 12.6437
  826 148.638 -0.168177 -12.7366
  827 224.220 -1.14595 -4.37947
  828 224.302 -1.12949 4.33940
  829 40.2450 35.8110 30.9945
  830 336.107 8.02070 30.8352
  831 373.897 54.9327 -24.1381
  832 402.145 46.6912 -33.8765
  833 264.568 -10.0079 -11.4899
  834 264.416 -9.93341 11.4748
  835 416.595 88.6280 11.8034
  836 359.423 -3.00925 -0.434018
  837 359.445 -2.98675 0.494208
  838 355.851 -10.6782 -21.9955
  839 298.219 -19.8774 10.5980
  840 328.294 -36.8905 19.6620
  841 385.523 -31.5886 30.5843
  842 295.620 -8.58755 -2.96167
  843 295.617 -8.55543 2.94203
  844 338.180 31.3484 14.0262
  845 317.858 4.35271 -22.4170
  846 88.3353 104.976 101.268
  847 321.799 -28.5256 -7.70622
  848 322.884 -14.4334 0.544871
  849 323.057 -14.4632 -0.562880
  850 355.205 -5.23666 35.6412
  851 352.139 -23.1452 -16.1618
  852 314.596 -20.8343 -4.29979
  853 714.683 23.1382 -35.3052
  854 299.098 -28.3023 20.6152
  855 298.858 -28.6692 -20.9462
  856 354.801 -4.24507 18.0380
  857 533.322 137.882 -31.2396
  858 280.721 -25.5080 -25.7136
  859 309.998 -34.9060 24.4787
  860 280.649 -25.2013 25.4877
  861 304.284 -12.2552 -3.41379
  862 304.276 -12.2142 3.38963
  863 45.2911 19.2036 26.9308
  864 381.304 28.4883 -37.5749
  865 292.067 -11.4060 -5.41692
  866 292.121 -11.2912 5.43617
  867 288.482 -4.78499 -0.656156
  868 288.478 -4.75217 0.651864
  869 317.119 -6.31873 -0.112747
  870 317.080 -6.27741 0.110458
  871 258.076 -5.06267 -6.21069
  872 258.097 -5.00606 6.18490
  873 293.156 -15.4290 -8.16623
  874 293.193 -15.3242 8.20181
  875 7.13910 -2.34996 -3.53689
  876 441.528 82.8435 19.1730
  877 379.890 -13.3343 -29.9146
  878 309.740 -34.3995 -24.7355
  879 334.524 -10.7862 2.98588
  880 334.377 -10.6756 -2.89407
  881 364.788 0.449093 38.2961
  882 396.173 -28.2617 -17.0834
  883 350.445 25.1028 -129.978
  884 160.010 -2.62610 64.2927
  885 -5.74888 3.73145 -4.45570
  886 -4.96959 4.21251 4.92623
  887 44.9993 20.4230 -27.4968
  888 356.419 -10.2539 13.3973
  889 374.839 -2.46332 -5.63448
  890 337.166 -32.4488 55.7995
  891 159.630 -2.45925 -64.5475
  892 375.732 -30.7701 7.96181
  893 417.980 -12.2497 48.6905
  894 304.252 1.23213 10.0146
  895 348.476 33.1484 23.8729
  896 188.887 -10.6451 47.2663
  897 188.157 -10.7311 -47.5781
  898 226.553 -10.7869 -26.5158
  899 237.620 -11.6701 -81.9543
  900 375.996 -8.80728 33.7030
  901 515.910 121.428 19.2970
  902 377.579 14.5123 38.3176
  903 356.895 -7.62102 -20.0813
  904 242.603 -10.4553 83.9893
  905 454.674 83.8586 -13.8782
  906 45.3592 38.5379 -38.1791
  907 330.061 -0.659215 -10.6987
  908 226.790 -10.6982 26.2816
  909 276.328 -6.09961 4.38319
  910 276.319 -6.14130 -4.39281
  911 352.650 -23.0216 16.7006
  912 365.964 -2.34861 1.32591
  913 269.332 2.46161 -101.817
  914 385.746 -0.857602 2.66509
  915 382.925 -0.705400 -3.41478
  916 287.014 2.49634 -8.69401
  917 370.271 -1.50962 -6.12898
  918 277.192 -12.9740 -10.6286
  919 277.378 -12.7801 10.6613
  920 -9.03790 3.40232 -5.19007
  921 -12.5036 2.05222 5.50795
  922 365.952 -2.18244 -1.34882
  923 121.639 -2.76153 43.3926
  924 120.913 -2.50226 -43.6387
  925 391.277 57.0675 29.6730
  926 698.006 12.6154 10.9101
  927 368.390 40.9649 31.2754
  928 416.701 -14.6332 14.0512
  929 362.519 -20.1901 26.3006
  930 451.260 94.5484 -10.5757
  931 280.926 1.20578 6.55458
  932 348.767 -8.21477 -5.27652
  933 362.553 19.4949 -37.8521
  934 437.510 13.0150 -6.69580
  935 340.046 -21.0034 -7.76011
  936 174.321 -0.972397 -9.43449
  937 174.500 -0.937941 9.30164
  938 358.752 -8.43404 -15.6777
  939 12.0713 15.2788 3.27461
  940 344.381 -35.7033 -3.84169
  941 298.949 8.86083 -0.896317
  942 448.236 98.4634 -7.01915
  943 71.1352 52.8964 -63.2022
  944 344.882 -2.56887 -20.9823
  945 239.417 -4.00362 -8.35052
  946 239.464 -3.95658 8.28065
  947 2.10607 -9.77857 7.42924
  948 234.511 -17.4589 -38.0479
  949 350.831 -20.2839 -15.6980
  950 218.879 0.470593 -0.694823
  951 218.935 0.472803 0.690171
  952 354.549 43.0222 -19.1081
  953 379.610 -1.14038 -0.537979
  954 379.623 -1.15560 0.707308
  955 234.617 -17.4113 37.7916
  956 355.171 -0.492227 -8.28114
  957 408.312 2.95105 24.8016
  958 362.284 -5.12324 6.32187
  959 58.2207 14.7183 -33.9563
  960 375.590 -2.28598 5.10222
  961 341.153 2.75445 32.9934
  962 359.782 49.8269 16.9966
  963 359.855 4.16952 -38.7057
  964 248.200 -13.3099 -22.7834
  965 388.116 -13.7649 24.8463
  966 248.362 -13.2587 22.5549
  967 11.5229 12.5156 -1.24383
  968 42.8368 7.32544 24.8892
  969 202.785 -3.58830 15.6240
  970 202.537 -3.59118 -15.7120
  971 349.013 -8.37006 5.56580
  972 375.504 65.2897 9.38967
  973 191.234 17.4850 -96.4531
  974 314.009 -19.6068 3.76019
  975 294.755 -30.8181 -30.9436
  976 429.417 82.2737 20.0838
  977 330.433 -5.84556 0.424840
  978 330.419 -5.81358 -0.427221
  979 361.921 -6.70125 -11.2274
  980 335.037 28.9326 -12.9381
  981 754.344 224.389 151.312
  982 70.1718 3.92729 -32.6933
  983 71.2609 3.26322 32.7653
  984 5.21933 -6.39542 1.86957
  985 336.020 18.6287 26.5572
  986 294.677 -31.0056 30.7164
  987 365.033 -17.2536 -29.9811
  988 397.127 32.4516 36.9669
  989 381.470 -30.8054 -37.4970
  990 556.959 117.179 39.0392
  991 324.427 -5.26063 -0.167247
  992 324.384 -5.21713 0.167457
  993 379.542 -15.4887 28.3420
  994 26.3233 44.1310 45.6477
  995 171.360 -3.60087 22.3680
  996 170.827 -3.55470 -22.6063
  997 204.445 -10.0083 30.5929
  998 203.743 -9.85515 -30.7073
  999 230.222 -9.49991 21.9939
  1000 251.690 -2.00298 -1.11816
  1001 251.727 -1.98810 1.11360
  1002 624.731 199.873 -127.699
  1003 567.085 142.137 58.7260
  1004 230.036 -9.54831 -22.1780
  1005 390.918 -1.81162 31.2873
  1006 350.129 36.3313 -22.9795
  1007 247.384 -21.2896 67.9605
  1008 317.556 -37.5194 -36.7215
  1009 362.899 -2.98389 -12.1059
  1010 163.969 11.2258 78.5491
  1011 210.401 -16.0709 54.3016
  1012 321.258 16.4818 -16.6426
  1013 367.009 -7.27798 -36.2778
  1014 465.791 191.605 203.658
  1015 303.570 9.30372 11.8572
  1016 412.549 88.8341 -1.42503
  1017 302.867 11.9326 -115.671
  1018 308.352 -32.4496 -21.1311
  1019 390.779 -0.428318 -1.32558
  1020 375.528 34.4879 -36.1860
  1021 220.572 -1.42590 5.62557
  1022 220.468 -1.44038 -5.67814
  1023 8.11328 4.58280 -11.8079
  1024 248.408 -11.3480 -19.0001
  1025 210.144 -16.2780 -54.7096
  1026 248.221 -11.3228 18.7920
  1027 358.793 -10.9285 33.5513
  1028 321.949 -19.8998 -0.881264
  1029 338.327 6.22737 -31.9716
  1030 348.144 43.4831 6.70926
  1031 470.991 28.6936 17.5593
  1032 355.360 -27.0012 15.8640
  1033 225.042 -17.9915 -41.6311
  1034 335.492 11.8797 -29.9378
  1035 249.520 -21.0064 -68.3161
  1036 478.642 103.807 -2.00733
  1037 326.191 21.4262 15.1407
  1038 411.392 -2.40569 -18.8782
  1039 310.268 -32.4642 19.4659
  1040 355.461 -11.2708 25.9050
  1041 353.107 -18.6441 18.5147
  1042 351.168 -17.6638 16.0150
  1043 433.421 55.0878 -26.6451
  1044 350.832 -5.65984 26.3633
  1045 317.045 -37.6242 36.1257
  1046 338.413 -13.8379 5.16276
  1047 225.184 -18.0260 41.4003
  1048 317.858 -23.4204 -4.58460
  1049 185.069 -8.99671 -58.0715
  1050 263.733 -27.3795 46.1199
  1051 357.235 -2.42764 -14.0727
  1052 348.054 -3.92872 -29.9930
  1053 301.550 -23.8538 -12.9428
  1054 185.387 -9.25546 57.6184
  1055 324.813 0.793275 -20.9069
  1056 241.791 -16.0451 -29.4885
  1057 437.207 93.0386 12.6170
  1058 97.8480 16.1709 -55.2676
  1059 744.788 52.6167 71.5953
  1060 175.533 13.0516 -82.2222
  1061 351.074 -29.0866 -9.59978
  1062 241.857 -15.9082 29.2487
  1063 321.390 3.41009 23.3924
  1064 180.619 -3.66173 18.5191
  1065 180.525 -3.75221 -18.7065
  1066 355.493 -9.89424 -31.1079
  1067 377.733 -1.90972 2.06246
  1068 370.555 -0.835727 6.19036
  1069 366.670 12.1649 39.0180
  1070 343.132 -2.58270 28.1900
  1071 265.861 28.3690 125.092
  1072 393.258 -0.304144 0.635622
  1073 369.227 50.0276 24.8918
  1074 312.822 4.54160 20.1613
  1075 375.196 -1.43200 5.93958
  1076 241.705 -2.59790 -4.67658
  1077 241.749 -2.56832 4.64641
  1078 154.014 -4.36578 -30.8901
  1079 154.618 -4.52300 30.6805
  1080 313.824 15.6647 8.46404
  1081 472.474 25.5378 -35.0607
  1082 434.150 -0.361733 -66.0465
  1083 346.673 -0.309301 -8.59677
  1084 263.828 -27.5840 -46.4677
  1085 302.184 -22.6877 11.5849
  1086 348.666 -0.799774 8.97062
  1087 364.885 -26.4808 -18.7328
  1088 228.222 -0.524330 2.78588
  1089 228.164 -0.533623 -2.80314
  1090 350.406 -29.9194 9.59324
  1091 333.088 -6.82047 0.939107
  1092 333.031 -6.82724 -0.917778
  1093 324.131 -32.6458 12.3866
  1094 417.415 -13.4661 -4.88731
  1095 189.416 -0.337239 -5.25249
  1096 189.724 -0.325483 5.19711
  1097 284.533 -18.0064 -78.2729
  1098 302.753 -7.23019 1.61743
  1099 302.782 -7.27032 -1.63158
  1100 183.110 98.5556 137.455
  1101 419.349 34.4117 -30.1750
  1102 61.9940 30.1642 -41.8570
  1103 362.487 -5.40475 -6.10745
  1104 97.0858 33.2693 -63.3879
  1105 201.863 -12.6994 -39.5205
  1106 393.346 -0.432888 0.400475
  1107 393.497 -0.406234 -0.294266
  1108 356.657 -20.3643 -22.4992
  1109 315.815 -35.4523 -50.3926
  1110 97.9100 13.7659 52.6645
  1111 388.030 38.4035 35.1655
  1112 352.108 -3.56134 -0.534849
  1113 352.148 -3.56404 0.567974
  1114 384.465 -24.7274 61.1120
  1115 397.459 79.5790 13.5144
  1116 236.220 -5.69700 -11.9437
  1117 236.280 -5.67020 11.8591
  1118 179.329 20.4894 97.3645
  1119 337.492 1.71775 -30.9358
  1120 105.993 34.1345 68.1383
  1121 433.032 -7.37158 -20.7653
  1122 425.745 94.0868 4.07221
  1123 292.890 -23.1785 15.7216
  1124 270.522 1.44094 -1.27802
  1125 371.532 -3.26421 7.58391
  1126 384.588 -0.487048 2.95565
  1127 84.5127 0.151780 -15.5542
  1128 85.6625 0.111033 15.4488
  1129 303.116 5.07103 -14.9373
  1130 312.273 -9.18700 -1.18145
  1131 312.202 -9.14404 1.17477
  1132 32.8946 52.1025 -48.5827
  1133 52.2411 113.667 -97.0357
  1134 316.248 -12.3553 0.934719
  1135 316.370 -12.3542 -0.952568
  1136 326.734 -7.87859 0.984481
  1137 326.687 -7.86204 -0.957108
  1138 85.8411 54.8193 68.5860
  1139 258.018 -3.19749 -2.25480
  1140 258.048 -3.17435 2.24407
  1141 324.485 24.5280 -0.350986
  1142 413.143 52.3868 -144.384
  1143 395.656 68.2217 -23.1609
  1144 360.966 -13.8616 -31.6946
  1145 355.563 -17.7347 -22.8506
  1146 293.064 -23.3947 -15.9833
  1147 294.959 0.964507 9.22097
  1148 331.750 20.6831 -22.2009
  1149 327.134 17.5936 21.2093
  1150 338.192 -13.4358 -5.06637
  1151 322.772 -19.5000 0.640584
  1152 293.492 -18.9776 -11.8219
  1153 349.388 -2.05494 16.7126
  1154 616.644 62.2454 8.67798
  1155 351.748 -7.50073 30.4428
  1156 352.980 23.1738 33.3410
  1157 325.647 -32.0510 -9.31979
  1158 40.5810 6.73202 -24.0059
  1159 331.752 -15.3487 -3.54591
  1160 220.457 -0.348130 -0.138673
  1161 220.507 -0.346679 0.137136
  1162 404.064 -10.7209 16.0849
  1163 385.045 -32.4213 14.1394
  1164 552.944 99.0214 24.2947
  1165 132.292 -0.273869 -12.9563
  1166 133.084 -0.245241 12.8588
  1167 296.264 -6.00666 -1.33430
  1168 296.249 -5.96903 1.32449
  1169 332.785 -29.3627 -1.07222
  1170 272.939 1.23391 4.18472
  1171 340.803 -24.2671 7.35645
  1172 19.3073 22.9455 -11.1847
  1173 61.3540 30.5802 40.9301
  1174 228.108 -12.3973 75.6552
  1175 394.142 75.0978 -16.5367
  1176 376.566 -1.04322 -4.69169
  1177 395.011 -0.632630 0.268299
  1178 395.394 -0.862573 -0.169216
  1179 229.435 -0.552262 -0.458011
  1180 229.485 -0.547912 0.454546
  1181 363.250 23.2217 37.8326
  1182 537.202 91.8067 -1.95024
  1183 374.249 61.8889 -16.8482
  1184 279.884 -20.5751 77.7718
  1185 226.894 -11.9166 -75.5113
  1186 252.203 -16.9029 -26.4441
  1187 349.213 -9.75566 7.11588
  1188 487.262 107.346 4.24752
  1189 252.224 -16.8018 26.2361
  1190 356.818 -6.22754 5.38504
  1191 318.581 11.8327 20.2412
  1192 351.107 10.8736 36.3575
  1193 500.035 111.691 12.0788
  1194 296.828 -7.76026 2.48922
  1195 296.844 -7.79801 -2.50701
  1196 361.459 -6.77999 11.6613
  1197 214.313 -2.30359 8.81203
  1198 214.162 -2.32699 -8.89212
  1199 353.567 -4.80483 -2.39668
  1200 145.587 86.7363 -132.931
  1201 306.171 -17.2522 -83.2751
  1202 288.700 -9.06782 -4.62677
  1203 288.729 -9.02630 4.62830
  1204 379.286 -1.77886 1.86571
  1205 358.938 -4.69225 4.30469
  1206 19.6387 24.6687 18.1240
  1207 390.502 -0.435718 1.54763
  1208 46.4682 58.8636 58.4044
  1209 350.570 -5.23079 -3.08323
  1210 -0.437962 -8.59172 -7.52727
  1211 247.901 -24.1893 -58.5707
  1212 247.216 -23.6015 57.9839
  1213 390.490 -0.685749 -1.71144
  1214 333.858 -17.6141 -4.23780
  1215 379.012 -1.62164 -1.91148
  1216 303.351 -9.82807 -2.37241
  1217 303.320 -9.79148 2.34530
  1218 353.340 -4.77053 2.25136
  1219 331.513 -15.0484 3.50884
  1220 318.968 -10.2667 0.0478920
  1221 319.081 -10.2952 -0.00923009
  1222 378.691 -1.67158 -1.56058
  1223 326.844 -34.4032 -56.8250
  1224 370.518 -2.27817 -1.59456
  1225 352.070 -5.37732 3.31567
  1226 245.604 -2.70836 -3.46439
  1227 245.645 -2.68181 3.44389
  1228 274.363 -4.05010 -1.77126
  1229 274.377 -4.02200 1.76228
  1230 444.503 69.3157 22.2987
  1231 373.543 -28.7007 13.8618
  1232 256.187 -1.18858 96.1210
  1233 205.217 -0.351531 3.38315
  1234 205.044 -0.355293 -3.41705
  1235 353.934 -6.53395 22.8713
  1236 338.766 -5.12539 0.644546
  1237 338.781 -5.10784 -0.644153
  1238 387.832 75.5146 7.72865
  1239 355.199 -37.1844 45.0070
  1240 205.600 -2.91987 12.3692
  1241 205.396 -2.94202 -12.4604
  1242 338.260 -8.25125 2.63316
  1243 338.185 -8.30800 -2.55562
  1244 349.025 -9.63581 -6.85586
  1245 320.725 0.0636362 10.8237
  1246 554.296 137.743 -45.8336
  1247 355.487 -13.0028 -20.1939
  1248 60.9314 14.5287 34.9173
  1249 367.237 -19.5695 27.9308
  1250 294.924 6.44424 -8.17131
  1251 22.5407 16.5938 12.6226
  1252 483.835 53.8864 -4.50726
  1253 358.651 -16.3093 -28.2482
  1254 296.336 4.21079 12.5161
  1255 203.284 -12.7205 39.4517
  1256 364.351 -28.2014 16.6969
  1257 528.908 101.071 31.9696
  1258 122.391 18.0927 67.0395
  1259 366.164 -4.34187 -10.0445
  1260 703.715 7.85963 -7.08460
  1261 727.155 10.9314 31.5904
  1262 776.524 26.4455 -75.0633
  1263 355.034 -11.0784 -25.1580
  1264 355.043 -16.2003 21.3991
  1265 360.725 -25.6723 19.9185
  1266 -10.6117 1.21224 6.73626
  1267 -9.65977 0.966545 -7.32952
  1268 351.110 -38.7963 -20.9820
  1269 359.708 -36.3608 -31.4762
  1270 274.911 1.74772 -5.16780
  1271 349.658 -39.4956 31.4253
  1272 373.557 -17.7171 -28.3430
  1273 7.31371 11.1254 1.24044
  1274 303.623 -5.55535 0.950230
  1275 303.645 -5.59526 -0.952747
  1276 371.287 -2.96381 6.83523
  1277 356.796 -6.11617 -5.05929
  1278 335.986 -36.6829 -11.1142
  1279 306.863 -16.6215 4.97915
  1280 305.314 -16.3891 -5.42542
  1281 360.134 -7.60364 16.0228
  1282 369.059 -13.5583 -32.6198
  1283 23.3926 17.3011 -12.2203
</Section>

newXOutput 49

<Section columns = "stress_xx | stress_yy | stress_xy">
  1 405.455 -0.0822564 0.789254
  2 405.468 -0.0757568 -0.791633
  3 221.484 -0.0806774 -0.285602
  4 -2.80347 -2.77494 -4.03021
  5 729.397 289.689 232.824
  6 722.603 300.246 -232.611
  7 -3.25539 -2.63895 4.28535
  8 221.433 -0.0815048 0.284817
  9 408.299 -0.677349 0.240360
  10 407.444 -1.07180 -0.203084
  11 406.521 -0.713354 0.909021
  12 405.593 -0.984141 0.252936
  13 403.596 -0.827873 1.43203
  14 401.782 -0.837224 1.04385
  15 397.498 -0.740404 2.05679
  16 391.366 -0.512568 3.03142
  17 385.900 -0.546287 3.37709
  18 377.785 -0.765965 4.08561
  19 366.520 -0.0569923 6.04379
  20 356.114 -0.564866 5.74814
  21 344.253 -0.735155 8.10293
  22 327.123 0.520417 7.05339
  23 314.714 0.785716 8.34126
  24 298.525 1.32406 6.52945
  25 287.320 1.38864 6.58399
  26 271.087 1.94613 3.35762
  27 267.665 3.06447 3.59982
  28 265.606 2.51090 -1.06316
  29 268.422 1.45256 -2.33696
  30 273.605 1.41306 -2.86600
  31 285.765 1.78400 -5.72079
  32 297.575 1.40893 -7.23612
  33 314.899 0.310345 -8.57928
  34 328.759 -0.178569 -7.81018
  35 343.524 -0.585049 -7.66933
  36 356.889 -0.440903 -5.41213
  37 368.365 -0.461471 -4.62572
  38 377.821 -0.748946 -3.87923
  39 386.282 -0.535407 -2.69942
  40 391.555 -0.636559 -2.86285
  41 396.651 -0.783522 -2.09181
  42 401.460 -0.929013 -0.909924
  43 403.924 -0.747926 -1.07473
  44 405.212 -0.460152 -0.668085
  45 404.236 -0.254144 -0.609590
  46 407.855 -1.08027 0.136454
  47 408.423 -0.705261 -0.247885
  48 395.138 -0.312995 -0.488367
  49 386.331 -1.65428 -0.886199
  50 375.565 -2.42975 -0.569750
  51 362.431 -3.59494 -0.783034
  52 349.973 -3.93303 -0.966752
  53 336.670 -4.91653 -0.920692
  54 324.891 -5.46485 -0.502581
  55 314.559 -6.10878 -0.176904
  56 302.636 -5.06857 -0.170929
  57 288.894 -4.73453 -0.295116
  58 275.649 -3.73511 -0.0757373
  59 263.101 -2.38017 -0.0184977
  60 251.175 -1.69453 0.0331554
  61 240.715 -0.866702 0.121124
  62 230.018 -0.231138 -0.326675
  63 221.608 0.310785 0.418079
  64 217.834 0.868012 0.283615
  65 220.394 0.00860151 0.667034
  66 217.509 -0.116654 0.804988
  67 214.830 -0.174384 1.00362
  68 211.196 -0.0202074 1.30686
  69 206.613 -0.0111684 1.64539
  70 203.213 -0.268121 3.16719
  71 193.525 0.283412 3.45763
  72 186.699 -0.0189251 3.95657
  73 176.535 -0.176978 4.48866
  74 164.829 -0.299064 5.46318
  75 150.197 -0.0673375 6.63343
  76 132.360 0.0832056 7.31280
  77 116.952 -0.159265 10.4488
  78 86.5169 0.970659 9.85798
  79 65.7809 0.837136 10.4408
  80 40.9307 -0.183939 11.5759
  81 20.2934 1.92365 12.0317
  82 -3.20140 2.87459 7.21486
  83 -20.2842 2.92002 2.54916
  84 -19.7389 2.81455 -1.05727
  85 -18.8307 2.33811 -5.66790
  86 -11.0748 -0.752095 -5.38467
  87 -1.35749 -10.6317 -5.94114
  88 1.04538 -19.5862 -7.43030
  89 2.90887 -30.9157 -4.11086
  90 6.46272 -31.5360 0.361543
  91 13.6788 -7.31180 18.0728
  92 40.8132 62.9500 61.3782
  93 239.611 224.187 208.161
  94 882.788 131.843 147.828
  95 795.232 18.8847 48.1568
  96 739.199 7.82168 14.7367
  97 718.507 6.63705 1.14398
  98 729.450 8.84042 -12.7554
  99 793.397 17.5740 -38.1024
  100 935.665 63.6032 -127.401
  101 142.250 229.195 -174.065
  102 30.5661 44.4712 -50.7890
  103 14.9315 -5.81182 -19.0473
  104 6.04342 -31.5686 -3.25945
  105 1.69996 -23.5403 4.72619
  106 2.14844 -24.6850 6.44599
  107 0.100067 -9.19226 6.57913
  108 -11.5597 -0.489143 5.10921
  109 -19.4296 1.75494 4.94672
  110 -20.7849 3.42182 1.16983
  111 -20.9406 2.87545 -2.35904
  112 -4.66161 2.94609 -6.75698
  113 19.0028 1.94050 -11.4700
  114 39.6131 0.0201371 -11.3856
  115 64.4224 0.905163 -10.4634
  116 85.2827 0.996321 -9.93414
  117 115.994 -0.163583 -10.5378
  118 131.539 0.0927561 -7.38450
  119 149.481 -0.0644626 -6.71755
  120 164.461 -0.331128 -5.50469
  121 176.041 -0.168257 -4.50086
  122 186.325 -0.00638739 -3.99815
  123 193.218 0.279897 -3.49619
  124 202.993 -0.270735 -3.19989
  125 206.437 -0.0128642 -1.66550
  126 211.063 -0.0218176 -1.32341
  127 214.729 -0.177044 -1.01675
  128 217.432 -0.118931 -0.814164
  129 220.330 0.00663613 -0.672904
  130 217.779 0.866951 -0.286350
  131 221.555 0.310266 -0.419786
  132 229.966 -0.233393 0.325750
  133 240.666 -0.872345 -0.123241
  134 251.132 -1.70697 -0.0356357
  135 263.069 -2.39746 0.0161046
  136 275.631 -3.76001 0.0733838
  137 288.891 -4.76596 0.293275
  138 302.650 -5.10488 0.169096
  139 314.586 -6.14935 0.176120
  140 324.928 -5.50526 0.503951
  141 336.723 -4.95329 0.924818
  142 350.018 -3.95847 0.981588
  143 362.464 -3.61768 0.854051
  144 375.632 -2.29691 0.582538
  145 386.604 -1.61049 0.866702
  146 395.204 -0.374228 0.481026
  147 353.716 -33.2307 -2.26481
  148 353.420 -32.7835 2.39080
  149 371.331 53.3508 -18.1744
  150 395.590 23.3173 38.4352
  151 299.655 -28.8374 -65.9983
  152 302.079 -28.8022 63.8750
  153 291.313 -12.3716 7.93632
  154 291.337 -12.5442 -7.94266
  155 419.372 15.0783 -29.2544
  156 352.775 -12.6918 7.78287
  157 352.625 -12.3856 -7.68590
  158 456.014 101.737 4.63703
  159 361.201 -0.578671 -37.5988
  160 267.402 -21.0531 -29.5756
  161 267.409 -20.8772 29.3149
  162 361.822 -8.19108 33.9194
  163 343.832 25.0853 22.4418
  164 142.067 22.8262 -78.7680
  165 157.526 21.6262 82.9997
  166 442.618 5.06754 3.35567
  167 362.722 -13.9132 -23.5236
  168 480.161 105.460 -1.83578
  169 326.710 -9.22533 -0.0159088
  170 326.641 -9.19642 0.0444690
  171 366.848 -4.44294 -3.39557
  172 368.008 -3.99146 2.93285
  173 256.822 -3.69902 -4.70579
  174 256.854 -3.66055 4.68118
  175 393.818 -10.3722 83.8790
  176 332.866 13.8127 -24.1737
  177 217.686 -16.3188 -47.4616
  178 218.336 -16.1996 47.1511
  179 244.578 -8.03759 -15.5127
  180 244.601 -7.94507 15.3970
  181 364.483 -9.57302 19.9943
  182 331.289 -22.7485 -0.853946
  183 330.122 -22.5792 1.38358
  184 376.545 -36.4363 -6.46880
  185 378.505 -34.7124 1.78444
  186 520.220 122.437 -18.1542
  187 378.616 60.8011 16.9944
  188 379.197 23.2892 -38.6567
  189 392.422 -3.28764 -97.4740
  190 376.222 -21.2584 -26.8939
  191 379.455 -15.1782 31.7146
  192 316.364 -35.9226 32.3672
  193 316.443 -35.6692 -32.2677
  194 338.523 4.31031 29.0450
  195 154.964 -3.78965 -58.0398
  196 155.345 -4.11947 57.6840
  197 586.576 87.8555 12.6926
  198 356.350 -21.2309 14.5755
  199 369.557 -6.78956 -13.0022
  200 293.089 -7.18179 -3.61786
  201 293.094 -7.14483 3.60620
  202 354.870 -4.61147 -26.1452
  203 404.039 59.3127 -30.9006
  204 338.165 30.3821 -4.49772
  205 220.200 -7.81338 21.8122
  206 219.863 -7.83839 -21.9755
  207 375.042 -4.16314 7.09555
  208 365.364 6.87025 38.6692
  209 297.050 -21.6495 -14.2772
  210 295.043 -20.4990 14.6183
  211 430.599 63.8661 28.2291
  212 506.095 69.4330 11.7437
  213 34.4518 26.9212 -22.1313
  214 31.8629 24.8866 18.8072
  215 208.595 59.7331 138.766
  216 352.776 -23.4444 -11.1448
  217 376.394 -3.99890 -6.40943
  218 334.696 2.94302 -26.7474
  219 234.927 -2.34817 -6.88349
  220 235.002 -2.32164 6.82300
  221 317.536 -14.9083 -2.97792
  222 317.684 -14.9998 2.79752
  223 357.919 -4.82443 22.2406
  224 411.924 -23.8524 9.43440
  225 409.316 83.6667 -8.95122
  226 320.989 -31.0150 -15.2957
  227 405.832 -7.06635 24.5167
  228 345.857 -5.81455 1.23629
  229 345.861 -5.76652 -1.23448
  230 318.631 -30.8673 15.8916
  231 365.015 -23.1604 21.8723
  232 512.755 66.3734 -32.7270
  233 113.910 67.7965 -100.619
  234 309.338 10.8628 5.77099
  235 366.702 32.3302 32.5806
  236 390.583 -2.74131 -34.3496
  237 364.965 -13.1386 -31.6954
  238 194.752 -6.27803 -27.3123
  239 195.426 -6.18303 27.2250
  240 365.550 -4.41246 -17.1821
  241 348.342 -8.82316 4.07323
  242 348.178 -8.81124 -3.93550
  243 73.4854 6.76320 -37.0392
  244 74.6582 5.92880 36.9151
  245 387.996 -33.9494 -30.1432
  246 383.839 -1.37654 0.968024
  247 384.248 -1.40280 -1.05509
  248 358.148 29.6881 -29.8343
  249 315.467 6.06858 17.5045
  250 658.006 105.378 70.7392
  251 652.558 74.2918 -44.2522
  252 473.398 102.066 -0.523181
  253 295.510 -14.2467 87.7875
  254 271.248 -9.26026 -91.8109
  255 311.210 -6.39477 -1.26477
  256 311.181 -6.35351 1.25557
  257 258.528 -6.93426 9.49253
  258 258.527 -7.03005 -9.57688
  259 374.602 -4.04210 10.5777
  260 363.541 -25.8905 -17.9526
  261 236.164 -0.446230 -1.61072
  262 236.217 -0.438575 1.60062
  263 358.975 -14.5356 -14.3026
  264 152.581 -4.99217 -37.8830
  265 153.242 -5.00817 37.6098
  266 363.448 -15.7593 25.3560
  267 277.572 -29.4594 53.0895
  268 278.278 -29.9870 -52.9275
  269 313.855 12.0212 -8.14727
  270 270.834 -4.16203 -3.17066
  271 270.857 -4.13354 3.15828
  272 340.941 -0.850455 21.4312
  273 407.238 74.5523 21.4281
  274 218.563 -2.67260 11.6512
  275 218.395 -2.69507 -11.7508
  276 373.293 -31.1796 12.4823
  277 345.562 -38.7754 -35.6130
  278 385.266 -1.86681 3.28876
  279 267.970 -15.8903 -20.2143
  280 267.506 -15.7124 20.1372
  281 473.760 50.0798 123.238
  282 224.218 -18.0965 63.3438
  283 361.551 50.7703 -1.92836
  284 456.743 50.5498 -18.2443
  285 344.665 -26.6614 4.27698
  286 345.826 -39.8361 32.1018
  287 224.899 -17.8007 -64.0596
  288 41.7668 51.5240 46.8645
  289 359.036 -14.5870 14.5668
  290 470.455 61.6054 14.1262
  291 388.297 -1.66673 -2.85158
  292 352.078 12.3225 -34.3421
  293 347.313 -19.6445 7.76880
  294 340.069 -28.7088 1.01067
  295 350.798 16.1047 33.0900
  296 371.508 -31.1890 -11.1309
  297 525.985 102.254 -9.02452
  298 347.219 -18.8825 -7.43061
  299 286.747 82.6425 -169.786
  300 354.976 -37.6323 -7.05691
  301 352.468 -38.6586 11.0956
  302 259.191 -23.4559 -41.7206
  303 234.015 -0.896475 -3.50411
  304 234.081 -0.880883 3.47625
  305 259.301 -23.4744 41.4937
  306 375.571 -0.635074 -38.8271
  307 405.215 -16.7798 -16.1566
  308 308.860 -18.6094 -7.58052
  309 308.660 -18.6521 7.72005
  310 369.028 -31.7638 56.9386
  311 368.547 -2.95892 13.0067
  312 447.389 2.20994 20.3257
  313 302.614 -10.6890 -4.17532
  314 302.634 -10.6529 4.15159
  315 275.731 -7.18440 -6.25664
  316 275.733 -7.11692 6.24709
  317 312.221 4.20444 -16.9290
  318 400.347 29.3364 -37.2567
  319 617.960 166.775 -79.4807
  320 364.655 -3.22711 -1.13144
  321 364.448 -3.18395 1.16220
  322 195.621 -0.390296 79.0420
  323 274.303 -12.4480 -13.3829
  324 273.785 -12.4055 13.4170
  325 195.585 -0.846363 -78.7405
  326 381.749 45.0453 -31.7240
  327 426.953 21.1529 27.7678
  328 369.002 -26.3302 -63.2125
  329 339.539 -13.1136 3.34607
  330 339.194 -13.0179 -3.19858
  331 362.283 -7.52553 -6.90813
  332 341.181 -0.644719 -20.0422
  333 382.481 1.63318 38.0074
  334 381.430 -2.68287 -7.28631
  335 229.821 -13.9517 31.8157
  336 229.568 -14.0298 -32.0609
  337 355.924 -0.805139 35.7046
  338 219.894 -1.79549 -6.91524
  339 220.035 -1.77863 6.85216
  340 364.970 -8.40341 10.8257
  341 437.810 89.3920 -15.7045
  342 362.104 -7.58201 7.16856
  343 386.027 48.4610 31.8326
  344 369.374 -6.87806 36.9885
  345 292.730 -5.48848 1.32420
  346 292.732 -5.52247 -1.33313
  347 349.702 -1.24804 -31.6860
  348 462.535 97.2141 9.91459
  349 384.848 70.5240 0.664305
  350 235.727 27.3908 -117.474
  351 24.4304 10.6660 -16.1432
  352 26.7854 11.5408 17.3669
  353 -1.15287 2.74054 7.06452
  354 0.282967 1.55448 -7.38097
  355 673.835 46.7448 16.0368
  356 318.824 -25.8885 -8.99829
  357 365.252 -8.12130 -10.5617
  358 329.703 -5.82087 0.428924
  359 329.664 -5.77419 -0.430981
  360 352.981 38.9892 -16.1579
  361 301.133 -30.6856 26.6347
  362 26.4792 39.4145 -29.0757
  363 301.417 -30.6776 -27.1184
  364 357.582 40.6680 17.1939
  365 364.453 -9.73417 -19.0375
  366 386.520 -21.5812 -22.8433
  367 412.068 86.9603 6.17018
  368 387.393 -24.2058 18.8016
  369 160.805 -4.00396 25.3731
  370 159.846 -3.92657 -25.5361
  371 91.0561 2.21527 -35.2516
  372 92.0155 1.85224 35.0944
  373 317.128 1.06096 17.1199
  374 599.973 175.535 68.6301
  375 376.722 -2.41401 -9.28075
  376 293.496 -24.7871 -20.4046
  377 293.255 -24.7238 20.3771
  378 362.336 -8.37109 -24.1655
  379 412.350 -19.9345 2.60024
  380 318.813 -25.8650 9.26976
  381 452.280 3.38292 -37.4226
  382 256.601 -2.06747 -1.22928
  383 256.639 -2.04966 1.22052
  384 356.451 -2.08209 -15.4525
  385 192.555 -2.77715 -16.5548
  386 192.676 -2.86635 16.3537
  387 425.597 54.3683 -31.4056
  388 230.201 16.2436 109.144
  389 333.410 -17.5068 1.47851
  390 333.737 -17.4761 -1.49400
  391 391.825 66.2702 -20.1318
  392 370.787 -11.0034 -35.0289
  393 371.581 -37.9858 31.2061
  394 310.129 -8.24662 -1.97621
  395 310.093 -8.20674 1.95679
  396 357.736 -27.6119 11.9698
  397 385.043 -1.86132 5.41043
  398 240.715 -8.77601 -19.4097
  399 240.811 -8.77620 19.2448
  400 363.496 12.2012 -38.1486
  401 342.961 -7.47153 1.86098
  402 342.945 -7.48924 -1.81596
  403 354.946 -4.19189 29.0951
  404 331.157 24.1435 7.76388
  405 367.820 -15.5494 30.5460
  406 531.087 111.104 20.0190
  407 178.096 -9.58405 -50.8087
  408 178.592 -9.58666 50.4231
  409 79.6257 42.6184 -60.7267
  410 393.707 -1.18994 1.48439
  411 200.755 -1.69486 -10.4780
  412 201.022 -1.65896 10.3883
  413 362.620 -9.47613 23.6610
  414 328.964 -35.7057 17.6265
  415 371.269 -4.65040 4.88783
  416 378.538 19.2120 39.7422
  417 83.4548 45.3789 63.3012
  418 329.455 -35.5036 -16.2248
  419 340.410 -31.6418 -3.35090
  420 111.606 -2.23821 -31.9352
  421 112.442 -2.32173 31.7154
  422 261.533 -20.9544 -76.3903
  423 390.640 -5.85189 33.5014
  424 260.548 -21.2663 75.7210
  425 360.964 -20.2869 -19.6896
  426 335.770 22.6655 -17.0015
  427 361.021 -15.6199 18.7136
  428 388.184 -1.76809 -3.63859
  429 11.8896 12.7230 5.68473
  430 78.9317 91.1944 89.7340
  431 347.693 -1.27634 14.9154
  432 292.317 4.02597 7.42198
  433 297.339 4.90202 -10.0658
  434 253.686 -4.18568 -6.69773
  435 253.713 -4.13211 6.65431
  436 355.910 -27.5945 -10.9446
  437 359.723 -7.05819 -32.5537
  438 293.870 5.53474 -2.73399
  439 530.870 126.487 26.4930
  440 73.8584 24.4516 -45.5107
  441 81.3928 22.4399 48.6105
  442 333.103 -11.8860 1.40594
  443 332.976 -11.8580 -1.31782
  444 443.980 98.0130 -1.23316
  445 276.916 114.976 173.563
  446 426.783 -5.95643 -5.58917
  447 245.888 -12.8120 -26.3313
  448 246.004 -12.7243 26.1092
  449 247.572 -5.51904 10.4228
  450 247.525 -5.55964 -10.5164
  451 333.783 7.42624 -27.5472
  452 395.706 -0.598499 -0.982989
  453 324.580 14.9134 15.4816
  454 409.566 50.5523 34.1341
  455 341.064 -25.3210 -3.02255
  456 371.119 -4.42866 -4.75028
  457 389.771 -1.60432 3.35106
  458 394.564 -0.641373 0.561476
  459 394.879 -0.719554 -0.410410
  460 218.526 -0.387448 2.56279
  461 218.417 -0.393248 -2.58925
  462 372.970 -23.7248 23.8026
  463 336.975 13.3090 26.6800
  464 352.065 1.43062 -34.8379
  465 367.349 -7.77542 14.1132
  466 528.432 89.7385 -103.937
  467 368.278 -20.4595 -26.6810
  468 3.73128 7.00414 2.96646
  469 3.69269 7.12432 -1.14318
  470 292.097 -16.5304 11.5396
  471 291.125 -16.3082 -11.3982
  472 457.076 8.73385 56.0999
  473 128.059 117.089 -131.770
  474 363.518 -1.12030 11.5708
  475 411.522 -23.9390 -32.0601
  476 220.027 -12.6535 36.8244
  477 441.346 78.3167 -22.5832
  478 362.990 -19.6728 22.3379
  479 305.017 -14.5690 -5.76728
  480 305.285 -14.3281 5.75131
  481 317.051 1.70282 -15.1157
  482 219.341 -12.6034 -37.0507
  483 325.020 0.157031 15.1909
  484 311.038 -35.5828 -47.4780
  485 310.260 -35.6370 47.6517
  486 374.608 -2.50761 10.2485
  487 340.894 32.1559 3.20878
  488 345.391 6.03818 118.787
  489 508.188 103.328 -0.647113
  490 351.207 -5.95859 2.19456
  491 351.227 -5.93712 -2.27387
  492 270.648 -4.79313 -4.25918
  493 270.667 -4.75332 4.24344
  494 143.047 6.55105 66.4501
  495 364.623 -17.5870 -26.1358
  496 330.748 -7.21888 0.231798
  497 330.714 -7.19372 -0.224907
  498 288.202 -30.5028 38.8548
  499 145.802 8.66050 -68.1325
  500 365.069 -29.7723 -12.5415
  501 6.37025 1.49800 2.73125
  502 319.742 16.5416 1.13142
  503 352.466 -4.12250 -0.719118
  504 352.458 -4.17837 0.702205
  505 288.372 -30.4495 -39.1553
  506 411.934 -21.1609 40.8579
  507 408.633 14.8357 34.6741
  508 376.990 -2.60312 -2.34587
  509 363.954 -30.1906 12.7267
  510 228.980 -0.213137 -0.461328
  511 229.033 -0.211084 0.457532
  512 363.531 -13.9815 -27.9188
  513 352.391 26.0823 29.1767
  514 403.639 9.96768 -34.2551
  515 227.591 -0.354745 -1.44225
  516 227.653 -0.349779 1.43247
  517 702.223 101.449 -90.6953
  518 366.640 43.6543 25.6806
  519 377.315 -2.40304 2.08764
  520 341.162 -32.3401 4.17504
  521 287.178 -9.48898 6.38023
  522 287.175 -9.56116 -6.36723
  523 396.784 -24.1933 10.1835
  524 381.533 -7.64697 -35.3700
  525 426.607 84.0115 19.0270
  526 355.125 6.11520 36.1297
  527 357.782 -6.91802 4.34545
  528 347.626 -37.1242 -45.7736
  529 360.828 -8.95139 27.5500
  530 693.891 31.8445 -12.6940
  531 393.853 -29.7187 -0.254419
  532 374.649 -2.52682 -0.547813
  533 374.739 -2.68579 0.478671
  534 701.111 47.0367 44.4646
  535 346.338 -0.108457 30.7286
  536 484.103 81.5389 -7.49239
  537 364.136 -9.93611 -13.6939
  538 165.389 -1.54718 -11.3207
  539 165.899 -1.47267 11.2060
  540 246.913 -23.1139 -53.0959
  541 247.112 -22.7266 52.7033
  542 357.584 -6.63377 -4.30712
  543 389.282 14.2773 -38.7208
  544 342.073 -23.2797 4.33233
  545 368.251 42.2183 -26.6407
  546 370.627 -4.33694 13.7919
  547 463.896 23.3928 -5.85482
  548 317.328 -10.8790 -1.73480
  549 317.232 -10.8415 1.71423
  550 344.480 -16.2708 5.75146
  551 507.028 100.717 -8.19509
  552 363.115 15.8856 37.5225
  553 155.471 39.9814 98.1971
  554 350.273 -21.0118 79.5262
  555 462.002 22.7420 -87.7297
  556 371.229 30.6929 -34.9044
  557 328.961 -28.4590 -68.9660
  558 356.325 -39.0671 -13.8903
  559 372.013 -37.6930 -20.2546
  560 49.0183 63.7130 -60.3793
  561 373.963 -4.77053 -8.43619
  562 561.933 109.247 -32.0644
  563 346.308 -15.6110 -6.44928
  564 349.141 -11.3846 5.32304
  565 348.818 -11.1263 -5.10253
  566 241.680 -1.38585 -3.18533
  567 241.732 -1.36793 3.16434
  568 34.6903 3.57717 -19.4427
  569 36.5854 3.75099 19.8912
  570 179.969 -8.35863 -38.7541
  571 181.335 -8.40427 38.6957
  572 353.939 -19.1948 -12.3489
  573 360.468 -39.2270 15.0114
  574 370.524 -35.1987 1.95827
  575 304.243 -5.38533 -1.15734
  576 304.226 -5.34711 1.15138
  577 288.442 -30.2651 -59.0261
  578 322.675 -26.4881 72.9510
  579 281.494 -28.4636 59.3561
  580 364.220 -8.10175 -34.9765
  581 228.992 -3.80520 11.7101
  582 228.879 -3.84484 -11.8064
  583 347.564 19.2200 -29.3093
  584 347.937 -0.610590 -13.5358
  585 434.261 94.2104 -8.54291
  586 284.157 -4.30022 -1.13538
  587 284.165 -4.27179 1.13004
  588 370.573 -1.10730 -7.60448
  589 256.529 -8.66291 -12.9919
  590 256.536 -8.63271 12.8801
  591 209.341 9.63776 93.9377
  592 360.667 -16.6122 -18.9149
  593 201.698 -10.6829 67.5043
  594 354.433 -18.3808 12.6229
  595 372.968 -5.29729 9.32287
  596 368.237 -3.41335 -2.06941
  597 259.566 -3.21032 -2.96993
  598 259.599 -3.18404 2.95466
  599 416.568 83.1452 -17.1636
  600 201.553 -10.2820 -67.7556
  601 353.250 -15.3117 -10.0749
  602 318.832 -5.93876 -0.578823
  603 318.799 -5.89533 0.576479
  604 597.043 80.3345 -14.2428
  605 212.260 -1.36211 6.45748
  606 212.077 -1.37537 -6.51737
  607 329.843 7.57538 25.1390
  608 470.162 39.5239 -4.95102
  609 223.026 1.50803 -93.2303
  610 114.540 2.87827 -50.8796
  611 115.485 2.22735 50.6104
  612 279.878 -16.3346 16.1233
  613 282.782 -16.8160 -15.6673
  614 475.612 95.8675 8.06612
  615 366.740 -3.53645 1.86693
  616 315.654 8.89811 -15.1900
  617 392.826 70.5738 15.9260
  618 391.432 73.2347 -10.5912
  619 321.668 -17.8332 -2.82146
  620 324.106 -17.4326 1.67532
  621 230.574 50.2966 -133.917
  622 276.798 -9.47296 -8.97532
  623 276.822 -9.36487 8.94474
  624 698.494 143.005 107.709
  625 363.722 -11.9318 30.1540
  626 208.407 -7.37366 -24.8274
  627 562.944 131.598 88.3471
  628 208.891 -7.33275 24.7340
  629 347.405 -13.2471 -92.8157
  630 246.086 -1.21207 -1.17399
  631 246.132 -1.20157 1.16808
  632 304.459 2.74303 13.2520
  633 138.777 -2.06671 -22.2840
  634 139.543 -2.07197 22.1101
  635 317.543 -22.4834 6.93027
  636 332.919 -26.6706 -2.10041
  637 391.935 -0.867024 -3.07397
  638 222.112 -0.357958 1.89487
  639 222.027 -0.364346 -1.91431
  640 299.725 -6.76694 -1.77487
  641 299.714 -6.72913 1.76175
  642 343.461 -38.1262 46.2484
  643 394.804 44.0788 -35.0710
  644 263.134 -12.2800 -16.7423
  645 262.948 -12.0731 16.6220
  646 311.706 -22.4344 -9.58355
  647 490.387 106.718 3.22847
  648 368.344 -35.6545 0.0649495
  649 320.037 -7.67873 -0.846129
  650 319.989 -7.64114 0.846426
  651 439.730 48.1581 26.2863
  652 369.118 -5.34854 -14.9897
  653 326.885 -0.395171 -12.3698
  654 151.626 -5.17975 -48.7441
  655 152.090 -5.32436 48.3483
  656 310.870 -26.8327 -15.3407
  657 465.866 102.570 0.176416
  658 361.650 48.9653 -11.5672
  659 240.428 -2.19206 -5.85483
  660 240.485 -2.16158 5.80842
  661 337.146 -9.54994 -1.47226
  662 337.212 -9.56019 1.54360
  663 626.602 81.7879 36.0527
  664 397.774 -1.09281 0.821494
  665 384.625 -1.53546 5.30108
  666 383.145 -1.56198 -6.22344
  667 363.875 -33.8863 5.24361
  668 268.403 -3.12830 -1.48393
  669 268.429 -3.10603 1.47734
  670 388.985 62.3325 24.5371
  671 498.593 110.774 -6.79666
  672 273.371 -20.3263 -23.7183
  673 273.294 -20.1270 23.5999
  674 341.533 -35.1968 -7.45085
  675 360.465 21.4281 -35.3251
  676 427.345 1.13185 14.7069
  677 284.299 -5.29701 -2.96527
  678 284.308 -5.26302 2.95322
  679 245.917 -21.5687 -47.9400
  680 360.441 -34.8702 -1.92084
  681 299.745 -33.2422 42.8107
  682 143.602 45.3133 -94.7615
  683 280.048 -25.9513 33.0246
  684 337.818 0.0921541 11.4190
  685 246.145 -21.3243 47.6200
  686 353.045 -15.6073 10.1992
  687 280.137 -25.8421 -33.3241
  688 287.463 3.76117 2.78191
  689 222.356 -5.97953 17.6634
  690 222.158 -5.98578 -17.7866
  691 299.903 -34.1037 -43.2858
  692 370.505 -24.4247 -23.0065
  693 339.856 -4.79711 -0.388695
  694 339.910 -4.84652 0.390553
  695 378.615 -24.1373 22.7490
  696 344.146 -35.9692 8.82706
  697 418.027 38.3527 33.7623
  698 377.273 -7.08464 36.4774
  699 363.034 -13.0459 22.1530
  700 347.185 28.5548 -22.2331
  701 417.169 70.1502 26.7304
  702 360.214 -4.99252 -21.5819
  703 358.859 -11.9170 11.2944
  704 371.309 58.1238 6.24966
  705 365.147 -6.20856 18.7570
  706 115.245 78.4251 99.3699
  707 339.797 -39.0912 -26.8180
  708 393.426 7.14136 37.0410
  709 397.105 -12.2975 -26.1642
  710 395.961 -0.543169 1.68997
  711 362.753 -12.4830 -17.3997
  712 340.296 -39.3982 24.3890
  713 656.799 58.1728 -9.73292
  714 203.635 -0.871545 6.75713
  715 203.392 -0.881087 -6.82036
  716 367.834 -6.71121 -8.05986
  717 398.298 -0.415044 -1.65018
  718 310.307 -27.2672 15.4212
  719 372.450 -13.8737 33.0907
  720 564.570 135.292 -42.4699
  721 353.025 -25.5980 10.3392
  722 391.198 -25.7734 -13.2085
  723 358.990 -11.5989 -11.1129
  724 398.089 -0.708270 -0.525878
  725 363.689 -0.0401117 38.0493
  726 16.8601 15.8540 21.3400
  727 409.644 -15.6722 -60.6103
  728 445.931 26.5163 16.1877
  729 371.632 -37.9856 18.1162
  730 265.590 -6.38333 7.34736
  731 265.589 -6.47209 -7.38247
  732 345.458 176.482 -182.275
  733 378.775 -25.0704 -20.9877
  734 286.347 1.52157 -5.31851
  735 333.283 1.85340 24.4957
  736 365.490 -18.3019 26.5619
  737 350.323 -29.5226 4.97490
  738 364.016 -33.2055 -49.7022
  739 348.187 -27.5515 -5.63440
  740 410.995 -19.6794 -4.01194
  741 378.560 -3.12207 4.69846
  742 338.173 -20.3234 2.86537
  743 612.926 122.515 -65.4451
  744 360.560 -9.66876 8.94073
  745 357.007 5.84784 -37.0965
  746 304.514 -3.39175 104.332
  747 382.337 30.7787 37.8139
  748 328.900 -25.9008 3.79804
  749 254.289 -20.0310 -35.0485
  750 254.315 -19.9763 34.7655
  751 349.920 39.3512 -5.17674
  752 355.769 -4.12217 33.0743
  753 359.565 -8.56574 -28.1591
  754 338.556 -20.7405 -2.97164
  755 327.365 -29.3436 8.73592
  756 374.154 61.7145 -7.04844
  757 349.894 -30.2840 -3.59597
  758 350.769 -22.2101 10.0775
  759 355.325 -4.59225 1.53774
  760 355.541 -4.46916 -1.52650
  761 477.972 104.870 2.13216
  762 390.744 -33.2450 -12.1582
  763 363.854 -11.1558 17.3344
  764 378.688 -3.11373 -4.27050
  765 382.914 2.53471 -38.3733
  766 435.609 22.9597 -22.1300
  767 214.568 -0.203762 -3.15994
  768 214.708 -0.200718 3.12854
  769 3.12818 -6.51419 -4.59224
  770 371.468 -0.442581 7.03905
  771 340.820 -0.546223 -27.0767
  772 351.944 -3.29696 23.8341
  773 320.596 39.9784 152.865
  774 400.550 82.3027 -0.853195
  775 285.009 -20.3989 18.5396
  776 50.3616 1.11399 -19.1811
  777 51.7974 0.818580 19.3851
  778 348.847 -2.48298 -26.9043
  779 285.775 -20.6013 -18.5366
  780 376.462 -3.42415 3.55505
  781 193.165 -8.24442 33.0701
  782 191.518 -8.21524 -33.0830
  783 360.536 -9.38889 -8.70698
  784 230.907 -5.82575 -15.3805
  785 231.023 -5.78767 15.2456
  786 375.419 -3.56177 -10.3444
  787 287.080 -7.67554 -5.10027
  788 287.090 -7.62572 5.10217
  789 409.841 -2.59462 -26.1685
  790 369.094 -3.87341 -38.1435
  791 188.434 -1.20360 -8.60738
  792 188.796 -1.19238 8.50832
  793 9.58135 4.71547 -11.6862
  794 11.2355 4.97588 12.2917
  795 299.817 1.44560 -9.62498
  796 337.038 -37.8686 -20.0444
  797 -3.85965 -2.66340 6.67842
  798 -3.39079 -3.15707 -6.64624
  799 350.752 -7.05748 3.31066
  800 380.255 -29.6897 -11.7040
  801 392.884 58.2073 -28.6183
  802 378.063 -3.08058 -3.38005
  803 804.446 162.524 -151.099
  804 350.679 -7.03521 -3.26699
  805 527.390 100.454 8.29075
  806 375.445 10.9246 -39.7922
  807 414.500 31.2883 -34.5866
  808 70.2075 -0.824419 -17.7049
  809 71.4827 -0.927311 17.6734
  810 234.783 -3.38629 9.12421
  811 234.699 -3.41442 -9.20440
  812 224.329 -0.527552 1.70994
  813 224.259 -0.533091 -1.72347
  814 419.265 70.5803 -26.4827
  815 248.536 -1.54900 -2.53122
  816 248.581 -1.53124 2.51729
  817 356.862 -3.59358 -34.5292
  818 513.591 53.0981 44.9374
  819 321.535 7.20475 -21.1449
  820 111.816 -1.00086 18.9517
  821 110.881 -1.01015 -19.0997
  822 414.147 11.4705 109.835
  823 367.470 -6.76621 8.31861
  824 329.151 21.8622 -8.80738
  825 152.656 -0.240840 12.9075
  826 151.884 -0.170110 -13.0019
  827 229.005 -1.16606 -4.47555
  828 229.089 -1.14932 4.43482
  829 41.1262 36.5844 31.7059
  830 343.048 8.19058 31.3998
  831 381.570 56.0526 -24.5661
  832 410.333 47.6425 -34.4495
  833 270.088 -10.2057 -11.7489
  834 269.934 -10.1300 11.7338
  835 425.106 90.4125 11.9890
  836 366.694 -3.08169 -0.438199
  837 366.716 -3.05868 0.499491
  838 363.108 -10.9016 -22.3667
  839 304.363 -20.2778 10.8608
  840 334.989 -37.6420 20.1361
  841 393.289 -32.2245 31.3099
  842 301.726 -8.76086 -3.04775
  843 301.723 -8.72829 3.02775
  844 345.176 32.0000 14.2845
  845 324.470 4.44896 -22.8309
  846 90.1649 107.334 103.430
  847 328.383 -29.1037 -7.93019
  848 329.496 -14.7282 0.507407
  849 329.672 -14.7589 -0.525911
  850 362.475 -5.34578 36.2728
  851 359.313 -23.6199 -16.4006
  852 321.050 -21.2555 -4.44243
  853 728.584 23.5873 -35.9687
  854 305.246 -28.8751 21.0889
  855 305.000 -29.2490 -21.4265
  856 362.053 -4.33471 18.3518
  857 544.012 140.688 -32.0174
  858 286.518 -26.0232 -26.2825
  859 316.346 -35.6157 25.0405
  860 286.445 -25.7107 26.0523
  861 310.549 -12.5030 -3.51897
  862 310.541 -12.4614 3.49431
  863 46.2964 19.6053 27.5451
  864 389.089 29.0689 -38.2332
  865 298.104 -11.6350 -5.55932
  866 298.159 -11.5181 5.57899
  867 294.459 -4.88164 -0.673867
  868 294.455 -4.84830 0.669496
  869 323.623 -6.45198 -0.131083
  870 323.584 -6.40998 0.128706
  871 263.487 -5.16059 -6.35209
  872 263.509 -5.10300 6.32589
  873 299.209 -15.7383 -8.37122
  874 299.248 -15.6317 8.40774
  875 7.30290 -2.33373 -3.65494
  876 450.482 84.5253 19.4352
  877 387.606 -13.6093 -30.4044
  878 316.081 -35.0987 -25.3021
  879 341.352 -11.0108 3.00302
  880 341.202 -10.8982 -2.90969
  881 372.242 0.456016 38.9729
  882 404.149 -28.8295 -17.5458
  883 357.454 25.6631 -132.684
  884 163.385 -2.69168 65.6595
  885 -5.80888 3.80998 -4.57096
  886 -5.01549 4.30149 5.05088
  887 46.0008 20.8501 -28.1249
  888 363.667 -10.4698 13.6070
  889 382.407 -2.52135 -5.72050
  890 343.997 -33.1122 57.0100
  891 162.998 -2.52215 -65.9190
  892 383.343 -31.3995 8.01330
  893 426.341 -12.4669 49.7922
  894 310.623 1.25957 10.2001
  895 355.661 33.8325 24.3086
  896 192.875 -10.8658 48.2613
  897 192.131 -10.9535 -48.5787
  898 231.323 -11.0024 -27.0771
  899 242.513 -11.9218 -83.6842
  900 383.646 -8.99080 34.2740
  901 526.249 123.922 19.8583
  902 385.283 14.8059 38.9889
  903 364.174 -7.78153 -20.4236
  904 247.593 -10.6807 85.7613
  905 463.869 85.5695 -14.0199
  906 46.3508 39.3625 -39.0465
  907 336.891 -0.671190 -10.8924
  908 231.565 -10.9121 26.8387
  909 282.077 -6.22051 4.49020
  910 282.068 -6.26287 -4.49996
  911 359.833 -23.4936 16.9497
  912 373.353 -2.40759 1.34057
  913 274.819 2.50529 -103.952
  914 393.505 -0.878986 2.70534
  915 390.643 -0.723507 -3.46869
  916 293.070 2.55268 -8.85664
  917 377.788 -1.54211 -6.23300
  918 282.947 -13.2325 -10.8766
  919 283.137 -13.0350 10.9102
  920 -9.20355 3.47801 -5.28219
  921 -12.7430 2.09797 5.60983
  922 373.341 -2.23793 -1.36448
  923 124.266 -2.82395 44.3176
  924 123.527 -2.55976 -44.5682
  925 399.274 58.2260 30.1851
  926 711.601 12.8634 11.1111
  927 375.947 41.8014 31.8352
  928 425.072 -14.9135 14.4629
  929 369.901 -20.6057 26.7320
  930 460.419 96.4581 -10.6856
  931 286.872 1.23639 6.67750
  932 355.858 -8.39058 -5.34109
  933 369.983 19.8948 -38.5315
  934 446.302 13.3029 -6.68325
  935 346.984 -21.4329 -7.84455
  936 178.096 -0.990691 -9.63067
  937 178.278 -0.955570 9.49536
  938 366.050 -8.61269 -15.9335
  939 12.3514 15.6215 3.38725
  940 351.391 -36.4308 -4.00654
  941 305.221 9.05610 -0.912996
  942 457.352 100.442 -7.09136
  943 72.6599 54.0235 -64.5931
  944 351.965 -2.62204 -21.3564
  945 244.476 -4.08005 -8.53357
  946 244.525 -4.03219 8.46252
  947 2.16015 -9.96563 7.56711
  948 239.411 -17.8129 -38.8526
  949 357.978 -20.7008 -15.9328
  950 223.588 0.480911 -0.710583
  951 223.645 0.483154 0.705858
  952 361.854 43.9068 -19.4540
  953 387.235 -1.17265 -0.545936
  954 387.249 -1.18808 0.718239
  955 239.520 -17.7646 38.5918
  956 362.436 -0.504914 -8.42619
  957 416.567 3.01301 25.1703
  958 369.623 -5.23669 6.41189
  959 59.5103 15.0200 -34.7116
  960 383.170 -2.34021 5.17916
  961 348.180 2.81451 33.5932
  962 367.189 50.8473 17.3039
  963 367.222 4.25483 -39.3971
  964 253.391 -13.5756 -23.2734
  965 395.981 -14.0488 25.2289
  966 253.557 -13.5236 23.0409
  967 11.7943 12.7980 -1.31217
  968 43.8135 7.47443 25.4448
  969 207.114 -3.65805 15.9526
  970 206.861 -3.66086 -16.0421
  971 356.109 -8.54866 5.63538
  972 383.221 66.6180 9.55564
  973 195.194 17.8329 -98.4898
  974 320.453 -20.0037 3.88982
  975 300.808 -31.4445 -31.6288
  976 438.152 83.9373 20.3866
  977 337.181 -5.97128 0.417497
  978 337.167 -5.93877 -0.419970
  979 369.267 -6.84558 -11.4040
  980 341.974 29.5361 -13.1760
  981 768.911 228.891 154.332
  982 71.7381 4.00392 -33.4037
  983 72.8469 3.32659 33.4767
  984 5.33628 -6.46730 1.94470
  985 342.967 19.0189 27.0456
  986 300.730 -31.6361 31.3973
  987 372.467 -17.6090 -30.4847
  988 405.205 33.1102 37.5966
  989 389.152 -31.4260 -38.3601
  990 568.111 119.516 39.8803
  991 331.065 -5.37392 -0.176074
  992 331.021 -5.32966 0.176268
  993 387.248 -15.8084 28.8009
  994 26.8828 45.2103 46.6701
  995 175.049 -3.67253 22.8354
  996 174.506 -3.62542 -23.0778
  997 208.775 -10.2096 31.2368
  998 208.060 -10.0531 -31.3529
  999 235.071 -9.68897 22.4626
  1000 256.992 -2.03950 -1.14277
  1001 257.030 -2.02438 1.13813
  1002 636.928 204.007 -130.408
  1003 578.422 144.989 59.9960
  1004 234.881 -9.73814 -22.6499
  1005 398.850 -1.85149 31.7982
  1006 357.346 37.0802 -23.3972
  1007 252.487 -21.7346 69.3984
  1008 324.033 -38.2860 -37.5378
  1009 370.287 -3.04885 -12.3125
  1010 167.403 11.4435 80.2195
  1011 214.800 -16.4049 55.4493
  1012 327.937 16.8315 -16.9510
  1013 374.494 -7.42957 -36.9080
  1014 474.766 195.763 207.794
  1015 309.926 9.50590 12.0791
  1016 420.989 90.6224 -1.44806
  1017 308.982 12.1873 -118.088
  1018 314.672 -33.1077 -21.6218
  1019 398.606 -0.442448 -1.34421
  1020 383.210 35.1916 -36.8271
  1021 225.283 -1.45155 5.74713
  1022 225.177 -1.46628 -5.80058
  1023 8.29616 4.78183 -12.1096
  1024 253.611 -11.5735 -19.4106
  1025 214.538 -16.6163 -55.8647
  1026 253.420 -11.5480 19.1989
  1027 366.121 -11.1550 34.1347
  1028 328.543 -20.3039 -0.956855
  1029 345.306 6.35929 -32.5549
  1030 355.332 44.3790 6.83143
  1031 480.386 29.3352 18.0800
  1032 362.593 -27.5539 16.0902
  1033 229.751 -18.3584 -42.5113
  1034 342.424 12.1300 -30.4871
  1035 254.661 -21.4461 -69.7600
  1036 488.344 105.876 -2.07589
  1037 332.962 21.8768 15.4213
  1038 419.696 -2.44831 -19.1269
  1039 316.626 -33.1231 19.9249
  1040 362.716 -11.5052 26.3478
  1041 360.301 -19.0278 18.8054
  1042 358.322 -18.0276 16.2604
  1043 442.190 56.2154 -27.0424
  1044 358.016 -5.77814 26.8279
  1045 323.514 -38.3929 36.9296
  1046 345.316 -14.1239 5.21302
  1047 229.896 -18.3937 42.2767
  1048 324.371 -23.8940 -4.73801
  1049 188.961 -9.18922 -59.2979
  1050 269.180 -27.9404 47.1054
  1051 364.529 -2.48095 -14.3167
  1052 355.193 -4.01023 -30.5278
  1053 307.752 -24.3351 -13.2579
  1054 189.285 -9.45284 58.8367
  1055 331.547 0.812742 -21.2897
  1056 246.846 -16.3678 -30.1176
  1057 446.108 94.9096 12.7953
  1058 99.9535 16.4966 -56.4648
  1059 759.227 53.6330 72.9447
  1060 179.196 13.3047 -83.9652
  1061 358.222 -29.6808 -9.70292
  1062 246.914 -16.2284 29.8736
  1063 328.064 3.48629 23.8237
  1064 184.501 -3.73464 18.9066
  1065 184.405 -3.82686 -19.0974
  1066 362.758 -10.0991 -31.6510
  1067 385.335 -1.95746 2.08857
  1068 378.077 -0.856097 6.29459
  1069 374.169 12.4117 39.7121
  1070 350.187 -2.63566 28.6961
  1071 271.259 28.9587 127.700
  1072 401.127 -0.313979 0.643218
  1073 376.810 51.0487 25.3366
  1074 319.344 4.64217 20.5353
  1075 382.791 -1.46470 6.03813
  1076 246.816 -2.64585 -4.78108
  1077 246.861 -2.61575 4.75043
  1078 157.335 -4.45492 -31.5383
  1079 157.949 -4.61538 31.3252
  1080 320.368 15.9991 8.62181
  1081 481.875 26.1148 -35.9215
  1082 442.795 -0.321242 -67.4986
  1083 353.793 -0.316898 -8.74930
  1084 269.276 -28.1489 -47.4600
  1085 308.400 -23.1456 11.8724
  1086 355.821 -0.817245 9.12948
  1087 372.302 -27.0238 -19.0081
  1088 233.094 -0.531981 2.84660
  1089 233.034 -0.541434 -2.86414
  1090 357.540 -30.5305 9.69609
  1091 339.885 -6.96630 0.935366
  1092 339.828 -6.97328 -0.913730
  1093 330.756 -33.3087 12.7092
  1094 425.803 -13.7282 -5.11745
  1095 193.507 -0.343372 -5.36268
  1096 193.821 -0.331402 5.30635
  1097 290.337 -18.3837 -79.9277
  1098 308.993 -7.37823 1.67026
  1099 309.021 -7.41899 -1.68471
  1100 186.842 100.637 140.325
  1101 427.838 35.1177 -30.6494
  1102 63.3442 30.7960 -42.7934
  1103 369.828 -5.52385 -6.19405
  1104 99.1609 33.9526 -64.7635
  1105 206.124 -12.9583 -40.3524
  1106 401.208 -0.446485 0.406579
  1107 401.360 -0.419297 -0.298494
  1108 363.923 -20.7833 -22.8619
  1109 322.245 -36.1792 -51.4877
  1110 100.018 14.0432 53.8052
  1111 395.949 39.1844 35.7761
  1112 359.247 -3.64479 -0.540428
  1113 359.289 -3.64748 0.574122
  1114 392.182 -25.2119 62.4490
  1115 405.600 81.1872 13.7430
  1116 241.208 -5.80772 -12.2025
  1117 241.270 -5.78051 12.1166
  1118 183.053 20.9006 99.4232
  1119 344.452 1.75603 -31.4985
  1120 108.246 34.8380 69.6104
  1121 441.702 -7.49645 -21.3198
  1122 434.439 95.9736 4.13396
  1123 298.928 -23.6453 16.0897
  1124 276.277 1.47669 -1.30204
  1125 379.050 -3.33709 7.70385
  1126 392.335 -0.501053 3.00173
  1127 86.4288 0.153796 -15.8838
  1128 87.5992 0.112291 15.7764
  1129 309.462 5.18460 -15.2157
  1130 318.688 -9.37526 -1.23498
  1131 318.616 -9.33167 1.22810
  1132 33.5951 53.4008 -49.6755
  1133 53.3256 116.307 -99.1209
  1134 322.736 -12.6075 0.993777
  1135 322.860 -12.6061 -1.01212
  1136 333.415 -8.04390 0.976828
  1137 333.368 -8.02717 -0.949051
  1138 87.6663 55.9746 70.0806
  1139 263.434 -3.25840 -2.30747
  1140 263.465 -3.23489 2.29657
  1141 331.227 25.0436 -0.357057
  1142 421.310 53.5688 -147.379
  1143 403.749 69.6060 -23.5538
  1144 368.328 -14.1477 -32.2381
  1145 362.811 -18.1005 -23.2255
  1146 299.104 -23.8656 -16.3569
  1147 301.162 0.987695 9.39280
  1148 338.621 21.1169 -22.6100
  1149 333.920 17.9643 21.6017
  1150 345.090 -13.7140 -5.11523
  1151 329.381 -19.8964 0.710842
  1152 299.547 -19.3585 -12.1058
  1153 356.551 -2.09870 17.0078
  1154 628.848 63.4700 8.84623
  1155 358.950 -7.65639 30.9793
  1156 360.239 23.6507 33.9459
  1157 332.302 -32.7013 -9.58147
  1158 41.5141 6.86830 -24.5430
  1159 338.530 -15.6638 -3.56288
  1160 225.197 -0.352957 -0.142295
  1161 225.249 -0.351480 0.140736
  1162 412.222 -10.9377 16.2817
  1163 392.814 -33.0782 14.5365
  1164 564.025 100.983 24.8118
  1165 135.204 -0.277785 -13.2272
  1166 136.010 -0.248571 13.1281
  1167 302.384 -6.12904 -1.37351
  1168 302.369 -6.09080 1.36350
  1169 339.580 -29.9595 -1.16871
  1170 278.740 1.26374 4.26376
  1171 347.755 -24.7624 7.42765
  1172 19.7416 23.4607 -11.4767
  1173 62.6874 31.2218 41.8441
  1174 232.825 -12.6639 77.2524
  1175 402.216 76.6182 -16.8183
  1176 384.185 -1.06686 -4.76989
  1177 402.903 -0.647914 0.271285
  1178 403.291 -0.882311 -0.170495
  1179 234.334 -0.560111 -0.468790
  1180 234.386 -0.555689 0.465272
  1181 370.696 23.6963 38.5125
  1182 547.987 93.6187 -1.98935
  1183 381.936 63.1489 -17.1459
  1184 285.604 -21.0047 79.4165
  1185 231.586 -12.1742 -77.1051
  1186 257.462 -17.2420 -27.0131
  1187 356.316 -9.96171 7.21026
  1188 497.086 109.533 4.47359
  1189 257.485 -17.1392 26.8014
  1190 364.055 -6.36386 5.45624
  1191 325.209 12.0859 20.6169
  1192 358.322 11.0987 37.0160
  1193 510.123 113.934 12.4243
  1194 302.958 -7.91746 2.56099
  1195 302.973 -7.95578 -2.57911
  1196 368.798 -6.92631 11.8453
  1197 218.890 -2.34713 9.00052
  1198 218.735 -2.37093 -9.08195
  1199 360.737 -4.91272 -2.42196
  1200 148.593 88.5528 -135.725
  1201 312.386 -17.6073 -85.0379
  1202 294.677 -9.24929 -4.74723
  1203 294.707 -9.20713 4.74882
  1204 386.911 -1.82322 1.89106
  1205 366.210 -4.79798 4.36083
  1206 20.0738 25.2452 18.5653
  1207 398.337 -0.447760 1.56989
  1208 47.4652 60.1736 59.7036
  1209 357.688 -5.34716 -3.11718
  1210 -0.441762 -8.75940 -7.67539
  1211 253.024 -24.6904 -59.8117
  1212 252.326 -24.0908 59.2135
  1213 398.323 -0.702471 -1.73667
  1214 340.676 -17.9746 -4.26324
  1215 386.634 -1.66303 -1.93602
  1216 309.600 -10.0276 -2.45089
  1217 309.569 -9.99046 2.42324
  1218 360.506 -4.87784 2.27450
  1219 338.287 -15.3572 3.52565
  1220 325.506 -10.4783 0.0841749
  1221 325.622 -10.5072 -0.0449010
  1222 386.305 -1.71417 -1.58017
  1223 333.477 -35.1076 -58.0538
  1224 377.988 -2.33503 -1.61306
  1225 359.216 -5.49650 3.35393
  1226 250.790 -2.75848 -3.54370
  1227 250.832 -2.73148 3.52288
  1228 280.080 -4.12980 -1.81594
  1229 280.094 -4.10126 1.80681
  1230 453.493 70.7304 22.6069
  1231 381.116 -29.2886 14.0335
  1232 261.427 -1.22001 98.1428
  1233 209.635 -0.356710 3.45571
  1234 209.458 -0.360538 -3.49018
  1235 361.168 -6.67078 23.2687
  1236 345.666 -5.23859 0.644418
  1237 345.681 -5.22075 -0.644028
  1238 395.788 77.0440 7.86220
  1239 362.381 -37.9405 46.0079
  1240 209.995 -2.97613 12.6303
  1241 209.787 -2.99864 -12.7230
  1242 345.155 -8.42606 2.65203
  1243 345.078 -8.48411 -2.57319
  1244 356.124 -9.83976 -6.94580
  1245 327.392 0.0659551 11.0213
  1246 565.396 140.509 -46.8438
  1247 362.731 -13.2731 -20.5269
  1248 62.2751 14.8271 35.6915
  1249 374.709 -19.9726 28.3898
  1250 301.123 6.58784 -8.32402
  1251 23.0629 16.9468 12.9312
  1252 493.502 55.0323 -4.77605
  1253 365.964 -16.6456 -28.7249
  1254 302.561 4.30599 12.7506
  1255 207.572 -12.9801 40.2832
  1256 371.755 -28.7790 16.9322
  1257 539.434 103.221 32.8259
  1258 124.988 18.4573 68.4812
  1259 373.588 -4.43858 -10.2042
  1260 717.408 8.01690 -7.21766
  1261 741.257 11.1397 32.1759
  1262 791.510 26.9367 -76.4686
  1263 362.281 -11.3091 -25.5878
  1264 362.278 -16.5351 21.7485
  1265 368.064 -26.1989 20.2213
  1266 -10.8248 1.24109 6.86803
  1267 -9.85233 0.990934 -7.47461
  1268 358.233 -39.5882 -21.4974
  1269 366.985 -37.1016 -32.2088
  1270 280.747 1.78842 -5.26500
  1271 356.747 -40.3005 32.1509
  1272 381.150 -18.0815 -28.8057
  1273 7.50122 11.3692 1.30214
  1274 309.879 -5.67050 0.972614
  1275 309.902 -5.71107 -0.975189
  1276 378.795 -3.03239 6.94043
  1277 364.031 -6.25034 -5.12515
  1278 342.832 -37.4296 -11.4208
  1279 313.174 -16.9570 5.12585
  1280 311.595 -16.7195 -5.57955
  1281 367.461 -7.76510 16.2881
  1282 376.574 -13.8384 -33.1732
  1283 23.9334 17.6691 -12.5241
</Section>

newXOutput 50

<Section columns = "stress_xx | stress_yy | stress_xy">
  1 413.367 -0.0876234 0.802612
  2 413.379 -0.0809156 -0.805009
  3 226.162 -0.0809953 -0.290394
  4 -2.86110 -2.83155 -4.11316
  5 742.884 295.570 237.331
  6 735.973 306.318 -237.055
  7 -3.32245 -2.69238 4.37413
  8 226.110 -0.0818360 0.289601
  9 416.259 -0.692293 0.243807
  10 415.391 -1.09470 -0.208473
  11 414.457 -0.730229 0.922884
  12 413.518 -1.00594 0.254166
  13 411.496 -0.846802 1.45374
  14 409.659 -0.856018 1.05806
  15 405.313 -0.756853 2.08878
  16 399.087 -0.526301 3.07924
  17 393.538 -0.559617 3.43180
  18 385.294 -0.782313 4.15336
  19 373.844 -0.0602970 6.14609
  20 363.267 -0.576829 5.84719
  21 351.204 -0.749342 8.24489
  22 333.782 0.530184 7.17871
  23 321.155 0.802356 8.49097
  24 304.681 1.35095 6.64801
  25 293.276 1.41965 6.70421
  26 276.754 1.98696 3.41934
  27 273.269 3.12833 3.66647
  28 271.172 2.56474 -1.08304
  29 274.039 1.48632 -2.37980
  30 279.316 1.44403 -2.91878
  31 291.693 1.82167 -5.82559
  32 303.714 1.43876 -7.36732
  33 321.342 0.318908 -8.73396
  34 335.443 -0.180901 -7.94887
  35 350.462 -0.596143 -7.80357
  36 364.053 -0.450403 -5.50570
  37 375.720 -0.472067 -4.70432
  38 385.329 -0.765143 -3.94384
  39 393.925 -0.547817 -2.74254
  40 399.278 -0.652155 -2.90775
  41 404.451 -0.801240 -2.12422
  42 409.331 -0.949461 -0.921874
  43 411.830 -0.764838 -1.09034
  44 413.132 -0.472017 -0.676889
  45 412.134 -0.262958 -0.617719
  46 415.809 -1.10287 0.140619
  47 416.383 -0.720622 -0.251425
  48 402.879 -0.326100 -0.496686
  49 393.924 -1.69599 -0.902675
  50 382.973 -2.48879 -0.578346
  51 369.613 -3.67748 -0.795396
  52 356.936 -4.02169 -0.981049
  53 343.397 -5.02227 -0.934691
  54 331.407 -5.57940 -0.508745
  55 320.890 -6.23273 -0.177173
  56 308.754 -5.17031 -0.170745
  57 294.765 -4.82746 -0.297854
  58 281.282 -3.80647 -0.0743380
  59 268.510 -2.42365 -0.0167336
  60 256.372 -1.72407 0.0354769
  61 245.727 -0.879965 0.124652
  62 234.843 -0.233260 -0.331973
  63 226.287 0.317670 0.427088
  64 222.446 0.884457 0.290490
  65 225.044 0.00958033 0.681864
  66 222.103 -0.117779 0.823246
  67 219.368 -0.176567 1.02625
  68 215.659 -0.0194802 1.33555
  69 210.983 -0.0106685 1.68094
  70 207.508 -0.271717 3.23325
  71 197.628 0.289295 3.52927
  72 190.664 -0.0186429 4.03721
  73 180.294 -0.179622 4.58052
  74 168.352 -0.303980 5.57454
  75 153.425 -0.0679284 6.76869
  76 135.228 0.0852802 7.46286
  77 119.502 -0.161211 10.6638
  78 88.4518 0.989657 10.0629
  79 67.2869 0.853417 10.6581
  80 41.9139 -0.189207 11.8199
  81 20.8336 1.96093 12.2894
  82 -3.17005 2.93239 7.37740
  83 -20.6338 2.97925 2.61626
  84 -20.1050 2.87395 -1.06346
  85 -19.2052 2.38849 -5.77631
  86 -11.2979 -0.764579 -5.49153
  87 -1.38228 -10.8458 -6.06008
  88 1.07064 -19.9748 -7.57437
  89 2.97287 -31.5044 -4.17725
  90 6.60118 -32.0894 0.399378
  91 13.9664 -7.27853 18.4909
  92 41.6415 64.5109 62.6875
  93 244.139 228.980 212.249
  94 899.225 134.353 150.514
  95 810.172 19.2397 49.0137
  96 753.203 7.97301 14.9989
  97 732.169 6.76778 1.16281
  98 743.302 9.01151 -12.9855
  99 808.320 17.9096 -38.7823
  100 952.931 64.8119 -129.673
  101 144.976 234.170 -177.521
  102 31.1847 45.7206 -51.8934
  103 15.2473 -5.74689 -19.5031
  104 6.17386 -32.1115 -3.36419
  105 1.74124 -23.9793 4.80044
  106 2.19703 -25.1770 6.56930
  107 0.103866 -9.37543 6.71112
  108 -11.7931 -0.495634 5.20975
  109 -19.8157 1.79279 5.04040
  110 -21.1712 3.49371 1.17785
  111 -21.3006 2.93340 -2.42251
  112 -4.65648 3.00531 -6.91023
  113 19.5206 1.97807 -11.7162
  114 40.5736 0.0189749 -11.6256
  115 65.9048 0.922735 -10.6810
  116 87.1961 1.01577 -10.1404
  117 118.528 -0.165619 -10.7543
  118 134.394 0.0950154 -7.53581
  119 152.697 -0.0650256 -6.85431
  120 167.978 -0.336660 -5.61670
  121 179.791 -0.170704 -4.59285
  122 190.283 -0.00586579 -4.07949
  123 197.316 0.285722 -3.56847
  124 207.284 -0.274375 -3.26649
  125 210.803 -0.0123922 -1.70138
  126 215.523 -0.0211179 -1.35236
  127 219.264 -0.179273 -1.03959
  128 222.024 -0.120095 -0.832566
  129 224.978 0.00758272 -0.687824
  130 222.388 0.883386 -0.293265
  131 226.233 0.317145 -0.428821
  132 234.790 -0.235551 0.331038
  133 245.676 -0.885698 -0.126798
  134 256.328 -1.73670 -0.0379907
  135 268.477 -2.44121 0.0143091
  136 281.263 -3.83176 0.0719519
  137 294.762 -4.85938 0.295987
  138 308.768 -5.20720 0.168880
  139 320.919 -6.27396 0.176371
  140 331.445 -5.62048 0.510135
  141 343.451 -5.05965 0.938888
  142 356.982 -4.04754 0.996137
  143 369.646 -3.70059 0.867658
  144 383.042 -2.35331 0.591313
  145 394.202 -1.65133 0.882799
  146 402.946 -0.388553 0.489202
  147 360.762 -33.8937 -2.22026
  148 360.460 -33.4374 2.34866
  149 378.806 54.4186 -18.4919
  150 403.472 23.7797 39.0824
  151 305.636 -29.4207 -67.3760
  152 308.112 -29.3839 65.2114
  153 297.217 -12.6135 8.12745
  154 297.242 -12.7892 -8.13379
  155 427.672 15.3832 -29.6976
  156 359.803 -12.9506 7.87936
  157 359.650 -12.6386 -7.78134
  158 465.095 103.730 4.68530
  159 368.444 -0.590094 -38.2549
  160 272.836 -21.4680 -30.2017
  161 272.843 -21.2888 29.9363
  162 369.064 -8.35761 34.5010
  163 350.790 25.5972 22.8448
  164 144.998 23.2748 -80.4160
  165 160.756 22.0529 84.7332
  166 451.312 5.18742 3.27554
  167 369.957 -14.1955 -23.9063
  168 489.668 107.545 -1.75544
  169 333.260 -9.41245 -0.0468399
  170 333.190 -9.38318 0.0758192
  171 374.114 -4.54195 -3.43558
  172 375.293 -4.08178 2.96670
  173 262.111 -3.76763 -4.81147
  174 262.145 -3.72851 4.78648
  175 401.527 -10.5484 85.6344
  176 339.623 14.0994 -24.6092
  177 222.152 -16.6470 -48.4411
  178 222.815 -16.5255 48.1254
  179 249.618 -8.19200 -15.8405
  180 249.642 -8.09785 15.7229
  181 371.748 -9.76945 20.3204
  182 337.921 -23.2002 -0.934972
  183 336.733 -23.0276 1.47370
  184 384.003 -37.1636 -6.70172
  185 386.005 -35.4053 1.92646
  186 530.459 124.858 -18.6338
  187 386.230 62.0129 17.2894
  188 386.785 23.7545 -39.3253
  189 400.089 -3.31708 -99.4933
  190 383.706 -21.6859 -27.3179
  191 387.007 -15.4852 32.2312
  192 322.694 -36.6391 33.0765
  193 322.773 -36.3803 -32.9753
  194 345.373 4.40123 29.5639
  195 158.187 -3.87547 -59.2454
  196 158.575 -4.21126 58.8832
  197 598.018 89.5510 12.9478
  198 363.453 -21.6571 14.7812
  199 376.901 -6.93211 -13.2065
  200 299.032 -7.32252 -3.71042
  201 299.037 -7.28501 3.69856
  202 361.990 -4.70534 -26.5976
  203 412.109 60.4921 -31.4155
  204 345.026 31.0027 -4.57800
  205 224.767 -7.96473 22.2638
  206 224.424 -7.99008 -22.4297
  207 382.465 -4.25507 7.19885
  208 372.690 7.00803 39.3463
  209 303.047 -22.0752 -14.6080
  210 301.006 -20.9018 14.9536
  211 439.153 65.1366 28.6616
  212 515.977 70.8800 12.1628
  213 35.2057 27.4863 -22.6446
  214 32.5623 25.4089 19.2464
  215 212.769 60.9528 141.601
  216 359.811 -23.9137 -11.2832
  217 383.839 -4.08703 -6.50236
  218 341.478 3.00701 -27.2260
  219 239.814 -2.39053 -7.03014
  220 239.891 -2.36356 6.96867
  221 323.919 -15.2038 -3.08127
  222 324.069 -15.2973 2.89741
  223 365.090 -4.92300 22.6219
  224 420.034 -24.3181 9.74477
  225 417.517 85.3190 -9.09518
  226 327.420 -31.6298 -15.6645
  227 413.866 -7.20796 24.8738
  228 352.749 -5.93883 1.24184
  229 352.753 -5.88994 -1.24004
  230 325.020 -31.4792 16.2707
  231 372.286 -23.6260 22.2078
  232 522.719 67.7788 -33.5611
  233 116.252 69.1873 -102.728
  234 315.679 11.0939 5.87699
  235 374.074 32.9789 33.1545
  236 398.351 -2.79843 -34.9121
  237 372.254 -13.4043 -32.2289
  238 198.819 -6.40093 -27.8715
  239 199.506 -6.30419 27.7830
  240 372.843 -4.50526 -17.4692
  241 355.283 -9.00596 4.11354
  242 355.117 -8.99400 -3.97351
  243 75.0740 6.89473 -37.8327
  244 76.2677 6.04389 37.7055
  245 395.645 -34.6224 -30.8441
  246 391.392 -1.41383 0.978100
  247 391.808 -1.44069 -1.06733
  248 365.365 30.2876 -30.3636
  249 321.915 6.20018 17.8224
  250 670.707 107.409 72.1146
  251 665.136 75.7235 -45.1005
  252 482.803 104.060 -0.499948
  253 301.396 -14.5372 89.6005
  254 276.671 -9.45689 -93.7019
  255 317.481 -6.52382 -1.30469
  256 317.452 -6.48191 1.29528
  257 263.837 -7.06685 9.70124
  258 263.836 -7.16432 -9.78701
  259 382.034 -4.12974 10.7448
  260 370.781 -26.4096 -18.2111
  261 241.092 -0.451943 -1.64634
  262 241.147 -0.444164 1.63608
  263 366.125 -14.8310 -14.5146
  264 155.795 -5.09362 -38.6636
  265 156.468 -5.10990 38.3858
  266 370.698 -16.0780 25.7698
  267 283.161 -30.0524 54.2006
  268 283.878 -30.5905 -54.0350
  269 320.276 12.2756 -8.29531
  270 276.379 -4.24092 -3.24238
  271 276.403 -4.21198 3.22982
  272 347.829 -0.865447 21.8101
  273 415.387 76.0285 21.7812
  274 223.126 -2.72208 11.8929
  275 222.955 -2.74492 -11.9942
  276 380.708 -31.8042 12.6232
  277 352.425 -39.5506 -36.4026
  278 392.855 -1.91296 3.33361
  279 273.430 -16.2005 -20.6483
  280 272.959 -16.0194 20.5700
  281 482.878 51.2083 125.776
  282 228.781 -18.4677 64.6556
  283 368.847 51.7903 -1.96177
  284 465.744 51.5762 -18.4469
  285 351.546 -27.1926 4.28321
  286 352.698 -40.6319 32.8221
  287 229.474 -18.1664 -65.3842
  288 42.6538 52.6238 47.8966
  289 366.188 -14.8831 14.7831
  290 479.710 62.8520 14.2408
  291 395.936 -1.70810 -2.89051
  292 359.172 12.5742 -34.9519
  293 354.244 -20.0383 7.85248
  294 346.863 -29.2799 1.10638
  295 357.872 16.4320 33.6794
  296 378.890 -31.8132 -11.2475
  297 536.349 104.240 -9.23683
  298 354.148 -19.2613 -7.50995
  299 292.351 84.3486 -173.207
  300 362.035 -38.3829 -7.28773
  301 359.481 -39.4300 11.4044
  302 264.453 -23.9233 -42.5906
  303 238.897 -0.911200 -3.58044
  304 238.964 -0.895345 3.55213
  305 264.566 -23.9423 42.3597
  306 383.071 -0.649221 -39.4917
  307 413.225 -17.1126 -16.3506
  308 315.080 -18.9760 -7.77837
  309 314.877 -19.0196 7.92104
  310 376.307 -32.3908 58.1594
  311 375.894 -3.02227 13.2236
  312 456.149 2.29051 20.8708
  313 308.727 -10.8995 -4.28908
  314 308.748 -10.8629 4.26493
  315 281.358 -7.32286 -6.40108
  316 281.360 -7.25424 6.39143
  317 318.612 4.29599 -17.2361
  318 408.321 29.9213 -37.8785
  319 629.974 170.059 -81.1247
  320 371.877 -3.30257 -1.14305
  321 371.666 -3.25852 1.17437
  322 199.610 -0.412031 80.6795
  323 279.890 -12.6899 -13.6799
  324 279.363 -12.6469 13.7148
  325 199.573 -0.878161 -80.3717
  326 389.403 45.9450 -32.2726
  327 435.395 21.5793 28.1762
  328 376.273 -26.8483 -64.5574
  329 346.324 -13.3786 3.36248
  330 345.972 -13.2812 -3.21242
  331 369.478 -7.68443 -7.00012
  332 348.073 -0.656219 -20.3961
  333 390.107 1.66230 38.6501
  334 388.973 -2.74308 -7.39927
  335 234.548 -14.2264 32.4756
  336 234.290 -14.3058 -32.7250
  337 363.073 -0.820325 36.3311
  338 224.497 -1.82778 -7.06068
  339 224.641 -1.81063 6.99656
  340 372.223 -8.57874 10.9860
  341 446.532 91.1577 -15.9280
  342 369.297 -7.74176 7.26481
  343 393.760 49.4258 32.3803
  344 376.755 -7.01829 37.6210
  345 298.669 -5.59648 1.36066
  346 298.670 -5.63099 -1.36974
  347 356.741 -1.27171 -32.2436
  348 471.716 99.1326 10.0074
  349 392.586 71.9260 0.675546
  350 240.446 27.9329 -119.881
  351 24.9978 10.8833 -16.5134
  352 27.3989 11.7766 17.7614
  353 -1.15567 2.80737 7.18776
  354 0.305132 1.59946 -7.51154
  355 686.759 47.6433 16.3349
  356 325.224 -26.4006 -9.23762
  357 372.509 -8.29133 -10.7178
  358 336.306 -5.94271 0.425627
  359 336.267 -5.89524 -0.427754
  360 360.113 39.7771 -16.4452
  361 307.191 -31.2944 27.2203
  362 27.0538 40.2820 -29.7411
  363 307.478 -31.2859 -27.7129
  364 364.798 41.4882 17.4995
  365 371.716 -9.93413 -19.3459
  366 394.191 -22.0142 -23.1792
  367 420.324 88.6759 6.26829
  368 395.075 -24.6914 19.0571
  369 164.205 -4.08260 25.8940
  370 163.229 -4.00363 -26.0595
  371 93.0285 2.25647 -35.9912
  372 94.0047 1.88657 35.8310
  373 323.606 1.08921 17.4290
  374 611.623 179.038 70.1369
  375 384.198 -2.46755 -9.43135
  376 299.421 -25.2753 -20.8586
  377 299.176 -25.2113 20.8305
  378 369.573 -8.54250 -24.5710
  379 420.477 -20.3272 2.52474
  380 325.212 -26.3768 9.51463
  381 461.107 3.48935 -38.3017
  382 261.892 -2.10447 -1.25990
  383 261.931 -2.08639 1.25101
  384 363.600 -2.12578 -15.7187
  385 196.603 -2.82993 -16.8929
  386 196.727 -2.92096 16.6882
  387 434.049 55.4525 -31.8983
  388 234.823 16.5640 111.389
  389 340.083 -17.8559 1.45079
  390 340.416 -17.8248 -1.46645
  391 399.686 67.5878 -20.4722
  392 378.188 -11.2261 -35.6202
  393 378.930 -38.7416 31.9208
  394 316.379 -8.41122 -2.04066
  395 316.343 -8.37077 2.02085
  396 364.863 -28.1639 12.1163
  397 392.646 -1.90399 5.49280
  398 245.675 -8.94501 -19.8154
  399 245.774 -8.94538 19.6477
  400 370.793 12.4474 -38.8188
  401 349.803 -7.62773 1.86768
  402 349.787 -7.64591 -1.82199
  403 362.070 -4.27764 29.6002
  404 337.890 24.6408 7.90499
  405 375.157 -15.8639 31.0516
  406 541.545 113.269 20.4737
  407 181.788 -9.78082 -51.8587
  408 182.294 -9.78337 51.4662
  409 81.3023 43.4900 -62.0336
  410 401.432 -1.22109 1.50322
  411 204.978 -1.72533 -10.6928
  412 205.250 -1.68879 10.6016
  413 369.861 -9.66959 24.0554
  414 335.541 -36.4161 18.0492
  415 378.618 -4.75292 4.95204
  416 386.111 19.5948 40.4310
  417 85.2025 46.3070 64.6554
  418 336.040 -36.2094 -16.6195
  419 347.207 -32.2711 -3.49618
  420 114.006 -2.28571 -32.5989
  421 114.856 -2.37076 32.3752
  422 266.789 -21.3852 -77.9712
  423 398.405 -5.97210 34.0461
  424 265.789 -21.7022 77.2896
  425 368.159 -20.6950 -19.9909
  426 342.584 23.1320 -17.3074
  427 368.216 -15.9365 19.0046
  428 395.828 -1.81066 -3.69023
  429 12.1541 13.0253 5.85270
  430 80.5647 93.1396 91.6381
  431 354.698 -1.30151 15.1758
  432 298.358 4.11640 7.55828
  433 303.468 5.01031 -10.2497
  434 258.914 -4.26357 -6.84517
  435 258.942 -4.20908 6.80106
  436 363.003 -28.1459 -11.0723
  437 366.927 -7.20178 -33.1144
  438 299.937 5.65757 -2.78385
  439 541.307 128.988 27.1387
  440 75.4316 24.9447 -46.4955
  441 83.1162 22.8920 49.6559
  442 339.769 -12.1257 1.39067
  443 339.641 -12.0974 -1.30106
  444 452.840 99.9329 -1.24764
  445 282.273 117.421 177.060
  446 435.187 -6.06202 -5.56308
  447 250.930 -13.0627 -26.8814
  448 251.048 -12.9734 26.6555
  449 252.680 -5.62343 10.6467
  450 252.632 -5.66469 -10.7419
  451 340.552 7.58300 -28.0422
  452 403.463 -0.616893 -0.994562
  453 331.192 15.2252 15.7626
  454 417.726 51.5566 34.6969
  455 347.878 -25.8255 -3.00928
  456 378.464 -4.52703 -4.81307
  457 397.442 -1.64365 3.39851
  458 402.297 -0.661423 0.567988
  459 402.616 -0.741263 -0.414524
  460 223.123 -0.393188 2.61787
  461 223.011 -0.399087 -2.64475
  462 380.390 -24.2017 24.1677
  463 343.804 13.5844 27.1598
  464 359.149 1.46106 -35.4520
  465 374.654 -7.93772 14.3346
  466 538.579 91.6789 -106.148
  467 375.616 -20.8712 -27.1084
  468 3.85356 7.15147 3.05611
  469 3.81219 7.27606 -1.19633
  470 298.010 -16.8544 11.8093
  471 297.020 -16.6273 -11.6639
  472 465.976 8.97343 57.3441
  473 130.616 119.559 -134.478
  474 370.787 -1.14560 11.7674
  475 419.602 -24.4012 -32.8132
  476 224.560 -12.9040 37.5842
  477 450.112 79.8733 -22.9072
  478 370.225 -20.0692 22.6890
  479 311.171 -14.8556 -5.92102
  480 311.444 -14.6103 5.90486
  481 323.527 1.74042 -15.3880
  482 223.860 -12.8527 -37.8142
  483 331.636 0.163734 15.4628
  484 317.253 -36.2964 -48.4885
  485 316.461 -36.3517 48.6673
  486 382.052 -2.56232 10.4158
  487 347.805 32.8116 3.26694
  488 352.173 6.18540 121.216
  489 518.235 105.337 -0.659503
  490 358.196 -6.08634 2.21280
  491 358.215 -6.06449 -2.29364
  492 276.186 -4.88412 -4.35790
  493 276.207 -4.84367 4.34193
  494 146.011 6.67186 67.8421
  495 371.894 -17.9419 -26.5601
  496 337.370 -7.36778 0.214801
  497 337.335 -7.34226 -0.207859
  498 294.006 -31.1111 39.6804
  499 148.819 8.82232 -69.5581
  500 372.332 -30.3683 -12.6908
  501 6.51679 1.56895 2.75050
  502 326.270 16.8878 1.15268
  503 359.474 -4.21491 -0.724089
  504 359.466 -4.27179 0.706846
  505 294.178 -31.0564 -39.9867
  506 420.019 -21.5631 41.7815
  507 416.740 15.1302 35.2316
  508 384.429 -2.66528 -2.37386
  509 371.195 -30.7945 12.8800
  510 233.785 -0.215061 -0.472216
  511 233.840 -0.212973 0.468365
  512 370.787 -14.2642 -28.3825
  513 359.502 26.6101 29.6965
  514 411.652 10.1662 -34.8077
  515 232.367 -0.359622 -1.47352
  516 232.431 -0.354573 1.46358
  517 715.675 103.396 -92.4144
  518 374.019 44.5292 26.1335
  519 384.760 -2.46167 2.11211
  520 347.972 -32.9836 4.33715
  521 293.011 -9.67388 6.53441
  522 293.007 -9.74727 -6.52109
  523 404.631 -24.6762 10.2646
  524 389.131 -7.80317 -35.9579
  525 435.119 85.6703 19.3210
  526 362.267 6.23998 36.7678
  527 364.891 -7.06489 4.39510
  528 354.518 -37.8667 -46.7654
  529 368.044 -9.13406 28.0167
  530 707.145 32.4587 -12.9328
  531 401.637 -30.3097 -0.144084
  532 382.043 -2.58802 -0.552022
  533 382.135 -2.75004 0.481490
  534 714.505 47.9335 45.2927
  535 353.321 -0.108623 31.2715
  536 493.621 83.1900 -7.46887
  537 371.379 -10.1412 -13.9034
  538 168.910 -1.57671 -11.5513
  539 169.430 -1.50075 11.4345
  540 251.925 -23.5799 -54.1973
  541 252.129 -23.1849 53.7973
  542 364.690 -6.77524 -4.35676
  543 397.043 14.5609 -39.3759
  544 348.906 -23.7439 4.34566
  545 375.660 43.0655 -27.1084
  546 378.000 -4.42991 14.0164
  547 472.981 23.8943 -6.12840
  548 323.708 -11.0960 -1.80402
  549 323.610 -11.0580 1.78297
  550 351.357 -16.5978 5.80399
  551 516.970 102.751 -8.53333
  552 370.408 16.2051 38.1840
  553 158.638 40.7893 100.240
  554 357.185 -21.4239 81.1850
  555 470.951 23.2731 -89.5812
  556 378.681 31.3088 -35.5157
  557 335.486 -29.0298 -70.4106
  558 363.405 -39.8469 -14.2573
  559 379.375 -38.4448 -20.7542
  560 50.0437 65.0951 -61.6843
  561 381.372 -4.87459 -8.56178
  562 572.941 111.374 -32.7457
  563 353.219 -15.9260 -6.51620
  564 356.100 -11.6173 5.37900
  565 355.770 -11.3541 -5.15485
  566 246.702 -1.40936 -3.25574
  567 246.756 -1.39114 3.23442
  568 35.5050 3.64703 -19.8637
  569 37.4351 3.82455 20.3211
  570 183.722 -8.52596 -39.5517
  571 185.115 -8.57262 39.4930
  572 360.996 -19.5812 -12.5172
  573 367.624 -40.0101 15.4025
  574 377.877 -35.9022 1.89447
  575 310.389 -5.49353 -1.18753
  576 310.372 -5.45470 1.18145
  577 294.225 -30.8761 -60.2601
  578 329.084 -27.0201 74.4737
  579 287.147 -29.0390 60.5955
  580 371.506 -8.26610 -35.5760
  581 233.753 -3.87631 11.9559
  582 233.638 -3.91663 -12.0539
  583 354.584 19.6127 -29.8331
  584 354.945 -0.623141 -13.7719
  585 442.933 96.0621 -8.66704
  586 289.942 -4.38329 -1.16246
  587 289.951 -4.35442 1.15703
  588 377.959 -1.13143 -7.73224
  589 261.794 -8.82913 -13.2724
  590 261.802 -8.79852 13.1586
  591 213.578 9.81867 95.8780
  592 367.856 -16.9480 -19.2080
  593 205.820 -10.9083 68.9033
  594 361.498 -18.7509 12.7971
  595 380.362 -5.41133 9.46344
  596 375.523 -3.49233 -2.09242
  597 264.908 -3.26968 -3.03807
  598 264.942 -3.24297 3.02257
  599 424.897 84.7877 -17.4356
  600 205.671 -10.5000 -69.1589
  601 360.291 -15.6219 -10.2079
  602 325.240 -6.06049 -0.597652
  603 325.206 -6.01635 0.595245
  604 608.661 81.8844 -14.5273
  605 216.717 -1.38682 6.59143
  606 216.530 -1.40030 -6.65231
  607 336.544 7.73503 25.5923
  608 479.378 40.3478 -4.88019
  609 227.527 1.52408 -95.1530
  610 116.957 2.92744 -51.9484
  611 117.919 2.26439 51.6738
  612 285.563 -16.6539 16.4798
  613 288.520 -17.1447 -16.0161
  614 485.011 97.7734 8.08789
  615 374.000 -3.61786 1.88640
  616 322.105 9.08840 -15.4657
  617 400.710 71.9748 16.1956
  618 399.293 74.6876 -10.7709
  619 328.125 -18.1867 -2.92880
  620 330.608 -17.7789 1.76060
  621 235.167 51.3159 -136.652
  622 282.440 -9.65598 -9.17901
  623 282.464 -9.54600 9.14800
  624 711.916 145.763 109.793
  625 370.988 -12.1738 30.6606
  626 212.743 -7.51698 -25.3378
  627 573.776 134.374 90.3226
  628 213.236 -7.47543 25.2430
  629 354.252 -13.5022 -94.7351
  630 251.192 -1.23198 -1.19982
  631 251.239 -1.22132 1.19382
  632 310.714 2.80432 13.4930
  633 141.745 -2.10735 -22.7404
  634 142.524 -2.11274 22.5636
  635 323.921 -22.9280 7.12433
  636 339.580 -27.2000 -2.21138
  637 399.651 -0.888541 -3.11971
  638 226.781 -0.363318 1.93664
  639 226.693 -0.369815 -1.95639
  640 305.789 -6.90108 -1.82676
  641 305.778 -6.86269 1.81339
  642 350.280 -38.8887 47.2472
  643 402.692 44.9571 -35.6661
  644 268.513 -12.5183 -17.1024
  645 268.323 -12.3075 16.9799
  646 317.976 -22.8767 -9.82686
  647 500.098 108.810 3.36880
  648 375.657 -36.3666 0.166459
  649 326.467 -7.83471 -0.886140
  650 326.418 -7.79656 0.886376
  651 448.426 49.1236 26.6607
  652 376.463 -5.46192 -15.2334
  653 333.533 -0.400528 -12.5906
  654 154.801 -5.28901 -49.7529
  655 155.273 -5.43621 49.3500
  656 317.118 -27.3630 -15.7022
  657 475.135 104.573 0.172414
  658 368.946 49.9492 -11.7713
  659 245.418 -2.23133 -5.98141
  660 245.477 -2.20033 5.93425
  661 343.885 -9.74539 -1.46571
  662 343.952 -9.75563 1.53821
  663 638.740 83.3621 36.7533
  664 405.563 -1.11965 0.831684
  665 392.227 -1.57086 5.38333
  666 390.726 -1.59711 -6.32271
  667 371.109 -34.5634 5.24948
  668 273.906 -3.18683 -1.51792
  669 273.933 -3.16422 1.51122
  670 396.787 63.5713 24.9567
  671 508.448 112.948 -7.01972
  672 278.923 -20.7253 -24.2279
  673 278.845 -20.5225 24.1075
  674 348.347 -35.8972 -7.67947
  675 367.715 21.8605 -35.9498
  676 435.768 1.16171 14.8582
  677 290.085 -5.39960 -3.03808
  678 290.095 -5.36509 3.02584
  679 250.920 -22.0012 -48.9338
  680 367.609 -35.5664 -1.86377
  681 305.758 -33.9077 43.7218
  682 146.539 46.2250 -96.7364
  683 285.709 -26.4664 33.7281
  684 344.656 0.0942914 11.6206
  685 251.154 -21.7521 48.6081
  686 360.082 -15.9229 10.3339
  687 285.799 -26.3548 -34.0330
  688 293.416 3.84529 2.83292
  689 226.976 -6.09392 18.0299
  690 226.774 -6.10016 -18.1551
  691 305.917 -34.7863 -44.2064
  692 377.879 -24.9152 -23.3583
  693 346.640 -4.90123 -0.388180
  694 346.695 -4.95151 0.390047
  695 386.138 -24.6225 23.0883
  696 351.008 -36.6857 9.08497
  697 426.325 39.1166 34.2998
  698 384.795 -7.22989 37.0921
  699 370.274 -13.3116 22.5124
  700 354.205 29.1356 -22.6305
  701 425.490 71.5403 27.1603
  702 367.422 -5.09500 -21.9494
  703 366.002 -12.1610 11.4559
  704 378.789 59.2859 6.35931
  705 372.431 -6.33730 19.0683
  706 117.602 80.0452 101.449
  707 346.561 -39.8715 -27.4308
  708 401.255 7.28088 37.6563
  709 404.978 -12.5438 -26.5594
  710 403.730 -0.559190 1.71286
  711 369.978 -12.7381 -17.6727
  712 347.072 -40.1846 24.9533
  713 669.439 59.2952 -9.91866
  714 207.923 -0.886991 6.89694
  715 207.676 -0.896686 -6.96122
  716 375.131 -6.85366 -8.17486
  717 406.108 -0.427742 -1.67318
  718 316.545 -27.8063 15.7844
  719 379.875 -14.1546 33.6411
  720 575.525 138.045 -43.5114
  721 360.064 -26.1097 10.4596
  722 398.945 -26.2883 -13.3525
  723 366.135 -11.8369 -11.2715
  724 405.882 -0.727904 -0.530965
  725 370.976 -0.0422933 38.7115
  726 17.2207 16.2818 21.8348
  727 417.665 -15.9579 -61.9217
  728 454.713 27.0607 16.3552
  729 378.991 -38.7423 18.5751
  730 271.031 -6.50520 7.51273
  731 271.030 -6.59551 -7.54839
  732 352.040 180.209 -185.940
  733 386.300 -25.5735 -21.2929
  734 292.279 1.56042 -5.41618
  735 340.041 1.89450 24.9337
  736 372.777 -18.6712 26.9918
  737 357.308 -30.1113 4.98856
  738 371.206 -33.8673 -50.7766
  739 355.134 -28.1011 -5.66461
  740 419.100 -20.0662 -3.96518
  741 386.038 -3.19350 4.76317
  742 344.934 -20.7286 2.85773
  743 624.852 124.895 -66.7517
  744 367.730 -9.86916 9.06435
  745 364.183 5.96739 -37.7505
  746 310.551 -3.45313 106.478
  747 389.988 31.3921 38.4681
  748 335.487 -26.4148 3.94012
  749 259.470 -20.4274 -35.7801
  750 259.498 -20.3719 35.4922
  751 356.999 40.1482 -5.26854
  752 362.910 -4.20619 33.6497
  753 366.762 -8.73967 -28.6387
  754 345.324 -21.1544 -2.96552
  755 333.920 -29.9257 8.97757
  756 381.687 62.9462 -7.16986
  757 356.871 -30.8880 -3.58236
  758 357.765 -22.6548 10.1992
  759 362.384 -4.69397 1.55112
  760 362.603 -4.56855 -1.53961
  761 487.456 106.922 2.10949
  762 398.458 -33.9054 -12.5103
  763 371.100 -11.3843 17.6081
  764 386.166 -3.18530 -4.32797
  765 390.549 2.58312 -39.0227
  766 444.207 23.4292 -22.4221
  767 219.084 -0.205857 -3.22661
  768 219.227 -0.202762 3.19470
  769 3.20197 -6.61689 -4.66131
  770 378.871 -0.454167 7.15672
  771 347.707 -0.553589 -27.5567
  772 359.018 -3.36367 24.2486
  773 326.875 40.8299 155.961
  774 408.588 83.9300 -0.867747
  775 290.782 -20.7994 18.9500
  776 51.5176 1.13421 -19.5888
  777 52.9791 0.832993 19.7968
  778 355.868 -2.53230 -27.3758
  779 291.561 -21.0054 -18.9473
  780 383.897 -3.50243 3.60071
  781 197.188 -8.40797 33.7494
  782 195.510 -8.37809 -33.7617
  783 367.704 -9.58387 -8.82707
  784 235.693 -5.93638 -15.7013
  785 235.811 -5.89770 15.5642
  786 382.866 -3.64010 -10.5085
  787 292.913 -7.82457 -5.22413
  788 292.923 -7.77395 5.22612
  789 417.953 -2.64423 -26.5557
  790 376.474 -3.95257 -38.7999
  791 192.418 -1.22604 -8.78354
  792 192.787 -1.21460 8.68276
  793 9.86302 4.81128 -11.9484
  794 11.5475 5.07725 12.5665
  795 305.992 1.47776 -9.79960
  796 343.758 -38.6232 -20.5206
  797 -3.93223 -2.71192 6.80826
  798 -3.45607 -3.21757 -6.77760
  799 357.735 -7.20662 3.34305
  800 387.798 -30.2838 -11.8256
  801 400.752 59.3655 -29.1045
  802 385.525 -3.15174 -3.42384
  803 819.597 165.683 -153.942
  804 357.660 -7.18405 -3.29882
  805 537.782 102.403 8.48542
  806 382.954 11.1424 -40.4805
  807 422.730 31.9136 -35.1427
  808 71.7846 -0.842401 -18.0762
  809 73.0823 -0.947275 18.0443
  810 239.659 -3.44948 9.31772
  811 239.573 -3.47808 -9.39922
  812 229.044 -0.535909 1.74686
  813 228.972 -0.541544 -1.76061
  814 427.624 71.9811 -26.9048
  815 253.683 -1.57571 -2.58760
  816 253.729 -1.55767 2.57346
  817 364.023 -3.66564 -35.1312
  818 523.544 54.2555 46.0045
  819 328.089 7.35905 -21.5274
  820 114.244 -1.02100 19.3436
  821 113.293 -1.03050 -19.4942
  822 422.203 11.7534 112.097
  823 374.761 -6.90976 8.43727
  824 335.847 22.3139 -8.96634
  825 155.918 -0.244121 13.1709
  826 155.132 -0.171976 -13.2670
  827 233.790 -1.18601 -4.57171
  828 233.876 -1.16898 4.53033
  829 42.0083 37.3582 32.4193
  830 349.980 8.36044 31.9609
  831 389.232 57.1707 -24.9908
  832 418.506 48.5922 -35.0169
  833 275.603 -10.4029 -12.0084
  834 275.446 -10.3260 11.9933
  835 433.602 92.1930 12.1721
  836 373.949 -3.15441 -0.442197
  837 373.973 -3.13090 0.504585
  838 370.352 -11.1247 -22.7343
  839 310.499 -20.6772 11.1248
  840 341.673 -38.3922 20.6121
  841 401.037 -32.8589 32.0382
  842 307.825 -8.93378 -3.13465
  843 307.822 -8.90077 3.11429
  844 352.164 32.6509 14.5411
  845 331.075 4.54536 -23.2424
  846 91.9923 109.697 105.593
  847 334.957 -29.6807 -8.15634
  848 336.097 -15.0225 0.468161
  849 336.276 -15.0542 -0.487165
  850 369.734 -5.45478 36.8996
  851 366.473 -24.0938 -16.6355
  852 327.495 -21.6759 -4.58693
  853 742.434 24.0348 -36.6290
  854 311.386 -29.4467 21.5638
  855 311.134 -29.8276 -21.9080
  856 369.292 -4.42430 18.6629
  857 554.676 143.488 -32.7990
  858 292.307 -26.5373 -26.8520
  859 322.684 -36.3242 25.6037
  860 292.234 -26.2190 26.6176
  861 316.805 -12.7503 -3.62532
  862 316.797 -12.7081 3.60017
  863 47.3033 20.0068 28.1609
  864 396.860 29.6486 -38.8860
  865 304.134 -11.8634 -5.70269
  866 304.190 -11.7445 5.72276
  867 300.430 -4.97808 -0.691709
  868 300.425 -4.94421 0.687260
  869 330.117 -6.58516 -0.149993
  870 330.077 -6.54247 0.147525
  871 268.894 -5.25813 -6.49378
  872 268.917 -5.19955 6.46719
  873 305.254 -16.0467 -8.57733
  874 305.294 -15.9384 8.61478
  875 7.46717 -2.31487 -3.77467
  876 459.418 86.2040 19.6920
  877 395.306 -13.8839 -30.8887
  878 322.412 -35.7967 -25.8701
  879 348.169 -11.2352 3.01847
  880 348.015 -11.1206 -2.92363
  881 379.683 0.462875 39.6445
  882 412.107 -29.3959 -18.0118
  883 364.446 26.2245 -135.387
  884 166.758 -2.75762 67.0261
  885 -5.86640 3.88847 -4.68704
  886 -5.05901 4.39044 5.17632
  887 47.0039 21.2768 -28.7548
  888 370.901 -10.6855 13.8140
  889 389.959 -2.57958 -5.80529
  890 350.814 -33.7744 58.2212
  891 166.364 -2.58546 -67.2903
  892 390.938 -32.0280 8.06039
  893 434.681 -12.6825 50.8961
  894 316.990 1.28706 10.3846
  895 362.837 34.5158 24.7415
  896 196.862 -11.0863 49.2558
  897 196.104 -11.1756 -49.5787
  898 236.091 -11.2173 -27.6382
  899 247.400 -12.1736 -85.4133
  900 391.281 -9.17413 34.8395
  901 536.563 126.413 20.4249
  902 392.973 15.0990 39.6547
  903 371.440 -7.94196 -20.7628
  904 252.575 -10.9062 87.5325
  905 473.046 87.2775 -14.1558
  906 47.3434 40.1871 -39.9160
  907 343.713 -0.683088 -11.0847
  908 236.338 -11.1254 27.3957
  909 287.822 -6.34105 4.59769
  910 287.812 -6.38407 -4.60758
  911 367.004 -23.9649 17.1948
  912 380.727 -2.46688 1.35473
  913 280.296 2.54864 -106.086
  914 401.246 -0.900480 2.74499
  915 398.345 -0.741725 -3.52191
  916 299.124 2.60914 -9.01841
  917 385.290 -1.57460 -6.33603
  918 288.696 -13.4902 -11.1254
  919 288.889 -13.2892 11.1600
  920 -9.36812 3.55383 -5.37358
  921 -12.9813 2.14380 5.71110
  922 380.714 -2.29374 -1.37967
  923 126.895 -2.88650 45.2426
  924 126.143 -2.61742 -45.4978
  925 407.257 59.3823 30.6928
  926 725.148 13.1106 11.3109
  927 383.493 42.6366 32.3909
  928 433.423 -15.1926 14.8788
  929 377.269 -21.0207 27.1585
  930 469.560 98.3638 -10.7913
  931 292.817 1.26720 6.79977
  932 362.936 -8.56640 -5.40392
  933 377.402 20.2941 -39.2061
  934 455.074 13.5912 -6.66491
  935 353.910 -21.8618 -7.92601
  936 181.873 -1.00889 -9.82664
  937 182.058 -0.973106 9.68888
  938 373.334 -8.79130 -16.1864
  939 12.6324 15.9650 3.50158
  940 358.388 -37.1571 -4.17445
  941 311.489 9.25162 -0.929585
  942 466.451 102.416 -7.16071
  943 74.1849 55.1507 -65.9857
  944 359.038 -2.67514 -21.7277
  945 249.534 -4.15614 -8.71677
  946 249.583 -4.10746 8.64456
  947 2.21460 -10.1518 7.70417
  948 244.308 -18.1663 -39.6570
  949 365.113 -21.1172 -16.1639
  950 228.298 0.491240 -0.726374
  951 228.356 0.493515 0.721578
  952 369.149 44.7901 -19.7975
  953 394.843 -1.20520 -0.553767
  954 394.857 -1.22084 0.729020
  955 244.420 -18.1172 39.3916
  956 369.690 -0.517686 -8.57007
  957 424.804 3.07501 25.5331
  958 376.948 -5.35028 6.50029
  959 60.8019 15.3211 -35.4681
  960 390.734 -2.39463 5.25496
  961 355.198 2.87464 34.1890
  962 374.586 51.8660 17.6091
  963 374.577 4.34004 -40.0835
  964 258.578 -13.8406 -23.7636
  965 403.831 -14.3322 25.6060
  966 258.747 -13.7878 23.5269
  967 12.0667 13.0810 -1.38217
  968 44.7928 7.62315 26.0013
  969 211.443 -3.72753 16.2810
  970 211.186 -3.73028 -16.3718
  971 363.192 -8.72725 5.70317
  972 390.926 67.9439 9.72031
  973 199.149 18.1798 -100.526
  974 326.887 -20.3998 4.02124
  975 306.852 -32.0698 -32.3150
  976 446.870 85.5975 20.6848
  977 343.918 -6.09703 0.409563
  978 343.904 -6.06398 -0.412131
  979 376.599 -6.98995 -11.5782
  980 348.903 30.1391 -13.4125
  981 783.422 233.382 157.344
  982 73.3071 4.08027 -34.1145
  983 74.4356 3.38974 34.1887
  984 5.45347 -6.53663 2.02122
  985 349.906 19.4088 27.5311
  986 306.774 -32.2655 32.0791
  987 379.889 -17.9639 -30.9833
  988 413.268 33.7677 38.2204
  989 396.816 -32.0452 -39.2256
  990 579.236 121.846 40.7216
  991 337.692 -5.48722 -0.185089
  992 337.648 -5.44221 0.185266
  993 394.939 -16.1275 29.2544
  994 27.4422 46.2950 47.6943
  995 178.739 -3.74400 23.3025
  996 178.187 -3.69594 -23.5489
  997 213.103 -10.4103 31.8803
  998 212.374 -10.2505 -31.9982
  999 239.918 -9.87751 22.9314
  1000 262.292 -2.07578 -1.16739
  1001 262.330 -2.06043 1.16269
  1002 649.081 208.136 -133.116
  1003 589.729 147.834 61.2663
  1004 239.723 -9.92745 -23.1218
  1005 406.766 -1.89136 32.3033
  1006 364.554 37.8282 -23.8121
  1007 257.583 -22.1794 70.8358
  1008 330.498 -39.0513 -38.3553
  1009 377.661 -3.11386 -12.5172
  1010 170.835 11.6604 81.8897
  1011 219.197 -16.7387 56.5966
  1012 334.609 17.1811 -17.2577
  1013 381.966 -7.58099 -37.5327
  1014 483.706 199.923 211.921
  1015 316.278 9.70824 12.2998
  1016 429.416 92.4068 -1.47083
  1017 315.085 12.4421 -120.504
  1018 320.982 -33.7646 -22.1139
  1019 406.415 -0.456755 -1.36251
  1020 390.880 35.8942 -37.4633
  1021 229.994 -1.47702 5.86872
  1022 229.886 -1.49200 -5.92304
  1023 8.47944 4.98487 -12.4133
  1024 258.809 -11.7983 -19.8213
  1025 218.929 -16.9542 -57.0194
  1026 258.616 -11.7726 19.6059
  1027 373.436 -11.3812 34.7131
  1028 335.126 -20.7073 -1.03451
  1029 352.275 6.49120 -33.1345
  1030 362.510 45.2737 6.95281
  1031 489.757 29.9782 18.6061
  1032 369.813 -28.1058 16.3122
  1033 234.456 -18.7246 -43.3912
  1034 349.347 12.3802 -31.0330
  1035 259.796 -21.8856 -71.2034
  1036 498.027 107.941 -2.14540
  1037 339.725 22.3272 15.7004
  1038 427.983 -2.49051 -19.3698
  1039 322.974 -33.7807 20.3854
  1040 369.959 -11.7394 26.7867
  1041 367.482 -19.4110 19.0923
  1042 365.464 -18.3910 16.5022
  1043 450.941 57.3413 -27.4333
  1044 365.188 -5.89634 27.2888
  1045 329.972 -39.1603 37.7348
  1046 352.207 -14.4096 5.26111
  1047 234.604 -18.7609 43.1528
  1048 330.875 -24.3665 -4.89345
  1049 192.850 -9.38176 -60.5239
  1050 274.621 -28.5005 48.0910
  1051 371.811 -2.53433 -14.5587
  1052 362.321 -4.09165 -31.0587
  1053 313.946 -24.8153 -13.5744
  1054 193.181 -9.65022 60.0545
  1055 338.274 0.832311 -21.6701
  1056 251.898 -16.6897 -30.7468
  1057 454.992 96.7764 12.9702
  1058 102.060 16.8214 -57.6627
  1059 773.611 54.6454 74.2876
  1060 182.856 13.5569 -85.7079
  1061 365.356 -30.2740 -9.80229
  1062 251.968 -16.5479 30.4985
  1063 334.732 3.56262 24.2524
  1064 188.384 -3.80734 19.2937
  1065 188.287 -3.90131 -19.4880
  1066 370.011 -10.3037 -32.1895
  1067 392.920 -2.00545 2.11403
  1068 385.585 -0.876563 6.39780
  1069 381.655 12.6581 40.4011
  1070 357.232 -2.68853 29.1986
  1071 276.646 29.5478 130.306
  1072 408.976 -0.323932 0.650602
  1073 384.381 52.0681 25.7781
  1074 325.860 4.74291 20.9071
  1075 390.371 -1.49747 6.13566
  1076 251.926 -2.69350 -4.88574
  1077 251.972 -2.66289 4.85461
  1078 160.656 -4.54389 -32.1861
  1079 161.281 -4.70761 31.9695
  1080 326.907 16.3336 8.77870
  1081 491.250 26.6933 -36.7865
  1082 451.416 -0.278822 -68.9523
  1083 360.903 -0.324534 -8.90069
  1084 274.717 -28.7130 -48.4523
  1085 314.607 -23.6025 12.1614
  1086 362.966 -0.834733 9.28714
  1087 379.706 -27.5660 -19.2789
  1088 237.965 -0.539496 2.90735
  1089 237.903 -0.549107 -2.92517
  1090 364.661 -31.1406 9.79518
  1091 346.671 -7.11211 0.930769
  1092 346.612 -7.11932 -0.908832
  1093 337.369 -33.9704 13.0339
  1094 434.171 -13.9892 -5.35229
  1095 197.600 -0.349464 -5.47279
  1096 197.920 -0.337281 5.41552
  1097 296.132 -18.7607 -81.5820
  1098 315.223 -7.52601 1.72375
  1099 315.253 -7.56739 -1.73849
  1100 190.567 102.717 143.191
  1101 436.311 35.8228 -31.1174
  1102 64.6955 31.4273 -43.7314
  1103 377.155 -5.64308 -6.27907
  1104 101.236 34.6349 -66.1402
  1105 210.383 -13.2168 -41.1839
  1106 409.050 -0.460234 0.412595
  1107 409.204 -0.432514 -0.302648
  1108 371.177 -21.2017 -23.2202
  1109 328.662 -36.9050 -52.5836
  1110 102.126 14.3199 54.9466
  1111 403.854 39.9639 36.3815
  1112 366.373 -3.72849 -0.545797
  1113 366.416 -3.73117 0.580056
  1114 399.882 -25.6947 63.7873
  1115 413.727 82.7921 13.9693
  1116 246.195 -5.91803 -12.4615
  1117 246.258 -5.89041 12.3742
  1118 186.774 21.3109 101.481
  1119 351.402 1.79437 -32.0575
  1120 110.499 35.5405 71.0833
  1121 450.352 -7.62001 -21.8785
  1122 443.119 97.8559 4.19477
  1123 304.958 -24.1111 16.4589
  1124 282.032 1.51263 -1.32595
  1125 386.554 -3.41008 7.82227
  1126 400.064 -0.515192 3.04719
  1127 88.3494 0.155768 -16.2132
  1128 89.5402 0.113511 16.1039
  1129 315.804 5.29840 -15.4926
  1130 325.093 -9.56321 -1.28953
  1131 325.020 -9.51899 1.28244
  1132 34.2956 54.7066 -50.7705
  1133 54.4088 118.956 -101.206
  1134 329.214 -12.8593 1.05425
  1135 329.340 -12.8576 -1.07309
  1136 340.086 -8.20908 0.968140
  1137 340.037 -8.19218 -0.939966
  1138 89.4914 57.1293 71.5763
  1139 268.847 -3.31904 -2.36030
  1140 268.879 -3.29516 2.34923
  1141 337.961 25.5590 -0.363077
  1142 429.454 54.7535 -150.370
  1143 411.829 70.9876 -23.9430
  1144 375.678 -14.4335 -32.7766
  1145 370.045 -18.4659 -23.5963
  1146 305.135 -24.3354 -16.7317
  1147 307.362 1.01099 9.56367
  1148 345.483 21.5504 -23.0166
  1149 340.698 18.3349 21.9918
  1150 351.977 -13.9918 -5.16193
  1151 335.980 -20.2921 0.783162
  1152 305.594 -19.7386 -12.3908
  1153 363.702 -2.14247 17.3007
  1154 641.016 64.6908 9.01383
  1155 366.140 -7.81189 31.5115
  1156 367.487 24.1269 34.5467
  1157 338.945 -33.3505 -9.84547
  1158 42.4499 7.00430 -25.0811
  1159 345.297 -15.9784 -3.57772
  1160 229.938 -0.357686 -0.145940
  1161 229.992 -0.356183 0.144359
  1162 420.364 -11.1540 16.4730
  1163 400.568 -33.7336 14.9370
  1164 575.078 102.938 25.3287
  1165 138.120 -0.281624 -13.4978
  1166 138.940 -0.251824 13.3971
  1167 308.496 -6.25119 -1.41310
  1168 308.481 -6.21235 1.40290
  1169 346.364 -30.5552 -1.26791
  1170 284.540 1.29372 4.34241
  1171 354.694 -25.2570 7.49570
  1172 20.1768 23.9770 -11.7707
  1173 64.0219 31.8632 42.7598
  1174 237.536 -12.9305 78.8490
  1175 410.277 78.1356 -17.0972
  1176 391.790 -1.09054 -4.84729
  1177 410.774 -0.663258 0.274174
  1178 411.168 -0.902094 -0.171691
  1179 239.233 -0.567810 -0.479603
  1180 239.286 -0.563318 0.476034
  1181 378.130 24.1703 39.1875
  1182 558.747 95.4252 -2.02837
  1183 389.613 64.4067 -17.4413
  1184 291.314 -21.4339 81.0606
  1185 236.272 -12.4320 -78.6982
  1186 262.716 -17.5803 -27.5821
  1187 363.406 -10.1677 7.30255
  1188 506.888 111.715 4.70462
  1189 262.740 -17.4757 27.3668
  1190 371.278 -6.50029 5.52586
  1191 331.830 12.3391 20.9905
  1192 365.526 11.3236 37.6701
  1193 520.189 116.171 12.7731
  1194 309.079 -8.07433 2.63343
  1195 309.095 -8.11320 -2.65189
  1196 376.123 -7.07268 12.0269
  1197 223.466 -2.39045 9.18899
  1198 223.309 -2.41466 -9.27177
  1199 367.894 -5.02079 -2.44631
  1200 151.596 90.3682 -138.518
  1201 318.589 -17.9620 -86.8002
  1202 300.646 -9.43029 -4.86845
  1203 300.677 -9.38750 4.87011
  1204 394.520 -1.86781 1.91590
  1205 373.468 -4.90390 4.41567
  1206 20.5096 25.8237 19.0088
  1207 406.153 -0.459901 1.59176
  1208 48.4624 61.4857 61.0047
  1209 364.793 -5.46369 -3.14998
  1210 -0.445341 -8.92647 -7.82303
  1211 258.139 -25.1910 -61.0523
  1212 257.429 -24.5795 60.4428
  1213 406.139 -0.719267 -1.76150
  1214 347.484 -18.3345 -4.28630
  1215 394.240 -1.70466 -1.95998
  1216 315.840 -10.2266 -2.53037
  1217 315.808 -10.1891 2.50219
  1218 367.658 -4.98534 2.29674
  1219 345.049 -15.6654 3.54034
  1220 332.035 -10.6897 0.121731
  1221 332.153 -10.7189 -0.0818537
  1222 393.901 -1.75700 -1.59927
  1223 340.097 -35.8110 -59.2832
  1224 385.442 -2.39219 -1.63099
  1225 366.348 -5.61584 3.39101
  1226 255.974 -2.80831 -3.62318
  1227 256.017 -2.78086 3.60204
  1228 285.791 -4.20924 -1.86086
  1229 285.806 -4.18025 1.85158
  1230 462.464 72.1429 22.9088
  1231 388.674 -29.8756 14.2005
  1232 266.659 -1.25167 100.164
  1233 214.054 -0.361801 3.52827
  1234 213.873 -0.365695 -3.56331
  1235 368.389 -6.80751 23.6628
  1236 352.553 -5.35191 0.643790
  1237 352.568 -5.33378 -0.643404
  1238 403.732 78.5703 7.99456
  1239 369.549 -38.6953 47.0104
  1240 214.390 -3.03215 12.8912
  1241 214.178 -3.05503 -12.9855
  1242 352.038 -8.60080 2.66955
  1243 351.960 -8.66017 -2.58942
  1244 363.209 -10.0436 -7.03369
  1245 334.052 0.0683110 11.2176
  1246 576.467 143.269 -47.8549
  1247 369.962 -13.5431 -20.8563
  1248 63.6206 15.1250 36.4669
  1249 382.168 -20.3752 28.8437
  1250 307.318 6.73168 -8.47590
  1251 23.5867 17.2998 13.2413
  1252 503.145 56.1784 -5.05121
  1253 373.263 -16.9814 -29.1970
  1254 308.782 4.40141 12.9837
  1255 211.859 -13.2392 41.1142
  1256 379.145 -29.3557 17.1631
  1257 549.931 105.372 33.6885
  1258 127.584 18.8211 69.9233
  1259 380.998 -4.53542 -10.3619
  1260 731.051 8.17379 -7.35007
  1261 755.306 11.3470 32.7582
  1262 806.438 27.4251 -77.8667
  1263 369.516 -11.5395 -26.0137
  1264 369.500 -16.8696 22.0940
  1265 375.389 -26.7248 20.5196
  1266 -11.0374 1.27007 6.99935
  1267 -10.0444 1.01548 -7.61925
  1268 365.343 -40.3787 -22.0154
  1269 374.246 -37.8411 -32.9438
  1270 286.583 1.82925 -5.36169
  1271 363.822 -41.1039 32.8785
  1272 388.729 -18.4455 -29.2630
  1273 7.69000 11.6132 1.36525
  1274 316.127 -5.78550 0.995072
  1275 316.150 -5.82673 -0.997705
  1276 386.289 -3.10116 7.04415
  1277 371.253 -6.38462 -5.18948
  1278 349.666 -38.1750 -11.7300
  1279 319.475 -17.2917 5.27402
  1280 317.868 -17.0493 -5.73507
  1281 374.776 -7.92652 16.5507
  1282 384.075 -14.1181 -33.7213
  1283 24.4760 18.0370 -12.8297
</Section>

newXOutput 51

<Section columns = "stress_xx | stress_yy | stress_xy">
  1 421.258 -0.0931163 0.815860
  2 421.270 -0.0861977 -0.818273
  3 230.842 -0.0812625 -0.295144
  4 -2.91870 -2.88812 -4.19608
  5 756.308 301.445 241.825
  6 749.282 312.383 -241.483
  7 -3.38949 -2.74574 4.46288
  8 230.788 -0.0821163 0.294343
  9 424.197 -0.707261 0.247199
  10 423.318 -1.11761 -0.213900
  11 422.374 -0.747169 0.936568
  12 421.423 -1.02779 0.255257
  13 419.377 -0.865786 1.47517
  14 417.517 -0.874857 1.07200
  15 413.110 -0.773335 2.12039
  16 406.791 -0.540142 3.12651
  17 401.160 -0.573018 3.48595
  18 392.789 -0.798675 4.22049
  19 381.156 -0.0636809 6.24753
  20 370.410 -0.588797 5.94549
  21 358.145 -0.763488 8.38585
  22 340.434 0.539910 7.30323
  23 327.590 0.819006 8.63977
  24 310.834 1.37780 6.76591
  25 299.230 1.45074 6.82377
  26 282.421 2.02781 3.48075
  27 278.874 3.19219 3.73281
  28 276.739 2.61864 -1.10283
  29 279.656 1.52021 -2.42241
  30 285.026 1.47506 -2.97130
  31 297.619 1.85935 -5.92984
  32 309.849 1.46862 -7.49779
  33 327.779 0.327551 -8.88773
  34 342.120 -0.183182 -8.08666
  35 357.390 -0.607197 -7.93687
  36 371.207 -0.459915 -5.59857
  37 383.063 -0.482699 -4.78228
  38 392.823 -0.781360 -4.00786
  39 401.552 -0.560272 -2.78519
  40 406.984 -0.667834 -2.95213
  41 412.234 -0.819005 -2.15624
  42 417.182 -0.969944 -0.933577
  43 419.716 -0.781793 -1.10572
  44 421.032 -0.483960 -0.685515
  45 420.013 -0.271894 -0.625687
  46 423.741 -1.12547 0.144828
  47 424.324 -0.736002 -0.254907
  48 410.600 -0.339431 -0.504936
  49 401.499 -1.73794 -0.919075
  50 390.366 -2.54811 -0.586825
  51 376.779 -3.76026 -0.807616
  52 363.886 -4.11056 -0.995137
  53 350.113 -5.12809 -0.948503
  54 337.914 -5.69394 -0.514755
  55 327.213 -6.35652 -0.177322
  56 314.863 -5.27188 -0.170430
  57 300.629 -4.92015 -0.300471
  58 286.911 -3.87756 -0.0728339
  59 273.915 -2.46690 -0.0148945
  60 261.566 -1.75339 0.0378551
  61 250.738 -0.893047 0.128214
  62 239.669 -0.235281 -0.337216
  63 230.968 0.324571 0.436105
  64 227.059 0.900840 0.297398
  65 229.696 0.0105891 0.696723
  66 226.698 -0.118855 0.841552
  67 223.907 -0.178696 1.04895
  68 220.124 -0.0187101 1.36428
  69 215.354 -0.0101408 1.71653
  70 211.805 -0.275240 3.29929
  71 201.734 0.295177 3.60087
  72 194.631 -0.0183345 4.11776
  73 184.055 -0.182225 4.67229
  74 171.879 -0.308845 5.68579
  75 156.657 -0.0684863 6.90382
  76 138.101 0.0873699 7.61281
  77 122.056 -0.163102 10.8787
  78 90.3915 1.00861 10.2678
  79 68.7981 0.869657 10.8754
  80 42.9021 -0.194524 12.0639
  81 21.3783 1.99810 12.5473
  82 -3.13487 2.99011 7.54042
  83 -20.9805 3.03843 2.68390
  84 -20.4693 2.93339 -1.06904
  85 -19.5790 2.43893 -5.88434
  86 -11.5206 -0.776939 -5.59819
  87 -1.40694 -11.0595 -6.17882
  88 1.09603 -20.3626 -7.71801
  89 3.03700 -32.0909 -4.24287
  90 6.73978 -32.6388 0.438390
  91 14.2541 -7.23807 18.9106
  92 42.4688 66.0809 63.9976
  93 248.650 233.776 216.327
  94 915.590 136.854 153.186
  95 825.051 19.5933 49.8652
  96 767.156 8.12392 15.2594
  97 745.781 6.89822 1.18146
  98 757.102 9.18212 -13.2144
  99 823.183 18.2441 -39.4580
  100 970.114 66.0164 -131.931
  101 147.693 239.152 -180.969
  102 31.8025 46.9821 -52.9994
  103 15.5633 -5.67476 -19.9612
  104 6.30447 -32.6499 -3.47036
  105 1.78275 -24.4163 4.87374
  106 2.24578 -25.6681 6.69218
  107 0.107731 -9.55826 6.84292
  108 -12.0261 -0.501981 5.31005
  109 -20.2012 1.83070 5.13370
  110 -21.5556 3.56563 1.18524
  111 -21.6576 2.99128 -2.48653
  112 -4.64737 3.06445 -7.06395
  113 20.0431 2.01554 -11.9627
  114 41.5393 0.0177576 -11.8657
  115 67.3925 0.940262 -10.8986
  116 89.1146 1.03517 -10.3466
  117 121.065 -0.167600 -10.9707
  118 137.252 0.0972891 -7.68701
  119 155.916 -0.0655568 -6.99093
  120 171.498 -0.342138 -5.72858
  121 183.544 -0.173111 -4.68475
  122 194.244 -0.00531883 -4.16074
  123 201.416 0.291547 -3.64071
  124 211.576 -0.277940 -3.33306
  125 215.171 -0.0118921 -1.73729
  126 219.985 -0.0203750 -1.38136
  127 223.801 -0.181447 -1.06249
  128 226.617 -0.121211 -0.851015
  129 229.629 0.00855957 -0.702772
  130 227.000 0.899760 -0.300212
  131 230.912 0.324040 -0.437863
  132 239.615 -0.237608 0.336272
  133 250.686 -0.898868 -0.130390
  134 261.521 -1.76620 -0.0404018
  135 273.881 -2.48471 0.0124391
  136 286.891 -3.90323 0.0704157
  137 300.626 -4.95256 0.298578
  138 314.878 -5.30934 0.168533
  139 327.242 -6.39842 0.176502
  140 337.952 -5.73568 0.516165
  141 350.168 -5.16608 0.952770
  142 363.933 -4.13681 1.01048
  143 376.814 -3.78374 0.881116
  144 390.436 -2.41000 0.599968
  145 401.782 -1.69241 0.898821
  146 410.670 -0.403102 0.497310
  147 367.796 -34.5556 -2.17239
  148 367.487 -34.0902 2.30319
  149 386.270 55.4848 -18.8072
  150 411.341 24.2413 39.7239
  151 311.608 -30.0032 -68.7537
  152 314.134 -29.9649 66.5479
  153 303.115 -12.8548 8.31947
  154 303.140 -13.0335 -8.32580
  155 435.955 15.6879 -30.1347
  156 366.819 -13.2091 7.97350
  157 366.663 -12.8914 -7.87447
  158 474.160 105.718 4.73180
  159 375.674 -0.601466 -38.9063
  160 278.263 -21.8819 -30.8279
  161 278.272 -21.6996 30.5580
  162 376.293 -8.52394 35.0780
  163 357.740 26.1086 23.2454
  164 147.927 23.7224 -82.0641
  165 163.985 22.4787 86.4667
  166 459.985 5.30793 3.18994
  167 377.180 -14.4774 -24.2852
  168 499.155 109.625 -1.67085
  169 339.800 -9.59935 -0.0788489
  170 339.728 -9.56973 0.108241
  171 381.366 -4.64117 -3.47450
  172 382.564 -4.17232 2.99959
  173 267.398 -3.83592 -4.91740
  174 267.432 -3.79616 4.89203
  175 409.217 -10.7231 87.3899
  176 346.372 14.3860 -25.0421
  177 226.614 -16.9747 -49.4202
  178 227.290 -16.8510 49.0992
  179 254.655 -8.34591 -16.1683
  180 254.680 -8.25014 16.0489
  181 379.001 -9.96574 20.6432
  182 344.543 -23.6510 -1.01825
  183 343.334 -23.4750 1.56600
  184 391.446 -37.8896 -6.93820
  185 393.489 -36.0971 2.07230
  186 540.675 127.274 -19.1170
  187 393.832 63.2225 17.5822
  188 394.360 24.2190 -39.9889
  189 407.736 -3.34499 -101.512
  190 391.177 -22.1127 -27.7368
  191 394.544 -15.7919 32.7424
  192 329.014 -37.3544 33.7870
  193 329.093 -37.0902 -33.6841
  194 352.214 4.49220 30.0797
  195 161.409 -3.96154 -60.4508
  196 161.804 -4.30328 60.0822
  197 609.429 91.2414 13.2026
  198 370.544 -22.0827 14.9833
  199 384.231 -7.07468 -13.4084
  200 304.968 -7.46289 -3.80356
  201 304.974 -7.42484 3.79152
  202 369.100 -4.79910 -27.0466
  203 420.165 61.6693 -31.9255
  204 351.880 31.6228 -4.65777
  205 229.333 -8.11564 22.7151
  206 228.984 -8.14132 -22.8837
  207 389.874 -4.34716 7.30055
  208 380.003 7.14565 40.0187
  209 309.037 -22.4999 -14.9399
  210 306.961 -21.3036 15.2900
  211 447.691 66.4048 29.0884
  212 525.834 72.3270 12.5880
  213 35.9609 28.0515 -23.1598
  214 33.2631 25.9312 19.6874
  215 216.936 62.1715 144.435
  216 366.834 -24.3823 -11.4181
  217 391.269 -4.17533 -6.59383
  218 348.252 3.07110 -27.7016
  219 244.700 -2.43265 -7.17687
  220 244.778 -2.40524 7.11443
  221 330.292 -15.4987 -3.18606
  222 330.445 -15.5943 2.99877
  223 372.249 -5.02149 23.0002
  224 428.126 -24.7825 10.0593
  225 425.705 86.9677 -9.23758
  226 333.841 -32.2433 -16.0350
  227 421.884 -7.34928 25.2252
  228 359.628 -6.06319 1.24668
  229 359.632 -6.01346 -1.24488
  230 331.399 -32.0900 16.6514
  231 379.545 -24.0910 22.5390
  232 532.655 69.1852 -34.4006
  233 118.593 70.5772 -104.837
  234 322.015 11.3251 5.98243
  235 381.435 33.6266 33.7245
  236 406.104 -2.85549 -35.4689
  237 379.530 -13.6697 -32.7576
  238 202.886 -6.52352 -28.4303
  239 203.585 -6.42506 28.3407
  240 380.123 -4.59808 -17.7538
  241 362.213 -9.18869 4.15226
  242 362.043 -9.17669 -4.00996
  243 76.6648 7.02589 -38.6270
  244 77.8792 6.15865 38.4966
  245 403.278 -35.2941 -31.5475
  246 398.928 -1.45140 0.987822
  247 399.350 -1.47886 -1.07922
  248 372.571 30.8864 -30.8894
  249 328.358 6.33198 18.1386
  250 683.369 109.434 73.4861
  251 677.675 77.1508 -45.9459
  252 492.190 106.050 -0.475496
  253 307.271 -14.8274 91.4128
  254 282.085 -9.65365 -95.5920
  255 323.744 -6.65268 -1.34507
  256 323.714 -6.61013 1.33547
  257 269.143 -7.19898 9.91029
  258 269.141 -7.29812 -9.99746
  259 389.452 -4.21751 10.9099
  260 378.007 -26.9279 -18.4655
  261 246.021 -0.457520 -1.68201
  262 246.077 -0.449619 1.67161
  263 373.263 -15.1261 -14.7235
  264 159.010 -5.19496 -39.4439
  265 159.695 -5.21153 39.1613
  266 377.936 -16.3963 26.1794
  267 288.741 -30.6446 55.3116
  268 289.470 -31.1932 -55.1425
  269 326.692 12.5301 -8.44252
  270 281.919 -4.31950 -3.31429
  271 281.944 -4.29012 3.30153
  272 354.709 -0.880334 22.1865
  273 423.523 77.5017 22.1308
  274 227.689 -2.77133 12.1346
  275 227.515 -2.79453 -12.2374
  276 388.108 -32.4277 12.7597
  277 359.275 -40.3246 -37.1939
  278 400.427 -1.95937 3.37762
  279 278.886 -16.5100 -21.0827
  280 278.406 -16.3256 21.0031
  281 491.968 52.3400 128.312
  282 233.340 -18.8387 65.9669
  283 376.134 52.8087 -1.99494
  284 474.726 52.6017 -18.6429
  285 358.414 -27.7228 4.28645
  286 359.557 -41.4264 33.5441
  287 234.045 -18.5319 -66.7083
  288 43.5413 53.7245 48.9307
  289 373.327 -15.1789 14.9963
  290 488.944 64.0973 14.3489
  291 403.557 -1.74969 -2.92872
  292 366.257 12.8257 -35.5577
  293 361.163 -20.4314 7.93334
  294 353.645 -29.8501 1.20476
  295 364.937 16.7590 34.2651
  296 386.258 -32.4363 -11.3599
  297 546.689 106.220 -9.44996
  298 361.065 -19.6395 -7.58657
  299 297.939 86.0540 -176.623
  300 369.081 -39.1322 -7.52156
  301 366.480 -40.2001 11.7160
  302 269.709 -24.3898 -43.4605
  303 243.778 -0.925775 -3.65685
  304 243.847 -0.909660 3.62812
  305 269.826 -24.4095 43.2256
  306 390.558 -0.663359 -40.1510
  307 421.218 -17.4446 -16.5393
  308 321.292 -19.3417 -7.97761
  309 321.086 -19.3862 8.12343
  310 383.570 -33.0164 59.3812
  311 383.228 -3.08568 13.4385
  312 464.888 2.37246 21.4202
  313 314.833 -11.1095 -4.40378
  314 314.854 -11.0725 4.37920
  315 286.980 -7.46088 -6.54598
  316 286.983 -7.39114 6.53623
  317 324.997 4.38769 -17.5414
  318 416.281 30.5053 -38.4945
  319 641.956 173.336 -82.7677
  320 379.083 -3.37831 -1.15423
  321 378.869 -3.33335 1.18611
  322 203.596 -0.434283 82.3166
  323 285.472 -12.9312 -13.9774
  324 284.937 -12.8877 14.0132
  325 203.558 -0.910498 -82.0024
  326 397.045 46.8431 -32.8171
  327 443.819 22.0052 28.5785
  328 383.528 -27.3652 -65.9033
  329 353.097 -13.6431 3.37700
  330 352.739 -13.5442 -3.22438
  331 376.659 -7.84337 -7.09026
  332 354.956 -0.667645 -20.7476
  333 397.720 1.69128 39.2873
  334 396.501 -2.80344 -7.51084
  335 239.272 -14.5006 33.1352
  336 239.009 -14.5813 -33.3889
  337 370.212 -0.835430 36.9532
  338 229.099 -1.85987 -7.20613
  339 229.247 -1.84244 7.14099
  340 379.463 -8.75405 11.1440
  341 455.239 92.9197 -16.1477
  342 376.476 -7.90155 7.35917
  343 401.482 50.3890 32.9237
  344 384.123 -7.15836 38.2484
  345 304.601 -5.70421 1.39742
  346 304.603 -5.73925 -1.40666
  347 363.769 -1.29528 -32.7973
  348 480.879 101.047 10.0961
  349 400.313 73.3254 0.686685
  350 245.158 28.4740 -122.285
  351 25.5675 11.1004 -16.8850
  352 28.0146 12.0121 18.1571
  353 -1.15763 2.87459 7.31007
  354 0.327932 1.64494 -7.64121
  355 699.639 48.5390 16.6315
  356 331.613 -26.9115 -9.47878
  357 379.752 -8.46135 -10.8716
  358 342.898 -6.06454 0.421897
  359 342.858 -6.01628 -0.424095
  360 367.235 40.5640 -16.7308
  361 313.240 -31.9020 27.8068
  362 27.6291 41.1512 -30.4088
  363 313.531 -31.8929 -28.3083
  364 372.005 42.3073 17.8031
  365 378.966 -10.1340 -19.6511
  366 401.846 -22.4465 -23.5098
  367 428.566 90.3879 6.36527
  368 402.742 -25.1763 19.3076
  369 167.608 -4.16104 26.4145
  370 166.614 -4.08050 -26.5826
  371 95.0037 2.29747 -36.7309
  372 95.9964 1.92073 36.5677
  373 330.078 1.11770 17.7363
  374 623.241 182.535 71.6458
  375 391.661 -2.52120 -9.58040
  376 305.338 -25.7625 -21.3135
  377 305.090 -25.6978 21.2849
  378 376.799 -8.71378 -24.9729
  379 428.586 -20.7190 2.44450
  380 331.602 -26.8876 9.76131
  381 469.912 3.59721 -39.1842
  382 267.181 -2.14125 -1.29069
  383 267.221 -2.12289 1.28168
  384 370.739 -2.16948 -15.9828
  385 200.653 -2.88251 -17.2306
  386 200.778 -2.97537 17.0224
  387 442.486 56.5349 -32.3850
  388 239.438 16.8838 113.633
  389 346.745 -18.2044 1.42098
  390 347.085 -18.1729 -1.43681
  391 407.535 68.9030 -20.8096
  392 385.576 -11.4485 -36.2063
  393 386.263 -39.4960 32.6379
  394 322.622 -8.57551 -2.10592
  395 322.585 -8.53450 2.08573
  396 371.977 -28.7149 12.2589
  397 400.233 -1.94679 5.57408
  398 250.634 -9.11347 -20.2211
  399 250.734 -9.11403 20.0507
  400 378.078 12.6934 -39.4844
  401 356.633 -7.78392 1.87325
  402 356.617 -7.80257 -1.82688
  403 369.183 -4.36330 30.1016
  404 344.617 25.1378 8.04530
  405 382.482 -16.1779 31.5524
  406 551.979 115.428 20.9295
  407 185.480 -9.97746 -52.9081
  408 185.994 -9.97995 52.5088
  409 82.9795 44.3609 -63.3420
  410 409.139 -1.25245 1.52163
  411 209.202 -1.75562 -10.9074
  412 209.479 -1.71844 10.8147
  413 377.089 -9.86287 24.4461
  414 342.106 -37.1251 18.4738
  415 385.951 -4.85562 5.01490
  416 393.672 19.9770 41.1147
  417 86.9505 47.2344 66.0109
  418 342.614 -36.9138 -17.0163
  419 353.992 -32.8992 -3.64416
  420 116.408 -2.33323 -33.2626
  421 117.273 -2.41980 33.0349
  422 272.038 -21.8157 -79.5516
  423 406.155 -6.09218 34.5852
  424 271.022 -22.1378 78.8576
  425 375.341 -21.1024 -20.2882
  426 349.391 23.5983 -17.6115
  427 375.399 -16.2528 19.2920
  428 403.454 -1.85344 -3.74102
  429 12.4192 13.3291 6.02257
  430 82.1970 95.0864 93.5433
  431 361.693 -1.32662 15.4343
  432 304.395 4.20708 7.69387
  433 309.593 5.11884 -10.4325
  434 264.140 -4.34110 -6.99286
  435 264.169 -4.28570 6.94806
  436 370.084 -28.6963 -11.1965
  437 374.120 -7.34522 -33.6708
  438 306.001 5.78068 -2.83344
  439 551.720 131.483 27.7876
  440 77.0061 25.4371 -47.4818
  441 84.8406 23.3434 50.7025
  442 346.425 -12.3650 1.37382
  443 346.294 -12.3364 -1.28273
  444 461.684 101.848 -1.26172
  445 287.615 119.868 180.552
  446 443.573 -6.16684 -5.53178
  447 255.968 -13.3127 -27.4314
  448 256.089 -13.2220 27.2017
  449 257.785 -5.72742 10.8709
  450 257.735 -5.76933 -10.9676
  451 347.313 7.73985 -28.5341
  452 411.201 -0.635492 -1.00582
  453 337.797 15.5370 16.0421
  454 425.871 52.5591 35.2541
  455 354.681 -26.3290 -2.99328
  456 385.793 -4.62560 -4.87458
  457 405.095 -1.68319 3.44517
  458 410.011 -0.681702 0.574318
  459 410.335 -0.763200 -0.418484
  460 227.721 -0.398841 2.67299
  461 227.606 -0.404838 -2.70030
  462 387.796 -24.6778 24.5281
  463 350.626 13.8597 27.6367
  464 366.222 1.49155 -36.0619
  465 381.945 -8.10001 14.5533
  466 548.692 93.6219 -108.360
  467 382.941 -21.2824 -27.5310
  468 3.97757 7.29885 3.14683
  469 3.93335 7.42792 -1.25062
  470 303.915 -17.1776 12.0801
  471 302.908 -16.9457 -11.9307
  472 474.852 9.21526 58.5909
  473 133.168 122.030 -137.184
  474 378.043 -1.17097 11.9624
  475 427.662 -24.8621 -33.5694
  476 229.090 -13.1539 38.3437
  477 458.860 81.4271 -23.2259
  478 377.447 -20.4650 23.0359
  479 317.316 -15.1416 -6.07593
  480 317.595 -14.8918 6.05957
  481 329.998 1.77810 -15.6587
  482 228.377 -13.1014 -38.5772
  483 338.245 0.170566 15.7331
  484 323.458 -37.0089 -49.4997
  485 322.651 -37.0654 49.6836
  486 389.481 -2.61711 10.5813
  487 354.709 33.4668 3.32478
  488 358.938 6.33346 123.642
  489 528.260 107.339 -0.671854
  490 365.171 -6.21420 2.23007
  491 365.190 -6.19195 -2.31243
  492 281.721 -4.97477 -4.45695
  493 281.742 -4.93368 4.44075
  494 148.974 6.79207 69.2343
  495 379.153 -18.2963 -26.9801
  496 343.981 -7.51660 0.197036
  497 343.946 -7.49072 -0.190048
  498 299.803 -31.7184 40.5065
  499 151.836 8.98342 -70.9838
  500 379.582 -30.9633 -12.8360
  501 6.66386 1.64144 2.76829
  502 332.792 17.2340 1.17386
  503 366.468 -4.30752 -0.728707
  504 366.460 -4.36540 0.711135
  505 299.976 -31.6623 -40.8186
  506 428.085 -21.9637 42.7077
  507 424.831 15.4242 35.7830
  508 391.853 -2.72771 -2.40112
  509 378.423 -31.3974 13.0292
  510 238.591 -0.216891 -0.483146
  511 238.648 -0.214770 0.479240
  512 378.031 -14.5466 -28.8418
  513 366.602 27.1373 30.2130
  514 419.649 10.3644 -35.3543
  515 237.143 -0.364405 -1.50481
  516 237.208 -0.359274 1.49472
  517 729.083 105.337 -94.1269
  518 381.388 45.4028 26.5834
  519 392.188 -2.52059 2.13591
  520 354.771 -33.6259 4.50195
  521 298.837 -9.85827 6.68931
  522 298.833 -9.93286 -6.67568
  523 412.461 -25.1582 10.3409
  524 396.714 -7.95920 -36.5404
  525 443.617 87.3256 19.6112
  526 369.399 6.36469 37.4016
  527 371.987 -7.21181 4.44331
  528 361.397 -38.6079 -47.7584
  529 375.248 -9.31656 28.4794
  530 720.354 33.0710 -13.1707
  531 409.405 -30.8995 -0.0295357
  532 389.421 -2.64951 -0.555979
  533 389.515 -2.81456 0.484058
  534 727.852 48.8273 46.1171
  535 360.293 -0.108699 31.8107
  536 503.118 84.8394 -7.43886
  537 378.609 -10.3461 -14.1102
  538 172.435 -1.60615 -11.7816
  539 172.963 -1.52873 11.6629
  540 256.932 -24.0453 -55.2982
  541 257.141 -23.6427 54.8910
  542 371.782 -6.91680 -4.40497
  543 404.789 14.8440 -40.0254
  544 355.728 -24.2073 4.35623
  545 383.058 43.9116 -27.5729
  546 385.359 -4.52297 14.2387
  547 482.044 24.3964 -6.40747
  548 330.079 -11.3126 -1.87439
  549 329.980 -11.2742 1.85288
  550 358.223 -16.9244 5.85411
  551 526.887 104.783 -8.87755
  552 377.690 16.5241 38.8411
  553 161.802 41.5962 102.282
  554 364.081 -21.8350 82.8438
  555 479.875 23.8065 -91.4334
  556 386.121 31.9237 -36.1226
  557 341.998 -29.5998 -71.8554
  558 370.472 -40.6254 -14.6271
  559 386.722 -39.1953 -21.2566
  560 51.0692 66.4792 -62.9909
  561 388.765 -4.97880 -8.68558
  562 583.922 113.496 -33.4273
  563 360.118 -16.2405 -6.58071
  564 363.047 -11.8497 5.43300
  565 362.711 -11.5818 -5.20525
  566 251.723 -1.43266 -3.32628
  567 251.778 -1.41415 3.30464
  568 36.3232 3.71671 -20.2852
  569 38.2882 3.89794 20.7517
  570 187.476 -8.69302 -40.3488
  571 188.894 -8.74071 40.2897
  572 368.040 -19.9670 -12.6823
  573 374.766 -40.7919 15.7964
  574 385.216 -36.6046 1.82687
  575 316.528 -5.60155 -1.21792
  576 316.510 -5.56212 1.21172
  577 299.998 -31.4862 -61.4942
  578 335.479 -27.5514 75.9963
  579 292.791 -29.6137 61.8350
  580 378.779 -8.43024 -36.1707
  581 238.513 -3.94711 12.2018
  582 238.396 -3.98811 -12.3013
  583 361.595 20.0051 -30.3536
  584 361.944 -0.635685 -14.0064
  585 451.589 97.9095 -8.78919
  586 295.722 -4.46610 -1.18965
  587 295.731 -4.43680 1.18413
  588 385.332 -1.15559 -7.85888
  589 267.056 -8.99480 -13.5531
  590 267.064 -8.96379 13.4374
  591 217.810 9.99882 97.8175
  592 375.032 -17.2834 -19.4975
  593 209.938 -11.1338 70.3020
  594 368.551 -19.1204 12.9682
  595 387.742 -5.52549 9.60208
  596 382.794 -3.57157 -2.11473
  597 270.247 -3.32875 -3.10641
  598 270.282 -3.30162 3.09069
  599 433.211 86.4268 -17.7044
  600 209.787 -10.7182 -70.5617
  601 367.319 -15.9317 -10.3382
  602 331.639 -6.18212 -0.616716
  603 331.605 -6.13727 0.614245
  604 620.248 83.4296 -14.8113
  605 221.175 -1.41139 6.72532
  606 220.984 -1.42510 -6.78718
  607 343.238 7.89475 26.0429
  608 488.572 41.1718 -4.80304
  609 232.023 1.53954 -97.0748
  610 119.374 2.97619 -53.0175
  611 120.354 2.30107 52.7374
  612 291.241 -16.9723 16.8371
  613 294.251 -17.4725 -16.3657
  614 494.391 99.6758 8.10435
  615 381.246 -3.69953 1.90517
  616 328.551 9.27887 -15.7398
  617 408.582 73.3732 16.4630
  618 407.142 76.1377 -10.9489
  619 334.573 -18.5395 -3.03787
  620 337.100 -18.1245 1.84766
  621 239.751 52.3342 -139.384
  622 288.076 -9.83843 -9.38324
  623 288.101 -9.72659 9.35181
  624 725.294 148.513 111.871
  625 378.242 -12.4154 31.1627
  626 217.079 -7.65990 -25.8478
  627 584.573 137.151 92.3023
  628 217.580 -7.61771 25.7516
  629 361.083 -13.7564 -96.6537
  630 256.296 -1.25170 -1.22570
  631 256.345 -1.24087 1.21961
  632 316.965 2.86577 13.7328
  633 144.715 -2.14790 -23.1965
  634 145.508 -2.15341 23.0167
  635 330.290 -23.3716 7.32015
  636 346.230 -27.7284 -2.32475
  637 407.349 -0.910177 -3.16479
  638 231.451 -0.368600 1.97848
  639 231.361 -0.375205 -1.99854
  640 311.846 -7.03495 -1.87916
  641 311.834 -6.99599 1.86556
  642 357.086 -39.6500 48.2473
  643 410.566 45.8340 -36.2562
  644 273.887 -12.7559 -17.4627
  645 273.695 -12.5413 17.3382
  646 324.237 -23.3180 -10.0717
  647 509.788 110.896 3.51171
  648 382.956 -37.0776 0.271605
  649 332.887 -7.99050 -0.926934
  650 332.838 -7.95180 0.927106
  651 457.104 50.0878 27.0287
  652 383.795 -5.57536 -15.4746
  653 340.175 -0.405776 -12.8100
  654 157.976 -5.39830 -50.7614
  655 158.456 -5.54808 50.3514
  656 323.356 -27.8922 -16.0652
  657 484.386 106.570 0.168131
  658 376.232 50.9318 -11.9740
  659 250.408 -2.27036 -6.10812
  660 250.467 -2.23884 6.06022
  661 350.612 -9.94066 -1.45785
  662 350.681 -9.95089 1.53149
  663 650.842 84.9315 37.4518
  664 413.333 -1.14664 0.841630
  665 399.814 -1.60638 5.46456
  666 398.291 -1.63232 -6.42089
  667 378.329 -35.2394 5.25160
  668 279.404 -3.24511 -1.55200
  669 279.432 -3.22215 1.54521
  670 404.576 64.8079 25.3730
  671 518.282 115.117 -7.24565
  672 284.469 -21.1235 -24.7380
  673 284.391 -20.9171 24.6156
  674 355.149 -36.5963 -7.91072
  675 374.955 22.2924 -36.5704
  676 444.172 1.19188 15.0039
  677 295.865 -5.50189 -3.11126
  678 295.875 -5.46685 3.09883
  679 255.919 -22.4330 -49.9272
  680 374.765 -36.2615 -1.80319
  681 311.761 -34.5721 44.6334
  682 149.473 47.1354 -98.7111
  683 291.364 -26.9805 34.4322
  684 351.487 0.0964362 11.8209
  685 256.158 -22.1793 49.5958
  686 367.107 -16.2382 10.4658
  687 291.454 -26.8664 -34.7424
  688 299.367 3.92961 2.88367
  689 231.595 -6.20792 18.3963
  690 231.389 -6.21414 -18.5234
  691 311.921 -35.4678 -45.1276
  692 385.240 -25.4050 -23.7054
  693 353.412 -5.00546 -0.387363
  694 353.469 -5.05660 0.389237
  695 393.647 -25.1069 23.4226
  696 357.857 -37.4010 9.34552
  697 434.608 39.8793 34.8312
  698 392.304 -7.37500 37.7013
  699 377.500 -13.5770 22.8681
  700 361.216 29.7160 -23.0255
  701 433.796 72.9277 27.5855
  702 374.617 -5.19742 -22.3138
  703 373.132 -12.4049 11.6146
  704 386.259 60.4461 6.46818
  705 379.701 -6.46601 19.3768
  706 119.958 81.6648 103.529
  707 353.312 -40.6506 -28.0455
  708 409.069 7.42012 38.2658
  709 412.835 -12.7898 -26.9490
  710 411.481 -0.575373 1.73532
  711 377.190 -12.9930 -17.9424
  712 353.836 -40.9695 25.5197
  713 682.039 60.4143 -10.1037
  714 212.213 -0.902334 7.03668
  715 211.961 -0.912180 -7.10199
  716 382.413 -6.99617 -8.28797
  717 413.898 -0.440580 -1.69578
  718 322.774 -28.3444 16.1491
  719 387.287 -14.4352 34.1863
  720 586.449 140.795 -44.5583
  721 367.090 -26.6206 10.5765
  722 406.676 -26.8023 -13.4917
  723 373.267 -12.0747 -11.4275
  724 413.656 -0.747704 -0.535848
  725 378.252 -0.0444953 39.3688
  726 17.5817 16.7134 22.3314
  727 425.665 -16.2421 -63.2348
  728 463.476 27.6049 16.5165
  729 386.335 -39.4978 19.0369
  730 276.469 -6.62663 7.67851
  731 276.467 -6.71848 -7.71471
  732 358.599 183.937 -189.599
  733 393.810 -26.0757 -21.5932
  734 298.209 1.59955 -5.51335
  735 346.791 1.93569 25.3689
  736 380.052 -19.0401 27.4173
  737 364.280 -30.6989 4.99896
  738 378.381 -34.5279 -51.8524
  739 362.068 -28.6497 -5.69168
  740 427.187 -20.4520 -3.91365
  741 393.500 -3.26515 4.82670
  742 351.684 -21.1330 2.84768
  743 636.745 127.268 -68.0559
  744 374.886 -10.0695 9.18572
  745 371.348 6.08688 -38.4001
  746 316.576 -3.51414 108.622
  747 397.626 32.0044 39.1173
  748 342.063 -26.9278 4.08444
  749 264.647 -20.8230 -36.5117
  750 264.675 -20.7667 36.2188
  751 364.068 40.9443 -5.35973
  752 370.040 -4.29012 34.2208
  753 373.947 -8.91342 -29.1144
  754 352.081 -21.5676 -2.95696
  755 340.464 -30.5066 9.22133
  756 389.210 64.1757 -7.29034
  757 363.835 -31.4909 -3.56556
  758 364.750 -23.0989 10.3177
  759 369.430 -4.79587 1.56385
  760 369.653 -4.66814 -1.55205
  761 496.921 108.969 2.08441
  762 406.156 -34.5645 -12.8660
  763 378.333 -11.6127 17.8786
  764 393.627 -3.25711 -4.38433
  765 398.171 2.63141 -39.6665
  766 452.786 23.8984 -22.7079
  767 223.601 -0.207871 -3.29329
  768 223.748 -0.204725 3.26087
  769 3.27610 -6.71829 -4.72935
  770 386.260 -0.465840 7.27333
  771 354.584 -0.560796 -28.0336
  772 366.080 -3.43029 24.6601
  773 333.139 41.6820 159.053
  774 416.613 85.5540 -0.882183
  775 296.549 -21.1989 19.3612
  776 52.6777 1.15433 -19.9968
  777 54.1647 0.847310 20.2089
  778 362.880 -2.58152 -27.8440
  779 297.341 -21.4085 -19.3588
  780 391.317 -3.58094 3.64536
  781 201.210 -8.57119 34.4282
  782 199.501 -8.54060 -34.4400
  783 374.859 -9.77880 -8.94495
  784 240.477 -6.04660 -16.0221
  785 240.598 -6.00732 15.8827
  786 390.299 -3.71856 -10.6707
  787 298.740 -7.97317 -5.34859
  788 298.750 -7.92177 5.35067
  789 426.048 -2.69359 -26.9370
  790 383.841 -4.03163 -39.4512
  791 196.405 -1.24838 -8.95954
  792 196.780 -1.23673 8.85706
  793 10.1479 4.90699 -12.2113
  794 11.8626 5.17853 12.8420
  795 312.162 1.50999 -9.97323
  796 350.467 -39.3765 -20.9989
  797 -4.00449 -2.76017 6.93773
  798 -3.52114 -3.27786 -6.90867
  799 364.704 -7.35580 3.37414
  800 395.326 -30.8768 -11.9427
  801 408.608 60.5216 -29.5867
  802 392.971 -3.22312 -3.46669
  803 834.688 168.833 -156.774
  804 364.628 -7.33294 -3.32937
  805 548.151 104.347 8.68081
  806 390.450 11.3598 -41.1635
  807 430.943 32.5379 -35.6927
  808 73.3659 -0.860406 -18.4477
  809 74.6860 -0.967258 18.4152
  810 244.534 -3.51239 9.51131
  811 244.446 -3.54144 -9.59410
  812 233.759 -0.544167 1.78382
  813 233.686 -0.549896 -1.79777
  814 435.968 73.3792 -27.3221
  815 258.828 -1.60221 -2.64410
  816 258.875 -1.58389 2.62974
  817 371.174 -3.73758 -35.7288
  818 533.469 55.4149 47.0761
  819 334.637 7.51350 -21.9077
  820 116.676 -1.04112 19.7353
  821 115.708 -1.05081 -19.8885
  822 430.237 12.0381 114.357
  823 382.038 -7.05338 8.55398
  824 342.537 22.7654 -9.12437
  825 159.183 -0.247332 13.4342
  826 158.384 -0.173776 -13.5318
  827 238.575 -1.20579 -4.66796
  828 238.664 -1.18847 4.62593
  829 42.8913 38.1325 33.1346
  830 356.903 8.53028 32.5186
  831 396.882 58.2868 -25.4123
  832 426.664 49.5404 -35.5787
  833 281.114 -10.5995 -12.2684
  834 280.954 -10.5215 12.2533
  835 442.084 93.9695 12.3527
  836 381.190 -3.22741 -0.446015
  837 381.214 -3.20339 0.509492
  838 377.583 -11.3477 -23.0984
  839 316.627 -21.0758 11.3902
  840 348.345 -39.1410 21.0901
  841 408.768 -33.4919 32.7692
  842 313.915 -9.10631 -3.22236
  843 313.913 -9.07288 3.20164
  844 359.144 33.3012 14.7963
  845 337.673 4.64189 -23.6514
  846 93.8173 112.065 107.755
  847 341.520 -30.2566 -8.38465
  848 342.688 -15.3163 0.427146
  849 342.871 -15.3489 -0.446655
  850 376.981 -5.56365 37.5215
  851 373.621 -24.5670 -16.8665
  852 333.929 -22.0954 -4.73325
  853 756.234 24.4807 -37.2860
  854 317.516 -30.0172 22.0399
  855 317.259 -30.4050 -22.3907
  856 376.519 -4.51386 18.9714
  857 565.314 146.283 -33.5846
  858 298.089 -27.0503 -27.4223
  859 329.011 -37.0314 26.1684
  860 298.015 -26.7263 27.1835
  861 323.053 -12.9971 -3.73282
  862 323.045 -12.9543 3.70717
  863 48.3118 20.4080 28.7784
  864 404.618 30.2273 -39.5335
  865 310.156 -12.0913 -5.84700
  866 310.214 -11.9704 5.86748
  867 306.393 -5.07429 -0.709682
  868 306.389 -5.03991 0.705155
  869 336.601 -6.71826 -0.169470
  870 336.561 -6.67489 0.166911
  871 274.298 -5.35527 -6.63578
  872 274.321 -5.29573 6.60879
  873 311.292 -16.3544 -8.78452
  874 311.333 -16.2444 8.82292
  875 7.63190 -2.29339 -3.89610
  876 468.336 87.8797 19.9434
  877 402.992 -14.1580 -31.3675
  878 328.733 -36.4933 -26.4394
  879 354.973 -11.4594 3.03224
  880 354.817 -11.3428 -2.93592
  881 387.112 0.469673 40.3108
  882 420.047 -29.9610 -18.4815
  883 371.419 26.7869 -138.088
  884 170.130 -2.82394 68.3926
  885 -5.92144 3.96692 -4.80392
  886 -5.10015 4.47936 5.30253
  887 48.0087 21.7033 -29.3863
  888 378.123 -10.9012 14.0181
  889 397.496 -2.63800 -5.88886
  890 357.617 -34.4356 59.4331
  891 169.728 -2.64917 -68.6614
  892 398.518 -32.6553 8.10310
  893 443.001 -12.8962 52.0024
  894 323.352 1.31460 10.5679
  895 370.003 35.1982 25.1717
  896 200.847 -11.3065 50.2497
  897 200.074 -11.3975 -50.5781
  898 240.856 -11.4317 -28.1990
  899 252.279 -12.4255 -87.1418
  900 398.903 -9.35724 35.3995
  901 546.852 128.900 20.9969
  902 400.650 15.3915 40.3151
  903 378.693 -8.10230 -21.0988
  904 257.551 -11.1317 89.3030
  905 482.203 88.9827 -14.2861
  906 48.3370 41.0120 -40.7876
  907 350.527 -0.694907 -11.2758
  908 241.108 -11.3382 27.9524
  909 293.560 -6.46123 4.70564
  910 293.550 -6.50491 -4.71566
  911 374.161 -24.4354 17.4359
  912 388.085 -2.52647 1.36842
  913 285.764 2.59167 -108.218
  914 408.970 -0.922085 2.78404
  915 406.030 -0.760054 -3.57446
  916 305.175 2.66573 -9.17931
  917 392.778 -1.60711 -6.43810
  918 294.439 -13.7473 -11.3750
  919 294.636 -13.5428 11.4104
  920 -9.53163 3.62979 -5.46424
  921 -13.2186 2.18971 5.81176
  922 388.072 -2.34985 -1.39440
  923 129.525 -2.94918 46.1675
  924 128.760 -2.67524 -46.4272
  925 415.227 60.5365 31.1959
  926 738.648 13.3571 11.5096
  927 391.028 43.4704 32.9426
  928 441.754 -15.4704 15.2989
  929 384.624 -21.4352 27.5802
  930 478.684 100.265 -10.8927
  931 298.759 1.29820 6.92139
  932 370.000 -8.74222 -5.46502
  933 384.809 20.6929 -39.8759
  934 463.826 13.8801 -6.64083
  935 360.824 -22.2899 -8.00452
  936 185.653 -1.02699 -10.0224
  937 185.840 -0.990550 9.88221
  938 380.606 -8.96984 -16.4364
  939 12.9144 16.3092 3.61760
  940 365.372 -37.8820 -4.34541
  941 317.753 9.44739 -0.946083
  942 475.532 104.386 -7.22721
  943 75.7102 56.2778 -67.3799
  944 366.101 -2.72819 -22.0963
  945 254.589 -4.23188 -8.90012
  946 254.640 -4.18240 8.82675
  947 2.26941 -10.3372 7.84043
  948 249.201 -18.5189 -40.4610
  949 372.236 -21.5329 -16.3913
  950 233.009 0.501581 -0.742195
  951 233.069 0.503888 0.737328
  952 376.434 45.6723 -20.1388
  953 402.433 -1.23802 -0.561471
  954 402.448 -1.25386 0.739651
  955 249.315 -18.4691 40.1912
  956 376.931 -0.530540 -8.71279
  957 433.024 3.13705 25.8898
  958 384.258 -5.46402 6.58708
  959 62.0953 15.6218 -36.2259
  960 398.282 -2.44925 5.32961
  961 362.206 2.93484 34.7810
  962 381.973 52.8833 17.9122
  963 381.920 4.42515 -40.7649
  964 263.761 -14.1049 -24.2538
  965 411.665 -14.6153 25.9776
  966 263.934 -14.0514 24.0131
  967 12.3402 13.3646 -1.45382
  968 45.7745 7.77160 26.5589
  969 215.772 -3.79676 16.6092
  970 215.510 -3.79943 -16.7014
  971 370.262 -8.90581 5.76919
  972 398.620 69.2675 9.88369
  973 203.100 18.5258 -102.561
  974 333.312 -20.7951 4.15445
  975 312.887 -32.6939 -33.0020
  976 455.573 87.2543 20.9782
  977 350.644 -6.22278 0.401044
  978 350.629 -6.18921 -0.403709
  979 383.917 -7.13436 -11.7502
  980 355.824 30.7416 -13.6475
  981 797.875 237.863 160.348
  982 74.8789 4.15636 -34.8258
  983 76.0269 3.45265 34.9011
  984 5.57088 -6.60341 2.09913
  985 356.836 19.7986 28.0137
  986 312.809 -32.8937 32.7618
  987 387.297 -18.3183 -31.4768
  988 421.316 34.4240 38.8382
  989 404.463 -32.6630 -40.0934
  990 590.332 124.170 41.5629
  991 344.308 -5.60053 -0.194291
  992 344.263 -5.55479 0.194450
  993 402.616 -16.4463 29.7024
  994 28.0015 47.3851 48.7203
  995 182.431 -3.81527 23.7691
  996 181.868 -3.76627 -24.0196
  997 217.431 -10.6106 32.5234
  998 216.688 -10.4475 -32.6430
  999 244.762 -10.0655 23.4000
  1000 267.588 -2.11182 -1.19205
  1001 267.628 -2.09623 1.18727
  1002 661.192 212.260 -135.823
  1003 601.008 150.673 62.5369
  1004 244.564 -10.1162 -23.5936
  1005 414.666 -1.93120 32.8026
  1006 371.752 38.5752 -24.2243
  1007 262.673 -22.6238 72.2728
  1008 336.952 -39.8154 -39.1740
  1009 385.021 -3.17892 -12.7200
  1010 174.264 11.8765 83.5597
  1011 223.590 -17.0720 57.7435
  1012 341.274 17.5307 -17.5626
  1013 389.425 -7.73224 -38.1522
  1014 492.609 204.086 216.040
  1015 322.624 9.91074 12.5193
  1016 437.829 94.1872 -1.49333
  1017 321.174 12.6969 -122.917
  1018 327.282 -34.4201 -22.6075
  1019 414.205 -0.471238 -1.38046
  1020 398.538 36.5956 -38.0946
  1021 234.705 -1.50231 5.99035
  1022 234.594 -1.51753 -6.04553
  1023 8.66311 5.19192 -12.7189
  1024 264.004 -12.0225 -20.2322
  1025 223.316 -17.2917 -58.1736
  1026 263.808 -11.9965 20.0131
  1027 380.739 -11.6071 35.2866
  1028 341.699 -21.1098 -1.11423
  1029 359.236 6.62310 -33.7105
  1030 369.680 46.1672 7.07339
  1031 499.103 30.6224 19.1376
  1032 377.020 -28.6567 16.5300
  1033 239.158 -19.0902 -44.2707
  1034 356.262 12.6303 -31.5756
  1035 264.924 -22.3247 -72.6462
  1036 507.690 110.000 -2.21583
  1037 346.482 22.7773 15.9778
  1038 436.252 -2.53231 -19.6071
  1039 329.313 -34.4371 20.8476
  1040 377.189 -11.9734 27.2214
  1041 374.651 -19.7937 19.3754
  1042 372.592 -18.7539 16.7405
  1043 459.675 58.4655 -27.8179
  1044 372.349 -6.01444 27.7461
  1045 336.418 -39.9264 38.5411
  1046 359.086 -14.6949 5.30703
  1047 239.309 -19.1274 44.0285
  1048 337.369 -24.8381 -5.05090
  1049 196.737 -9.57433 -61.7494
  1050 280.055 -29.0597 49.0766
  1051 379.080 -2.58776 -14.7986
  1052 369.438 -4.17297 -31.5857
  1053 320.131 -25.2944 -13.8923
  1054 197.074 -9.84761 61.2718
  1055 344.993 0.851981 -22.0481
  1056 256.945 -17.0109 -31.3758
  1057 463.860 98.6390 13.1417
  1058 104.167 17.1456 -58.8614
  1059 787.942 55.6538 75.6238
  1060 186.513 13.8081 -87.4501
  1061 372.478 -30.8661 -9.89793
  1062 257.017 -16.8667 31.1233
  1063 341.392 3.63910 24.6786
  1064 192.268 -3.87985 19.6806
  1065 192.170 -3.97554 -19.8782
  1066 377.252 -10.5081 -32.7236
  1067 400.488 -2.05369 2.13886
  1068 393.078 -0.897123 6.49999
  1069 389.130 12.9040 41.0849
  1070 364.266 -2.74131 29.6976
  1071 282.022 30.1364 132.910
  1072 416.807 -0.334003 0.657776
  1073 391.941 53.0858 26.2164
  1074 332.370 4.84379 21.2768
  1075 397.936 -1.53033 6.23217
  1076 257.034 -2.74087 -4.99055
  1077 257.081 -2.70976 4.95894
  1078 163.979 -4.63271 -32.8334
  1079 164.615 -4.79967 32.6134
  1080 333.439 16.6681 8.93473
  1081 500.600 27.2731 -37.6556
  1082 460.014 -0.234478 -70.4076
  1083 368.002 -0.332210 -9.05093
  1084 280.152 -29.2761 -49.4446
  1085 320.805 -24.0584 12.4518
  1086 370.100 -0.852237 9.44360
  1087 387.096 -28.1074 -19.5450
  1088 242.836 -0.546878 2.96814
  1089 242.773 -0.556645 -2.98623
  1090 371.770 -31.7497 9.89052
  1091 353.445 -7.25792 0.925323
  1092 353.385 -7.26534 -0.903090
  1093 343.972 -34.6308 13.3608
  1094 442.520 -14.2491 -5.59178
  1095 201.695 -0.355514 -5.58281
  1096 202.020 -0.343121 5.52460
  1097 301.917 -19.1375 -83.2357
  1098 321.446 -7.67355 1.77789
  1099 321.476 -7.71553 -1.79293
  1100 194.285 104.797 146.056
  1101 444.766 36.5269 -31.5791
  1102 66.0479 32.0582 -44.6712
  1103 384.466 -5.76243 -6.36252
  1104 103.312 35.3161 -67.5177
  1105 214.640 -13.4748 -42.0148
  1106 416.872 -0.474134 0.418524
  1107 417.029 -0.445884 -0.306730
  1108 378.418 -21.6194 -23.5742
  1109 335.069 -37.6297 -53.6801
  1110 104.236 14.5959 56.0887
  1111 411.746 40.7421 36.9817
  1112 373.485 -3.81244 -0.550958
  1113 373.529 -3.81511 0.585777
  1114 407.563 -26.1758 65.1267
  1115 421.842 84.3936 14.1933
  1116 251.180 -6.02792 -12.7206
  1117 251.244 -5.99990 12.6319
  1118 190.490 21.7202 103.539
  1119 358.344 1.83280 -32.6129
  1120 112.752 36.2422 72.5570
  1121 458.980 -7.74226 -22.4412
  1122 451.784 99.7338 4.25465
  1123 310.979 -24.5759 16.8292
  1124 287.786 1.54877 -1.34973
  1125 394.042 -3.48319 7.93918
  1126 407.777 -0.529462 3.09205
  1127 90.2745 0.157698 -16.5426
  1128 91.4856 0.114692 16.4314
  1129 322.141 5.41240 -15.7680
  1130 331.489 -9.75084 -1.34508
  1131 331.415 -9.70602 1.33780
  1132 34.9960 56.0196 -51.8675
  1133 55.4907 121.613 -103.292
  1134 335.682 -13.1106 1.11612
  1135 335.810 -13.1086 -1.13546
  1136 346.746 -8.37414 0.958428
  1137 346.696 -8.35707 -0.929863
  1138 91.3161 58.2836 73.0733
  1139 274.256 -3.37939 -2.41329
  1140 274.289 -3.35515 2.40205
  1141 344.689 26.0742 -0.369047
  1142 437.573 55.9408 -153.358
  1143 419.896 72.3667 -24.3284
  1144 383.015 -14.7189 -33.3102
  1145 377.266 -18.8307 -23.9630
  1146 311.159 -24.8041 -17.1076
  1147 313.559 1.03438 9.73361
  1148 352.338 21.9837 -23.4208
  1149 347.468 18.7054 22.3796
  1150 358.852 -14.2694 -5.20649
  1151 342.569 -20.6870 0.857526
  1152 311.633 -20.1177 -12.6770
  1153 370.843 -2.18623 17.5913
  1154 653.148 65.9077 9.18078
  1155 373.319 -7.96721 32.0396
  1156 374.725 24.6025 35.1436
  1157 345.577 -33.9983 -10.1117
  1158 43.3884 7.14002 -25.6202
  1159 352.053 -16.2926 -3.59043
  1160 234.681 -0.362316 -0.149609
  1161 234.735 -0.360789 0.148006
  1162 428.488 -11.3697 16.6589
  1163 408.304 -34.3878 15.3412
  1164 586.103 104.888 25.8455
  1165 141.040 -0.285384 -13.7683
  1166 141.873 -0.255001 13.6659
  1167 314.601 -6.37310 -1.45307
  1168 314.586 -6.33367 1.44268
  1169 353.135 -31.1498 -1.36979
  1170 290.339 1.32383 4.42067
  1171 361.622 -25.7507 7.56061
  1172 20.6129 24.4943 -12.0669
  1173 65.3574 32.5041 43.6771
  1174 242.241 -13.1972 80.4449
  1175 418.326 79.6500 -17.3734
  1176 399.379 -1.11428 -4.92389
  1177 418.626 -0.678663 0.276968
  1178 419.026 -0.921920 -0.172806
  1179 244.132 -0.575361 -0.490451
  1180 244.187 -0.570799 0.486830
  1181 385.553 24.6435 39.8578
  1182 569.481 97.2263 -2.06730
  1183 397.278 65.6622 -17.7344
  1184 297.015 -21.8627 82.7042
  1185 240.952 -12.6899 -80.2907
  1186 267.966 -17.9177 -28.1513
  1187 370.482 -10.3735 7.39276
  1188 516.669 113.894 4.94056
  1189 267.991 -17.8115 27.9323
  1190 378.487 -6.63683 5.59391
  1191 338.445 12.5923 21.3620
  1192 372.719 11.5482 38.3199
  1193 530.233 118.404 13.1249
  1194 315.193 -8.23086 2.70652
  1195 315.209 -8.27029 -2.72532
  1196 383.434 -7.21911 12.2061
  1197 228.043 -2.43355 9.37746
  1198 227.882 -2.45816 -9.46156
  1199 375.037 -5.12904 -2.46973
  1200 154.594 92.1823 -141.309
  1201 324.779 -18.3161 -88.5619
  1202 306.609 -9.61083 -4.99045
  1203 306.641 -9.56742 4.99217
  1204 402.111 -1.91262 1.94022
  1205 380.711 -5.01000 4.46924
  1206 20.9459 26.4041 19.4544
  1207 413.950 -0.472139 1.61325
  1208 49.4598 62.7999 62.3079
  1209 371.884 -5.58037 -3.18164
  1210 -0.448700 -9.09293 -7.97018
  1211 263.249 -25.6910 -62.2926
  1212 262.527 -25.0678 61.6717
  1213 413.935 -0.736137 -1.78593
  1214 354.279 -18.6938 -4.30702
  1215 401.828 -1.74653 -1.98337
  1216 322.072 -10.4253 -2.61084
  1217 322.040 -10.3873 2.58212
  1218 374.797 -5.09302 2.31809
  1219 351.800 -15.9732 3.55293
  1220 338.554 -10.9008 0.160551
  1221 338.673 -10.9303 -0.120077
  1222 401.481 -1.80006 -1.61789
  1223 346.704 -36.5133 -60.5132
  1224 392.880 -2.44962 -1.64838
  1225 373.466 -5.73531 3.42693
  1226 261.156 -2.85785 -3.70285
  1227 261.200 -2.82995 3.68140
  1228 291.498 -4.28840 -1.90602
  1229 291.513 -4.25899 1.89660
  1230 471.416 73.5530 23.2046
  1231 396.218 -30.4616 14.3630
  1232 271.882 -1.28356 102.183
  1233 218.474 -0.366803 3.60084
  1234 218.290 -0.370762 -3.63643
  1235 375.599 -6.94414 24.0536
  1236 359.428 -5.46534 0.642669
  1237 359.443 -5.44692 -0.642287
  1238 411.665 80.0936 8.12574
  1239 376.701 -39.4486 48.0144
  1240 218.786 -3.08795 13.1520
  1241 218.569 -3.11118 -13.2478
  1242 358.909 -8.77548 2.68572
  1243 358.829 -8.83615 -2.60432
  1244 370.282 -10.2474 -7.11954
  1245 340.705 0.0707037 11.4127
  1246 587.512 146.022 -48.8670
  1247 377.180 -13.8129 -21.1821
  1248 64.9678 15.4226 37.2434
  1249 389.613 -20.7771 29.2925
  1250 313.509 6.87578 -8.62697
  1251 24.1122 17.6527 13.5530
  1252 512.763 57.3244 -5.33269
  1253 380.551 -17.3168 -29.6645
  1254 314.999 4.49703 13.2157
  1255 216.144 -13.4978 41.9448
  1256 386.521 -29.9314 17.3895
  1257 560.400 107.522 34.5573
  1258 130.179 19.1841 71.3659
  1259 388.393 -4.63241 -10.5177
  1260 744.646 8.33030 -7.48182
  1261 769.303 11.5533 33.3372
  1262 821.308 27.9110 -79.2575
  1263 376.738 -11.7698 -26.4356
  1264 376.709 -17.2036 22.4355
  1265 382.700 -27.2498 20.8135
  1266 -11.2495 1.29918 7.13020
  1267 -10.2359 1.04017 -7.76346
  1268 372.438 -41.1678 -22.5359
  1269 381.493 -38.5792 -33.6809
  1270 292.416 1.87022 -5.45789
  1271 370.882 -41.9060 33.6082
  1272 396.294 -18.8089 -29.7150
  1273 7.88003 11.8575 1.42974
  1274 322.366 -5.90035 1.01760
  1275 322.389 -5.94223 -1.02029
  1276 393.767 -3.17011 7.14641
  1277 378.460 -6.51902 -5.25231
  1278 356.488 -38.9190 -12.0418
  1279 325.768 -17.6258 5.42363
  1280 324.131 -17.3783 -5.89195
  1281 382.077 -8.08791 16.8104
  1282 391.563 -14.3974 -34.2642
  1283 25.0202 18.4049 -13.1369
</Section>

newXOutput 52

<Section columns = "stress_xx | stress_yy | stress_xy">
  1 429.130 -0.0987337 0.828998
  2 429.142 -0.0916021 -0.831427
  3 235.523 -0.0814791 -0.299852
  4 -2.97627 -2.94463 -4.27895
  5 769.670 307.313 246.304
  6 762.528 318.440 -245.896
  7 -3.45649 -2.79905 4.55162
  8 235.468 -0.0823459 0.299043
  9 432.115 -0.722253 0.250537
  10 431.224 -1.14054 -0.219365
  11 430.270 -0.764175 0.950073
  12 429.309 -1.04967 0.256210
  13 427.239 -0.884825 1.49631
  14 425.356 -0.893741 1.08568
  15 420.890 -0.789852 2.15161
  16 414.478 -0.554091 3.17323
  17 408.767 -0.586488 3.53955
  18 400.270 -0.815051 4.28698
  19 388.455 -0.0671435 6.34810
  20 377.542 -0.600770 6.04303
  21 365.077 -0.777591 8.52582
  22 347.079 0.549596 7.42693
  23 334.021 0.835666 8.78768
  24 316.983 1.40464 6.88314
  25 305.182 1.48190 6.94269
  26 288.087 2.06867 3.54184
  27 284.479 3.25606 3.79883
  28 282.307 2.67260 -1.12253
  29 285.273 1.55424 -2.46481
  30 290.736 1.50614 -3.02356
  31 303.543 1.89706 -6.03355
  32 315.982 1.49849 -7.62752
  33 334.211 0.336272 -9.04059
  34 348.791 -0.185412 -8.22355
  35 364.310 -0.618211 -8.06923
  36 378.349 -0.469440 -5.69074
  37 390.392 -0.493366 -4.85959
  38 400.303 -0.797598 -4.07130
  39 409.163 -0.572772 -2.82738
  40 414.674 -0.683595 -2.99598
  41 419.999 -0.836817 -2.18785
  42 425.015 -0.990464 -0.945037
  43 427.582 -0.798791 -1.12086
  44 428.913 -0.495979 -0.693963
  45 427.873 -0.280950 -0.633496
  46 431.653 -1.14806 0.149079
  47 432.243 -0.751400 -0.258334
  48 418.303 -0.352986 -0.513120
  49 409.057 -1.78013 -0.935398
  50 397.742 -2.60771 -0.595187
  51 383.932 -3.84329 -0.819695
  52 370.823 -4.19964 -1.00902
  53 356.818 -5.23400 -0.962131
  54 344.410 -5.80847 -0.520614
  55 333.527 -6.48016 -0.177352
  56 320.966 -5.37328 -0.169983
  57 306.487 -5.01260 -0.302968
  58 292.534 -3.94841 -0.0712259
  59 279.317 -2.50990 -0.0129810
  60 266.759 -1.78248 0.0402895
  61 255.748 -0.905949 0.131811
  62 244.496 -0.237203 -0.342405
  63 235.650 0.331486 0.445129
  64 231.675 0.917164 0.304337
  65 234.350 0.0116277 0.711610
  66 231.295 -0.119882 0.859905
  67 228.447 -0.180770 1.07169
  68 224.590 -0.0178974 1.39305
  69 219.727 -0.00958549 1.75215
  70 216.103 -0.278687 3.36531
  71 205.841 0.301058 3.67245
  72 198.601 -0.0180000 4.19823
  73 187.819 -0.184787 4.76398
  74 175.408 -0.313658 5.79693
  75 159.892 -0.0690113 7.03881
  76 140.977 0.0894745 7.76265
  77 124.614 -0.164937 11.0934
  78 92.3362 1.02752 10.4726
  79 70.3143 0.885856 11.0926
  80 43.8953 -0.199890 12.3080
  81 21.9275 2.03517 12.8054
  82 -3.09589 3.04775 7.70389
  83 -21.3243 3.09753 2.75208
  84 -20.8319 2.99285 -1.07400
  85 -19.9520 2.48944 -5.99200
  86 -11.7430 -0.789174 -5.70463
  87 -1.43146 -11.2730 -6.29738
  88 1.12156 -20.7496 -7.86123
  89 3.10127 -32.6752 -4.30775
  90 6.87853 -33.1841 0.478573
  91 14.5418 -7.19046 19.3317
  92 43.2951 67.6603 65.3086
  93 253.143 238.575 220.395
  94 931.883 139.345 155.844
  95 839.870 19.9454 50.7115
  96 781.056 8.27439 15.5184
  97 759.344 7.02837 1.19994
  98 770.853 9.35225 -13.4420
  99 837.987 18.5775 -40.1297
  100 987.217 67.2167 -134.176
  101 150.401 244.139 -184.410
  102 32.4196 48.2557 -54.1068
  103 15.8795 -5.59545 -20.4214
  104 6.43525 -33.1838 -3.57795
  105 1.82449 -24.8512 4.94609
  106 2.29468 -26.1584 6.81463
  107 0.111663 -9.74077 6.97451
  108 -12.2588 -0.508184 5.41012
  109 -20.5858 1.86865 5.22664
  110 -21.9382 3.63756 1.19199
  111 -22.0116 3.04908 -2.55111
  112 -4.63429 3.12351 -7.21814
  113 20.5704 2.05290 -12.2094
  114 42.5102 0.0164858 -12.1059
  115 68.8854 0.957743 -11.1162
  116 91.0382 1.05453 -10.5528
  117 123.607 -0.169524 -11.1869
  118 140.115 0.0995773 -7.83808
  119 159.139 -0.0660562 -7.12740
  120 175.021 -0.347563 -5.84035
  121 187.300 -0.175476 -4.77658
  122 198.206 -0.00474660 -4.24191
  123 205.518 0.297372 -3.71291
  124 215.871 -0.281430 -3.39962
  125 219.541 -0.0113642 -1.77323
  126 224.449 -0.0195892 -1.41039
  127 228.340 -0.183567 -1.08544
  128 231.212 -0.122277 -0.869508
  129 234.281 0.00956653 -0.717747
  130 231.614 0.916075 -0.307190
  131 235.593 0.330949 -0.446913
  132 244.440 -0.239564 0.341452
  133 255.695 -0.911859 -0.134015
  134 266.713 -1.79548 -0.0428685
  135 279.283 -2.52797 0.0104953
  136 292.514 -3.97445 0.0687761
  137 306.484 -5.04550 0.301048
  138 320.981 -5.41130 0.168054
  139 333.556 -6.52271 0.176513
  140 344.450 -5.85087 0.522043
  141 356.874 -5.27258 0.966468
  142 370.871 -4.22629 1.02460
  143 383.968 -3.86712 0.894423
  144 397.814 -2.46696 0.608504
  145 409.345 -1.73373 0.914768
  146 418.374 -0.417872 0.505351
  147 374.817 -35.2163 -2.12123
  148 374.501 -34.7419 2.25442
  149 393.724 56.5492 -19.1202
  150 419.195 24.7020 40.3596
  151 317.569 -30.5851 -70.1313
  152 320.146 -30.5453 67.8844
  153 309.006 -13.0955 8.51236
  154 309.031 -13.2772 -8.51867
  155 444.221 15.9924 -30.5656
  156 373.822 -13.4674 8.06530
  157 373.663 -13.1439 -7.96529
  158 483.208 107.701 4.77655
  159 382.894 -0.612785 -39.5530
  160 283.685 -22.2949 -31.4545
  161 283.695 -22.1095 31.1800
  162 383.511 -8.69009 35.6504
  163 364.682 26.6197 23.6435
  164 150.855 24.1689 -83.7124
  165 167.211 22.9036 88.2002
  166 468.638 5.42906 3.09891
  167 384.390 -14.7589 -24.6601
  168 508.622 111.701 -1.58203
  169 346.330 -9.78602 -0.111926
  170 346.257 -9.75605 0.141724
  171 388.603 -4.74059 -3.51234
  172 389.819 -4.26310 3.03152
  173 272.682 -3.90388 -5.02356
  174 272.717 -3.86349 4.99783
  175 416.887 -10.8962 89.1455
  176 353.114 14.6725 -25.4725
  177 231.074 -17.3020 -50.3989
  178 231.763 -17.1760 50.0726
  179 259.690 -8.49931 -16.4963
  180 259.715 -8.40194 16.3750
  181 386.240 -10.1619 20.9627
  182 351.155 -24.1010 -1.10377
  183 349.925 -23.9217 1.66047
  184 398.873 -38.6144 -7.17820
  185 400.959 -36.7877 2.22193
  186 550.868 129.685 -19.6036
  187 401.424 64.4300 17.8728
  188 401.923 24.6828 -40.6473
  189 415.364 -3.37138 -103.530
  190 398.634 -22.5389 -28.1508
  191 402.068 -16.0981 33.2483
  192 335.324 -38.0685 34.4986
  193 335.402 -37.7988 -34.3941
  194 359.047 4.58322 30.5922
  195 164.631 -4.04786 -61.6559
  196 165.033 -4.39551 61.2811
  197 620.811 92.9267 13.4570
  198 377.622 -22.5077 15.1818
  199 391.547 -7.21726 -13.6079
  200 310.897 -7.60290 -3.89728
  201 310.904 -7.56433 3.88505
  202 376.199 -4.89278 -27.4922
  203 428.208 62.8444 -32.4308
  204 358.726 32.2424 -4.73705
  205 233.898 -8.26611 23.1662
  206 233.542 -8.29211 -23.3375
  207 397.267 -4.43943 7.40068
  208 387.306 7.28308 40.6863
  209 315.019 -22.9235 -15.2729
  210 312.908 -21.7044 15.6274
  211 456.212 67.6707 29.5094
  212 535.665 73.7742 13.0195
  213 36.7175 28.6168 -23.6769
  214 33.9652 26.4537 20.1303
  215 221.096 63.3892 147.265
  216 373.844 -24.8501 -11.5497
  217 398.683 -4.26377 -6.68388
  218 355.019 3.13529 -28.1743
  219 249.585 -2.47452 -7.32368
  220 249.665 -2.44666 7.26027
  221 336.656 -15.7930 -3.29229
  222 336.812 -15.8907 3.10157
  223 379.398 -5.11989 23.3755
  224 436.200 -25.2457 10.3779
  225 433.881 88.6130 -9.37840
  226 340.252 -32.8556 -16.4073
  227 429.885 -7.49032 25.5710
  228 366.495 -6.18763 1.25081
  229 366.499 -6.13705 -1.24903
  230 337.768 -32.6996 17.0339
  231 386.790 -24.5552 22.8658
  232 542.563 70.5924 -35.2454
  233 120.933 71.9661 -106.946
  234 328.347 11.5565 6.08734
  235 388.785 34.2734 34.2906
  236 413.843 -2.91250 -36.0201
  237 386.795 -13.9348 -33.2817
  238 206.953 -6.64579 -28.9886
  239 207.665 -6.54562 28.8978
  240 387.390 -4.69093 -18.0358
  241 369.130 -9.37133 4.18940
  242 368.957 -9.35932 -4.04486
  243 78.2576 7.15669 -39.4220
  244 79.4927 6.27310 39.2886
  245 410.895 -35.9643 -32.2536
  246 406.447 -1.48926 0.997194
  247 406.875 -1.51733 -1.09077
  248 379.768 31.4845 -31.4117
  249 334.796 6.46397 18.4530
  250 695.993 111.453 74.8538
  251 690.175 78.5738 -46.7885
  252 501.559 108.034 -0.449835
  253 313.135 -15.1173 93.2243
  254 287.491 -9.85053 -97.4811
  255 329.998 -6.78135 -1.38592
  256 329.968 -6.73816 1.37612
  257 274.446 -7.33064 10.1197
  258 274.443 -7.43144 -10.2082
  259 396.856 -4.30538 11.0732
  260 385.221 -27.4454 -18.7156
  261 250.948 -0.462963 -1.71775
  262 251.006 -0.454942 1.70719
  263 380.388 -15.4208 -14.9293
  264 162.226 -5.29619 -40.2238
  265 162.922 -5.31304 39.9365
  266 385.161 -16.7142 26.5849
  267 294.314 -31.2360 56.4228
  268 295.055 -31.7950 -56.2501
  269 333.103 12.7848 -8.58892
  270 287.456 -4.39778 -3.38639
  271 287.481 -4.36796 3.37344
  272 361.579 -0.895116 22.5603
  273 431.645 78.9719 22.4770
  274 232.252 -2.82033 12.3761
  275 232.074 -2.84390 -12.4806
  276 395.494 -33.0503 12.8919
  277 366.112 -41.0973 -37.9868
  278 407.983 -2.00602 3.42079
  279 284.336 -16.8186 -21.5175
  280 283.849 -16.6311 21.4367
  281 501.029 53.4750 130.846
  282 237.895 -19.2094 67.2777
  283 383.411 53.8258 -2.02786
  284 483.687 53.6263 -18.8325
  285 365.271 -28.2521 4.28672
  286 366.403 -42.2196 34.2679
  287 238.611 -18.8972 -68.0318
  288 44.4293 54.8262 49.9669
  289 380.454 -15.4744 15.2063
  290 498.157 65.3412 14.4505
  291 411.162 -1.79151 -2.96621
  292 373.332 13.0770 -36.1595
  293 368.070 -20.8239 8.01140
  294 360.415 -30.4191 1.30580
  295 371.993 17.0858 34.8471
  296 393.612 -33.0583 -11.4681
  297 557.007 108.195 -9.66389
  298 367.970 -20.0172 -7.66050
  299 303.514 87.7589 -180.034
  300 376.115 -39.8801 -7.75840
  301 373.466 -40.9688 12.0304
  302 274.959 -24.8555 -44.3302
  303 248.659 -0.940201 -3.73337
  304 248.729 -0.923827 3.70420
  305 275.079 -24.8758 44.0914
  306 398.033 -0.677487 -40.8049
  307 429.195 -17.7760 -16.7229
  308 327.495 -19.7067 -8.17822
  309 327.286 -19.7520 8.32720
  310 390.818 -33.6406 60.6042
  311 390.548 -3.14915 13.6514
  312 473.605 2.45578 21.9740
  313 320.930 -11.3190 -4.51939
  314 320.952 -11.2816 4.49440
  315 292.597 -7.59846 -6.69135
  316 292.600 -7.52760 6.68150
  317 331.378 4.47954 -17.8451
  318 424.226 31.0883 -39.1049
  319 653.903 176.605 -84.4098
  320 386.276 -3.45431 -1.16499
  321 386.058 -3.40846 1.19744
  322 207.578 -0.457051 83.9532
  323 291.049 -13.1718 -14.2754
  324 290.504 -13.1279 14.3122
  325 207.539 -0.943371 -83.6327
  326 404.675 47.7398 -33.3573
  327 452.226 22.4307 28.9744
  328 390.767 -27.8809 -67.2500
  329 359.858 -13.9074 3.38962
  330 359.494 -13.8069 -3.23447
  331 383.826 -8.00236 -7.17856
  332 361.830 -0.678997 -21.0967
  333 405.319 1.72014 39.9190
  334 404.014 -2.86394 -7.62103
  335 243.993 -14.7741 33.7947
  336 243.725 -14.8561 -34.0524
  337 377.340 -0.850454 37.5710
  338 233.703 -1.89177 -7.35159
  339 233.853 -1.87406 7.28544
  340 386.688 -8.92934 11.2996
  341 463.930 94.6780 -16.3636
  342 383.641 -8.06137 7.45164
  343 409.191 51.3505 33.4628
  344 391.480 -7.29827 38.8706
  345 310.527 -5.81169 1.43449
  346 310.528 -5.84724 -1.44388
  347 370.787 -1.31874 -33.3473
  348 490.023 102.957 10.1807
  349 408.028 74.7222 0.697723
  350 249.862 29.0140 -124.688
  351 26.1393 11.3173 -17.2579
  352 28.6323 12.2474 18.5541
  353 -1.15877 2.94218 7.43144
  354 0.351364 1.69090 -7.76997
  355 712.478 49.4319 16.9268
  356 337.993 -27.4215 -9.72174
  357 386.982 -8.63138 -11.0230
  358 349.480 -6.18635 0.417740
  359 349.440 -6.13731 -0.420011
  360 374.348 41.3500 -17.0144
  361 319.280 -32.5085 28.3944
  362 28.2053 42.0222 -31.0787
  363 319.575 -32.4988 -28.9046
  364 379.202 43.1254 18.1048
  365 386.203 -10.3337 -19.9531
  366 409.487 -22.8781 -23.8354
  367 436.796 92.0961 6.46112
  368 410.393 -25.6604 19.5532
  369 171.012 -4.23929 26.9346
  370 170.001 -4.15718 -27.1052
  371 96.9815 2.33830 -37.4708
  372 97.9908 1.95474 37.3046
  373 336.544 1.14642 18.0418
  374 634.825 186.026 73.1570
  375 399.108 -2.57496 -9.72792
  376 311.247 -26.2486 -21.7693
  377 310.996 -26.1831 21.7403
  378 384.012 -8.88492 -25.3713
  379 436.678 -21.1098 2.35957
  380 337.981 -27.3973 10.0098
  381 478.694 3.70651 -40.0703
  382 272.467 -2.17778 -1.32165
  383 272.508 -2.15916 1.31251
  384 377.867 -2.21319 -16.2448
  385 204.703 -2.93489 -17.5681
  386 204.830 -3.02959 17.3563
  387 450.907 57.6155 -32.8658
  388 244.046 17.2029 115.876
  389 353.397 -18.5523 1.38910
  390 353.742 -18.5203 -1.40510
  391 415.371 70.2157 -21.1441
  392 392.952 -11.6706 -36.7874
  393 393.581 -40.2490 33.3571
  394 328.855 -8.73951 -2.17198
  395 328.818 -8.69794 2.15141
  396 379.078 -29.2650 12.3979
  397 407.804 -1.98973 5.65429
  398 255.589 -9.28140 -20.6267
  399 255.692 -9.28215 20.4536
  400 385.353 12.9391 -40.1454
  401 363.452 -7.94008 1.87770
  402 363.435 -7.95921 -1.83066
  403 376.285 -4.44890 30.5993
  404 351.336 25.6346 8.18484
  405 389.794 -16.4915 32.0484
  406 562.390 117.582 21.3866
  407 189.170 -10.1740 -53.9572
  408 189.693 -10.1764 53.5511
  409 84.6573 45.2312 -64.6518
  410 416.827 -1.28403 1.53962
  411 213.427 -1.78572 -11.1218
  412 213.708 -1.74790 11.0277
  413 384.306 -10.0560 24.8332
  414 348.660 -37.8329 18.9004
  415 393.270 -4.95850 5.07644
  416 401.220 20.3586 41.7933
  417 88.6986 48.1611 67.3677
  418 349.177 -37.6170 -17.4150
  419 360.765 -33.5262 -3.79483
  420 118.813 -2.38078 -33.9261
  421 119.693 -2.46885 33.6945
  422 277.279 -22.2459 -81.1314
  423 413.890 -6.21213 35.1186
  424 276.247 -22.5731 80.4252
  425 382.511 -21.5093 -20.5816
  426 356.190 24.0644 -17.9138
  427 382.568 -16.5686 19.5758
  428 411.064 -1.89640 -3.79095
  429 12.6850 13.6344 6.19434
  430 83.8285 97.0347 95.4494
  431 368.679 -1.35168 15.6909
  432 310.430 4.29801 7.82876
  433 315.715 5.22759 -10.6143
  434 269.363 -4.41827 -7.14078
  435 269.393 -4.36197 7.09531
  436 377.151 -29.2458 -11.3170
  437 381.301 -7.48850 -34.2228
  438 312.062 5.90408 -2.88276
  439 562.108 133.973 28.4396
  440 78.5818 25.9289 -48.4693
  441 86.5658 23.7942 51.7502
  442 353.070 -12.6040 1.35541
  443 352.937 -12.5752 -1.26285
  444 470.513 103.759 -1.27540
  445 292.941 122.317 184.039
  446 451.940 -6.27088 -5.49530
  447 261.002 -13.5621 -27.9814
  448 261.126 -13.4699 27.7479
  449 262.888 -5.83100 11.0952
  450 262.837 -5.87355 -11.1935
  451 354.067 7.89677 -29.0231
  452 418.921 -0.654291 -1.01677
  453 344.396 15.8489 16.3200
  454 434.001 53.5598 35.8059
  455 361.473 -26.8317 -2.97456
  456 393.108 -4.72437 -4.93481
  457 412.731 -1.72293 3.49104
  458 417.706 -0.702206 0.580468
  459 418.035 -0.785363 -0.422290
  460 232.320 -0.404406 2.72816
  461 232.203 -0.410500 -2.75589
  462 395.188 -25.1533 24.8836
  463 357.439 14.1350 28.1107
  464 373.285 1.52208 -36.6677
  465 389.223 -8.26228 14.7693
  466 558.773 95.5676 -110.573
  467 390.253 -21.6930 -27.9488
  468 4.10329 7.44629 3.23863
  469 4.05615 7.57991 -1.30604
  470 309.814 -17.5001 12.3519
  471 308.790 -17.2633 -12.1984
  472 483.704 9.45932 59.8403
  473 135.717 124.502 -139.887
  474 385.288 -1.19642 12.1558
  475 435.704 -25.3215 -34.3286
  476 233.617 -13.4033 39.1027
  477 467.592 82.9780 -23.5392
  478 384.656 -20.8602 23.3786
  479 323.454 -15.4269 -6.23199
  480 323.738 -15.1727 6.21544
  481 336.463 1.81587 -15.9278
  482 232.892 -13.3495 -39.3398
  483 344.847 0.177526 16.0017
  484 329.653 -37.7204 -50.5116
  485 328.831 -37.7779 50.7006
  486 396.896 -2.67198 10.7452
  487 361.605 34.1213 3.38228
  488 365.687 6.48237 126.067
  489 538.264 109.337 -0.684166
  490 372.134 -6.34215 2.24637
  491 372.153 -6.31951 -2.33026
  492 287.251 -5.06507 -4.55632
  493 287.273 -5.02334 4.53990
  494 151.936 6.91167 70.6267
  495 386.399 -18.6503 -27.3957
  496 350.582 -7.66532 0.178511
  497 350.547 -7.63909 -0.171479
  498 305.591 -32.3246 41.3330
  499 154.852 9.14381 -72.4096
  500 386.819 -31.5573 -12.9772
  501 6.81146 1.71547 2.78462
  502 339.308 17.5803 1.19494
  503 373.449 -4.40034 -0.732976
  504 373.441 -4.45921 0.715075
  505 305.766 -32.2671 -41.6508
  506 436.131 -22.3629 43.6364
  507 432.906 15.7178 36.3283
  508 399.261 -2.79039 -2.42764
  509 385.638 -31.9993 13.1744
  510 243.398 -0.218628 -0.494118
  511 243.456 -0.216474 0.490158
  512 385.263 -14.8286 -29.2969
  513 373.694 27.6640 30.7263
  514 427.631 10.5623 -35.8949
  515 241.920 -0.369094 -1.53614
  516 241.987 -0.363882 1.52590
  517 742.446 107.272 -95.8330
  518 388.747 46.2750 27.0302
  519 399.601 -2.57979 2.15905
  520 361.558 -34.2670 4.66943
  521 304.657 -10.0422 6.84493
  522 304.652 -10.1179 -6.83098
  523 420.276 -25.6394 10.4124
  524 404.284 -8.11506 -37.1174
  525 452.100 88.9774 19.8976
  526 376.521 6.48931 38.0312
  527 379.070 -7.35881 4.49007
  528 368.262 -39.3480 -48.7528
  529 382.440 -9.49890 28.9382
  530 733.517 33.6814 -13.4076
  531 417.156 -31.4882 0.0891978
  532 396.783 -2.71128 -0.559687
  533 396.879 -2.87936 0.486379
  534 741.154 49.7180 46.9378
  535 367.257 -0.108684 32.3464
  536 512.593 86.4871 -7.40239
  537 385.826 -10.5510 -14.3142
  538 175.961 -1.63547 -12.0117
  539 176.498 -1.55661 11.8910
  540 261.934 -24.5101 -56.3989
  541 262.147 -24.0998 55.9844
  542 378.860 -7.05844 -4.45177
  543 412.523 15.1266 -40.6693
  544 362.538 -24.6699 4.36405
  545 390.446 44.7564 -28.0341
  546 392.704 -4.61611 14.4588
  547 491.085 24.8992 -6.69199
  548 336.440 -11.5288 -1.94592
  549 336.340 -11.4900 1.92393
  550 365.076 -17.2504 5.90183
  551 536.781 106.813 -9.22769
  552 384.961 16.8428 39.4937
  553 164.964 42.4021 104.324
  554 370.963 -22.2451 84.5024
  555 488.773 24.3421 -93.2862
  556 393.550 32.5378 -36.7252
  557 348.497 -30.1689 -73.3003
  558 377.524 -41.4025 -14.9996
  559 394.054 -39.9445 -21.7618
  560 52.0946 67.8653 -64.2991
  561 396.144 -5.08315 -8.80759
  562 594.876 115.612 -34.1091
  563 367.005 -16.5547 -6.64281
  564 369.981 -12.0820 5.48505
  565 369.639 -11.8093 -5.25373
  566 256.743 -1.45576 -3.39694
  567 256.799 -1.43696 3.37498
  568 37.1448 3.78621 -20.7074
  569 39.1445 3.97116 21.1827
  570 191.229 -8.85980 -41.1455
  571 192.673 -8.90852 41.0861
  572 375.072 -20.3524 -12.8442
  573 381.895 -41.5724 16.1931
  574 392.541 -37.3057 1.75549
  575 322.658 -5.70939 -1.24853
  576 322.640 -5.66937 1.24221
  577 305.763 -32.0956 -62.7283
  578 341.863 -28.0819 77.5188
  579 298.427 -30.1877 63.0744
  580 386.041 -8.59419 -36.7607
  581 243.273 -4.01760 12.4477
  582 243.153 -4.05927 -12.5488
  583 368.597 20.3972 -30.8709
  584 368.932 -0.648224 -14.2392
  585 460.230 99.7527 -8.90939
  586 301.496 -4.54864 -1.21696
  587 301.506 -4.51891 1.21135
  588 392.692 -1.17979 -7.98441
  589 272.314 -9.15992 -13.8341
  590 272.323 -9.12851 13.7165
  591 222.037 10.1782 99.7563
  592 382.195 -17.6184 -19.7834
  593 214.053 -11.3593 71.7003
  594 375.592 -19.4894 13.1361
  595 395.107 -5.63977 9.73881
  596 390.051 -3.65106 -2.13633
  597 275.582 -3.38753 -3.17496
  598 275.619 -3.35999 3.15901
  599 441.512 88.0625 -17.9701
  600 213.898 -10.9365 -71.9641
  601 374.335 -16.2411 -10.4657
  602 338.028 -6.30363 -0.636013
  603 337.994 -6.25808 0.633477
  604 631.803 84.9701 -15.0948
  605 225.633 -1.43582 6.85916
  606 225.439 -1.44975 -6.92199
  607 349.924 8.05454 26.4909
  608 497.744 41.9959 -4.71962
  609 236.513 1.55443 -98.9957
  610 121.792 3.02454 -54.0868
  611 122.790 2.33740 53.8012
  612 296.914 -17.2900 17.1950
  613 299.976 -17.7996 -16.7159
  614 503.751 101.575 8.11556
  615 388.477 -3.78144 1.92327
  616 334.992 9.46952 -16.0125
  617 416.441 74.7689 16.7280
  618 414.979 77.5851 -11.1255
  619 341.011 -18.8917 -3.14864
  620 343.583 -18.4695 1.93649
  621 244.327 53.3514 -142.114
  622 293.707 -10.0203 -9.58802
  623 293.733 -9.90663 9.55617
  624 738.630 151.254 113.942
  625 385.483 -12.6568 31.6603
  626 221.413 -7.80242 -26.3575
  627 595.337 139.928 94.2862
  628 221.924 -7.75959 26.2600
  629 367.900 -14.0098 -98.5716
  630 261.399 -1.27121 -1.25161
  631 261.448 -1.26022 1.24544
  632 323.212 2.92738 13.9712
  633 147.689 -2.18835 -23.6523
  634 148.494 -2.19399 23.4695
  635 336.650 -23.8143 7.51769
  636 352.869 -28.2557 -2.44051
  637 415.029 -0.931932 -3.20924
  638 236.121 -0.373803 2.02039
  639 236.030 -0.380516 -2.04075
  640 317.895 -7.16852 -1.93208
  641 317.883 -7.12900 1.91823
  642 363.879 -40.4100 49.2484
  643 418.427 46.7094 -36.8413
  644 279.257 -12.9929 -17.8234
  645 279.062 -12.7744 17.6967
  646 330.489 -23.7583 -10.3180
  647 519.458 112.978 3.65719
  648 390.241 -37.7873 0.380363
  649 339.297 -8.14612 -0.968505
  650 339.248 -8.10687 0.968611
  651 465.764 51.0507 27.3904
  652 391.113 -5.68886 -15.7134
  653 346.810 -0.410917 -13.0280
  654 161.152 -5.50763 -51.7695
  655 161.640 -5.65997 51.3525
  656 329.586 -28.4202 -16.4296
  657 493.620 108.561 0.163570
  658 383.509 51.9130 -12.1753
  659 255.396 -2.30914 -6.23495
  660 255.457 -2.27712 6.18632
  661 357.329 -10.1358 -1.44867
  662 357.398 -10.1460 1.52345
  663 662.909 86.4960 38.1484
  664 421.085 -1.17375 0.851336
  665 407.385 -1.64202 5.54480
  666 405.840 -1.66763 -6.51799
  667 385.536 -35.9142 5.24998
  668 284.899 -3.30312 -1.58619
  669 284.928 -3.27982 1.57929
  670 412.353 66.0422 25.7858
  671 528.096 117.280 -7.47444
  672 290.009 -21.5206 -25.2485
  673 289.930 -21.3108 25.1242
  674 361.939 -37.2941 -8.14457
  675 382.184 22.7237 -37.1868
  676 452.558 1.22237 15.1440
  677 301.640 -5.60386 -3.18482
  678 301.650 -5.56832 3.17219
  679 260.913 -22.8641 -50.9203
  680 381.907 -36.9553 -1.73910
  681 317.755 -35.2355 45.5457
  682 152.405 48.0445 -100.686
  683 297.011 -27.4936 35.1367
  684 358.309 0.0985885 12.0199
  685 261.157 -22.6058 50.5832
  686 374.119 -16.5530 10.5949
  687 297.102 -27.3770 -35.4522
  688 305.315 4.01416 2.93416
  689 236.213 -6.32153 18.7625
  690 236.003 -6.32773 -18.8916
  691 317.916 -36.1483 -46.0493
  692 392.587 -25.8940 -24.0478
  693 360.173 -5.10981 -0.386244
  694 360.230 -5.16180 0.388125
  695 401.142 -25.5906 23.7520
  696 364.694 -38.1150 9.60871
  697 442.874 40.6407 35.3565
  698 399.799 -7.51998 38.3053
  699 384.714 -13.8421 23.2200
  700 368.219 30.2957 -23.4180
  701 442.087 74.3123 28.0060
  702 381.800 -5.29978 -22.6753
  703 380.249 -12.6485 11.7708
  704 393.718 61.6045 6.57628
  705 386.959 -6.59467 19.6824
  706 122.311 83.2837 105.608
  707 360.052 -41.4283 -28.6620
  708 416.868 7.55906 38.8696
  709 420.677 -13.0352 -27.3332
  710 419.213 -0.591717 1.75735
  711 384.389 -13.2477 -18.2089
  712 360.587 -41.7531 26.0880
  713 694.600 61.5300 -10.2882
  714 216.503 -0.917573 7.17636
  715 216.247 -0.927568 -7.24269
  716 389.681 -7.13876 -8.39920
  717 421.670 -0.453557 -1.71799
  718 328.995 -28.8813 16.5152
  719 394.686 -14.7154 34.7263
  720 597.342 143.542 -45.6105
  721 374.104 -27.1307 10.6901
  722 414.392 -27.3154 -13.6261
  723 380.386 -12.3123 -11.5809
  724 421.410 -0.767668 -0.540529
  725 385.516 -0.0467160 40.0213
  726 17.9430 17.1487 22.8298
  727 433.646 -16.5247 -64.5495
  728 472.219 28.1489 16.6717
  729 393.664 -40.2518 19.5016
  730 281.903 -6.74763 7.84467
  731 281.901 -6.84100 -7.88141
  732 365.135 187.667 -193.253
  733 401.307 -26.5771 -21.8887
  734 304.137 1.63895 -5.61002
  735 353.533 1.97698 25.8014
  736 387.314 -19.4085 27.8382
  737 371.240 -31.2854 5.00613
  738 385.540 -35.1874 -52.9295
  739 368.990 -29.1974 -5.71561
  740 435.257 -20.8369 -3.85740
  741 400.947 -3.33700 4.88907
  742 358.422 -21.5368 2.83524
  743 648.606 129.634 -69.3577
  744 382.029 -10.2697 9.30486
  745 378.502 6.20630 -39.0452
  746 322.588 -3.57477 110.765
  747 405.252 32.6157 39.7614
  748 348.629 -27.4398 4.23099
  749 269.818 -21.2178 -37.2432
  750 269.848 -21.1607 36.9454
  751 371.129 41.7396 -5.45032
  752 377.159 -4.37395 34.7877
  753 381.120 -9.08698 -29.5862
  754 358.827 -21.9800 -2.94598
  755 346.998 -31.0863 9.46719
  756 396.722 65.4032 -7.40987
  757 370.787 -32.0928 -3.54559
  758 371.722 -23.5423 10.4331
  759 376.462 -4.89795 1.57592
  760 376.689 -4.76793 -1.56384
  761 506.367 111.011 2.05693
  762 413.838 -35.2224 -13.2252
  763 385.553 -11.8409 18.1460
  764 401.073 -3.32913 -4.43958
  765 405.778 2.67958 -40.3048
  766 461.347 24.3674 -22.9875
  767 228.120 -0.209805 -3.35999
  768 228.269 -0.206609 3.32707
  769 3.35056 -6.81841 -4.79635
  770 393.636 -0.477600 7.38889
  771 361.453 -0.567846 -28.5073
  772 373.133 -3.49683 25.0686
  773 339.388 42.5349 162.141
  774 424.626 87.1746 -0.896503
  775 302.309 -21.5975 19.7732
  776 53.8418 1.17433 -20.4051
  777 55.3543 0.861530 20.6212
  778 369.881 -2.63064 -28.3089
  779 303.114 -21.8107 -19.7711
  780 398.721 -3.65968 3.68901
  781 205.232 -8.73409 35.1065
  782 203.492 -8.70278 -35.1177
  783 382.001 -9.97367 -9.06065
  784 245.261 -6.15641 -16.3427
  785 245.383 -6.11653 16.2011
  786 397.717 -3.79716 -10.8311
  787 304.560 -8.12134 -5.47364
  788 304.571 -8.06917 5.47581
  789 434.127 -2.74272 -27.3126
  790 391.196 -4.11059 -40.0973
  791 200.393 -1.27061 -9.13539
  792 200.775 -1.25875 9.03122
  793 10.4359 5.00260 -12.4749
  794 12.1807 5.27972 13.1183
  795 318.329 1.54231 -10.1459
  796 357.164 -40.1285 -21.4793
  797 -4.07645 -2.80814 7.06683
  798 -3.58600 -3.33794 -7.03947
  799 371.661 -7.50502 3.40394
  800 402.840 -31.4689 -12.0554
  801 416.450 61.6756 -30.0648
  802 400.401 -3.29474 -3.50860
  803 849.719 171.975 -159.595
  804 371.583 -7.48188 -3.35864
  805 558.496 106.286 8.87691
  806 397.933 11.5769 -41.8413
  807 439.141 33.1612 -36.2367
  808 74.9516 -0.878436 -18.8191
  809 76.2938 -0.987258 18.7862
  810 249.408 -3.57502 9.70497
  811 249.318 -3.60453 -9.78904
  812 238.476 -0.552327 1.82082
  813 238.401 -0.558150 -1.83498
  814 444.297 74.7747 -27.7346
  815 263.971 -1.62850 -2.70071
  816 264.019 -1.60990 2.68615
  817 378.313 -3.80939 -36.3221
  818 543.366 56.5763 48.1522
  819 341.179 7.66812 -22.2858
  820 119.111 -1.06120 20.1269
  821 118.127 -1.07109 -20.2826
  822 438.250 12.3244 116.616
  823 389.302 -7.19706 8.66874
  824 349.219 23.2167 -9.28148
  825 162.451 -0.250474 13.6972
  826 161.639 -0.175509 -13.7963
  827 243.361 -1.22541 -4.76428
  828 243.451 -1.20781 4.72160
  829 43.7753 38.9071 33.8520
  830 363.818 8.70009 33.0727
  831 404.521 59.4011 -25.8305
  832 434.807 50.4869 -36.1349
  833 286.619 -10.7955 -12.5289
  834 286.457 -10.7163 12.5137
  835 450.551 95.7422 12.5309
  836 388.416 -3.30068 -0.449654
  837 388.441 -3.27616 0.514214
  838 384.801 -11.5705 -23.4588
  839 322.746 -21.4735 11.6568
  840 355.005 -39.8885 21.5702
  841 416.482 -34.1235 33.5029
  842 319.998 -9.27845 -3.31088
  843 319.996 -9.24460 3.28980
  844 366.115 33.9509 15.0499
  845 344.265 4.73857 -24.0581
  846 95.6400 114.437 109.918
  847 348.072 -30.8313 -8.61511
  848 349.268 -15.6096 0.384378
  849 349.454 -15.6432 -0.404396
  850 384.216 -5.67241 38.1388
  851 380.756 -25.0395 -17.0937
  852 340.354 -22.5141 -4.88140
  853 769.984 24.9250 -37.9397
  854 323.638 -30.5865 22.5172
  855 323.375 -30.9812 -22.8745
  856 383.734 -4.60339 19.2774
  857 575.926 149.074 -34.3741
  858 303.864 -27.5622 -27.9933
  859 335.329 -37.7373 26.7345
  860 303.790 -27.2325 27.7503
  861 329.292 -13.2433 -3.84146
  862 329.284 -13.2000 3.81533
  863 49.3219 20.8089 29.3974
  864 412.363 30.8050 -40.1757
  865 316.171 -12.3187 -5.99226
  866 316.230 -12.1957 6.01314
  867 312.350 -5.17028 -0.727784
  868 312.346 -5.13539 0.723180
  869 343.076 -6.85127 -0.189510
  870 343.034 -6.80723 0.186858
  871 279.698 -5.45204 -6.77807
  872 279.722 -5.39153 6.75069
  873 317.322 -16.6613 -8.99279
  874 317.364 -16.5497 9.03214
  875 7.79710 -2.26930 -4.01920
  876 477.237 89.5522 20.1893
  877 410.663 -14.4318 -31.8408
  878 335.043 -37.1887 -27.0102
  879 361.766 -11.6833 3.04436
  880 361.608 -11.5648 -2.94656
  881 394.529 0.476413 40.9719
  882 427.969 -30.5248 -18.9548
  883 378.376 27.3504 -140.786
  884 173.500 -2.89063 69.7589
  885 -5.97402 4.04535 -4.92161
  886 -5.13893 4.56826 5.42953
  887 49.0151 22.1295 -30.0194
  888 385.330 -11.1167 14.2196
  889 405.016 -2.69661 -5.97121
  890 364.407 -35.0957 60.6457
  891 173.091 -2.71329 -70.0323
  892 406.083 -33.2817 8.14146
  893 451.299 -13.1083 53.1110
  894 329.709 1.34218 10.7502
  895 377.160 35.8798 25.5991
  896 204.831 -11.5264 51.2431
  897 204.044 -11.6192 -51.5769
  898 245.619 -11.6455 -28.7596
  899 257.152 -12.6776 -88.8696
  900 406.510 -9.54015 35.9540
  901 557.116 131.384 21.5742
  902 408.314 15.6834 40.9700
  903 385.933 -8.26257 -21.4317
  904 262.519 -11.3574 91.0728
  905 491.342 90.6851 -14.4108
  906 49.3315 41.8369 -41.6612
  907 357.332 -0.706649 -11.4655
  908 245.876 -11.5504 28.5090
  909 299.293 -6.58105 4.81406
  910 299.282 -6.62538 -4.82421
  911 381.306 -24.9053 17.6732
  912 395.428 -2.58637 1.38162
  913 291.221 2.63437 -110.349
  914 416.676 -0.943799 2.82251
  915 413.698 -0.778492 -3.62633
  916 311.223 2.72244 -9.33935
  917 400.251 -1.63962 -6.53920
  918 300.176 -14.0036 -11.6253
  919 300.377 -13.7956 11.6616
  920 -9.69408 3.70587 -5.55417
  921 -13.4547 2.23570 5.91181
  922 395.414 -2.40626 -1.40866
  923 132.156 -3.01200 47.0925
  924 131.378 -2.73321 -47.3566
  925 423.183 61.6886 31.6945
  926 752.099 13.6028 11.7072
  927 398.551 44.3029 33.4904
  928 450.066 -15.7469 15.7230
  929 391.967 -21.8490 27.9972
  930 487.789 102.163 -10.9899
  931 304.700 1.32939 7.04238
  932 377.052 -8.91804 -5.52441
  933 392.205 21.0911 -40.5409
  934 472.557 14.1695 -6.61104
  935 367.726 -22.7174 -8.08009
  936 189.434 -1.04500 -10.2179
  937 189.625 -1.00790 10.0753
  938 387.863 -9.14834 -16.6836
  939 13.1972 16.6540 3.73530
  940 372.344 -38.6057 -4.51939
  941 324.013 9.64341 -0.962491
  942 484.597 106.351 -7.29088
  943 77.2358 57.4050 -68.7757
  944 373.153 -2.78117 -22.4623
  945 259.643 -4.30728 -9.08362
  946 259.695 -4.25700 9.00910
  947 2.32459 -10.5217 7.97588
  948 254.090 -18.8708 -41.2648
  949 379.345 -21.9481 -16.6151
  950 237.721 0.511934 -0.758047
  951 237.783 0.514271 0.753110
  952 383.709 46.5532 -20.4777
  953 410.005 -1.27112 -0.569050
  954 410.021 -1.28716 0.750135
  955 254.207 -18.8204 40.9905
  956 384.161 -0.543477 -8.85436
  957 441.227 3.19914 26.2407
  958 391.553 -5.57788 6.67227
  959 63.3907 15.9220 -36.9849
  960 405.813 -2.50406 5.40312
  961 369.204 2.99510 35.3691
  962 389.350 53.8989 18.2132
  963 389.252 4.51016 -41.4413
  964 268.941 -14.3685 -24.7441
  965 419.484 -14.8979 26.3437
  966 269.117 -14.3142 24.4994
  967 12.6147 13.6489 -1.52711
  968 46.7588 7.91978 27.1174
  969 220.101 -3.86572 16.9371
  970 219.835 -3.86832 -17.0307
  971 377.318 -9.08436 5.83345
  972 406.303 70.5886 10.0458
  973 207.046 18.8708 -104.595
  974 339.727 -21.1895 4.28942
  975 318.913 -33.3168 -33.6899
  976 464.259 88.9079 21.2671
  977 357.358 -6.34855 0.391946
  978 357.343 -6.31445 -0.394707
  979 391.220 -7.27882 -11.9198
  980 362.737 31.3436 -13.8812
  981 812.272 242.333 163.343
  982 76.4534 4.23218 -35.5377
  983 77.6207 3.51533 35.6140
  984 5.68852 -6.66765 2.17842
  985 363.758 20.1880 28.4933
  986 318.835 -33.5207 33.4454
  987 394.692 -18.6722 -31.9653
  988 429.350 35.0791 39.4502
  989 412.092 -33.2794 -40.9635
  990 601.401 126.488 42.4044
  991 350.914 -5.71386 -0.203677
  992 350.869 -5.66738 0.203817
  993 410.277 -16.7646 30.1451
  994 28.5607 48.4806 49.7482
  995 186.124 -3.88634 24.2353
  996 185.552 -3.83639 -24.4898
  997 221.757 -10.8105 33.1661
  998 221.001 -10.6439 -33.2874
  999 249.604 -10.2530 23.8686
  1000 272.883 -2.14763 -1.21672
  1001 272.923 -2.13181 1.21187
  1002 673.261 216.379 -138.528
  1003 612.258 153.505 63.8079
  1004 249.401 -10.3045 -24.0653
  1005 422.551 -1.97103 33.2961
  1006 378.941 39.3213 -24.6338
  1007 267.756 -23.0679 73.7093
  1008 343.394 -40.5782 -39.9939
  1009 392.369 -3.24402 -12.9209
  1010 177.691 12.0917 85.2296
  1011 227.979 -17.4051 58.8899
  1012 347.932 17.8802 -17.8658
  1013 396.871 -7.88331 -38.7663
  1014 501.478 208.250 220.150
  1015 328.966 10.1134 12.7376
  1016 446.228 95.9636 -1.51556
  1017 327.251 12.9518 -125.329
  1018 333.572 -35.0744 -23.1025
  1019 421.975 -0.485895 -1.39807
  1020 406.183 37.2959 -38.7211
  1021 239.417 -1.52742 6.11201
  1022 239.303 -1.54288 -6.16804
  1023 8.84718 5.40295 -13.0265
  1024 269.196 -12.2461 -20.6431
  1025 227.700 -17.6289 -59.3273
  1026 268.997 -12.2198 20.4205
  1027 388.030 -11.8328 35.8552
  1028 348.261 -21.5116 -1.19598
  1029 366.187 6.75499 -34.2827
  1030 376.840 47.0596 7.19318
  1031 508.425 31.2678 19.6743
  1032 384.214 -29.2067 16.7438
  1033 243.856 -19.4552 -45.1499
  1034 363.168 12.8803 -32.1148
  1035 270.045 -22.7635 -74.0886
  1036 517.334 112.053 -2.28718
  1037 353.231 23.2272 16.2537
  1038 444.503 -2.57370 -19.8386
  1039 335.641 -35.0922 21.3112
  1040 384.408 -12.2071 27.6522
  1041 381.807 -20.1758 19.6546
  1042 379.708 -19.1163 16.9752
  1043 468.390 59.5880 -28.1963
  1044 379.498 -6.13244 28.1999
  1045 342.853 -40.6913 39.3487
  1046 365.953 -14.9799 5.35081
  1047 244.011 -19.4933 44.9040
  1048 343.852 -25.3087 -5.21034
  1049 200.622 -9.76693 -62.9745
  1050 285.482 -29.6180 50.0621
  1051 386.336 -2.64124 -15.0365
  1052 376.544 -4.25419 -32.1088
  1053 326.307 -25.7725 -14.2116
  1054 200.966 -10.0450 62.4888
  1055 351.705 0.871752 -22.4237
  1056 261.989 -17.3314 -32.0048
  1057 472.712 100.497 13.3098
  1058 106.275 17.4690 -60.0607
  1059 802.219 56.6583 76.9536
  1060 190.167 14.0584 -89.1919
  1061 379.586 -31.4573 -9.98986
  1062 262.063 -17.1847 31.7482
  1063 348.046 3.71572 25.1023
  1064 196.153 -3.95215 20.0671
  1065 196.054 -4.04957 -20.2681
  1066 384.481 -10.7122 -33.2533
  1067 408.039 -2.10216 2.16306
  1068 400.557 -0.917779 6.60119
  1069 396.591 13.1495 41.7636
  1070 371.291 -2.79401 30.1930
  1071 287.389 30.7245 135.511
  1072 424.618 -0.344189 0.664743
  1073 399.490 54.1018 26.6515
  1074 338.874 4.94482 21.6444
  1075 405.486 -1.56326 6.32767
  1076 262.140 -2.78796 -5.09551
  1077 262.188 -2.75635 5.06343
  1078 167.303 -4.72137 -33.4803
  1079 167.950 -4.89157 33.2569
  1080 339.966 17.0026 9.08990
  1081 509.925 27.8543 -38.5288
  1082 468.589 -0.188216 -71.8643
  1083 375.090 -0.339925 -9.20005
  1084 285.579 -29.8384 -50.4369
  1085 326.994 -24.5133 12.7436
  1086 377.223 -0.869758 9.59887
  1087 394.472 -28.6479 -19.8066
  1088 247.708 -0.554125 3.02897
  1089 247.643 -0.564048 -3.04733
  1090 378.866 -32.3578 9.98215
  1091 360.208 -7.40371 0.919035
  1092 360.147 -7.41135 -0.896511
  1093 350.563 -35.2899 13.6897
  1094 450.850 -14.5081 -5.83590
  1095 205.791 -0.361524 -5.69275
  1096 206.122 -0.348921 5.63362
  1097 307.691 -19.5141 -84.8888
  1098 327.660 -7.82083 1.83268
  1099 327.690 -7.86341 -1.84801
  1100 197.996 106.876 148.917
  1101 453.205 37.2301 -32.0346
  1102 67.4014 32.6887 -45.6126
  1103 391.764 -5.88190 -6.44441
  1104 105.387 35.9964 -68.8962
  1105 218.895 -13.7323 -42.8453
  1106 424.675 -0.488184 0.424367
  1107 424.833 -0.459404 -0.310739
  1108 385.646 -22.0366 -23.9239
  1109 341.463 -38.3533 -54.7775
  1110 106.346 14.8713 57.2315
  1111 419.624 41.5189 37.5768
  1112 380.583 -3.89663 -0.555914
  1113 380.628 -3.89929 0.591287
  1114 415.225 -26.6553 66.4674
  1115 429.943 85.9919 14.4152
  1116 256.163 -6.13740 -12.9797
  1117 256.229 -6.10899 12.8897
  1118 194.202 22.1285 105.595
  1119 365.276 1.87131 -33.1648
  1120 115.004 36.9429 74.0314
  1121 467.586 -7.86320 -23.0081
  1122 460.433 101.607 4.31359
  1123 316.993 -25.0396 17.2008
  1124 293.538 1.58511 -1.37339
  1125 401.515 -3.55641 8.05460
  1126 415.472 -0.543862 3.13631
  1127 92.2040 0.159585 -16.8718
  1128 93.4352 0.115834 16.7587
  1129 328.473 5.52663 -16.0418
  1130 337.875 -9.93817 -1.40164
  1131 337.800 -9.89275 1.39415
  1132 35.6963 57.3399 -52.9665
  1133 56.5713 124.278 -105.379
  1134 342.141 -13.3615 1.17939
  1135 342.271 -13.3591 -1.19923
  1136 353.395 -8.53906 0.947698
  1137 353.344 -8.52183 -0.918749
  1138 93.1407 59.4373 74.5715
  1139 279.662 -3.43946 -2.46642
  1140 279.696 -3.41486 2.45502
  1141 351.410 26.5891 -0.374967
  1142 445.667 57.1308 -156.343
  1143 427.949 73.7431 -24.7100
  1144 390.339 -15.0039 -33.8389
  1145 384.475 -19.1951 -24.3255
  1146 317.175 -25.2718 -17.4846
  1147 319.752 1.05787 9.90260
  1148 359.185 22.4167 -23.8226
  1149 354.231 19.0757 22.7651
  1150 365.715 -14.5466 -5.24893
  1151 349.146 -21.0811 0.933918
  1152 317.665 -20.4959 -12.9643
  1153 377.972 -2.22999 17.8796
  1154 665.244 67.1208 9.34710
  1155 380.487 -8.12235 32.5636
  1156 381.953 25.0775 35.7365
  1157 352.198 -34.6449 -10.3803
  1158 44.3296 7.27548 -26.1603
  1159 358.798 -16.6062 -3.60104
  1160 239.424 -0.366850 -0.153300
  1161 239.480 -0.365298 0.151676
  1162 436.594 -11.5850 16.8395
  1163 416.024 -35.0406 15.7488
  1164 597.102 106.832 26.3620
  1165 143.962 -0.289067 -14.0385
  1166 144.810 -0.258101 13.9345
  1167 320.698 -6.49477 -1.49341
  1168 320.683 -6.45476 1.48284
  1169 359.896 -31.7432 -1.47434
  1170 296.136 1.35408 4.49854
  1171 368.538 -26.2435 7.62242
  1172 21.0499 25.0126 -12.3652
  1173 66.6938 33.1446 44.5959
  1174 246.940 -13.4641 82.0402
  1175 426.361 81.1613 -17.6470
  1176 406.952 -1.13806 -4.99972
  1177 426.458 -0.694126 0.279666
  1178 426.863 -0.941788 -0.173840
  1179 249.031 -0.582763 -0.501331
  1180 249.087 -0.578132 0.497661
  1181 392.964 25.1160 40.5234
  1182 580.190 99.0220 -2.10614
  1183 404.932 66.9155 -18.0251
  1184 302.706 -22.2913 84.3472
  1185 245.627 -12.9479 -81.8825
  1186 273.212 -18.2544 -28.7206
  1187 377.546 -10.5793 7.48092
  1188 526.429 116.070 5.18136
  1189 273.238 -18.1464 28.4980
  1190 385.682 -6.77348 5.66041
  1191 345.053 12.8456 21.7314
  1192 379.902 11.7726 38.9652
  1193 540.256 120.631 13.4799
  1194 321.300 -8.38706 2.78027
  1195 321.316 -8.42704 -2.79941
  1196 390.731 -7.36559 12.3830
  1197 232.620 -2.47645 9.56591
  1198 232.456 -2.50145 -9.65132
  1199 382.165 -5.23746 -2.49224
  1200 157.589 93.9951 -144.098
  1201 330.958 -18.6698 -90.3232
  1202 312.565 -9.79090 -5.11320
  1203 312.597 -9.74689 5.11499
  1204 409.685 -1.95764 1.96403
  1205 387.940 -5.11629 4.52154
  1206 21.3830 26.9866 19.9022
  1207 421.729 -0.484474 1.63436
  1208 50.4573 64.1163 63.6131
  1209 378.962 -5.69720 -3.21217
  1210 -0.451840 -9.25880 -8.11685
  1211 268.352 -26.1904 -63.5325
  1212 267.618 -25.5555 62.9004
  1213 421.714 -0.753079 -1.80996
  1214 361.064 -19.0525 -4.32540
  1215 409.399 -1.78863 -2.00619
  1216 328.295 -10.6236 -2.69230
  1217 328.263 -10.5851 2.66305
  1218 381.921 -5.20087 2.33857
  1219 358.540 -16.2805 3.56345
  1220 345.062 -11.1116 0.200622
  1221 345.184 -11.1414 -0.159560
  1222 409.043 -1.84337 -1.63602
  1223 353.299 -37.2145 -61.7438
  1224 400.301 -2.50734 -1.66522
  1225 380.571 -5.85493 3.46170
  1226 266.335 -2.90709 -3.78270
  1227 266.381 -2.87875 3.76093
  1228 297.198 -4.36731 -1.95142
  1229 297.214 -4.33746 1.94185
  1230 480.350 74.9609 23.4941
  1231 403.747 -31.0467 14.5209
  1232 277.097 -1.31567 104.202
  1233 222.896 -0.371718 3.67341
  1234 222.709 -0.375742 -3.70955
  1235 382.796 -7.08068 24.4411
  1236 366.291 -5.57889 0.641056
  1237 366.306 -5.56019 -0.640679
  1238 419.585 81.6138 8.25575
  1239 383.839 -40.2006 49.0199
  1240 223.181 -3.14352 13.4127
  1241 222.961 -3.16710 -13.5099
  1242 365.768 -8.95008 2.70058
  1243 365.686 -9.01207 -2.61791
  1244 377.342 -10.4511 -7.20339
  1245 347.351 0.0731329 11.6066
  1246 598.528 148.769 -49.8801
  1247 384.386 -14.0823 -21.5044
  1248 66.3168 15.7197 38.0211
  1249 397.045 -21.1785 29.7363
  1250 319.696 7.02012 -8.77722
  1251 24.6393 18.0056 13.8663
  1252 522.357 58.4706 -5.62044
  1253 387.825 -17.6517 -30.1273
  1254 321.211 4.59288 13.4464
  1255 220.427 -13.7560 42.7749
  1256 393.883 -30.5063 17.6114
  1257 570.840 109.672 35.4323
  1258 132.774 19.5463 72.8090
  1259 395.773 -4.72955 -10.6715
  1260 758.192 8.48642 -7.61293
  1261 783.247 11.7588 33.9131
  1262 836.119 28.3941 -80.6413
  1263 383.947 -11.9998 -26.8536
  1264 383.906 -17.5373 22.7731
  1265 389.998 -27.7740 21.1028
  1266 -11.4611 1.32840 7.26059
  1267 -10.4269 1.06501 -7.90723
  1268 379.520 -41.9556 -23.0589
  1269 388.724 -39.3161 -34.4204
  1270 298.249 1.91133 -5.55360
  1271 377.929 -42.7066 34.3400
  1272 403.844 -19.1718 -30.1619
  1273 8.07131 12.1020 1.49563
  1274 328.597 -6.01506 1.04020
  1275 328.620 -6.05758 -1.04295
  1276 401.229 -3.23926 7.24723
  1277 385.653 -6.65354 -5.31364
  1278 363.298 -39.6617 -12.3560
  1279 332.052 -17.9591 5.57468
  1280 330.386 -17.7066 -6.05020
  1281 389.364 -8.24927 17.0674
  1282 399.038 -14.6763 -34.8017
  1283 25.5661 18.7728 -13.4459
</Section>

newXOutput 53

<Section columns = "stress_xx | stress_yy | stress_xy">
  1 436.982 -0.104475 0.842028
  2 436.993 -0.0971275 -0.844470
  3 240.207 -0.0816455 -0.304518
  4 -3.03381 -3.00110 -4.36178
  5 782.969 313.174 250.770
  6 775.713 324.489 -250.293
  7 -3.52347 -2.85229 4.64032
  8 240.150 -0.0825251 0.303702
  9 440.013 -0.737269 0.253821
  10 439.110 -1.16348 -0.224866
  11 438.147 -0.781246 0.963400
  12 437.175 -1.07159 0.257027
  13 435.081 -0.903918 1.51716
  14 433.177 -0.912669 1.09911
  15 428.652 -0.806403 2.18246
  16 422.149 -0.568147 3.21942
  17 416.358 -0.600028 3.59258
  18 407.737 -0.831441 4.35286
  19 395.742 -0.0706844 6.44783
  20 384.663 -0.612748 6.13982
  21 372.000 -0.791651 8.66481
  22 353.717 0.559243 7.54984
  23 340.446 0.852335 8.93468
  24 323.129 1.43144 6.99972
  25 311.132 1.51315 7.06097
  26 293.754 2.10954 3.60261
  27 290.085 3.31992 3.86453
  28 287.874 2.72662 -1.14215
  29 290.890 1.58840 -2.50698
  30 296.445 1.53729 -3.07555
  31 309.465 1.93478 -6.13671
  32 322.111 1.52838 -7.75651
  33 340.637 0.345071 -9.19256
  34 355.454 -0.187589 -8.35956
  35 371.220 -0.629185 -8.20065
  36 385.481 -0.478975 -5.78222
  37 397.709 -0.504070 -4.93625
  38 407.769 -0.813856 -4.13415
  39 416.759 -0.585316 -2.86910
  40 422.347 -0.699438 -3.03931
  41 427.746 -0.854676 -2.21908
  42 432.830 -1.01102 -0.956255
  43 435.430 -0.815831 -1.13576
  44 436.774 -0.508075 -0.702235
  45 435.712 -0.290125 -0.641147
  46 439.545 -1.17065 0.153373
  47 440.142 -0.766816 -0.261704
  48 425.987 -0.366762 -0.521236
  49 416.597 -1.82255 -0.951646
  50 405.103 -2.66757 -0.603434
  51 391.070 -3.92655 -0.831635
  52 377.747 -4.28892 -1.02269
  53 363.511 -5.33999 -0.975576
  54 350.897 -5.92298 -0.526321
  55 339.832 -6.60364 -0.177264
  56 327.061 -5.47450 -0.169407
  57 312.339 -5.10482 -0.305346
  58 298.153 -4.01899 -0.0695149
  59 284.716 -2.55267 -0.0109937
  60 271.949 -1.81136 0.0427794
  61 260.758 -0.918673 0.135441
  62 249.323 -0.239026 -0.347540
  63 240.334 0.338417 0.454161
  64 236.292 0.933427 0.311307
  65 239.005 0.0126958 0.726524
  66 235.893 -0.120862 0.878304
  67 232.990 -0.182791 1.09449
  68 229.059 -0.0170422 1.42187
  69 224.102 -0.00900270 1.78781
  70 220.403 -0.282061 3.43132
  71 209.951 0.306940 3.74399
  72 202.573 -0.0176395 4.27862
  73 191.586 -0.187309 4.85560
  74 178.940 -0.318419 5.90796
  75 163.131 -0.0695034 7.17367
  76 143.858 0.0915943 7.91238
  77 127.177 -0.166717 11.3079
  78 94.2858 1.04638 10.6774
  79 71.8356 0.902014 11.3099
  80 44.8934 -0.205305 12.5522
  81 22.4812 2.07214 13.0638
  82 -3.05310 3.10531 7.86783
  83 -21.6653 3.15658 2.82081
  84 -21.1927 3.05234 -1.07834
  85 -20.3244 2.54001 -6.09927
  86 -11.9652 -0.801285 -5.81087
  87 -1.45584 -11.4862 -6.41574
  88 1.14723 -21.1359 -8.00403
  89 3.16566 -33.2573 -4.37187
  90 7.01741 -33.7253 0.519925
  91 14.8296 -7.13572 19.7544
  92 44.1204 69.2487 66.6204
  93 257.619 243.378 224.453
  94 948.104 141.829 158.487
  95 854.629 20.2962 51.5525
  96 794.904 8.42443 15.7758
  97 772.859 7.15824 1.21825
  98 784.553 9.52189 -13.6684
  99 852.732 18.9098 -40.7974
  100 1004.24 68.4127 -136.407
  101 153.099 249.133 -187.844
  102 33.0358 49.5414 -55.2156
  103 16.1958 -5.50899 -20.8839
  104 6.56621 -33.7132 -3.68695
  105 1.86645 -25.2841 5.01749
  106 2.34372 -26.6477 6.93664
  107 0.115662 -9.92294 7.10591
  108 -12.4912 -0.514243 5.50996
  109 -20.9698 1.90665 5.31921
  110 -22.3190 3.70952 1.19810
  111 -22.3627 3.10681 -2.61625
  112 -4.61725 3.18248 -7.37281
  113 21.1023 2.09016 -12.4564
  114 43.4862 0.0151598 -12.3461
  115 70.3836 0.975180 -11.3337
  116 92.9668 1.07383 -10.7589
  117 126.153 -0.171393 -11.4030
  118 142.982 0.101880 -7.98903
  119 162.365 -0.0665239 -7.26373
  120 178.548 -0.352934 -5.95199
  121 191.058 -0.177801 -4.86831
  122 202.172 -0.00414917 -4.32298
  123 209.623 0.303197 -3.78508
  124 220.167 -0.284846 -3.46615
  125 223.912 -0.0108085 -1.80921
  126 228.914 -0.0187608 -1.43947
  127 232.880 -0.185634 -1.10844
  128 235.808 -0.123296 -0.888046
  129 238.934 0.0106034 -0.732748
  130 236.230 0.932329 -0.314199
  131 240.275 0.337874 -0.455970
  132 249.265 -0.241421 0.346579
  133 260.704 -0.924670 -0.137673
  134 271.902 -1.82454 -0.0453902
  135 284.680 -2.57100 0.00847841
  136 298.132 -4.04540 0.0670340
  137 312.336 -5.13819 0.303400
  138 327.076 -5.51309 0.167446
  139 339.862 -6.64683 0.176407
  140 350.937 -5.96603 0.527769
  141 363.568 -5.37916 0.979982
  142 377.796 -4.31597 1.03852
  143 391.107 -3.95074 0.907582
  144 405.175 -2.52421 0.616921
  145 416.890 -1.77528 0.930641
  146 426.060 -0.432862 0.513325
  147 381.825 -35.8759 -2.06679
  148 381.503 -35.3924 2.20237
  149 401.167 57.6120 -19.4309
  150 427.036 25.1619 40.9898
  151 323.520 -31.1663 -71.5089
  152 326.147 -31.1249 69.2210
  153 314.890 -13.3355 8.70611
  154 314.915 -13.5203 -8.71240
  155 452.470 16.2965 -30.9906
  156 380.813 -13.7255 8.15477
  157 380.650 -13.3962 -8.05383
  158 492.239 109.679 4.81956
  159 390.102 -0.624051 -40.1950
  160 289.101 -22.7069 -32.0812
  161 289.112 -22.5184 31.8022
  162 390.717 -8.85606 36.2181
  163 371.615 27.1303 24.0393
  164 153.781 24.6143 -85.3608
  165 170.435 23.3276 89.9337
  166 477.271 5.55082 3.00248
  167 391.587 -15.0402 -25.0312
  168 518.070 113.773 -1.48902
  169 352.850 -9.97247 -0.146063
  170 352.776 -9.94216 0.176260
  171 395.825 -4.84021 -3.54911
  172 397.061 -4.35410 3.06250
  173 277.962 -3.97151 -5.12997
  174 277.998 -3.93049 5.10387
  175 424.539 -11.0678 90.9011
  176 359.849 14.9590 -25.9003
  177 235.530 -17.6288 -51.3770
  178 236.232 -17.5005 51.0455
  179 264.722 -8.65221 -16.8243
  180 264.748 -8.55324 16.7012
  181 393.467 -10.3579 21.2790
  182 357.756 -24.5501 -1.19151
  183 356.505 -24.3674 1.75708
  184 406.286 -39.3379 -7.42172
  185 408.413 -37.4770 2.37531
  186 561.037 132.091 -20.0937
  187 409.005 65.6354 18.1612
  188 409.474 25.1459 -41.3008
  189 422.973 -3.39625 -105.547
  190 406.078 -22.9644 -28.5598
  191 409.578 -16.4039 33.7490
  192 341.624 -38.7813 35.2114
  193 341.701 -38.5061 -35.1053
  194 365.872 4.67429 31.1015
  195 167.853 -4.13443 -62.8608
  196 168.262 -4.48796 62.4797
  197 632.162 94.6070 13.7110
  198 384.688 -22.9320 15.3769
  199 398.850 -7.35987 -13.8051
  200 316.820 -7.74256 -3.99158
  201 316.827 -7.70346 3.97916
  202 383.287 -4.98635 -27.9344
  203 436.237 64.0174 -32.9314
  204 365.564 32.8615 -4.81582
  205 238.462 -8.41613 23.6171
  206 238.099 -8.44244 -23.7911
  207 404.646 -4.53186 7.49924
  208 394.597 7.42035 41.3491
  209 320.994 -23.3463 -15.6070
  210 318.848 -22.1044 15.9658
  211 464.717 68.9345 29.9247
  212 545.471 75.2214 13.4571
  213 37.4754 29.1822 -24.1960
  214 34.6687 26.9764 20.5749
  215 225.248 64.6059 150.094
  216 380.841 -25.3171 -11.6780
  217 406.082 -4.35237 -6.77249
  218 361.777 3.19959 -28.6441
  219 254.469 -2.51615 -7.47055
  220 254.551 -2.48785 7.40619
  221 343.010 -16.0866 -3.39996
  222 343.170 -16.1865 3.20582
  223 386.535 -5.21821 23.7478
  224 444.255 -25.7076 10.7005
  225 442.043 90.2549 -9.51768
  226 346.653 -33.4667 -16.7813
  227 437.870 -7.63108 25.9112
  228 373.351 -6.31213 1.25424
  229 373.354 -6.26072 -1.25247
  230 344.127 -33.3079 17.4179
  231 394.022 -25.0188 23.1882
  232 552.444 72.0005 -36.0955
  233 123.272 73.3542 -109.055
  234 334.673 11.7880 6.19171
  235 396.125 34.9193 34.8528
  236 421.567 -2.96944 -36.5657
  237 394.047 -14.1995 -33.8012
  238 211.020 -6.76776 -29.5464
  239 211.744 -6.66588 29.4546
  240 394.645 -4.78379 -18.3152
  241 376.034 -9.55390 4.22499
  242 375.858 -9.54187 -4.07822
  243 79.8526 7.28713 -40.2179
  244 81.1081 6.38721 40.0812
  245 418.494 -36.6333 -32.9622
  246 413.949 -1.52741 1.00622
  247 414.383 -1.55608 -1.10199
  248 386.955 32.0819 -31.9306
  249 341.228 6.59615 18.7656
  250 708.578 113.465 76.2175
  251 702.637 79.9925 -47.6283
  252 510.910 110.014 -0.422975
  253 318.989 -15.4070 95.0350
  254 292.887 -10.0475 -99.3693
  255 336.243 -6.90983 -1.42723
  256 336.213 -6.86602 1.41723
  257 279.745 -7.46186 10.3294
  258 279.742 -7.56430 -10.4193
  259 404.245 -4.39337 11.2346
  260 392.422 -27.9620 -18.9616
  261 255.876 -0.468273 -1.75355
  262 255.935 -0.460132 1.74285
  263 387.500 -15.7153 -15.1320
  264 165.444 -5.39731 -41.0032
  265 166.151 -5.41444 40.7113
  266 392.373 -17.0318 26.9862
  267 299.879 -31.8265 57.5339
  268 300.631 -32.3960 -57.3577
  269 339.509 13.0397 -8.73450
  270 292.988 -4.47576 -3.45866
  271 293.014 -4.44551 3.44552
  272 368.441 -0.909794 22.9317
  273 439.754 80.4393 22.8198
  274 236.814 -2.86911 12.6176
  275 236.634 -2.89302 -12.7236
  276 402.866 -33.6719 13.0198
  277 372.936 -41.8688 -38.7813
  278 415.522 -2.05290 3.46315
  279 289.781 -17.1264 -21.9526
  280 289.287 -16.9358 21.8706
  281 510.062 54.6132 133.379
  282 242.445 -19.5799 68.5882
  283 390.679 54.8413 -2.06052
  284 492.629 54.6500 -19.0157
  285 372.116 -28.7805 4.28404
  286 373.236 -43.0115 34.9935
  287 243.172 -19.2622 -69.3549
  288 45.3179 55.9288 51.0051
  289 387.567 -15.7696 15.4133
  290 507.349 66.5839 14.5456
  291 418.749 -1.83355 -3.00299
  292 380.397 13.3281 -36.7574
  293 374.965 -21.2158 8.08669
  294 367.174 -30.9872 1.40948
  295 379.039 17.4122 35.4253
  296 400.952 -33.6794 -11.5721
  297 567.301 110.164 -9.87861
  298 374.864 -20.3942 -7.73175
  299 309.074 89.4631 -183.440
  300 383.135 -40.6268 -7.99820
  301 380.439 -41.7362 12.3475
  302 280.204 -25.3203 -45.1999
  303 253.539 -0.954478 -3.80998
  304 253.611 -0.937848 3.78038
  305 280.327 -25.3413 44.9571
  306 405.495 -0.691602 -41.4535
  307 437.155 -18.1066 -16.9013
  308 333.689 -20.0707 -8.38020
  309 333.478 -20.1170 8.53234
  310 398.049 -34.2635 61.8284
  311 397.856 -3.21268 13.8624
  312 482.301 2.54048 22.5321
  313 327.020 -11.5281 -4.63591
  314 327.042 -11.4902 4.61050
  315 298.209 -7.73561 -6.83717
  316 298.212 -7.66364 6.82723
  317 337.753 4.57154 -18.1470
  318 432.157 31.6704 -39.7095
  319 665.818 179.867 -86.0509
  320 393.454 -3.53057 -1.17534
  321 393.233 -3.48382 1.20834
  322 211.557 -0.480332 85.5892
  323 296.620 -13.4118 -14.5741
  324 296.067 -13.3673 14.6117
  325 211.517 -0.976777 -85.2624
  326 412.293 48.6351 -33.8934
  327 460.615 22.8557 29.3642
  328 397.990 -28.3954 -68.5976
  329 366.609 -14.1713 3.40038
  330 366.239 -14.0692 -3.24271
  331 390.980 -8.16139 -7.26504
  332 368.696 -0.690276 -21.4435
  333 412.904 1.74886 40.5452
  334 411.510 -2.92458 -7.72985
  335 248.712 -15.0470 34.4539
  336 248.438 -15.1303 -34.7157
  337 384.457 -0.865396 38.1844
  338 238.306 -1.92347 -7.49705
  339 238.459 -1.90549 7.42990
  340 393.900 -9.10461 11.4529
  341 472.605 96.4326 -16.5758
  342 390.793 -8.22122 7.54225
  343 416.888 52.3103 33.9976
  344 398.823 -7.43803 39.4879
  345 316.446 -5.91890 1.47185
  346 316.447 -5.95496 -1.48140
  347 377.796 -1.34211 -33.8934
  348 499.150 104.864 10.2612
  349 415.732 76.1165 0.708660
  350 254.559 29.5529 -127.090
  351 26.7134 11.5341 -17.6320
  352 29.2522 12.4826 18.9523
  353 -1.15909 3.01015 7.55188
  354 0.375428 1.73734 -7.89782
  355 725.274 50.3220 17.2208
  356 344.364 -27.9304 -9.96650
  357 394.197 -8.80141 -11.1722
  358 356.051 -6.30814 0.413159
  359 356.010 -6.25833 -0.415503
  360 381.452 42.1350 -17.2962
  361 325.312 -33.1137 28.9830
  362 28.7823 42.8949 -31.7508
  363 325.610 -33.1034 -29.5019
  364 386.390 43.9424 18.4045
  365 393.427 -10.5333 -20.2519
  366 417.112 -23.3091 -24.1559
  367 445.012 93.8007 6.55586
  368 418.030 -26.1437 19.7937
  369 174.418 -4.31735 27.4544
  370 173.389 -4.23367 -27.6275
  371 98.9621 2.37894 -38.2108
  372 99.9878 1.98860 38.0417
  373 343.005 1.17537 18.3455
  374 646.377 189.511 74.6704
  375 406.541 -2.62883 -9.87391
  376 317.149 -26.7336 -22.2261
  377 316.894 -26.6675 22.1966
  378 391.213 -9.05593 -25.7661
  379 444.751 -21.4998 2.26996
  380 344.351 -27.9059 10.2601
  381 487.453 3.81724 -40.9598
  382 277.750 -2.21409 -1.35278
  383 277.792 -2.19520 1.34351
  384 384.983 -2.25691 -16.5048
  385 208.754 -2.98707 -17.9052
  386 208.884 -3.08360 17.6900
  387 459.311 58.6944 -33.3407
  388 248.648 17.5212 118.117
  389 360.037 -18.8996 1.35517
  390 360.389 -18.8672 -1.37132
  391 423.195 71.5261 -21.4757
  392 400.315 -11.8924 -37.3634
  393 400.884 -41.0007 34.0787
  394 335.081 -8.90320 -2.23885
  395 335.043 -8.86109 2.21788
  396 386.167 -29.8143 12.5332
  397 415.359 -2.03279 5.73343
  398 260.542 -9.44879 -21.0323
  399 260.647 -9.44974 20.8565
  400 392.616 13.1846 -40.8018
  401 370.259 -8.09622 1.88102
  402 370.241 -8.11583 -1.83334
  403 383.377 -4.53442 31.0933
  404 358.049 26.1312 8.32360
  405 397.093 -16.8048 32.5396
  406 572.777 119.730 21.8448
  407 192.859 -10.3703 -55.0058
  408 193.392 -10.3727 54.5929
  409 86.3355 46.1009 -65.9631
  410 424.498 -1.31583 1.55720
  411 217.653 -1.81563 -11.3360
  412 217.939 -1.77719 11.2404
  413 391.510 -10.2489 25.2168
  414 355.204 -38.5393 19.3289
  415 400.574 -5.06156 5.13667
  416 408.756 20.7396 42.4667
  417 90.4469 49.0870 68.7256
  418 355.729 -38.3188 -17.8157
  419 367.527 -34.1519 -3.94817
  420 121.221 -2.42834 -34.5895
  421 122.115 -2.51793 34.3540
  422 282.512 -22.6759 -82.7107
  423 421.611 -6.33195 35.6464
  424 281.465 -23.0081 81.9922
  425 389.668 -21.9156 -20.8710
  426 362.981 24.5302 -18.2143
  427 389.725 -16.8842 19.8560
  428 418.656 -1.93956 -3.84005
  429 12.9514 13.9410 6.36800
  430 85.4593 98.9846 97.3565
  431 375.655 -1.37669 15.9458
  432 316.462 4.38918 7.96295
  433 321.833 5.33658 -10.7952
  434 274.584 -4.49509 -7.28894
  435 274.614 -4.43790 7.24280
  436 384.206 -29.7944 -11.4339
  437 388.471 -7.63163 -34.7706
  438 318.120 6.02775 -2.93181
  439 572.472 136.458 29.0947
  440 80.1586 26.4200 -49.4582
  441 88.2919 24.2443 52.7991
  442 359.705 -12.8427 1.33544
  443 359.570 -12.8136 -1.24142
  444 479.326 105.665 -1.28868
  445 298.251 124.767 187.521
  446 460.288 -6.37415 -5.45369
  447 266.033 -13.8108 -28.5313
  448 266.160 -13.7172 28.2941
  449 267.988 -5.93418 11.3197
  450 267.936 -5.97736 -11.4195
  451 360.813 8.05377 -29.5092
  452 426.622 -0.673291 -1.02742
  453 350.989 16.1607 16.5963
  454 442.116 54.5587 36.3522
  455 368.252 -27.3335 -2.95314
  456 400.408 -4.82332 -4.99378
  457 420.350 -1.76287 3.53613
  458 425.384 -0.722934 0.586440
  459 425.716 -0.807751 -0.425944
  460 236.920 -0.409885 2.78337
  461 236.800 -0.416075 -2.81151
  462 402.567 -25.6280 25.2344
  463 364.245 14.4101 28.5819
  464 380.338 1.55265 -37.2694
  465 396.487 -8.42454 14.9828
  466 568.822 97.5159 -112.787
  467 397.551 -22.1031 -28.3621
  468 4.23074 7.59377 3.33150
  469 4.18059 7.73202 -1.36259
  470 315.706 -17.8217 12.6246
  471 314.664 -17.5801 -12.4670
  472 492.532 9.70562 61.0922
  473 138.260 126.975 -142.590
  474 392.520 -1.22193 12.3476
  475 443.727 -25.7794 -35.0908
  476 238.142 -13.6522 39.8613
  477 476.307 84.5261 -23.8471
  478 391.852 -21.2549 23.7172
  479 329.583 -15.7115 -6.38919
  480 329.872 -15.4530 6.37246
  481 342.923 1.85371 -16.1954
  482 237.404 -13.5972 -40.1020
  483 351.443 0.184614 16.2686
  484 335.837 -38.4308 -51.5242
  485 335.001 -38.4894 51.7184
  486 404.297 -2.72693 10.9075
  487 368.493 34.7754 3.43945
  488 372.421 6.63212 128.489
  489 548.247 111.328 -0.696438
  490 379.083 -6.47019 2.26172
  491 379.103 -6.44716 -2.34712
  492 292.777 -5.15503 -4.65602
  493 292.799 -5.11267 4.63938
  494 154.898 7.03068 72.0193
  495 393.633 -19.0038 -27.8070
  496 357.173 -7.81394 0.159231
  497 357.136 -7.78737 -0.152159
  498 311.372 -32.9298 42.1600
  499 157.866 9.30349 -73.8355
  500 394.042 -32.1503 -13.1143
  501 6.95960 1.79104 2.79949
  502 345.818 17.9267 1.21594
  503 380.417 -4.49335 -0.736898
  504 380.410 -4.55321 0.718670
  505 311.548 -32.8708 -42.4836
  506 444.158 -22.7605 44.5676
  507 440.966 16.0109 36.8675
  508 406.652 -2.85334 -2.45344
  509 392.840 -32.6002 13.3155
  510 248.205 -0.220273 -0.505130
  511 248.264 -0.218086 0.501117
  512 392.482 -15.1103 -29.7476
  513 380.776 28.1900 31.2362
  514 435.597 10.7599 -36.4297
  515 246.698 -0.373689 -1.56750
  516 246.766 -0.368397 1.55712
  517 755.764 109.201 -97.5326
  518 396.095 47.1460 27.4739
  519 406.998 -2.63927 2.18152
  520 368.333 -34.9070 4.83956
  521 310.470 -10.2256 7.00126
  522 310.466 -10.3025 -6.98698
  523 428.074 -26.1197 10.4792
  524 411.840 -8.27074 -37.6889
  525 460.568 90.6258 20.1803
  526 383.632 6.61385 38.6566
  527 386.139 -7.50586 4.53540
  528 375.113 -40.0868 -49.7484
  529 389.621 -9.68108 29.3931
  530 746.635 34.2900 -13.6435
  531 424.890 -32.0758 0.212089
  532 404.129 -2.77333 -0.563146
  533 404.227 -2.94442 0.488454
  534 754.411 50.6056 47.7549
  535 374.211 -0.108578 32.8784
  536 522.046 88.1329 -7.35952
  537 393.030 -10.7558 -14.5156
  538 179.490 -1.66469 -12.2416
  539 180.036 -1.58438 12.1189
  540 266.930 -24.9743 -57.4992
  541 267.148 -24.5563 57.0775
  542 385.925 -7.20015 -4.49717
  543 420.242 15.4088 -41.3075
  544 369.337 -25.1317 4.36915
  545 397.823 45.5999 -28.4921
  546 400.036 -4.70933 14.6765
  547 500.104 25.4026 -6.98192
  548 342.792 -11.7447 -2.01858
  549 342.691 -11.7053 1.99612
  550 371.918 -17.5760 5.94717
  551 546.650 108.840 -9.58371
  552 392.221 17.1610 40.1418
  553 168.122 43.2071 106.365
  554 377.830 -22.6542 86.1610
  555 497.645 24.8799 -95.1395
  556 400.968 33.1510 -37.3235
  557 354.984 -30.7372 -74.7453
  558 384.564 -42.1784 -15.3749
  559 401.371 -40.6923 -22.2696
  560 53.1201 69.2534 -65.6090
  561 403.508 -5.18766 -8.92783
  562 605.802 117.723 -34.7913
  563 373.880 -16.8684 -6.70253
  564 376.903 -12.3140 5.53517
  565 376.555 -12.0366 -5.30031
  566 261.762 -1.47866 -3.46771
  567 261.820 -1.45957 3.44544
  568 37.9700 3.85554 -21.1301
  569 40.0042 4.04419 21.6144
  570 194.982 -9.02630 -41.9416
  571 196.451 -9.07606 41.8819
  572 382.092 -20.7371 -13.0029
  573 389.009 -42.3516 16.5925
  574 399.852 -38.0057 1.68036
  575 328.781 -5.81706 -1.27933
  576 328.763 -5.77645 1.27290
  577 311.518 -32.7042 -63.9623
  578 348.234 -28.6117 79.0413
  579 304.055 -30.7610 64.3137
  580 393.290 -8.75793 -37.3460
  581 248.031 -4.08778 12.6936
  582 247.909 -4.13011 -12.7962
  583 375.590 20.7890 -31.3849
  584 375.911 -0.660756 -14.4703
  585 468.856 101.592 -9.02763
  586 307.264 -4.63093 -1.24438
  587 307.274 -4.60077 1.23868
  588 400.039 -1.20402 -8.10885
  589 277.569 -9.32449 -14.1153
  590 277.578 -9.29269 13.9959
  591 226.258 10.3568 101.694
  592 389.346 -17.9530 -20.0656
  593 218.165 -11.5850 73.0981
  594 382.620 -19.8578 13.3007
  595 402.457 -5.75415 9.87364
  596 397.292 -3.73080 -2.15723
  597 280.915 -3.44602 -3.24371
  598 280.952 -3.41807 3.22753
  599 449.799 89.6948 -18.2327
  600 218.007 -11.1550 -73.3660
  601 381.339 -16.5501 -10.5906
  602 344.408 -6.42504 -0.655541
  603 344.373 -6.37880 0.652939
  604 643.327 86.5060 -15.3777
  605 230.093 -1.46011 6.99294
  606 229.895 -1.47426 -7.05673
  607 356.603 8.21440 26.9362
  608 506.894 42.8200 -4.62997
  609 240.997 1.56874 -100.916
  610 124.211 3.07248 -55.1564
  611 125.226 2.37338 54.8653
  612 302.581 -17.6068 17.5535
  613 305.695 -18.1257 -17.0669
  614 513.090 103.470 8.12153
  615 395.693 -3.86359 1.94069
  616 341.427 9.66035 -16.2836
  617 424.289 76.1620 16.9907
  618 422.805 79.0296 -11.3006
  619 347.439 -19.2431 -3.26109
  620 350.055 -18.8138 2.02707
  621 248.895 54.3675 -144.842
  622 299.333 -10.2017 -9.79334
  623 299.359 -10.0861 9.76107
  624 751.922 153.987 116.007
  625 392.712 -12.8979 32.1535
  626 225.747 -7.94454 -26.8668
  627 606.067 142.707 96.2741
  628 226.267 -7.90108 26.7679
  629 374.701 -14.2624 -100.489
  630 266.500 -1.29052 -1.27757
  631 266.551 -1.27937 1.27131
  632 329.455 2.98914 14.2082
  633 150.664 -2.22869 -24.1077
  634 151.483 -2.23446 23.9220
  635 343.000 -24.2561 7.71695
  636 359.497 -28.7820 -2.55863
  637 422.693 -0.953804 -3.25304
  638 240.793 -0.378928 2.06236
  639 240.699 -0.385747 -2.08303
  640 323.936 -7.30182 -1.98550
  641 323.925 -7.26174 1.97142
  642 370.658 -41.1688 50.2508
  643 426.275 47.5833 -37.4213
  644 284.623 -13.2291 -18.1844
  645 284.424 -13.0069 18.0556
  646 336.732 -24.1977 -10.5659
  647 529.109 115.055 3.80522
  648 397.512 -38.4958 0.492708
  649 345.699 -8.30154 -1.01085
  650 345.648 -8.26177 1.01088
  651 474.405 52.0121 27.7458
  652 398.418 -5.80241 -15.9497
  653 353.438 -0.415951 -13.2447
  654 164.327 -5.61700 -52.7772
  655 164.823 -5.77189 52.3533
  656 335.806 -28.9472 -16.7954
  657 502.836 110.548 0.158731
  658 390.776 52.8928 -12.3752
  659 260.382 -2.34769 -6.36191
  660 260.445 -2.31515 6.31255
  661 364.034 -10.3307 -1.43821
  662 364.104 -10.3409 1.51411
  663 674.942 88.0556 38.8430
  664 428.817 -1.20100 0.860804
  665 414.940 -1.67777 5.62404
  666 413.374 -1.70302 -6.61401
  667 392.729 -36.5879 5.24465
  668 290.390 -3.36087 -1.62047
  669 290.420 -3.33724 1.61348
  670 420.119 67.2743 26.1953
  671 537.889 119.439 -7.70605
  672 295.543 -21.9169 -25.7594
  673 295.464 -21.7035 25.6332
  674 368.718 -37.9907 -8.38102
  675 389.402 23.1545 -37.7991
  676 460.925 1.25319 15.2784
  677 307.409 -5.70552 -3.25874
  678 307.420 -5.66948 3.24592
  679 265.902 -23.2946 -51.9131
  680 389.035 -37.6479 -1.67154
  681 323.740 -35.8978 46.4585
  682 155.335 48.9524 -102.660
  683 302.651 -28.0057 35.8416
  684 365.123 0.100748 12.2175
  685 266.151 -23.0316 51.5704
  686 381.119 -16.8675 10.7213
  687 302.743 -27.8866 -36.1624
  688 311.262 4.09892 2.98438
  689 240.830 -6.43474 19.1286
  690 240.616 -6.44091 -19.2596
  691 323.902 -36.8276 -46.9715
  692 399.920 -26.3823 -24.3856
  693 366.922 -5.21426 -0.384828
  694 366.980 -5.26710 0.386714
  695 408.622 -26.0736 24.0765
  696 371.520 -38.8277 9.87451
  697 451.125 41.4009 35.8757
  698 407.282 -7.66481 38.9039
  699 391.915 -14.1070 23.5683
  700 375.213 30.8749 -23.8080
  701 450.364 75.6943 28.4218
  702 388.972 -5.40206 -23.0338
  703 387.353 -12.8919 11.9243
  704 401.167 62.7609 6.68361
  705 394.205 -6.72330 19.9852
  706 124.663 84.9020 107.688
  707 366.779 -42.2047 -29.2805
  708 424.654 7.69772 39.4676
  709 428.503 -13.2803 -27.7119
  710 426.927 -0.608220 1.77895
  711 391.576 -13.5022 -18.4722
  712 367.326 -42.5354 26.6582
  713 707.121 62.6423 -10.4720
  714 220.795 -0.932709 7.31596
  715 220.534 -0.942852 -7.38331
  716 396.935 -7.28141 -8.50857
  717 429.424 -0.466673 -1.73980
  718 335.206 -29.4170 16.8827
  719 402.072 -14.9953 35.2614
  720 608.204 146.287 -46.6678
  721 381.106 -27.6399 10.8002
  722 422.092 -27.8276 -13.7558
  723 387.492 -12.5498 -11.7316
  724 429.147 -0.787794 -0.545010
  725 392.769 -0.0489537 40.6690
  726 18.3046 17.5877 23.3302
  727 441.606 -16.8057 -65.8657
  728 480.942 28.6927 16.8207
  729 400.978 -41.0045 19.9692
  730 287.332 -6.86820 8.01123
  731 287.330 -6.96309 -8.04849
  732 371.647 191.398 -196.901
  733 408.789 -27.0778 -22.1795
  734 310.064 1.67861 -5.70620
  735 360.267 2.01836 26.2312
  736 394.563 -19.7763 28.2546
  737 378.188 -31.8709 5.01009
  738 392.685 -35.8457 -54.0079
  739 375.900 -29.7441 -5.73644
  740 443.309 -21.2208 -3.79645
  741 408.378 -3.40907 4.95027
  742 365.150 -21.9398 2.82042
  743 660.435 131.994 -70.6570
  744 389.158 -10.4699 9.42179
  745 385.646 6.32565 -39.6860
  746 328.589 -3.63503 112.907
  747 412.866 33.2260 40.4007
  748 355.185 -27.9508 4.37974
  749 274.985 -21.6118 -37.9746
  750 275.016 -21.5538 37.6720
  751 378.181 42.5339 -5.54031
  752 384.267 -4.45769 35.3505
  753 388.282 -9.26034 -30.0540
  754 365.561 -22.3917 -2.93260
  755 353.521 -31.6649 9.71512
  756 404.224 66.6285 -7.52846
  757 377.727 -32.6937 -3.52246
  758 378.682 -23.9849 10.5453
  759 383.481 -5.00022 1.58735
  760 383.711 -4.86790 -1.57499
  761 515.795 113.048 2.02707
  762 421.502 -35.8790 -13.5879
  763 392.759 -12.0689 18.4102
  764 408.503 -3.40138 -4.49373
  765 413.373 2.72764 -40.9376
  766 469.889 24.8361 -23.2610
  767 232.639 -0.211660 -3.42669
  768 232.791 -0.208413 3.39328
  769 3.42535 -6.91725 -4.86232
  770 400.999 -0.489446 7.50342
  771 368.313 -0.574740 -28.9779
  772 380.175 -3.56329 25.4740
  773 345.621 43.3886 165.226
  774 432.627 88.7919 -0.910709
  775 308.062 -21.9951 20.1860
  776 55.0099 1.19423 -20.8137
  777 56.5476 0.875654 21.0338
  778 376.872 -2.67966 -28.7705
  779 308.880 -22.2118 -20.1841
  780 406.109 -3.73864 3.73167
  781 209.253 -8.89665 35.7843
  782 207.482 -8.86463 -35.7949
  783 389.129 -10.1685 -9.17419
  784 250.042 -6.26581 -16.6633
  785 250.167 -6.22533 16.5195
  786 405.120 -3.87589 -10.9897
  787 310.375 -8.26909 -5.59928
  788 310.386 -8.21614 5.60153
  789 442.189 -2.79160 -27.6824
  790 398.539 -4.18945 -40.7384
  791 204.383 -1.29275 -9.31108
  792 204.772 -1.28067 9.20523
  793 10.7270 5.09812 -12.7392
  794 12.5018 5.38081 13.3952
  795 324.493 1.57470 -10.3176
  796 363.849 -40.8791 -21.9616
  797 -4.14810 -2.85584 7.19557
  798 -3.65065 -3.39782 -7.16999
  799 378.606 -7.65428 3.43247
  800 410.339 -32.0600 -12.1636
  801 424.280 62.8276 -30.5389
  802 407.815 -3.36658 -3.54959
  803 864.690 175.108 -162.404
  804 378.526 -7.63086 -3.38665
  805 568.818 108.219 9.07372
  806 405.404 11.7937 -42.5139
  807 447.323 33.7837 -36.7746
  808 76.5415 -0.896488 -19.1907
  809 77.9057 -1.00728 19.1572
  810 254.281 -3.63737 9.89869
  811 254.189 -3.66732 -9.98403
  812 243.194 -0.560388 1.85785
  813 243.117 -0.566305 -1.87221
  814 452.612 76.1676 -28.1423
  815 269.112 -1.65458 -2.75743
  816 269.161 -1.63570 2.74266
  817 385.442 -3.88107 -36.9110
  818 553.234 57.7397 49.2328
  819 347.715 7.82289 -22.6618
  820 121.550 -1.08125 20.5182
  821 120.550 -1.09134 -20.6766
  822 446.241 12.6125 118.873
  823 396.551 -7.34081 8.78158
  824 355.895 23.6678 -9.43767
  825 165.722 -0.253548 13.9599
  826 164.897 -0.177175 -14.0606
  827 248.146 -1.24486 -4.86067
  828 248.238 -1.22698 4.81736
  829 44.6601 39.6822 34.5713
  830 370.724 8.86988 33.6234
  831 412.148 60.5134 -26.2455
  832 442.936 51.4318 -36.6857
  833 292.120 -10.9909 -12.7898
  834 291.956 -10.9106 12.7746
  835 459.004 97.5109 12.7066
  836 395.627 -3.37423 -0.453116
  837 395.652 -3.34920 0.518751
  838 392.007 -11.7931 -23.8158
  839 328.857 -21.8703 11.9248
  840 361.654 -40.6347 22.0521
  841 424.178 -34.7536 34.2393
  842 326.074 -9.45021 -3.40019
  843 326.072 -9.41595 3.37876
  844 373.078 34.5999 15.3020
  845 350.850 4.83539 -24.4623
  846 97.4604 116.813 112.080
  847 354.613 -31.4049 -8.84769
  848 355.838 -15.9024 0.339872
  849 356.028 -15.9370 -0.360402
  850 391.440 -5.78104 38.7513
  851 387.879 -25.5112 -17.3170
  852 346.769 -22.9318 -5.03135
  853 783.685 25.3676 -38.5902
  854 329.751 -31.1546 22.9957
  855 329.482 -31.5562 -23.3595
  856 390.937 -4.69288 19.5807
  857 586.512 151.859 -35.1674
  858 309.631 -28.0730 -28.5649
  859 341.636 -38.4418 27.3020
  860 309.557 -27.7376 28.3177
  861 335.522 -13.4890 -3.95124
  862 335.515 -13.4452 3.92461
  863 50.3335 21.2096 30.0180
  864 420.094 31.3819 -40.8126
  865 322.179 -12.5455 -6.13845
  866 322.239 -12.4205 6.15974
  867 318.300 -5.26605 -0.746013
  868 318.296 -5.23065 0.741333
  869 349.540 -6.98419 -0.210108
  870 349.498 -6.93949 0.207362
  871 285.094 -5.54841 -6.92065
  872 285.119 -5.48695 6.89289
  873 323.345 -16.9675 -9.20213
  874 323.388 -16.8542 9.24243
  875 7.96275 -2.24260 -4.14397
  876 486.121 91.2217 20.4299
  877 418.320 -14.7052 -32.3087
  878 341.344 -37.8827 -27.5823
  879 368.548 -11.9070 3.05483
  880 368.387 -11.7865 -2.95557
  881 401.933 0.483096 41.6279
  882 435.873 -31.0872 -19.4316
  883 385.314 27.9149 -143.482
  884 176.869 -2.95769 71.1250
  885 -6.02413 4.12373 -5.04009
  886 -5.17534 4.65713 5.55730
  887 50.0232 22.5553 -30.6542
  888 392.525 -11.3321 14.4183
  889 412.520 -2.75541 -6.05235
  890 371.183 -35.7547 61.8591
  891 176.453 -2.77780 -71.4030
  892 413.632 -33.9070 8.17550
  893 459.577 -13.3186 54.2218
  894 336.062 1.36981 10.9315
  895 384.307 36.5606 26.0238
  896 208.813 -11.7461 52.2360
  897 208.012 -11.8406 -52.5751
  898 250.380 -11.8587 -29.3200
  899 262.019 -12.9297 -90.5967
  900 414.104 -9.72285 36.5031
  901 567.355 133.864 22.1567
  902 415.964 15.9749 41.6195
  903 393.161 -8.42275 -21.7614
  904 267.480 -11.5832 92.8418
  905 500.461 92.3847 -14.5298
  906 50.3269 42.6620 -42.5369
  907 364.130 -0.718315 -11.6540
  908 250.641 -11.7621 29.0654
  909 305.021 -6.70051 4.92294
  910 305.009 -6.74548 -4.93321
  911 388.438 -25.3744 17.9065
  912 402.756 -2.64656 1.39435
  913 296.669 2.67675 -112.478
  914 424.365 -0.965621 2.86040
  915 421.349 -0.797040 -3.67754
  916 317.268 2.77928 -9.49852
  917 407.710 -1.67215 -6.63934
  918 305.907 -14.2593 -11.8763
  919 306.111 -14.0478 11.9136
  920 -9.85547 3.78208 -5.64337
  921 -13.6898 2.28177 6.01125
  922 402.740 -2.46297 -1.42246
  923 134.788 -3.07494 48.0173
  924 133.998 -2.79134 -48.2859
  925 431.126 62.8385 32.1887
  926 765.502 13.8477 11.9036
  927 406.063 45.1340 34.0341
  928 458.359 -16.0222 16.1513
  929 399.295 -22.2622 28.4094
  930 496.877 104.057 -11.0829
  931 310.638 1.36077 7.16272
  932 384.090 -9.09386 -5.58210
  933 399.589 21.4888 -41.2012
  934 481.268 14.4594 -6.57558
  935 374.616 -23.1441 -8.15275
  936 193.218 -1.06292 -10.4133
  937 193.411 -1.02516 10.2683
  938 395.108 -9.32677 -16.9279
  939 13.4810 16.9996 3.85468
  940 379.303 -39.3280 -4.69637
  941 330.269 9.83969 -0.978810
  942 493.645 108.311 -7.35175
  943 78.7616 58.5321 -70.1732
  944 380.195 -2.83409 -22.8255
  945 264.695 -4.38235 -9.26725
  946 264.748 -4.33127 9.19160
  947 2.38014 -10.7054 8.11052
  948 258.975 -19.2220 -42.0682
  949 386.442 -22.3627 -16.8353
  950 242.435 0.522298 -0.773928
  951 242.498 0.524666 0.768923
  952 390.974 47.4329 -20.8144
  953 417.560 -1.30448 -0.576506
  954 417.577 -1.32072 0.760471
  955 259.095 -19.1709 41.7895
  956 391.379 -0.556496 -8.99478
  957 449.413 3.26129 26.5857
  958 398.834 -5.69188 6.75588
  959 64.6879 16.2218 -37.7451
  960 413.329 -2.55905 5.47552
  961 376.193 3.05544 35.9533
  962 396.716 54.9130 18.5122
  963 396.572 4.59507 -42.1128
  964 274.116 -14.6314 -25.2345
  965 427.287 -15.1802 26.7045
  966 274.296 -14.5764 24.9858
  967 12.8902 13.9338 -1.60203
  968 47.7455 8.06770 27.6769
  969 224.430 -3.93442 17.2649
  970 224.159 -3.93694 -17.3597
  971 384.362 -9.26289 5.89598
  972 413.975 71.9074 10.2066
  973 210.988 19.2149 -106.629
  974 346.132 -21.5832 4.42613
  975 324.930 -33.9385 -34.3786
  976 472.929 90.5581 21.5513
  977 364.061 -6.47432 0.382272
  978 364.046 -6.43971 -0.385133
  979 398.510 -7.42331 -12.0873
  980 369.642 31.9451 -14.1134
  981 826.613 246.792 166.330
  982 78.0307 4.30773 -36.2501
  983 79.2172 3.57777 36.3274
  984 5.80638 -6.72937 2.25910
  985 370.671 20.5772 28.9700
  986 324.852 -34.1466 34.1299
  987 402.074 -19.0256 -32.4489
  988 437.368 35.7331 40.0563
  989 419.705 -33.8944 -41.8359
  990 612.442 128.800 43.2459
  991 357.510 -5.82720 -0.213246
  992 357.463 -5.77998 0.213367
  993 417.924 -17.0825 30.5824
  994 29.1197 49.5814 50.7778
  995 189.818 -3.95720 24.7012
  996 189.236 -3.90632 -24.9596
  997 226.082 -11.0098 33.8084
  998 225.312 -10.8400 -33.9314
  999 254.443 -10.4400 24.3371
  1000 278.174 -2.18319 -1.24141
  1001 278.216 -2.16715 1.23650
  1002 685.289 220.494 -141.232
  1003 623.479 156.330 65.0792
  1004 254.237 -10.4922 -24.5369
  1005 430.421 -2.01083 33.7838
  1006 386.120 40.0665 -25.0406
  1007 272.832 -23.5117 75.1453
  1008 349.826 -41.3397 -40.8149
  1009 399.703 -3.30917 -13.1200
  1010 181.115 12.3061 86.8993
  1011 232.365 -17.7378 60.0358
  1012 354.583 18.2296 -18.1672
  1013 404.305 -8.03420 -39.3751
  1014 510.311 212.417 224.252
  1015 335.303 10.3162 12.9547
  1016 454.614 97.7361 -1.53753
  1017 333.314 13.2067 -127.739
  1018 339.853 -35.7274 -23.5989
  1019 429.728 -0.500725 -1.41534
  1020 413.815 37.9951 -39.3427
  1021 244.128 -1.55235 6.23370
  1022 244.012 -1.56805 -6.29058
  1023 9.03165 5.61797 -13.3361
  1024 274.383 -12.4691 -21.0542
  1025 232.080 -17.9658 -60.4805
  1026 274.181 -12.4425 20.8280
  1027 395.309 -12.0582 36.4190
  1028 354.813 -21.9126 -1.27974
  1029 373.130 6.88686 -34.8513
  1030 383.991 47.9508 7.31218
  1031 517.722 31.9146 20.2164
  1032 391.395 -29.7559 16.9534
  1033 248.551 -19.8195 -46.0287
  1034 370.065 13.1302 -32.6507
  1035 275.160 -23.2021 -75.5303
  1036 526.958 114.102 -2.35945
  1037 359.973 23.6769 16.5280
  1038 452.737 -2.61468 -20.0645
  1039 341.960 -35.7460 21.7765
  1040 391.613 -12.4406 28.0789
  1041 388.950 -20.5573 19.9301
  1042 386.812 -19.4783 17.2065
  1043 477.088 60.7090 -28.5683
  1044 386.636 -6.25034 28.6500
  1045 349.277 -41.4549 40.1574
  1046 372.808 -15.2645 5.39245
  1047 248.709 -19.8585 45.7791
  1048 350.325 -25.7783 -5.37176
  1049 204.506 -9.95954 -64.1990
  1050 290.902 -30.1754 51.0477
  1051 393.581 -2.69479 -15.2723
  1052 383.640 -4.33532 -32.6281
  1053 332.474 -26.2496 -14.5322
  1054 204.855 -10.2424 63.7053
  1055 358.409 0.891623 -22.7970
  1056 267.029 -17.6511 -32.6338
  1057 481.547 102.352 13.4746
  1058 108.383 17.7917 -61.2608
  1059 816.442 57.6589 78.2768
  1060 193.817 14.3077 -90.9333
  1061 386.682 -32.0475 -10.0781
  1062 267.104 -17.5020 32.3730
  1063 354.693 3.79247 25.5234
  1064 200.039 -4.02424 20.4533
  1065 199.938 -4.12338 -20.6576
  1066 391.698 -10.9160 -33.7785
  1067 415.573 -2.15087 2.18664
  1068 408.021 -0.938528 6.70139
  1069 404.041 13.3946 42.4372
  1070 378.305 -2.84661 30.6850
  1071 292.744 31.3121 138.111
  1072 432.409 -0.354491 0.671504
  1073 407.028 55.1161 27.0833
  1074 345.373 5.04601 22.0099
  1075 413.020 -1.59627 6.42217
  1076 267.244 -2.83477 -5.20062
  1077 267.294 -2.80265 5.16807
  1078 170.628 -4.80987 -34.1268
  1079 171.286 -4.98331 33.9000
  1080 346.486 17.3371 9.24421
  1081 519.224 28.4368 -39.4060
  1082 477.141 -0.140041 -73.3226
  1083 382.168 -0.347678 -9.34804
  1084 291.000 -30.3998 -51.4291
  1085 333.175 -24.9672 13.0369
  1086 384.335 -0.887295 9.75295
  1087 401.834 -29.1875 -20.0637
  1088 252.579 -0.561240 3.08982
  1089 252.512 -0.571316 -3.10845
  1090 385.949 -32.9648 10.0701
  1091 366.959 -7.54948 0.911912
  1092 366.897 -7.55734 -0.889103
  1093 357.144 -35.9478 14.0208
  1094 459.160 -14.7660 -6.08462
  1095 209.890 -0.367494 -5.80260
  1096 210.226 -0.354682 5.74255
  1097 313.456 -19.8904 -86.5413
  1098 333.866 -7.96785 1.88810
  1099 333.896 -8.01103 -1.90372
  1100 201.701 108.955 151.777
  1101 461.626 37.9323 -32.4839
  1102 68.7560 33.3188 -46.5558
  1103 399.046 -6.00149 -6.52476
  1104 107.463 36.6757 -70.2757
  1105 223.149 -13.9894 -43.6753
  1106 432.459 -0.502383 0.430124
  1107 432.619 -0.473075 -0.314676
  1108 392.861 -22.4532 -24.2693
  1109 347.846 -39.0758 -55.8755
  1110 108.457 15.1461 58.3749
  1111 427.489 42.2943 38.1666
  1112 387.667 -3.98107 -0.560665
  1113 387.713 -3.98371 0.596587
  1114 422.870 -27.1331 67.8093
  1115 438.032 87.5868 14.6348
  1116 261.143 -6.24647 -13.2390
  1117 261.211 -6.21767 13.1476
  1118 197.911 22.5358 107.651
  1119 372.199 1.90989 -33.7130
  1120 117.256 37.6427 75.5065
  1121 476.172 -7.98283 -23.5790
  1122 469.069 103.476 4.37161
  1123 322.999 -25.5023 17.5734
  1124 299.290 1.62164 -1.39693
  1125 408.973 -3.62974 8.16853
  1126 423.151 -0.558392 3.17996
  1127 94.1379 0.161431 -17.2010
  1128 95.3890 0.116938 17.0860
  1129 334.800 5.64107 -16.3142
  1130 344.253 -10.1252 -1.45919
  1131 344.176 -10.0792 1.45149
  1132 36.3965 58.6674 -54.0677
  1133 57.6506 126.951 -107.465
  1134 348.590 -13.6119 1.24403
  1135 348.722 -13.6092 -1.26438
  1136 360.033 -8.70386 0.935961
  1137 359.982 -8.68647 -0.906634
  1138 94.9649 60.5906 76.0709
  1139 285.064 -3.49925 -2.51971
  1140 285.099 -3.47429 2.50815
  1141 358.124 27.1037 -0.380838
  1142 453.738 58.3234 -159.325
  1143 435.989 75.1170 -25.0879
  1144 397.650 -15.2885 -34.3628
  1145 391.671 -19.5590 -24.6839
  1146 323.182 -25.7384 -17.8628
  1147 325.941 1.08147 10.0707
  1148 366.024 22.8494 -24.2220
  1149 360.987 19.4458 23.1484
  1150 372.566 -14.8234 -5.28926
  1151 355.714 -21.4745 1.01232
  1152 323.688 -20.8733 -13.2526
  1153 385.090 -2.27374 18.1658
  1154 677.305 68.3302 9.51278
  1155 387.643 -8.27732 33.0834
  1156 389.170 25.5519 36.3255
  1157 358.808 -35.2903 -10.6511
  1158 45.2734 7.41066 -26.7013
  1159 365.531 -16.9194 -3.60957
  1160 244.169 -0.371287 -0.157014
  1161 244.227 -0.369710 0.155369
  1162 444.683 -11.7997 17.0146
  1163 423.727 -35.6921 16.1599
  1164 608.073 108.771 26.8784
  1165 146.889 -0.292673 -14.3085
  1166 147.750 -0.261124 14.2028
  1167 326.787 -6.61621 -1.53413
  1168 326.772 -6.57562 1.52336
  1169 366.645 -32.3355 -1.58153
  1170 301.933 1.38447 4.57601
  1171 375.442 -26.7355 7.68114
  1172 21.4878 25.5319 -12.6656
  1173 68.0312 33.7848 45.5164
  1174 251.634 -13.7310 83.6349
  1175 434.384 82.6697 -17.9180
  1176 414.510 -1.16190 -5.07476
  1177 434.270 -0.709648 0.282271
  1178 434.681 -0.961699 -0.174795
  1179 253.930 -0.590019 -0.512245
  1180 253.988 -0.585320 0.508525
  1181 400.364 25.5878 41.1842
  1182 590.872 100.812 -2.14489
  1183 412.575 68.1666 -18.3136
  1184 308.388 -22.7195 85.9897
  1185 250.296 -13.2061 -83.4737
  1186 278.452 -18.5902 -29.2900
  1187 384.597 -10.7850 7.56704
  1188 536.166 118.241 5.42701
  1189 278.479 -18.4806 29.0638
  1190 392.862 -6.91023 5.72536
  1191 351.655 13.0989 22.0987
  1192 387.075 11.9968 39.6063
  1193 550.256 122.853 13.8379
  1194 327.398 -8.54294 2.85467
  1195 327.414 -8.58344 -2.87414
  1196 398.014 -7.51212 12.5576
  1197 237.196 -2.51913 9.75434
  1198 237.029 -2.54453 -9.84105
  1199 389.280 -5.34605 -2.51385
  1200 160.580 95.8068 -146.885
  1201 337.125 -19.0229 -92.0839
  1202 318.514 -9.97052 -5.23671
  1203 318.547 -9.92591 5.23856
  1204 417.241 -2.00289 1.98734
  1205 395.155 -5.22276 4.57258
  1206 21.8206 27.5710 20.3521
  1207 429.489 -0.496904 1.65510
  1208 51.4550 65.4347 64.9203
  1209 386.026 -5.81419 -3.24158
  1210 -0.454761 -9.42405 -8.26304
  1211 273.449 -26.6893 -64.7721
  1212 272.703 -26.0427 64.1287
  1213 429.474 -0.770092 -1.83359
  1214 367.837 -19.4107 -4.34146
  1215 416.953 -1.83096 -2.02843
  1216 334.510 -10.8215 -2.77473
  1217 334.477 -10.7825 2.74495
  1218 389.032 -5.30891 2.35816
  1219 365.269 -16.5873 3.57189
  1220 351.561 -11.3221 0.241934
  1221 351.684 -11.3522 -0.200293
  1222 416.588 -1.88690 -1.65368
  1223 359.881 -37.9146 -62.9750
  1224 407.707 -2.56533 -1.68151
  1225 387.662 -5.97468 3.49533
  1226 271.513 -2.95605 -3.86272
  1227 271.559 -2.92727 3.84064
  1228 302.894 -4.44595 -1.99706
  1229 302.910 -4.41568 1.98735
  1230 489.265 76.3666 23.7776
  1231 411.261 -31.6309 14.6743
  1232 282.303 -1.34801 106.219
  1233 227.319 -0.376546 3.74597
  1234 227.128 -0.380634 -3.78267
  1235 389.982 -7.21711 24.8252
  1236 373.142 -5.69255 0.638958
  1237 373.157 -5.67356 -0.638586
  1238 427.493 83.1311 8.38459
  1239 390.962 -40.9512 50.0268
  1240 227.577 -3.19885 13.6732
  1241 227.353 -3.22278 -13.7719
  1242 372.614 -9.12462 2.71411
  1243 372.531 -9.18793 -2.63020
  1244 384.389 -10.6548 -7.28523
  1245 353.991 0.0755984 11.7992
  1246 609.518 151.509 -50.8940
  1247 391.579 -14.3516 -21.8231
  1248 67.6675 16.0163 38.8000
  1249 404.463 -21.5793 30.1751
  1250 325.880 7.16470 -8.92666
  1251 25.1680 18.3585 14.1811
  1252 531.926 59.6168 -5.91442
  1253 395.087 -17.9862 -30.5856
  1254 327.420 4.68893 13.6759
  1255 224.708 -14.0137 43.6046
  1256 401.231 -31.0802 17.8290
  1257 581.251 111.822 36.3133
  1258 135.369 19.9076 74.2525
  1259 403.139 -4.82682 -10.8233
  1260 771.689 8.64216 -7.74339
  1261 797.140 11.9634 34.4857
  1262 850.872 28.8746 -82.0179
  1263 391.145 -12.2296 -27.2678
  1264 391.090 -17.8705 23.1069
  1265 397.283 -28.2975 21.3877
  1266 -11.6721 1.35774 7.39051
  1267 -10.6173 1.09001 -8.05056
  1268 386.588 -42.7421 -23.5843
  1269 395.941 -40.0516 -35.1620
  1270 304.080 1.95257 -5.64881
  1271 384.962 -43.5058 35.0737
  1272 411.381 -19.5341 -30.6035
  1273 8.26383 12.3468 1.56290
  1274 334.819 -6.12961 1.06287
  1275 334.843 -6.17277 -1.06568
  1276 408.676 -3.30859 7.34660
  1277 392.833 -6.78817 -5.37349
  1278 370.096 -40.4030 -12.6728
  1279 338.328 -18.2917 5.72715
  1280 336.632 -18.0341 -6.20979
  1281 396.638 -8.41059 17.3216
  1282 406.499 -14.9549 -35.3341
  1283 26.1137 19.1406 -13.7565
</Section>

newXOutput 54

<Section columns = "stress_xx | stress_yy | stress_xy">
  1 444.813 -0.110338 0.854949
  2 444.823 -0.102773 -0.857405
  3 244.891 -0.0817620 -0.309143
  4 -3.09132 -3.05752 -4.44457
  5 796.206 319.028 255.222
  6 788.836 330.530 -254.675
  7 -3.59041 -2.90547 4.72901
  8 244.833 -0.0826542 0.308320
  9 447.890 -0.752309 0.257051
  10 446.975 -1.18644 -0.230402
  11 446.003 -0.798380 0.976552
  12 445.021 -1.09355 0.257708
  13 442.905 -0.923064 1.53774
  14 440.979 -0.931640 1.11227
  15 436.396 -0.822986 2.21293
  16 429.803 -0.582310 3.26507
  17 423.934 -0.613636 3.64507
  18 415.190 -0.847845 4.41812
  19 403.017 -0.0743033 6.54672
  20 391.773 -0.624730 6.23586
  21 378.915 -0.805670 8.80282
  22 360.348 0.568850 7.67195
  23 346.865 0.869013 9.08080
  24 329.272 1.45822 7.11565
  25 317.080 1.54447 7.17861
  26 299.420 2.15043 3.66307
  27 295.690 3.38379 3.92991
  28 293.442 2.78070 -1.16168
  29 296.507 1.62269 -2.54892
  30 302.154 1.56850 -3.12727
  31 315.385 1.97253 -6.23933
  32 328.236 1.55829 -7.88477
  33 347.058 0.353948 -9.34364
  34 362.110 -0.189716 -8.49469
  35 378.122 -0.640121 -8.33115
  36 392.602 -0.488523 -5.87300
  37 405.014 -0.514808 -5.01229
  38 415.221 -0.830135 -4.19644
  39 424.340 -0.597905 -2.91037
  40 430.003 -0.715362 -3.08213
  41 435.476 -0.872581 -2.24992
  42 440.625 -1.03161 -0.967234
  43 443.258 -0.832914 -1.15043
  44 444.615 -0.520245 -0.710333
  45 443.532 -0.299417 -0.648642
  46 447.416 -1.19324 0.157710
  47 448.020 -0.782250 -0.265019
  48 433.653 -0.380757 -0.529286
  49 424.120 -1.86521 -0.967819
  50 412.447 -2.72770 -0.611566
  51 398.195 -4.01005 -0.843435
  52 384.659 -4.37840 -1.03616
  53 370.193 -5.44605 -0.988839
  54 357.374 -6.03747 -0.531879
  55 346.129 -6.72696 -0.177059
  56 333.148 -5.57555 -0.168702
  57 318.185 -5.19680 -0.307605
  58 303.767 -4.08932 -0.0677019
  59 290.111 -2.59520 -0.00893351
  60 277.138 -1.84001 0.0453245
  61 265.767 -0.931220 0.139104
  62 254.150 -0.240749 -0.352621
  63 245.019 0.345362 0.463200
  64 240.912 0.949630 0.318309
  65 243.661 0.0137935 0.741466
  66 240.493 -0.121793 0.896749
  67 237.534 -0.184759 1.11734
  68 233.528 -0.0161449 1.45072
  69 228.479 -0.00839254 1.82350
  70 224.705 -0.285361 3.49731
  71 214.063 0.312820 3.81549
  72 206.547 -0.0172530 4.35892
  73 195.355 -0.189791 4.94712
  74 182.476 -0.323129 6.01887
  75 166.372 -0.0699625 7.30839
  76 146.742 0.0937291 8.06200
  77 129.743 -0.168441 11.5224
  78 96.2402 1.06520 10.8821
  79 73.3619 0.918132 11.5270
  80 45.8964 -0.210768 12.7965
  81 23.0394 2.10900 13.3225
  82 -3.00653 3.16280 8.03223
  83 -22.0035 3.21557 2.89007
  84 -21.5517 3.11186 -1.08207
  85 -20.6961 2.59064 -6.20616
  86 -12.1870 -0.813273 -5.91689
  87 -1.48008 -11.6990 -6.53390
  88 1.17302 -21.5214 -8.14640
  89 3.23019 -33.8373 -4.43523
  90 7.15644 -34.2625 0.562442
  91 15.1175 -7.07387 20.1786
  92 44.9447 70.8463 67.9329
  93 262.077 248.184 228.501
  94 964.253 144.303 161.115
  95 869.329 20.6456 52.3884
  96 808.701 8.57404 16.0316
  97 786.325 7.28782 1.23638
  98 798.203 9.69105 -13.8935
  99 867.418 19.2410 -41.4610
  100 1021.18 69.6046 -138.624
  101 155.789 254.133 -191.270
  102 33.6512 50.8390 -56.3260
  103 16.5122 -5.41541 -21.3485
  104 6.69733 -34.2382 -3.79736
  105 1.90864 -25.7150 5.08796
  106 2.39291 -27.1362 7.05823
  107 0.119727 -10.1048 7.23710
  108 -12.7234 -0.520159 5.60957
  109 -21.3530 1.94470 5.41141
  110 -22.6979 3.78151 1.20358
  111 -22.7107 3.16446 -2.68193
  112 -4.59625 3.24137 -7.52794
  113 21.6388 2.12731 -12.7037
  114 44.4674 0.0137803 -12.5864
  115 71.8871 0.992571 -11.5512
  116 94.9004 1.09309 -10.9650
  117 128.704 -0.173206 -11.6189
  118 145.852 0.104197 -8.13986
  119 165.595 -0.0669598 -7.39992
  120 182.077 -0.358252 -6.06351
  121 194.819 -0.180084 -4.95996
  122 206.139 -0.00352665 -4.40396
  123 213.729 0.309023 -3.85720
  124 224.464 -0.288187 -3.53266
  125 228.286 -0.0102251 -1.84521
  126 233.381 -0.0178900 -1.46858
  127 237.421 -0.187646 -1.13149
  128 240.406 -0.124265 -0.906629
  129 243.589 0.0116701 -0.747775
  130 240.848 0.948524 -0.321238
  131 244.959 0.344814 -0.465034
  132 254.091 -0.243178 0.351651
  133 265.711 -0.937302 -0.141363
  134 277.090 -1.85338 -0.0479664
  135 290.075 -2.61379 0.00638901
  136 303.746 -4.11610 0.0651904
  137 318.181 -5.23064 0.305634
  138 333.163 -5.61469 0.166710
  139 346.158 -6.77079 0.176183
  140 357.414 -6.08117 0.533346
  141 370.251 -5.48581 0.993313
  142 384.708 -4.40585 1.05224
  143 398.232 -4.03460 0.920594
  144 412.522 -2.58172 0.625220
  145 424.419 -1.81707 0.946439
  146 433.728 -0.448069 0.521234
  147 388.821 -36.5344 -2.00911
  148 388.492 -36.0417 2.14706
  149 408.600 58.6732 -19.7393
  150 434.862 25.6210 41.6143
  151 329.461 -31.7468 -72.8864
  152 332.138 -31.7037 70.5577
  153 320.768 -13.5749 8.90070
  154 320.793 -13.7627 -8.90697
  155 460.702 16.6004 -31.4095
  156 387.791 -13.9833 8.24195
  157 387.625 -13.6483 -8.14010
  158 501.254 111.653 4.86084
  159 397.300 -0.635262 -40.8323
  160 294.512 -23.1181 -32.7082
  161 294.524 -22.9265 32.4246
  162 397.911 -9.02183 36.7814
  163 378.540 27.6405 24.4326
  164 156.706 25.0587 -87.0093
  165 173.656 23.7506 91.6672
  166 485.884 5.67321 2.90069
  167 398.772 -15.3211 -25.3984
  168 527.499 115.840 -1.39184
  169 359.359 -10.1587 -0.181249
  170 359.284 -10.1280 0.211840
  171 403.033 -4.94003 -3.58482
  172 404.287 -4.44533 3.09255
  173 283.240 -4.03882 -5.23660
  174 283.277 -3.99719 5.21015
  175 432.171 -11.2378 92.6569
  176 366.576 15.2455 -26.3255
  177 239.984 -17.9552 -52.3547
  178 240.698 -17.8246 52.0181
  179 269.751 -8.80461 -17.1524
  180 269.778 -8.70406 17.0275
  181 400.681 -10.5538 21.5921
  182 364.346 -24.9983 -1.28145
  183 363.075 -24.8123 1.85583
  184 413.683 -40.0601 -7.66871
  185 415.852 -38.1652 2.53243
  186 571.183 134.492 -20.5872
  187 416.575 66.8387 18.4474
  188 417.012 25.6083 -41.9492
  189 430.562 -3.41960 -107.564
  190 413.507 -23.3893 -28.9638
  191 417.074 -16.7094 34.2444
  192 347.913 -39.4928 35.9253
  193 347.990 -39.2122 -35.8176
  194 372.688 4.76541 31.6076
  195 171.074 -4.22125 -64.0654
  196 171.489 -4.58062 63.6780
  197 643.483 96.2823 13.9646
  198 391.741 -23.3557 15.5685
  199 406.138 -7.50248 -13.9999
  200 322.736 -7.88186 -4.08645
  201 322.743 -7.84225 4.07385
  202 390.364 -5.07983 -28.3733
  203 444.252 65.1884 -33.4273
  204 372.395 33.4801 -4.89410
  205 243.024 -8.56571 24.0679
  206 242.655 -8.59233 -24.2444
  207 412.009 -4.62445 7.59625
  208 401.876 7.55745 42.0073
  209 326.960 -23.7680 -15.9423
  210 324.781 -22.5033 16.3053
  211 473.206 70.1960 30.3344
  212 555.252 76.6687 13.9007
  213 38.2346 29.7478 -24.7171
  214 35.3734 27.4991 21.0213
  215 229.394 65.8217 152.920
  216 387.827 -25.7834 -11.8029
  217 413.466 -4.44112 -6.85969
  218 368.527 3.26399 -29.1110
  219 259.352 -2.55752 -7.61750
  220 259.435 -2.52879 7.55219
  221 349.356 -16.3797 -3.50903
  222 349.518 -16.4817 3.31149
  223 393.660 -5.31644 24.1171
  224 452.293 -26.1683 11.0273
  225 450.192 91.8933 -9.65540
  226 353.044 -34.0765 -17.1570
  227 445.838 -7.77154 26.2459
  228 380.193 -6.43671 1.25698
  229 380.197 -6.38446 -1.25522
  230 350.477 -33.9150 17.8036
  231 401.241 -25.4818 23.5064
  232 562.298 73.4094 -36.9508
  233 125.608 74.7414 -111.165
  234 340.996 12.0198 6.29554
  235 403.454 35.5642 35.4111
  236 429.276 -3.02631 -37.1057
  237 401.286 -14.4639 -34.3161
  238 215.086 -6.88941 -30.1037
  239 215.823 -6.78584 30.0109
  240 401.887 -4.87668 -18.5921
  241 382.927 -9.73639 4.25903
  242 382.747 -9.72435 -4.11005
  243 81.4496 7.41722 -41.0144
  244 82.7255 6.50101 40.8746
  245 426.077 -37.3009 -33.6734
  246 421.435 -1.56583 1.01490
  247 421.874 -1.59512 -1.11287
  248 394.132 32.6785 -32.4461
  249 347.655 6.72852 19.0765
  250 721.125 115.472 77.5774
  251 715.060 81.4068 -48.4653
  252 520.243 111.988 -0.394924
  253 324.832 -15.6964 96.8450
  254 298.274 -10.2447 -101.256
  255 342.480 -7.03812 -1.46900
  256 342.449 -6.99369 1.45880
  257 285.040 -7.59261 10.5394
  258 285.037 -7.69669 -10.6307
  259 411.619 -4.48146 11.3941
  260 399.610 -28.4779 -19.2035
  261 260.803 -0.473449 -1.78942
  262 260.864 -0.465191 1.77856
  263 394.600 -16.0094 -15.3317
  264 168.662 -5.49832 -41.7822
  265 169.381 -5.51572 41.4856
  266 399.573 -17.3489 27.3833
  267 305.436 -32.4163 58.6451
  268 306.200 -32.9962 -58.4653
  269 345.909 13.2946 -8.87926
  270 298.515 -4.55342 -3.53110
  271 298.542 -4.52275 3.51778
  272 375.295 -0.924367 23.3006
  273 447.849 81.9037 23.1591
  274 241.377 -2.91764 12.8589
  275 241.193 -2.94191 -12.9666
  276 410.224 -34.2924 13.1435
  277 379.747 -42.6389 -39.5774
  278 423.044 -2.10003 3.50469
  279 295.221 -17.4335 -22.3880
  280 294.719 -17.2397 22.3049
  281 519.067 55.7545 135.910
  282 246.991 -19.9501 69.8981
  283 397.937 55.8554 -2.09295
  284 501.551 55.6727 -19.1925
  285 378.949 -29.3079 4.27845
  286 380.056 -43.8020 35.7209
  287 247.729 -19.6270 -70.6774
  288 46.2070 57.0323 52.0453
  289 394.668 -16.0644 15.6171
  290 516.520 67.8252 14.6343
  291 426.319 -1.87581 -3.03907
  292 387.452 13.5791 -37.3514
  293 381.848 -21.6071 8.15923
  294 373.921 -31.5541 1.51578
  295 386.075 17.7383 35.9998
  296 408.278 -34.2994 -11.6720
  297 577.572 112.128 -10.0941
  298 381.745 -20.7707 -7.80034
  299 314.620 91.1667 -186.842
  300 390.142 -41.3721 -8.24096
  301 387.400 -42.5023 12.6673
  302 285.443 -25.7843 -46.0694
  303 258.419 -0.968607 -3.88667
  304 258.492 -0.951724 3.85666
  305 285.570 -25.8060 45.8227
  306 412.944 -0.705703 -42.0968
  307 445.098 -18.4366 -17.0745
  308 339.875 -20.4340 -8.58353
  309 339.661 -20.4812 8.73884
  310 405.265 -34.8851 63.0536
  311 405.151 -3.27626 14.0715
  312 490.975 2.62656 23.0945
  313 333.102 -11.7367 -4.75334
  314 333.125 -11.6983 4.72752
  315 303.816 -7.87233 -6.98344
  316 303.819 -7.79925 6.97342
  317 344.123 4.66368 -18.4472
  318 440.073 32.2515 -40.3086
  319 677.700 183.122 -87.6910
  320 400.617 -3.60709 -1.18528
  321 400.393 -3.55944 1.21883
  322 215.532 -0.504124 87.2248
  323 302.186 -13.6510 -14.8733
  324 301.624 -13.6062 14.9118
  325 215.491 -1.01072 -86.8916
  326 419.899 49.5289 -34.4254
  327 468.987 23.2802 29.7479
  328 405.197 -28.9087 -69.9461
  329 373.348 -14.4348 3.40928
  330 372.972 -14.3312 -3.24911
  331 398.120 -8.32046 -7.34970
  332 375.552 -0.701481 -21.7880
  333 420.476 1.77746 41.1659
  334 418.992 -2.98537 -7.83730
  335 253.428 -15.3192 35.1129
  336 253.149 -15.4038 -35.3788
  337 391.564 -0.880254 38.7935
  338 242.909 -1.95498 -7.64253
  339 243.065 -1.93673 7.57438
  340 401.099 -9.27986 11.6040
  341 481.265 98.1836 -16.7842
  342 397.931 -8.38110 7.63100
  343 424.573 53.2684 34.5282
  344 406.155 -7.57763 40.1000
  345 322.359 -6.02586 1.50951
  346 322.360 -6.06241 -1.51921
  347 384.794 -1.36537 -34.4358
  348 508.259 106.766 10.3376
  349 423.425 77.5082 0.719497
  350 259.247 30.0907 -129.489
  351 27.2897 11.7506 -18.0074
  352 29.8741 12.7175 19.3518
  353 -1.15859 3.07849 7.67139
  354 0.400120 1.78428 -8.02477
  355 738.029 51.2093 17.5135
  356 350.724 -28.4382 -10.2130
  357 401.399 -8.97143 -11.3192
  358 362.612 -6.42991 0.408158
  359 362.571 -6.37933 -0.410575
  360 388.547 42.9190 -17.5763
  361 331.334 -33.7178 29.5726
  362 29.3602 43.7693 -32.4251
  363 331.637 -33.7069 -30.1002
  364 393.569 44.7584 18.7022
  365 400.639 -10.7327 -20.5475
  366 424.723 -23.7393 -24.4713
  367 453.215 95.5017 6.64947
  368 425.651 -26.6263 20.0294
  369 177.825 -4.39521 27.9737
  370 176.779 -4.30997 -28.1493
  371 100.945 2.41939 -38.9509
  372 101.987 2.02230 38.7788
  373 349.460 1.20454 18.6475
  374 657.897 192.990 76.1859
  375 413.960 -2.68281 -10.0184
  376 323.043 -27.2176 -22.6838
  377 322.785 -27.1507 22.6538
  378 398.402 -9.22681 -26.1573
  379 452.807 -21.8888 2.17572
  380 350.712 -28.4135 10.5121
  381 496.190 3.92939 -41.8528
  382 283.031 -2.25017 -1.38407
  383 283.074 -2.23101 1.37468
  384 392.089 -2.30064 -16.7629
  385 212.806 -3.03905 -18.2420
  386 212.938 -3.13742 18.0233
  387 467.699 59.7715 -33.8097
  388 253.242 17.8389 120.358
  389 366.667 -19.2462 1.31921
  390 367.025 -19.2134 -1.33551
  391 431.008 72.8340 -21.8044
  392 407.665 -12.1140 -37.9344
  393 408.171 -41.7510 34.8024
  394 341.298 -9.06660 -2.30650
  395 341.260 -9.02395 2.28515
  396 393.242 -30.3625 12.6648
  397 422.898 -2.07599 5.81151
  398 265.492 -9.61565 -21.4379
  399 265.599 -9.61681 21.2593
  400 399.869 13.4297 -41.4536
  401 377.053 -8.25234 1.88324
  402 377.035 -8.27244 -1.83491
  403 390.457 -4.61986 31.5836
  404 364.754 26.6275 8.46158
  405 404.379 -17.1176 33.0262
  406 583.140 121.873 22.3042
  407 196.547 -10.5666 -56.0539
  408 197.089 -10.5689 55.6344
  409 88.0142 46.9698 -67.2759
  410 432.150 -1.34783 1.57435
  411 221.879 -1.84536 -11.5500
  412 222.171 -1.80629 11.4530
  413 398.701 -10.4417 25.5969
  414 361.736 -39.2445 19.7593
  415 407.864 -5.16478 5.19559
  416 416.280 21.1200 43.1350
  417 92.1954 50.0123 70.0848
  418 362.270 -39.0193 -18.2184
  419 374.277 -34.7766 -4.10416
  420 123.632 -2.47593 -35.2527
  421 124.539 -2.56701 35.0133
  422 287.737 -23.1057 -84.2894
  423 429.318 -6.45164 36.1686
  424 286.675 -23.4429 83.5588
  425 396.812 -22.3213 -21.1566
  426 369.765 24.9958 -18.5130
  427 396.869 -17.1993 20.1328
  428 426.232 -1.98292 -3.88831
  429 13.2184 14.2491 6.54355
  430 87.0893 100.936 99.2647
  431 382.621 -1.40164 16.1988
  432 322.492 4.48059 8.09645
  433 327.948 5.44580 -10.9751
  434 279.801 -4.57155 -7.43734
  435 279.833 -4.51347 7.39053
  436 391.249 -30.3421 -11.5472
  437 395.629 -7.77460 -35.3141
  438 324.175 6.15170 -2.98060
  439 582.812 138.938 29.7528
  440 81.7367 26.9105 -50.4483
  441 90.0190 24.6939 53.8492
  442 366.328 -13.0810 1.31393
  443 366.191 -13.0517 -1.21847
  444 488.123 107.566 -1.30156
  445 303.546 127.220 190.998
  446 468.617 -6.47664 -5.40698
  447 271.060 -14.0590 -29.0811
  448 271.189 -13.9639 28.8402
  449 273.086 -6.03695 11.5444
  450 273.032 -6.08076 -11.6456
  451 367.551 8.21086 -29.9923
  452 434.305 -0.692488 -1.03776
  453 357.575 16.4726 16.8711
  454 450.217 55.5558 36.8931
  455 375.021 -27.8343 -2.92904
  456 407.693 -4.92246 -5.05150
  457 427.952 -1.80300 3.58045
  458 433.043 -0.743883 0.592235
  459 433.379 -0.830360 -0.429448
  460 241.520 -0.415277 2.83862
  461 241.399 -0.421563 -2.86717
  462 409.932 -26.1020 25.5805
  463 371.043 14.6852 29.0502
  464 387.381 1.58326 -37.8670
  465 403.738 -8.58679 15.1938
  466 578.838 99.4668 -115.002
  467 404.837 -22.5125 -28.7707
  468 4.35989 7.74131 3.42543
  469 4.30667 7.88426 -1.42027
  470 321.590 -18.1425 12.8983
  471 320.531 -17.8960 -12.7365
  472 501.337 9.95414 62.3466
  473 140.799 129.449 -145.290
  474 399.740 -1.24751 12.5378
  475 451.731 -26.2360 -35.8559
  476 242.665 -13.9006 40.6195
  477 485.005 86.0715 -24.1498
  478 399.035 -21.6491 24.0517
  479 335.705 -15.9955 -6.54753
  480 335.999 -15.7326 6.53062
  481 349.376 1.89163 -16.4613
  482 241.913 -13.8443 -40.8637
  483 358.033 0.191828 16.5339
  484 342.010 -39.1401 -52.5373
  485 341.160 -39.1998 52.7368
  486 411.683 -2.78197 11.0681
  487 375.373 35.4288 3.49630
  488 379.138 6.78271 130.909
  489 558.208 113.315 -0.708671
  490 386.020 -6.59831 2.27611
  491 386.040 -6.57490 -2.36303
  492 298.298 -5.24464 -4.75604
  493 298.321 -5.20166 4.73918
  494 157.858 7.14909 73.4120
  495 400.853 -19.3568 -28.2139
  496 363.752 -7.96246 0.139204
  497 363.716 -7.93555 -0.132094
  498 317.144 -33.5339 42.9875
  499 160.880 9.46245 -75.2615
  500 401.252 -32.7424 -13.2474
  501 7.10826 1.86813 2.81291
  502 352.322 18.2731 1.23685
  503 387.372 -4.58655 -0.740476
  504 387.365 -4.64739 0.721921
  505 317.322 -33.4735 -43.3167
  506 452.167 -23.1566 45.5012
  507 449.010 16.3035 37.4008
  508 414.028 -2.91653 -2.47852
  509 400.028 -33.2002 13.4526
  510 253.013 -0.221826 -0.516183
  511 253.074 -0.219606 0.512118
  512 399.689 -15.3916 -30.1941
  513 387.849 28.7155 31.7429
  514 443.548 10.9573 -36.9587
  515 251.475 -0.378192 -1.59889
  516 251.545 -0.372820 1.58837
  517 769.038 111.124 -99.2258
  518 403.433 48.0156 27.9146
  519 414.379 -2.69903 2.20335
  520 375.096 -35.5458 5.01232
  521 316.278 -10.4085 7.15828
  522 316.273 -10.4866 -7.14368
  523 435.856 -26.5992 10.5413
  524 419.382 -8.42625 -38.2550
  525 469.021 92.2707 20.4592
  526 390.733 6.73832 39.2777
  527 393.195 -7.65297 4.57932
  528 381.951 -40.8245 -50.7452
  529 396.789 -9.86308 29.8440
  530 759.708 34.8968 -13.8785
  531 432.609 -32.6623 0.339109
  532 411.460 -2.83565 -0.566360
  533 411.560 -3.00975 0.490286
  534 767.622 51.4901 48.5684
  535 381.155 -0.108381 33.4069
  536 531.477 89.7771 -7.31029
  537 400.220 -10.9604 -14.7143
  538 183.021 -1.69380 -12.4712
  539 183.576 -1.61205 12.3465
  540 271.920 -25.4379 -58.5992
  541 272.144 -25.0122 58.1703
  542 392.977 -7.34195 -4.54118
  543 427.948 15.6905 -41.9403
  544 376.124 -25.5927 4.37155
  545 405.190 46.4423 -28.9469
  546 407.354 -4.80264 14.8921
  547 509.101 25.9066 -7.27721
  548 349.136 -11.9601 -2.09238
  549 349.032 -11.9204 2.06944
  550 378.749 -17.9011 5.99016
  551 556.496 110.865 -9.94557
  552 399.470 17.4788 40.7855
  553 171.277 44.0111 108.406
  554 384.681 -23.0623 87.8194
  555 506.492 25.4199 -96.9934
  556 408.375 33.7634 -37.9175
  557 361.457 -31.3045 -76.1904
  558 391.590 -42.9528 -15.7530
  559 408.673 -41.4389 -22.7802
  560 54.1456 70.6435 -66.9204
  561 410.857 -5.29231 -9.04632
  562 616.701 119.828 -35.4736
  563 380.743 -17.1817 -6.75989
  564 383.813 -12.5458 5.58338
  565 383.459 -12.2637 -5.34502
  566 266.779 -1.50136 -3.53861
  567 266.838 -1.48198 3.51603
  568 38.7986 3.92469 -21.5534
  569 40.8672 4.11706 22.0466
  570 198.735 -9.19253 -42.7373
  571 200.230 -9.24332 42.6773
  572 389.099 -21.1214 -13.1585
  573 396.110 -43.1295 16.9947
  574 407.148 -38.7046 1.60151
  575 334.896 -5.92454 -1.31034
  576 334.878 -5.88336 1.30379
  577 317.265 -33.3120 -65.1964
  578 354.593 -29.1406 80.5637
  579 309.674 -31.3336 65.5530
  580 400.528 -8.92146 -37.9265
  581 252.788 -4.15764 12.9395
  582 252.664 -4.20063 -13.0436
  583 382.574 21.1806 -31.8958
  584 382.880 -0.673283 -14.6997
  585 477.468 103.427 -9.14394
  586 313.027 -4.71295 -1.27192
  587 313.038 -4.68238 1.26612
  588 407.372 -1.22829 -8.23219
  589 282.820 -9.48852 -14.3969
  590 282.830 -9.45634 14.2755
  591 230.475 10.5347 103.631
  592 396.484 -18.2871 -20.3442
  593 222.273 -11.8107 74.4955
  594 389.636 -20.2258 13.4623
  595 409.793 -5.86865 10.0066
  596 404.519 -3.81079 -2.17744
  597 286.245 -3.50422 -3.31265
  598 286.283 -3.47586 3.29626
  599 458.072 91.3237 -18.4922
  600 222.112 -11.3736 -74.7675
  601 388.330 -16.8588 -10.7127
  602 350.779 -6.54633 -0.675296
  603 350.743 -6.49940 0.672629
  604 654.819 88.0373 -15.6602
  605 234.553 -1.48427 7.12666
  606 234.352 -1.49863 -7.19140
  607 363.275 8.37433 27.3789
  608 516.022 43.6443 -4.53413
  609 245.475 1.58247 -102.835
  610 126.631 3.12001 -56.2262
  611 127.663 2.40900 55.9296
  612 308.241 -17.9228 17.9127
  613 311.408 -18.4511 -17.4186
  614 522.411 105.362 8.12231
  615 402.894 -3.94599 1.95745
  616 347.856 9.85135 -16.5531
  617 432.125 77.5524 17.2512
  618 430.618 80.4714 -11.4741
  619 353.857 -19.5938 -3.37521
  620 356.518 -19.1574 2.11939
  621 253.455 55.3824 -147.568
  622 304.953 -10.3825 -9.99918
  623 304.981 -10.2651 9.96651
  624 765.171 156.711 118.066
  625 399.929 -13.1388 32.6424
  626 230.080 -8.08625 -27.3757
  627 616.762 145.487 98.2660
  628 230.609 -8.04218 27.2756
  629 381.488 -14.5142 -102.405
  630 271.600 -1.30963 -1.30357
  631 271.652 -1.29833 1.29722
  632 335.693 3.05105 14.4440
  633 153.643 -2.26894 -24.5627
  634 154.475 -2.27483 24.3741
  635 349.340 -24.6970 7.91792
  636 366.115 -29.3073 -2.67910
  637 430.339 -0.975794 -3.29621
  638 245.465 -0.383975 2.10441
  639 245.369 -0.390900 -2.12536
  640 329.971 -7.43483 -2.03943
  641 329.960 -7.39421 2.02510
  642 377.425 -41.9264 51.2543
  643 434.110 48.4557 -37.9964
  644 289.984 -13.4647 -18.5457
  645 289.783 -13.2387 18.4148
  646 342.966 -24.6361 -10.8152
  647 538.740 117.127 3.95577
  648 404.769 -39.2031 0.608615
  649 352.091 -8.45678 -1.05395
  650 352.039 -8.41648 1.05392
  651 483.029 52.9723 28.0949
  652 405.709 -5.91601 -16.1836
  653 360.059 -0.420878 -13.4600
  654 167.504 -5.72640 -53.7846
  655 168.008 -5.88382 53.3537
  656 342.017 -29.4730 -17.1627
  657 512.036 112.530 0.153616
  658 398.033 53.8712 -12.5738
  659 265.368 -2.38599 -6.48899
  660 265.432 -2.35295 6.43892
  661 370.728 -10.5255 -1.42646
  662 370.800 -10.5356 1.50347
  663 686.939 89.6104 39.5355
  664 436.531 -1.22838 0.870035
  665 422.480 -1.71364 5.70229
  666 420.893 -1.73849 -6.70896
  667 399.909 -37.2605 5.23564
  668 295.877 -3.41836 -1.65486
  669 295.907 -3.39441 1.64776
  670 427.872 68.5041 26.6014
  671 547.661 121.593 -7.94047
  672 301.071 -22.3122 -26.2708
  673 300.992 -22.0954 26.1426
  674 375.484 -38.6859 -8.62003
  675 396.610 23.5848 -38.4073
  676 469.274 1.28433 15.4073
  677 313.172 -5.80688 -3.33302
  678 313.183 -5.77034 3.32002
  679 270.886 -23.7244 -52.9055
  680 396.151 -38.3394 -1.60053
  681 329.715 -36.5590 47.3719
  682 158.262 49.8590 -104.634
  683 308.285 -28.5168 36.5469
  684 371.929 0.102915 12.4138
  685 271.141 -23.4568 52.5572
  686 388.107 -17.1815 10.8449
  687 308.377 -28.3953 -36.8730
  688 317.206 4.18389 3.03433
  689 245.445 -6.54756 19.4945
  690 245.228 -6.55370 -19.6275
  691 329.878 -37.5058 -47.8943
  692 407.241 -26.8698 -24.7189
  693 373.659 -5.31883 -0.383116
  694 373.719 -5.37251 0.385007
  695 416.089 -26.5559 24.3962
  696 378.333 -39.5391 10.1429
  697 459.359 42.1598 36.3889
  698 414.751 -7.80950 39.4972
  699 399.104 -14.3716 23.9129
  700 382.198 31.4536 -24.1956
  701 458.626 77.0737 28.8330
  702 396.132 -5.50427 -23.3893
  703 394.444 -13.1352 12.0752
  704 408.605 63.9155 6.79017
  705 401.437 -6.85189 20.2851
  706 127.012 86.5197 109.768
  707 373.493 -42.9798 -29.9008
  708 432.425 7.83610 40.0599
  709 436.314 -13.5249 -28.0852
  710 434.623 -0.624880 1.80013
  711 398.749 -13.7565 -18.7323
  712 374.053 -43.3164 27.2304
  713 719.602 63.7513 -10.6551
  714 225.088 -0.947742 7.45548
  715 224.822 -0.958032 -7.52385
  716 404.175 -7.42412 -8.61608
  717 437.159 -0.479925 -1.76122
  718 341.408 -29.9517 17.2516
  719 409.445 -15.2748 35.7913
  720 619.036 149.030 -47.7303
  721 388.096 -28.1482 10.9070
  722 429.777 -28.3389 -13.8808
  723 394.585 -12.7871 -11.8799
  724 436.864 -0.808081 -0.549292
  725 400.010 -0.0512067 41.3120
  726 18.6665 18.0304 23.8324
  727 449.548 -17.0851 -67.1836
  728 489.646 29.2363 16.9636
  729 408.278 -41.7559 20.4396
  730 292.758 -6.98834 8.17816
  731 292.755 -7.08474 -8.21595
  732 378.137 195.131 -200.542
  733 416.256 -27.5776 -22.4654
  734 315.987 1.71855 -5.80188
  735 366.994 2.05984 26.6584
  736 401.799 -20.1437 28.6666
  737 385.124 -32.4554 5.01086
  738 399.814 -36.5029 -55.0875
  739 382.799 -30.2898 -5.75419
  740 451.343 -21.6038 -3.73083
  741 415.794 -3.48133 5.01033
  742 371.866 -22.3420 2.80325
  743 672.231 134.348 -71.9539
  744 396.274 -10.6700 9.53652
  745 392.780 6.44494 -40.3223
  746 334.577 -3.69491 115.048
  747 420.467 33.8353 41.0350
  748 361.730 -28.4608 4.53068
  749 280.146 -22.0049 -38.7059
  750 280.179 -21.9462 38.3985
  751 385.225 43.3274 -5.62972
  752 391.364 -4.54134 35.9091
  753 395.432 -9.43351 -30.5180
  754 372.284 -22.8028 -2.91685
  755 360.034 -32.2424 9.96512
  756 411.715 67.8518 -7.64612
  757 384.654 -33.2935 -3.49620
  758 385.629 -24.4269 10.6543
  759 390.487 -5.10266 1.59813
  760 390.721 -4.96805 -1.58549
  761 525.204 115.079 1.99485
  762 429.151 -36.5344 -13.9541
  763 399.953 -12.2967 18.6713
  764 415.917 -3.47384 -4.54679
  765 420.954 2.77559 -41.5649
  766 478.413 25.3046 -23.5284
  767 237.160 -0.213435 -3.49340
  768 237.315 -0.210139 3.45950
  769 3.50048 -7.01480 -4.92725
  770 408.349 -0.501378 7.61691
  771 375.164 -0.581476 -29.4454
  772 387.206 -3.62967 25.8765
  773 351.838 44.2429 168.307
  774 440.615 90.4059 -0.924801
  775 313.809 -22.3918 20.5995
  776 56.1820 1.21402 -21.2225
  777 57.7448 0.889683 21.4466
  778 383.853 -2.72858 -29.2289
  779 314.639 -22.6120 -20.5980
  780 413.482 -3.81782 3.77336
  781 213.274 -9.05889 36.4617
  782 211.472 -9.02615 -36.4717
  783 396.244 -10.3632 -9.28558
  784 254.822 -6.37479 -16.9838
  785 254.950 -6.33374 16.8379
  786 412.509 -3.95476 -11.1464
  787 316.183 -8.41640 -5.72549
  788 316.195 -8.36270 5.72783
  789 450.234 -2.84024 -28.0465
  790 405.869 -4.26821 -41.3745
  791 208.375 -1.31478 -9.48661
  792 208.770 -1.30249 9.37910
  793 11.0213 5.19354 -13.0042
  794 12.8259 5.48182 13.6729
  795 330.653 1.60717 -10.4883
  796 370.523 -41.6284 -22.4460
  797 -4.21945 -2.90327 7.32395
  798 -3.71509 -3.45749 -7.30022
  799 385.538 -7.80357 3.45973
  800 417.823 -32.6501 -12.2675
  801 432.098 63.9776 -31.0089
  802 415.214 -3.43864 -3.58965
  803 879.601 178.232 -165.201
  804 385.456 -7.77988 -3.41341
  805 579.117 110.146 9.27123
  806 412.863 12.0102 -43.1813
  807 455.489 34.4052 -37.3066
  808 78.1357 -0.914564 -19.5622
  809 79.5217 -1.02731 19.5283
  810 259.152 -3.69944 10.0925
  811 259.059 -3.72984 -10.1791
  812 247.912 -0.568353 1.89491
  813 247.833 -0.574362 -1.90947
  814 460.911 77.5580 -28.5453
  815 274.251 -1.68045 -2.81426
  816 274.302 -1.66129 2.79929
  817 392.560 -3.95262 -37.4957
  818 563.074 58.9050 50.3178
  819 354.244 7.97781 -23.0356
  820 123.992 -1.10126 20.9095
  821 122.977 -1.11156 -21.0703
  822 454.210 12.9022 121.130
  823 403.786 -7.48462 8.89250
  824 362.564 24.1188 -9.59294
  825 168.996 -0.256552 14.2224
  826 168.157 -0.178776 -14.3247
  827 252.931 -1.26415 -4.95713
  828 253.024 -1.24600 4.91320
  829 45.5458 40.4576 35.2925
  830 377.621 9.03965 34.1707
  831 419.764 61.6239 -26.6573
  832 451.050 52.3752 -37.2309
  833 297.616 -11.1857 -13.0511
  834 297.449 -11.1042 13.0360
  835 467.443 99.2757 12.8799
  836 402.823 -3.44804 -0.456402
  837 402.850 -3.42251 0.523106
  838 399.201 -12.0155 -24.1691
  839 334.960 -22.2662 12.1940
  840 368.292 -41.3795 22.5361
  841 431.858 -35.3823 34.9783
  842 332.142 -9.62158 -3.49029
  843 332.140 -9.58692 3.46851
  844 380.032 35.2484 15.5525
  845 357.429 4.93235 -24.8641
  846 99.2784 119.195 114.242
  847 361.145 -31.9773 -9.08239
  848 362.398 -16.1946 0.293640
  849 362.591 -16.2302 -0.314688
  850 398.652 -5.88954 39.3590
  851 394.989 -25.9822 -17.5365
  852 353.175 -23.3487 -5.18309
  853 797.337 25.8087 -39.2376
  854 335.855 -31.7216 23.4754
  855 335.581 -32.1300 -23.8457
  856 398.128 -4.78234 19.8815
  857 597.072 154.639 -35.9644
  858 315.391 -28.5827 -29.1372
  859 347.934 -39.1451 27.8709
  860 315.317 -28.2417 28.8858
  861 341.744 -13.7342 -4.06214
  862 341.737 -13.6898 4.03502
  863 51.3467 21.6099 30.6401
  864 427.812 31.9578 -41.4442
  865 328.179 -12.7718 -6.28556
  866 328.241 -12.6448 6.30725
  867 324.244 -5.36160 -0.764369
  868 324.240 -5.32570 0.759612
  869 355.995 -7.11703 -0.231259
  870 355.952 -7.07168 0.228417
  871 290.486 -5.64441 -7.06351
  872 290.512 -5.58200 7.03537
  873 329.360 -17.2730 -9.41253
  874 329.404 -17.1580 9.45379
  875 8.12887 -2.21330 -4.27041
  876 494.986 92.8882 20.6652
  877 425.962 -14.9781 -32.7711
  878 347.635 -38.5755 -28.1558
  879 375.318 -12.1304 3.06366
  880 375.154 -12.0081 -2.96296
  881 409.325 0.489726 42.2788
  882 443.760 -31.6482 -19.9120
  883 392.235 28.4804 -146.175
  884 180.237 -3.02512 72.4910
  885 -6.07180 4.20209 -5.15938
  886 -5.20939 4.74598 5.68585
  887 51.0329 22.9809 -31.2905
  888 399.706 -11.5474 14.6143
  889 420.009 -2.81440 -6.13229
  890 377.945 -36.4127 63.0731
  891 179.813 -2.84272 -72.7735
  892 421.167 -34.5313 8.20524
  893 467.833 -13.5273 55.3349
  894 342.409 1.39749 11.1117
  895 391.445 37.2406 26.4457
  896 212.794 -11.9655 53.2283
  897 211.978 -12.0618 -53.5728
  898 255.138 -12.0714 -29.8802
  899 266.878 -13.1820 -92.3231
  900 421.683 -9.90534 37.0467
  901 577.568 136.341 22.7444
  902 423.601 16.2658 42.2637
  903 400.377 -8.58285 -22.0881
  904 272.434 -11.8091 94.6101
  905 509.562 94.0816 -14.6433
  906 51.3233 43.4872 -43.4146
  907 370.919 -0.729904 -11.8412
  908 255.404 -11.9732 29.6216
  909 310.743 -6.81962 5.03227
  910 310.731 -6.86522 -5.04267
  911 395.557 -25.8428 18.1360
  912 410.067 -2.70705 1.40661
  913 302.106 2.71881 -114.607
  914 432.037 -0.987551 2.89770
  915 428.984 -0.815694 -3.72808
  916 323.311 2.83623 -9.65685
  917 415.155 -1.70468 -6.73853
  918 311.632 -14.5142 -12.1280
  919 311.840 -14.2994 12.1662
  920 -10.0158 3.85843 -5.73185
  921 -13.9239 2.32793 6.11008
  922 410.051 -2.51998 -1.43581
  923 137.422 -3.13802 48.9422
  924 136.619 -2.84962 -49.2152
  925 439.056 63.9864 32.6784
  926 778.859 14.0918 12.0989
  927 413.563 45.9638 34.5738
  928 466.632 -16.2962 16.5836
  929 406.611 -22.6749 28.8170
  930 505.947 105.947 -11.1718
  931 316.574 1.39234 7.28243
  932 391.115 -9.26968 -5.63811
  933 406.962 21.8859 -41.8568
  934 489.959 14.7499 -6.53449
  935 381.494 -23.5702 -8.22252
  936 197.004 -1.08073 -10.6084
  937 197.199 -1.04233 10.4610
  938 402.339 -9.50515 -17.1695
  939 13.7656 17.3458 3.97573
  940 386.249 -40.0492 -4.87633
  941 336.520 10.0362 -0.995040
  942 502.676 110.267 -7.40983
  943 80.2877 59.6592 -71.5723
  944 387.226 -2.88695 -23.1860
  945 269.744 -4.45707 -9.45102
  946 269.799 -4.40520 9.37425
  947 2.43605 -10.8883 8.24437
  948 263.856 -19.5725 -42.8713
  949 393.527 -22.7767 -17.0518
  950 247.149 0.532673 -0.789838
  951 247.214 0.535071 0.784765
  952 398.230 48.3114 -21.1487
  953 425.098 -1.33811 -0.583837
  954 425.116 -1.35454 0.770661
  955 263.979 -19.5207 42.5883
  956 398.585 -0.569597 -9.13407
  957 457.582 3.32349 26.9248
  958 406.100 -5.80602 6.83791
  959 65.9870 16.5211 -38.5065
  960 420.828 -2.61424 5.54679
  961 383.173 3.11584 36.5337
  962 404.072 55.9255 18.8091
  963 403.880 4.67990 -42.7793
  964 279.287 -14.8936 -25.7250
  965 435.074 -15.4620 27.0599
  966 279.470 -14.8379 25.4722
  967 13.1667 14.2193 -1.67859
  968 48.7346 8.21534 28.2374
  969 228.759 -4.00287 17.5924
  970 228.484 -4.00530 -17.6886
  971 391.392 -9.44140 5.95677
  972 421.635 73.2238 10.3661
  973 214.925 19.5581 -108.662
  974 352.528 -21.9760 4.56458
  975 330.938 -34.5591 -35.0682
  976 481.583 92.2050 21.8310
  977 370.753 -6.60010 0.372029
  978 370.737 -6.56497 -0.374990
  979 405.785 -7.56784 -12.2525
  980 376.539 32.5461 -14.3442
  981 840.897 251.241 169.309
  982 79.6107 4.38302 -36.9629
  983 80.8163 3.63999 37.0413
  984 5.92448 -6.78856 2.34116
  985 377.576 20.9662 29.4439
  986 330.861 -34.7713 34.8153
  987 409.442 -19.3785 -32.9275
  988 445.372 36.3859 40.6566
  989 427.301 -34.5081 -42.7106
  990 623.456 131.106 44.0875
  991 364.094 -5.94054 -0.222996
  992 364.047 -5.89260 0.223098
  993 425.557 -17.3999 31.0144
  994 29.6786 50.6876 51.8092
  995 193.513 -4.02787 25.1666
  996 192.922 -3.97605 -25.4289
  997 230.405 -11.2087 34.4504
  998 229.622 -11.0355 -34.5750
  999 259.280 -10.6265 24.8055
  1000 283.463 -2.21852 -1.26613
  1001 283.505 -2.20225 1.26114
  1002 697.274 224.603 -143.935
  1003 634.672 159.149 66.3507
  1004 259.070 -10.6794 -25.0083
  1005 438.276 -2.05061 34.2659
  1006 393.289 40.8107 -25.4447
  1007 277.902 -23.9551 76.5808
  1008 356.246 -42.1000 -41.6371
  1009 407.023 -3.37437 -13.3172
  1010 184.537 12.5197 88.5688
  1011 236.748 -18.0702 61.1814
  1012 361.228 18.5791 -18.4669
  1013 411.725 -8.18492 -39.9787
  1014 519.110 216.586 228.345
  1015 341.635 10.5192 13.1707
  1016 462.986 99.5047 -1.55923
  1017 339.364 13.4617 -130.146
  1018 346.124 -36.3791 -24.0967
  1019 437.461 -0.515725 -1.43228
  1020 421.436 38.6931 -39.9595
  1021 248.839 -1.57710 6.35542
  1022 248.721 -1.59304 -6.41313
  1023 9.21650 5.83695 -13.6475
  1024 279.567 -12.6914 -21.4654
  1025 236.457 -18.3024 -61.6333
  1026 279.362 -12.6646 21.2357
  1027 402.575 -12.2833 36.9780
  1028 361.355 -22.3128 -1.36552
  1029 380.063 7.01873 -35.4162
  1030 391.133 48.8408 7.43041
  1031 526.995 32.5626 20.7636
  1032 398.563 -30.3042 17.1591
  1033 253.243 -20.1832 -46.9072
  1034 376.954 13.3801 -33.1833
  1035 280.267 -23.6403 -76.9716
  1036 536.563 116.145 -2.43262
  1037 366.707 24.1264 16.8007
  1038 460.953 -2.65525 -20.2848
  1039 348.268 -36.3986 22.2432
  1040 398.807 -12.6739 28.5017
  1041 396.080 -20.9383 20.2018
  1042 393.903 -19.8397 17.4344
  1043 485.767 61.8283 -28.9341
  1044 393.762 -6.36815 29.0966
  1045 355.690 -42.2173 40.9673
  1046 379.651 -15.5488 5.43198
  1047 253.403 -20.2232 46.6539
  1048 356.789 -26.2469 -5.53514
  1049 208.386 -10.1522 -65.4230
  1050 296.316 -30.7320 52.0333
  1051 400.813 -2.74839 -15.5061
  1052 390.725 -4.41635 -33.1435
  1053 338.633 -26.7257 -14.8542
  1054 208.742 -10.4398 64.9213
  1055 365.106 0.911594 -23.1680
  1056 272.064 -17.9701 -33.2626
  1057 490.367 104.202 13.6362
  1058 110.492 18.1137 -62.4616
  1059 830.612 58.6556 79.5936
  1060 197.465 14.5561 -92.6743
  1061 393.765 -32.6367 -10.1627
  1062 272.142 -17.8186 32.9977
  1063 361.332 3.86937 25.9420
  1064 203.926 -4.09614 20.8392
  1065 203.824 -4.19699 -21.0468
  1066 398.903 -11.1196 -34.2994
  1067 423.091 -2.19982 2.20960
  1068 415.472 -0.959370 6.80060
  1069 411.479 13.6393 43.1057
  1070 385.310 -2.89913 31.1734
  1071 298.090 31.8991 140.707
  1072 440.182 -0.364906 0.678060
  1073 414.555 56.1287 27.5120
  1074 351.865 5.14734 22.3733
  1075 420.539 -1.62936 6.51567
  1076 272.346 -2.88129 -5.30587
  1077 272.397 -2.84868 5.27286
  1078 173.955 -4.89821 -34.7728
  1079 174.624 -5.07488 34.5427
  1080 353.001 17.6717 9.39766
  1081 528.498 29.0207 -40.2873
  1082 485.670 -0.0899564 -74.7824
  1083 389.236 -0.355471 -9.49492
  1084 296.414 -30.9603 -52.4213
  1085 339.347 -25.4202 13.3315
  1086 391.437 -0.904848 9.90586
  1087 409.183 -29.7264 -20.3162
  1088 257.449 -0.568222 3.15071
  1089 257.381 -0.578450 -3.16960
  1090 393.019 -33.5709 10.1543
  1091 373.699 -7.69523 0.903962
  1092 373.635 -7.70332 -0.880873
  1093 363.713 -36.6045 14.3539
  1094 467.451 -15.0229 -6.33791
  1095 213.990 -0.373423 -5.91236
  1096 214.332 -0.360404 5.85140
  1097 319.210 -20.2665 -88.1933
  1098 340.064 -8.11463 1.94416
  1099 340.094 -8.15838 -1.96007
  1100 205.399 111.032 154.633
  1101 470.030 38.6337 -32.9269
  1102 70.1117 33.9484 -47.5007
  1103 406.315 -6.12120 -6.60358
  1104 109.539 37.3540 -71.6560
  1105 227.401 -14.2461 -44.5049
  1106 440.223 -0.516728 0.435796
  1107 440.385 -0.486893 -0.318542
  1108 400.064 -22.8692 -24.6105
  1109 354.218 -39.7973 -56.9742
  1110 110.569 15.4203 59.5191
  1111 435.340 43.0684 38.7514
  1112 394.737 -4.06574 -0.565213
  1113 394.784 -4.06836 0.601680
  1114 430.497 -27.6093 69.1524
  1115 446.108 89.1785 14.8522
  1116 266.122 -6.35513 -13.4984
  1117 266.191 -6.32596 13.4056
  1118 201.615 22.9422 109.707
  1119 379.113 1.94855 -34.2576
  1120 119.508 38.3415 76.9823
  1121 484.736 -8.10116 -24.1539
  1122 477.689 105.341 4.42871
  1123 328.997 -25.9639 17.9472
  1124 305.041 1.65836 -1.42034
  1125 416.415 -3.70318 8.28099
  1126 430.813 -0.573050 3.22303
  1127 96.0762 0.163234 -17.5300
  1128 97.3471 0.118004 17.4132
  1129 341.123 5.75572 -16.5850
  1130 350.621 -10.3119 -1.51773
  1131 350.543 -10.2653 1.50982
  1132 37.0966 60.0021 -55.1708
  1133 58.7286 129.632 -109.552
  1134 355.029 -13.8619 1.31004
  1135 355.163 -13.8588 -1.33090
  1136 366.660 -8.86853 0.923223
  1137 366.608 -8.85099 -0.893526
  1138 96.7889 61.7433 77.5715
  1139 290.463 -3.55876 -2.57315
  1140 290.499 -3.53345 2.56142
  1141 364.830 27.6180 -0.386660
  1142 461.785 59.5186 -162.303
  1143 444.016 76.4882 -25.4621
  1144 404.948 -15.5728 -34.8818
  1145 398.855 -19.9225 -25.0383
  1146 329.182 -26.2040 -18.2421
  1147 332.126 1.10516 10.2378
  1148 372.855 23.2819 -24.6190
  1149 367.735 19.8158 23.5295
  1150 379.405 -15.1000 -5.32750
  1151 362.271 -21.8672 1.09272
  1152 329.704 -21.2497 -13.5421
  1153 392.197 -2.31750 18.4497
  1154 689.330 69.5358 9.67783
  1155 394.787 -8.43211 33.5990
  1156 396.378 26.0257 36.9105
  1157 365.406 -35.9344 -10.9241
  1158 46.2199 7.54557 -27.2434
  1159 372.253 -17.2321 -3.61602
  1160 248.915 -0.375628 -0.160750
  1161 248.974 -0.374026 0.159084
  1162 452.755 -12.0139 17.1845
  1163 431.413 -36.3423 16.5744
  1164 619.018 110.704 27.3947
  1165 149.818 -0.296202 -14.5783
  1166 150.693 -0.264072 14.4710
  1167 332.869 -6.73741 -1.57522
  1168 332.854 -6.69625 1.56426
  1169 373.383 -32.9268 -1.69135
  1170 307.728 1.41499 4.65310
  1171 382.334 -27.2266 7.73679
  1172 21.9266 26.0523 -12.9681
  1173 69.3696 34.4246 46.4385
  1174 256.322 -13.9980 85.2289
  1175 442.395 84.1751 -18.1864
  1176 422.053 -1.18579 -5.14903
  1177 442.063 -0.725227 0.284782
  1178 442.479 -0.981650 -0.175670
  1179 258.829 -0.597128 -0.523192
  1180 258.888 -0.592362 0.519423
  1181 407.752 26.0588 41.8403
  1182 601.530 102.597 -2.18356
  1183 420.207 69.4154 -18.5998
  1184 314.060 -23.1473 87.6316
  1185 254.960 -13.4644 -85.0642
  1186 283.688 -18.9252 -29.8595
  1187 391.635 -10.9906 7.65114
  1188 545.883 120.409 5.67744
  1189 283.717 -18.8140 29.6298
  1190 400.029 -7.04709 5.78878
  1191 358.250 13.3523 22.4639
  1192 394.237 12.2208 40.2430
  1193 560.234 125.070 14.1990
  1194 333.489 -8.69848 2.92971
  1195 333.505 -8.73951 -2.94952
  1196 405.283 -7.65870 12.7299
  1197 241.773 -2.56159 9.94275
  1198 241.603 -2.58739 -10.0307
  1199 396.381 -5.45481 -2.53455
  1200 163.566 97.6172 -149.671
  1201 343.280 -19.3756 -93.8441
  1202 324.456 -10.1497 -5.36095
  1203 324.490 -10.1045 5.36288
  1204 424.780 -2.04834 2.01014
  1205 402.355 -5.32941 4.62238
  1206 22.2589 28.1575 20.8041
  1207 437.232 -0.509429 1.67546
  1208 52.4529 66.7553 66.2294
  1209 393.077 -5.93131 -3.26988
  1210 -0.457464 -9.58871 -8.40875
  1211 278.540 -27.1877 -66.0113
  1212 277.782 -26.5293 65.3567
  1213 437.215 -0.787177 -1.85684
  1214 374.598 -19.7682 -4.35522
  1215 424.490 -1.87352 -2.05012
  1216 340.717 -11.0190 -2.85813
  1217 340.684 -10.9795 2.82782
  1218 396.129 -5.41711 2.37690
  1219 371.987 -16.8936 3.57829
  1220 358.049 -11.5323 0.284477
  1221 358.174 -11.5627 -0.242263
  1222 424.116 -1.93067 -1.67086
  1223 366.450 -38.6136 -64.2068
  1224 415.096 -2.62360 -1.69727
  1225 394.740 -6.09457 3.52783
  1226 276.688 -3.00472 -3.94291
  1227 276.735 -2.97550 3.92053
  1228 308.584 -4.52433 -2.04292
  1229 308.601 -4.49364 2.03307
  1230 498.162 77.7700 24.0549
  1231 418.760 -32.2141 14.8232
  1232 287.500 -1.38057 108.236
  1233 231.744 -0.381287 3.81853
  1234 231.549 -0.385438 -3.85577
  1235 397.155 -7.35345 25.2062
  1236 379.980 -5.80631 0.636378
  1237 379.995 -5.78705 -0.636011
  1238 435.389 84.6453 8.51228
  1239 398.070 -41.7004 51.0353
  1240 231.973 -3.25396 13.9336
  1241 231.745 -3.27823 -14.0338
  1242 379.449 -9.29908 2.72634
  1243 379.365 -9.36371 -2.64119
  1244 391.422 -10.8583 -7.36509
  1245 360.623 0.0781002 11.9906
  1246 620.480 154.243 -51.9088
  1247 398.759 -14.6205 -22.1383
  1248 69.0199 16.3126 39.5800
  1249 411.867 -21.9796 30.6089
  1250 332.060 7.30952 -9.07529
  1251 25.6984 18.7114 14.4974
  1252 541.471 60.7631 -6.21459
  1253 402.336 -18.3202 -31.0392
  1254 333.625 4.78520 13.9041
  1255 228.987 -14.2710 44.4339
  1256 408.566 -31.6533 18.0422
  1257 591.635 113.972 37.2005
  1258 137.963 20.2682 75.6965
  1259 410.490 -4.92423 -10.9732
  1260 785.137 8.79752 -7.87321
  1261 810.981 12.1670 35.0553
  1262 865.567 29.3525 -83.3875
  1263 398.330 -12.4592 -27.6780
  1264 398.261 -18.2033 23.4367
  1265 404.554 -28.8201 21.6682
  1266 -11.8827 1.38721 7.51998
  1267 -10.8073 1.11516 -8.19346
  1268 393.642 -43.5272 -24.1122
  1269 403.143 -40.7858 -35.9059
  1270 309.909 1.99394 -5.74353
  1271 391.982 -44.3036 35.8094
  1272 418.904 -19.8959 -31.0399
  1273 8.45761 12.5919 1.63155
  1274 341.033 -6.24402 1.08561
  1275 341.058 -6.28781 -1.08848
  1276 416.108 -3.37811 7.44455
  1277 399.998 -6.92291 -5.43186
  1278 376.882 -41.1430 -12.9921
  1279 344.594 -18.6235 5.88103
  1280 342.870 -18.3609 -6.37072
  1281 403.899 -8.57187 17.5731
  1282 413.946 -15.2331 -35.8612
  1283 26.6629 19.5085 -14.0688
</Section>

newXOutput 55

<Section columns = "stress_xx | stress_yy | stress_xy">
  1 452.625 -0.116322 0.867764
  2 452.635 -0.108536 -0.870231
  3 249.577 -0.0818288 -0.313726
  4 -3.14879 -3.11389 -4.52732
  5 809.381 324.876 259.661
  6 801.899 336.563 -259.040
  7 -3.65732 -2.95859 4.81768
  8 249.518 -0.0827336 0.312897
  9 455.747 -0.767371 0.260228
  10 454.821 -1.20941 -0.235975
  11 453.839 -0.815578 0.989530
  12 452.848 -1.11555 0.258256
  13 450.709 -0.942263 1.55804
  14 448.762 -0.950654 1.12518
  15 444.123 -0.839602 2.24302
  16 437.441 -0.596578 3.31018
  17 431.494 -0.627312 3.69702
  18 422.628 -0.864262 4.48277
  19 410.279 -0.0779998 6.64476
  20 398.873 -0.636717 6.33116
  21 385.820 -0.819647 8.93986
  22 366.973 0.578417 7.79327
  23 353.280 0.885701 9.22602
  24 335.412 1.48498 7.23092
  25 323.026 1.57588 7.29561
  26 305.086 2.19133 3.72322
  27 301.295 3.44767 3.99497
  28 299.010 2.83484 -1.18113
  29 302.124 1.65711 -2.59065
  30 307.862 1.59976 -3.17873
  31 321.303 2.01029 -6.34141
  32 334.359 1.58822 -8.01230
  33 353.474 0.362903 -9.49383
  34 368.759 -0.191792 -8.62894
  35 385.015 -0.651018 -8.46072
  36 399.712 -0.498081 -5.96309
  37 412.306 -0.525582 -5.08769
  38 422.659 -0.846434 -4.25815
  39 431.904 -0.610538 -2.95118
  40 437.643 -0.731366 -3.12444
  41 443.188 -0.890531 -2.28037
  42 448.403 -1.05223 -0.977976
  43 451.067 -0.850037 -1.16488
  44 452.437 -0.532491 -0.718259
  45 451.332 -0.308825 -0.655981
  46 455.268 -1.21582 0.162087
  47 455.879 -0.797701 -0.268278
  48 441.301 -0.394970 -0.537270
  49 431.626 -1.90809 -0.983916
  50 419.776 -2.78810 -0.619584
  51 405.305 -4.09378 -0.855098
  52 391.557 -4.46808 -1.04943
  53 376.864 -5.55219 -1.00192
  54 363.840 -6.15195 -0.537288
  55 352.416 -6.85012 -0.176738
  56 339.227 -5.67643 -0.167870
  57 324.025 -5.28855 -0.309747
  58 309.377 -4.15939 -0.0657877
  59 295.503 -2.63750 -0.00680093
  60 282.324 -1.86845 0.0479241
  61 270.775 -0.943590 0.142800
  62 258.978 -0.242375 -0.357648
  63 249.706 0.352322 0.472246
  64 245.533 0.965774 0.325342
  65 248.319 0.0149204 0.756435
  66 245.094 -0.122677 0.915239
  67 242.079 -0.186674 1.14025
  68 238.000 -0.0152056 1.47962
  69 232.858 -0.00775514 1.85922
  70 229.009 -0.288587 3.56328
  71 218.177 0.318701 3.88696
  72 210.523 -0.0168407 4.43913
  73 199.127 -0.192233 5.03857
  74 186.014 -0.327788 6.12966
  75 169.617 -0.0703889 7.44298
  76 149.630 0.0958791 8.21150
  77 132.313 -0.170110 11.7367
  78 98.1995 1.08397 11.0868
  79 74.8933 0.934211 11.7442
  80 46.9044 -0.216279 13.0408
  81 23.6021 2.14575 13.5814
  82 -2.95617 3.22020 8.19709
  83 -22.3388 3.27449 2.95988
  84 -21.9090 3.17141 -1.08519
  85 -21.0670 2.64134 -6.31267
  86 -12.4085 -0.825137 -6.02271
  87 -1.50419 -11.9116 -6.65188
  88 1.19896 -21.9061 -8.28835
  89 3.29484 -34.4151 -4.49785
  90 7.29561 -34.7957 0.606120
  91 15.4054 -7.00493 20.6043
  92 45.7681 72.4530 69.2463
  93 266.519 252.994 232.538
  94 980.331 146.768 163.730
  95 883.969 20.9936 53.2192
  96 822.447 8.72323 16.2859
  97 799.743 7.41713 1.25434
  98 811.804 9.85974 -14.1174
  99 882.045 19.5711 -42.1207
  100 1038.04 70.7924 -140.828
  101 158.469 259.139 -194.690
  102 34.2659 52.1485 -57.4377
  103 16.8288 -5.31472 -21.8153
  104 6.82861 -34.7587 -3.90918
  105 1.95106 -26.1439 5.15748
  106 2.44224 -27.6238 7.17938
  107 0.123857 -10.2863 7.36809
  108 -12.9552 -0.525932 5.70894
  109 -21.7354 1.98280 5.50324
  110 -23.0751 3.85351 1.20843
  111 -23.0558 3.22204 -2.74817
  112 -4.57132 3.30019 -7.68355
  113 22.1800 2.16435 -12.9512
  114 45.4536 0.0123477 -12.8268
  115 73.3957 1.00992 -11.7686
  116 96.8390 1.11230 -11.1710
  117 131.258 -0.174964 -11.8347
  118 148.727 0.106529 -8.29056
  119 168.828 -0.0673641 -7.53596
  120 185.609 -0.363517 -6.17491
  121 198.582 -0.182327 -5.05152
  122 210.109 -0.00287911 -4.48484
  123 217.837 0.314848 -3.92928
  124 228.764 -0.291455 -3.59915
  125 232.661 -0.00961428 -1.88125
  126 237.850 -0.0169771 -1.49773
  127 241.964 -0.189605 -1.15459
  128 245.005 -0.125187 -0.925254
  129 248.245 0.0127663 -0.762828
  130 245.467 0.964660 -0.328308
  131 249.645 0.351768 -0.474105
  132 258.917 -0.244837 0.356671
  133 270.718 -0.949756 -0.145086
  134 282.275 -1.88200 -0.0505966
  135 295.466 -2.65633 0.00422781
  136 309.354 -4.18653 0.0632460
  137 324.021 -5.32286 0.307751
  138 339.243 -5.71611 0.165846
  139 352.446 -6.89459 0.175844
  140 363.882 -6.19629 0.538773
  141 376.923 -5.59254 1.00646
  142 391.608 -4.49592 1.06575
  143 405.343 -4.11867 0.933460
  144 419.852 -2.63951 0.633402
  145 431.930 -1.85910 0.962163
  146 441.377 -0.463490 0.529077
  147 395.804 -37.1917 -1.94820
  148 395.468 -36.6900 2.08852
  149 416.022 59.7327 -20.0456
  150 442.674 26.0793 42.2332
  151 335.392 -32.3266 -74.2639
  152 338.119 -32.2819 71.8944
  153 326.638 -13.8137 9.09614
  154 326.664 -14.0045 -9.10238
  155 468.917 16.9040 -31.8224
  156 394.757 -14.2408 8.32684
  157 394.588 -13.9002 -8.22412
  158 510.252 113.621 4.90041
  159 404.486 -0.646416 -41.4650
  160 299.917 -23.5283 -33.3354
  161 299.929 -23.3337 33.0473
  162 405.094 -9.18742 37.3401
  163 385.456 28.1503 24.8236
  164 159.630 25.5021 -88.6579
  165 176.875 24.1728 93.4007
  166 494.476 5.79623 2.79358
  167 405.944 -15.6017 -25.7618
  168 536.908 117.903 -1.29053
  169 365.859 -10.3447 -0.217477
  170 365.782 -10.3137 0.248454
  171 410.227 -5.04004 -3.61948
  172 411.499 -4.53677 3.12166
  173 288.515 -4.10582 -5.34347
  174 288.553 -4.06356 5.31666
  175 439.785 -11.4063 94.4127
  176 373.295 15.5319 -26.7483
  177 244.434 -18.2810 -53.3318
  178 245.161 -18.1483 52.9901
  179 274.778 -8.95651 -17.4806
  180 274.806 -8.85439 17.3538
  181 407.882 -10.7495 21.9019
  182 370.925 -25.4456 -1.37358
  183 369.634 -25.2564 1.95669
  184 421.066 -40.7812 -7.91917
  185 423.277 -38.8522 2.69325
  186 581.306 136.889 -21.0841
  187 424.134 68.0400 18.7314
  188 424.538 26.0700 -42.5926
  189 438.131 -3.44145 -109.580
  190 420.923 -23.8136 -29.3630
  191 424.556 -17.0144 34.7347
  192 354.193 -40.2032 36.6403
  193 354.269 -39.9171 -36.5311
  194 379.496 4.85658 32.1105
  195 174.295 -4.30832 -65.2697
  196 174.717 -4.67350 64.8762
  197 654.775 97.9525 14.2177
  198 398.781 -23.7787 15.7566
  199 413.413 -7.64512 -14.1924
  200 328.646 -8.02081 -4.18188
  201 328.653 -7.98069 4.16910
  202 397.430 -5.17321 -28.8088
  203 452.253 66.3572 -33.9185
  204 379.218 34.0982 -4.97188
  205 247.585 -8.71485 24.5184
  206 247.210 -8.74178 -24.6974
  207 419.358 -4.71721 7.69171
  208 409.144 7.69438 42.6607
  209 332.919 -24.1887 -16.2786
  210 330.706 -22.9014 16.6457
  211 481.679 71.4553 30.7385
  212 565.008 78.1160 14.3504
  213 38.9952 30.3136 -25.2401
  214 36.0795 28.0219 21.4694
  215 233.533 67.0365 155.744
  216 394.800 -26.2489 -11.9245
  217 420.835 -4.53001 -6.94549
  218 375.269 3.32850 -29.5750
  219 264.234 -2.59865 -7.76451
  220 264.319 -2.56949 7.69827
  221 355.692 -16.6722 -3.61951
  222 355.857 -16.7763 3.41857
  223 400.774 -5.41460 24.4835
  224 460.312 -26.6278 11.3580
  225 458.328 93.5282 -9.79159
  226 359.424 -34.6852 -17.5343
  227 453.791 -7.91171 26.5750
  228 387.024 -6.56136 1.25902
  229 387.028 -6.50828 -1.25728
  230 356.816 -34.5210 18.1909
  231 408.447 -25.9440 23.8202
  232 572.125 74.8193 -37.8112
  233 127.944 76.1277 -113.274
  234 347.313 12.2517 6.39883
  235 410.772 36.2082 35.9655
  236 436.972 -3.08311 -37.6401
  237 408.513 -14.7280 -34.8264
  238 219.153 -7.01075 -30.6606
  239 219.902 -6.90550 30.5667
  240 409.117 -4.96959 -18.8665
  241 389.807 -9.91879 4.29153
  242 389.624 -9.90675 -4.14037
  243 83.0486 7.54694 -41.8118
  244 84.3447 6.61449 41.6688
  245 433.644 -37.9672 -34.3870
  246 428.903 -1.60454 1.02324
  247 429.348 -1.63444 -1.12342
  248 401.299 33.2744 -32.9582
  249 354.076 6.86108 19.3856
  250 733.633 117.472 78.9334
  251 727.445 82.8169 -49.2995
  252 529.558 113.958 -0.365693
  253 330.664 -15.9856 98.6542
  254 303.652 -10.4419 -103.143
  255 348.709 -7.16623 -1.51122
  256 348.677 -7.12118 1.50082
  257 290.332 -7.72291 10.7498
  258 290.328 -7.82862 -10.8425
  259 418.979 -4.56966 11.5517
  260 406.784 -28.9930 -19.4412
  261 265.730 -0.478494 -1.82534
  262 265.792 -0.470118 1.81434
  263 401.687 -16.3033 -15.5284
  264 171.881 -5.59921 -42.5607
  265 172.611 -5.61689 42.2596
  266 406.760 -17.6656 27.7764
  267 310.985 -33.0052 59.7562
  268 311.760 -33.5955 -59.5729
  269 352.305 13.5497 -9.02322
  270 304.038 -4.63079 -3.60372
  271 304.066 -4.59969 3.59021
  272 382.139 -0.938836 23.6671
  273 455.932 83.3653 23.4951
  274 245.939 -2.96594 13.1001
  275 245.752 -2.99056 -13.2094
  276 417.569 -34.9120 13.2629
  277 386.544 -43.4079 -40.3751
  278 430.550 -2.14740 3.54542
  279 300.656 -17.7397 -22.8239
  280 300.146 -17.5428 22.7396
  281 528.043 56.8990 138.440
  282 251.532 -20.3201 71.2076
  283 405.186 56.8680 -2.12513
  284 510.453 56.6945 -19.3630
  285 385.770 -29.8343 4.26995
  286 386.863 -44.5912 36.4499
  287 252.282 -19.9916 -71.9994
  288 47.0967 58.1368 53.0874
  289 401.756 -16.3589 15.8179
  290 525.670 69.0652 14.7166
  291 433.872 -1.91829 -3.07444
  292 394.498 13.8299 -37.9415
  293 388.719 -21.9978 8.22903
  294 380.657 -32.1201 1.62467
  295 393.102 18.0641 36.5707
  296 415.590 -34.9185 -11.7678
  297 587.820 114.086 -10.3104
  298 388.615 -21.1466 -7.86630
  299 320.152 92.8696 -190.239
  300 397.135 -42.1162 -8.48665
  301 394.347 -43.2671 12.9899
  302 290.677 -26.2475 -46.9388
  303 263.298 -0.982589 -3.96346
  304 263.373 -0.965454 3.93303
  305 290.806 -26.2698 46.6882
  306 420.380 -0.719787 -42.7349
  307 453.025 -18.7658 -17.2427
  308 346.052 -20.7964 -8.78820
  309 345.836 -20.8446 8.94669
  310 412.465 -35.5053 64.2799
  311 412.433 -3.33989 14.2787
  312 499.628 2.71400 23.6611
  313 339.176 -11.9448 -4.87165
  314 339.200 -11.9059 4.84542
  315 309.418 -8.00860 -7.13016
  316 309.422 -7.93444 7.12005
  317 350.488 4.75597 -18.7458
  318 447.975 32.8318 -40.9020
  319 689.548 186.369 -89.3301
  320 407.766 -3.68386 -1.19481
  321 407.539 -3.63531 1.22891
  322 219.503 -0.528426 88.8598
  323 307.747 -13.8896 -15.1731
  324 307.176 -13.8443 15.2124
  325 219.461 -1.04518 -88.5203
  326 427.493 50.4212 -34.9533
  327 477.341 23.7043 30.1254
  328 412.388 -29.4208 -71.2954
  329 380.076 -14.6980 3.41635
  330 379.693 -14.5929 -3.25370
  331 405.247 -8.47957 -7.43257
  332 382.400 -0.712612 -22.1301
  333 428.035 1.80593 41.7812
  334 426.458 -3.04629 -7.94340
  335 258.141 -15.5909 35.7716
  336 257.857 -15.6767 -36.0415
  337 398.660 -0.895029 39.3983
  338 247.513 -1.98630 -7.78800
  339 247.671 -1.96777 7.71888
  340 408.284 -9.45508 11.7527
  341 489.908 99.9310 -16.9889
  342 405.056 -8.54101 7.71791
  343 432.245 54.2249 35.0546
  344 413.474 -7.71706 40.7072
  345 328.265 -6.13255 1.54746
  346 328.266 -6.16960 -1.55732
  347 391.783 -1.38853 -34.9745
  348 517.350 108.664 10.4100
  349 431.107 78.8973 0.730233
  350 263.928 30.6274 -131.887
  351 27.8682 11.9670 -18.3841
  352 30.4981 12.9523 19.7525
  353 -1.15726 3.14720 7.78998
  354 0.425440 1.83170 -8.15083
  355 750.742 52.0938 17.8048
  356 357.075 -28.9449 -10.4613
  357 408.587 -9.14145 -11.4639
  358 369.163 -6.55166 0.402739
  359 369.120 -6.50032 -0.405232
  360 395.633 43.7021 -17.8544
  361 337.349 -34.3207 30.1631
  362 29.9388 44.6453 -33.1016
  363 337.654 -34.3091 -30.6994
  364 400.738 45.5734 18.9980
  365 407.838 -10.9320 -20.8401
  366 432.319 -24.1689 -24.7816
  367 461.405 97.1990 6.74198
  368 433.257 -27.1081 20.2602
  369 181.234 -4.47288 28.4927
  370 180.171 -4.38608 -28.6707
  371 102.931 2.45967 -39.6912
  372 103.989 2.05584 39.5161
  373 355.909 1.23395 18.9477
  374 669.384 196.463 77.7035
  375 421.365 -2.73690 -10.1614
  376 328.929 -27.7004 -23.1424
  377 328.668 -27.6329 23.1119
  378 405.579 -9.39756 -26.5451
  379 460.845 -22.2769 2.07686
  380 357.063 -28.9201 10.7659
  381 504.904 4.04298 -42.7491
  382 288.308 -2.28601 -1.41552
  383 288.353 -2.26659 1.40601
  384 399.184 -2.34438 -17.0189
  385 216.859 -3.09084 -18.5785
  386 216.992 -3.19104 18.3563
  387 476.071 60.8469 -34.2729
  388 257.829 18.1560 122.596
  389 373.286 -19.5923 1.28122
  390 373.650 -19.5590 -1.29767
  391 438.808 74.1396 -22.1301
  392 415.003 -12.3352 -38.5004
  393 415.443 -42.4998 35.5284
  394 347.506 -9.22969 -2.37493
  395 347.468 -9.18651 2.35320
  396 400.305 -30.9099 12.7927
  397 430.420 -2.11931 5.88854
  398 270.440 -9.78198 -21.8434
  399 270.549 -9.78335 21.6622
  400 407.110 13.6746 -42.1009
  401 383.836 -8.40843 1.88437
  402 383.818 -8.42901 -1.83540
  403 397.527 -4.70522 32.0702
  404 371.453 27.1236 8.59879
  405 411.653 -17.4301 33.5080
  406 593.480 124.009 22.7648
  407 200.234 -10.7627 -57.1016
  408 200.785 -10.7649 56.6754
  409 89.6935 47.8381 -68.5901
  410 439.784 -1.38004 1.59110
  411 226.107 -1.87491 -11.7639
  412 226.404 -1.83522 11.6655
  413 405.881 -10.6343 25.9734
  414 368.258 -39.9484 20.1916
  415 415.138 -5.26817 5.25322
  416 423.791 21.4997 43.7982
  417 93.9440 50.9368 71.4451
  418 368.800 -39.7184 -18.6230
  419 381.015 -35.4000 -4.26277
  420 126.045 -2.52354 -35.9158
  421 126.966 -2.61610 35.6726
  422 292.955 -23.5352 -85.8675
  423 437.009 -6.57119 36.6853
  424 291.878 -23.8773 85.1248
  425 403.944 -22.7264 -21.4383
  426 376.542 25.4612 -18.8099
  427 404.000 -17.5141 20.4060
  428 433.791 -2.02645 -3.93574
  429 13.4861 14.5586 6.72098
  430 88.7186 102.889 101.174
  431 389.577 -1.42654 16.4499
  432 328.518 4.57225 8.22926
  433 334.060 5.55524 -11.1540
  434 285.016 -4.64767 -7.58596
  435 285.048 -4.58870 7.53849
  436 398.279 -30.8888 -11.6570
  437 402.776 -7.91742 -35.8533
  438 330.227 6.27593 -3.02912
  439 593.128 141.413 30.4140
  440 83.3159 27.4003 -51.4398
  441 91.7469 25.1429 54.9004
  442 372.941 -13.3190 1.29089
  443 372.802 -13.2895 -1.19400
  444 496.905 109.463 -1.31405
  445 308.825 129.674 194.470
  446 476.928 -6.57835 -5.35519
  447 276.084 -14.3065 -29.6309
  448 276.216 -14.2099 29.3863
  449 278.181 -6.13932 11.7692
  450 278.126 -6.18375 -11.8720
  451 374.282 8.36802 -30.4725
  452 441.970 -0.711880 -1.04780
  453 364.155 16.7845 17.1443
  454 458.303 56.5512 37.4286
  455 381.778 -28.3343 -2.90228
  456 414.963 -5.02179 -5.10797
  457 435.537 -1.84333 3.62401
  458 440.683 -0.765051 0.597855
  459 441.024 -0.853188 -0.432802
  460 246.122 -0.420583 2.89391
  461 245.998 -0.426964 -2.92287
  462 417.283 -26.5754 25.9220
  463 377.832 14.9602 29.5158
  464 394.414 1.61393 -38.4605
  465 410.975 -8.74902 15.4021
  466 588.822 101.420 -117.218
  467 412.110 -22.9213 -29.1746
  468 4.49075 7.88890 3.52043
  469 4.43437 8.03662 -1.47907
  470 327.468 -18.4626 13.1729
  471 326.391 -18.2112 -13.0070
  472 510.118 10.2049 63.6035
  473 143.334 131.924 -147.988
  474 406.948 -1.27317 12.7264
  475 459.716 -26.6911 -36.6240
  476 247.186 -14.1485 41.3772
  477 493.687 87.6141 -24.4473
  478 406.206 -22.0427 24.3822
  479 341.818 -16.2788 -6.70699
  480 342.117 -16.0116 6.68991
  481 355.824 1.92963 -16.7257
  482 246.421 -14.0909 -41.6249
  483 364.615 0.199169 16.7976
  484 348.174 -39.8484 -53.5511
  485 347.309 -39.9091 53.7558
  486 419.056 -2.83709 11.2271
  487 382.245 36.0818 3.55282
  488 385.839 6.93414 133.328
  489 568.148 115.296 -0.720865
  490 392.945 -6.72653 2.28957
  491 392.964 -6.70272 -2.37800
  492 303.815 -5.33391 -4.85637
  493 303.839 -5.29032 4.83929
  494 160.818 7.26690 74.8048
  495 408.061 -19.7094 -28.6165
  496 370.322 -8.11089 0.118435
  497 370.284 -8.08365 -0.111292
  498 322.909 -34.1369 43.8153
  499 163.892 9.62071 -76.6876
  500 408.449 -33.3336 -13.3765
  501 7.25745 1.94675 2.82488
  502 358.821 18.6195 1.25766
  503 394.315 -4.67994 -0.743714
  504 394.307 -4.74176 0.724833
  505 323.088 -34.0751 -44.1502
  506 460.156 -23.5512 46.4374
  507 457.038 16.5956 37.9281
  508 421.389 -2.97998 -2.50289
  509 407.203 -33.7991 13.5858
  510 257.821 -0.223287 -0.527276
  511 257.883 -0.221035 0.523159
  512 406.883 -15.6726 -30.6364
  513 394.912 29.2404 32.2464
  514 451.484 11.1544 -37.4818
  515 256.254 -0.382602 -1.63032
  516 256.325 -0.377151 1.61965
  517 782.267 113.040 -100.913
  518 410.760 48.8839 28.3522
  519 421.744 -2.75906 2.22452
  520 381.848 -36.1834 5.18769
  521 322.079 -10.5908 7.31599
  522 322.074 -10.6701 -7.30107
  523 443.622 -27.0778 10.5986
  524 426.911 -8.58158 -38.8157
  525 477.459 93.9123 20.7345
  526 397.824 6.86271 39.8946
  527 400.238 -7.80014 4.62183
  528 388.775 -41.5609 -51.7433
  529 403.946 -10.0449 30.2912
  530 772.737 35.5018 -14.1126
  531 440.311 -33.2476 0.470232
  532 418.775 -2.89824 -0.569331
  533 418.876 -3.07533 0.491877
  534 780.787 52.3716 49.3782
  535 388.090 -0.108094 33.9318
  536 540.886 91.4195 -7.25474
  537 407.397 -11.1650 -14.9103
  538 186.555 -1.72281 -12.7006
  539 187.118 -1.63962 12.5739
  540 276.905 -25.9008 -59.6989
  541 277.134 -25.4676 59.2628
  542 400.015 -7.48382 -4.58381
  543 435.640 15.9718 -42.5675
  544 382.899 -26.0529 4.37126
  545 412.546 47.2834 -29.3984
  546 414.659 -4.89603 15.1054
  547 518.075 26.4112 -7.57784
  548 355.470 -12.1751 -2.16729
  549 355.365 -12.1350 2.14388
  550 385.567 -18.2257 6.03081
  551 566.318 112.887 -10.3132
  552 406.708 17.7963 41.4248
  553 174.429 44.8140 110.447
  554 391.518 -23.4694 89.4777
  555 515.313 25.9621 -98.8479
  556 415.770 34.3748 -38.5073
  557 367.918 -31.8711 -77.6356
  558 398.603 -43.7260 -16.1337
  559 415.960 -42.1841 -23.2935
  560 55.1711 72.0356 -68.2334
  561 418.191 -5.39710 -9.16306
  562 627.574 121.927 -36.1562
  563 387.594 -17.4945 -6.81490
  564 390.711 -12.7775 5.62968
  565 390.350 -12.4906 -5.38786
  566 271.796 -1.52385 -3.60962
  567 271.856 -1.50419 3.58674
  568 39.6307 3.99366 -21.9773
  569 41.7335 4.18975 22.4793
  570 202.488 -9.35848 -43.5325
  571 204.007 -9.41032 43.4723
  572 396.094 -21.5050 -13.3110
  573 403.197 -43.9060 17.3997
  574 414.430 -39.4022 1.51895
  575 341.003 -6.03185 -1.34155
  576 340.985 -5.99009 1.33488
  577 323.002 -33.9190 -66.4304
  578 360.940 -29.6688 82.0861
  579 315.285 -31.9055 66.7922
  580 407.754 -9.08479 -38.5024
  581 257.545 -4.22720 13.1854
  582 257.418 -4.27084 -13.2910
  583 389.549 21.5718 -32.4034
  584 389.839 -0.685805 -14.9275
  585 486.064 105.257 -9.25832
  586 318.784 -4.79471 -1.29956
  587 318.795 -4.76373 1.29368
  588 414.693 -1.25260 -8.35444
  589 288.067 -9.65200 -14.6787
  590 288.078 -9.61945 14.5554
  591 234.686 10.7119 105.568
  592 403.609 -18.6208 -20.6192
  593 226.378 -12.0365 75.8925
  594 396.639 -20.5932 13.6207
  595 417.115 -5.98325 10.1377
  596 411.731 -3.89102 -2.19697
  597 291.571 -3.56213 -3.38179
  598 291.611 -3.53338 3.36518
  599 466.332 92.9492 -18.7485
  600 226.213 -11.5923 -76.1685
  601 395.308 -17.1671 -10.8321
  602 357.141 -6.66751 -0.695278
  603 357.104 -6.61990 0.692545
  604 666.280 89.5640 -15.9421
  605 239.013 -1.50828 7.26032
  606 238.809 -1.52286 -7.32600
  607 369.939 8.53432 27.8190
  608 525.127 44.4687 -4.43215
  609 249.947 1.59563 -104.753
  610 129.052 3.16714 -57.2962
  611 130.101 2.44428 56.9942
  612 313.896 -18.2379 18.2725
  613 317.114 -18.7756 -17.7710
  614 531.711 107.251 8.11793
  615 410.082 -4.02863 1.97354
  616 354.280 10.0425 -16.8212
  617 439.949 78.9402 17.5094
  618 438.421 81.9104 -11.6462
  619 360.266 -19.9438 -3.49099
  620 362.971 -19.5004 2.21343
  621 258.006 56.3963 -150.291
  622 310.568 -10.5627 -10.2055
  623 310.596 -10.4435 10.1725
  624 778.377 159.427 120.119
  625 407.133 -13.3793 33.1268
  626 234.413 -8.22757 -27.8843
  627 627.425 148.268 100.262
  628 234.951 -8.18289 27.7829
  629 388.259 -14.7652 -104.321
  630 276.698 -1.32854 -1.32960
  631 276.751 -1.31708 1.32316
  632 341.928 3.11312 14.6785
  633 156.624 -2.30908 -25.0174
  634 157.469 -2.31511 24.8259
  635 355.672 -25.1369 8.12057
  636 372.721 -29.8316 -2.80189
  637 437.969 -0.997898 -3.33875
  638 250.138 -0.388944 2.14651
  639 250.040 -0.395974 -2.16776
  640 335.998 -7.56756 -2.09385
  641 335.987 -7.52640 2.07929
  642 384.178 -42.6827 52.2589
  643 441.932 49.3266 -38.5666
  644 295.340 -13.6996 -18.9073
  645 295.136 -13.4698 18.7743
  646 349.191 -25.0735 -11.0660
  647 548.351 119.194 4.10882
  648 412.012 -39.9092 0.728060
  649 358.473 -8.61183 -1.09781
  650 358.421 -8.57101 1.09770
  651 491.635 53.9311 28.4378
  652 412.987 -6.02967 -16.4150
  653 366.673 -0.425698 -13.6739
  654 170.680 -5.83584 -54.7916
  655 171.192 -5.99577 54.3537
  656 348.219 -29.9978 -17.5313
  657 521.218 114.506 0.148228
  658 405.281 54.8482 -12.7710
  659 270.352 -2.42405 -6.61618
  660 270.417 -2.39051 6.56541
  661 377.411 -10.7200 -1.41343
  662 377.484 -10.7302 1.49154
  663 698.901 91.1604 40.2261
  664 444.226 -1.25590 0.879031
  665 430.003 -1.74963 5.77957
  666 428.396 -1.77405 -6.80285
  667 407.075 -37.9319 5.22297
  668 301.360 -3.47560 -1.68933
  669 301.391 -3.45132 1.68213
  670 435.613 69.7316 27.0041
  671 557.412 123.741 -8.17767
  672 306.593 -22.7065 -26.7826
  673 306.514 -22.4863 26.6526
  674 382.239 -39.3799 -8.86159
  675 403.808 24.0146 -39.0114
  676 477.604 1.31579 15.5306
  677 318.929 -5.90793 -3.40766
  678 318.941 -5.87090 3.39447
  679 275.865 -24.1535 -53.8976
  680 403.253 -39.0297 -1.52610
  681 335.681 -37.2193 48.2858
  682 161.187 50.7644 -106.609
  683 313.911 -29.0269 37.2527
  684 378.726 0.105089 12.6087
  685 276.125 -23.8813 53.5437
  686 395.082 -17.4952 10.9658
  687 314.003 -28.9029 -37.5840
  688 323.147 4.26908 3.08403
  689 250.060 -6.65999 19.8603
  690 249.839 -6.66610 -19.9952
  691 335.845 -38.1830 -48.8177
  692 414.548 -27.3566 -25.0475
  693 380.385 -5.42350 -0.381111
  694 380.446 -5.47802 0.383005
  695 423.541 -27.0375 24.7110
  696 385.134 -40.2493 10.4138
  697 467.578 42.9174 36.8961
  698 422.207 -7.95405 40.0852
  699 406.280 -14.6359 24.2539
  700 389.175 32.0318 -24.5808
  701 466.874 78.4504 29.2396
  702 403.280 -5.60642 -23.7418
  703 401.523 -13.3782 12.2235
  704 416.034 65.0682 6.89598
  705 408.657 -6.98043 20.5822
  706 129.360 88.1368 111.848
  707 380.196 -43.7535 -30.5229
  708 440.181 7.97420 40.6465
  709 444.110 -13.7690 -28.4531
  710 442.301 -0.641697 1.82089
  711 405.909 -14.0106 -18.9892
  712 380.768 -44.0960 27.8045
  713 732.045 64.8571 -10.8377
  714 229.382 -0.962673 7.59494
  715 229.112 -0.973107 -7.66430
  716 411.401 -7.56690 -8.72177
  717 444.876 -0.493312 -1.78225
  718 347.601 -30.4852 17.6219
  719 416.804 -15.5539 36.3163
  720 629.837 151.770 -48.7980
  721 395.073 -28.6557 11.0104
  722 437.446 -28.8494 -14.0010
  723 401.665 -13.0242 -12.0255
  724 444.562 -0.828526 -0.553379
  725 407.239 -0.0534733 41.9501
  726 19.0288 18.4768 24.3364
  727 457.469 -17.3629 -68.5030
  728 498.330 29.7797 17.1005
  729 415.562 -42.5059 20.9129
  730 298.180 -7.10806 8.34547
  731 298.176 -7.20595 -8.38377
  732 384.603 198.864 -204.179
  733 423.710 -28.0767 -22.7467
  734 321.909 1.75875 -5.89706
  735 373.713 2.10141 27.0829
  736 409.023 -20.5106 29.0742
  737 392.047 -33.0389 5.00848
  738 406.928 -37.1589 -56.1684
  739 389.685 -30.8346 -5.76888
  740 459.360 -21.9858 -3.66057
  741 423.194 -3.55381 5.06924
  742 378.571 -22.7436 2.78375
  743 683.994 136.694 -73.2484
  744 403.377 -10.8701 9.64907
  745 399.903 6.56418 -40.9544
  746 340.554 -3.75442 117.187
  747 428.056 34.4436 41.6645
  748 368.265 -28.9698 4.68379
  749 285.303 -22.3972 -39.4371
  750 285.337 -22.3378 39.1249
  751 392.260 44.1200 -5.71853
  752 398.451 -4.62489 36.4636
  753 402.570 -9.60649 -30.9781
  754 378.997 -23.2131 -2.89873
  755 366.536 -32.8187 10.2172
  756 419.196 69.0731 -7.76284
  757 391.570 -33.8922 -3.46683
  758 392.565 -24.8681 10.7603
  759 397.480 -5.20527 1.60827
  760 397.717 -5.06839 -1.59535
  761 534.595 117.106 1.96028
  762 436.783 -37.1885 -14.3238
  763 407.134 -12.5243 18.9293
  764 423.316 -3.54651 -4.59876
  765 428.521 2.82344 -42.1868
  766 486.919 25.7728 -23.7897
  767 241.682 -0.215131 -3.56013
  768 241.839 -0.211786 3.52573
  769 3.57593 -7.11108 -4.99116
  770 415.686 -0.513395 7.72938
  771 382.006 -0.588057 -29.9099
  772 394.228 -3.69596 26.2760
  773 358.041 45.0980 171.384
  774 448.591 92.0165 -0.938780
  775 319.548 -22.7875 21.0138
  776 57.3581 1.23370 -21.6316
  777 58.9459 0.903617 21.8597
  778 390.825 -2.77739 -29.6840
  779 320.391 -23.0112 -21.0126
  780 420.839 -3.89721 3.81407
  781 217.295 -9.22080 37.1386
  782 215.462 -9.18734 -37.1479
  783 403.345 -10.5579 -9.39484
  784 259.601 -6.48337 -17.3043
  785 259.730 -6.44174 17.1562
  786 419.884 -4.03377 -11.3014
  787 321.985 -8.56329 -5.85228
  788 321.998 -8.50884 5.85471
  789 458.264 -2.88862 -28.4049
  790 413.187 -4.34687 -42.0055
  791 212.368 -1.33671 -9.66199
  792 212.769 -1.32421 9.55282
  793 11.3188 5.28887 -13.2700
  794 13.1529 5.58274 13.9512
  795 336.809 1.63971 -10.6580
  796 377.184 -42.3764 -22.9324
  797 -4.29049 -2.95043 7.45196
  798 -3.77932 -3.51695 -7.43018
  799 392.457 -7.95289 3.48573
  800 425.293 -33.2392 -12.3670
  801 439.903 65.1255 -31.4749
  802 422.597 -3.51092 -3.62881
  803 894.453 181.348 -167.987
  804 392.374 -7.92893 -3.43892
  805 589.393 112.069 9.46942
  806 420.310 12.2263 -43.8436
  807 463.639 35.0257 -37.8326
  808 79.7341 -0.932662 -19.9339
  809 81.1417 -1.04736 19.8995
  810 264.023 -3.76123 10.2863
  811 263.927 -3.79207 -10.3742
  812 252.631 -0.576220 1.93200
  813 252.551 -0.582322 -1.94677
  814 469.196 78.9457 -28.9437
  815 279.388 -1.70611 -2.87119
  816 279.440 -1.68668 2.85602
  817 399.667 -4.02403 -38.0761
  818 572.885 60.0723 51.4071
  819 360.768 8.13289 -23.4073
  820 126.438 -1.12124 21.3005
  821 125.407 -1.13174 -21.4639
  822 462.157 13.1937 123.385
  823 411.007 -7.62849 9.00153
  824 369.227 24.5697 -9.74731
  825 172.272 -0.259489 14.4847
  826 171.420 -0.180310 -14.5884
  827 257.715 -1.28328 -5.05367
  828 257.811 -1.26485 5.00911
  829 46.4324 41.2335 36.0156
  830 384.509 9.20940 34.7145
  831 427.368 62.7325 -27.0659
  832 459.149 53.3170 -37.7707
  833 303.107 -11.3799 -13.3129
  834 302.938 -11.2974 13.2978
  835 475.867 101.037 13.0508
  836 410.005 -3.52212 -0.459514
  837 410.032 -3.49607 0.527280
  838 406.382 -12.2378 -24.5190
  839 341.055 -22.6612 12.4644
  840 374.917 -42.1231 23.0219
  841 439.520 -36.0095 35.7199
  842 338.202 -9.79256 -3.58118
  843 338.200 -9.75751 3.55904
  844 386.979 35.8962 15.8016
  845 364.001 5.02944 -25.2636
  846 101.094 121.580 116.404
  847 367.665 -32.5486 -9.31917
  848 368.947 -16.4864 0.245698
  849 369.143 -16.5230 -0.267267
  850 405.853 -5.99792 39.9621
  851 402.086 -26.4526 -17.7522
  852 359.571 -23.7647 -5.33661
  853 810.939 26.2481 -39.8817
  854 341.951 -32.2874 23.9562
  855 341.671 -32.7027 -24.3330
  856 405.307 -4.87175 20.1798
  857 607.606 157.414 -36.7652
  858 321.144 -29.0914 -29.7101
  859 354.221 -39.8471 28.4412
  860 321.069 -28.7447 29.4545
  861 347.957 -13.9788 -4.17416
  862 347.950 -13.9340 4.14653
  863 52.3614 22.0100 31.2638
  864 435.518 32.5328 -42.0706
  865 334.172 -12.9975 -6.43358
  866 334.235 -12.8686 6.45568
  867 330.181 -5.45693 -0.782850
  868 330.177 -5.42054 0.778017
  869 362.440 -7.24978 -0.252958
  870 362.397 -7.20378 0.250018
  871 295.875 -5.74002 -7.20665
  872 295.901 -5.67667 7.17814
  873 335.368 -17.5776 -9.62397
  874 335.413 -17.4611 9.66620
  875 8.29544 -2.18141 -4.39851
  876 503.835 94.5516 20.8951
  877 433.589 -15.2507 -33.2282
  878 353.915 -39.2670 -28.7306
  879 382.076 -12.3537 3.07087
  880 381.910 -12.2294 -2.96874
  881 416.705 0.496305 42.9245
  882 451.629 -32.2079 -20.3959
  883 399.139 29.0470 -148.865
  884 183.603 -3.09290 73.8567
  885 -6.11701 4.28041 -5.27946
  886 -5.24109 4.83480 5.81516
  887 52.0442 23.4061 -31.9285
  888 406.874 -11.7625 14.8076
  889 427.482 -2.87357 -6.21104
  890 384.694 -37.0696 64.2879
  891 183.171 -2.90804 -74.1437
  892 428.686 -35.1545 8.23072
  893 476.070 -13.7342 56.4502
  894 348.752 1.42521 11.2908
  895 398.573 37.9197 26.8650
  896 216.772 -12.1848 54.2200
  897 215.943 -12.2827 -54.5698
  898 259.893 -12.2836 -30.4401
  899 271.731 -13.4344 -94.0487
  900 429.249 -10.0876 37.5850
  901 587.757 138.815 23.3373
  902 431.225 16.5562 42.9026
  903 407.580 -8.74286 -22.4117
  904 277.382 -12.0350 96.3776
  905 518.644 95.7757 -14.7512
  906 52.3206 44.3125 -44.2944
  907 377.700 -0.741418 -12.0272
  908 260.164 -12.1838 30.1776
  909 316.459 -6.93837 5.14205
  910 316.447 -6.98459 -5.15257
  911 402.663 -26.3105 18.3617
  912 417.364 -2.76782 1.41839
  913 307.534 2.76055 -116.733
  914 439.691 -1.00959 2.93444
  915 436.602 -0.834456 -3.77796
  916 329.350 2.89331 -9.81432
  917 422.585 -1.73723 -6.83678
  918 317.350 -14.7685 -12.3805
  919 317.563 -14.5502 12.4196
  920 -10.1751 3.93490 -5.81960
  921 -14.1569 2.37417 6.20830
  922 417.347 -2.57729 -1.44871
  923 140.057 -3.20122 49.8669
  924 139.241 -2.90804 -50.1444
  925 446.973 65.1321 33.1637
  926 792.167 14.3352 12.2931
  927 421.052 46.7922 35.1096
  928 474.886 -16.5689 17.0199
  929 413.914 -23.0870 29.2198
  930 515.000 107.833 -11.2565
  931 322.508 1.42410 7.40150
  932 398.128 -9.44548 -5.69244
  933 414.323 22.2825 -42.5077
  934 498.630 15.0408 -6.48780
  935 388.360 -23.9955 -8.28941
  936 200.791 -1.09846 -10.8033
  937 200.989 -1.05941 10.6535
  938 409.557 -9.68348 -17.4082
  939 14.0512 17.6927 4.09844
  940 393.183 -40.7690 -5.05924
  941 342.767 10.2330 -1.01118
  942 511.690 112.219 -7.46514
  943 81.8140 60.7863 -72.9729
  944 394.247 -2.93974 -23.5439
  945 274.792 -4.53146 -9.63492
  946 274.848 -4.47881 9.55704
  947 2.49232 -11.0703 8.37742
  948 268.733 -19.9224 -43.6741
  949 400.599 -23.1900 -17.2648
  950 251.865 0.543059 -0.805777
  951 251.932 0.545487 0.800637
  952 405.475 49.1886 -21.4808
  953 432.618 -1.37200 -0.591047
  954 432.637 -1.38862 0.780706
  955 268.859 -19.8699 43.3867
  956 405.779 -0.582778 -9.27222
  957 465.734 3.38576 27.2582
  958 413.352 -5.92028 6.91838
  959 67.2879 16.8200 -39.2691
  960 428.312 -2.66961 5.61696
  961 390.142 3.17632 37.1103
  962 411.418 56.9365 19.1039
  963 411.176 4.76463 -43.4409
  964 284.454 -15.1551 -26.2155
  965 442.846 -15.7434 27.4099
  966 284.641 -15.0987 25.9588
  967 13.4442 14.5055 -1.75677
  968 49.7263 8.36272 28.7988
  969 233.088 -4.07105 17.9197
  970 232.808 -4.07340 -18.0172
  971 398.410 -9.61988 6.01585
  972 429.285 74.5378 10.5244
  973 218.857 19.9003 -110.694
  974 358.914 -22.3680 4.70475
  975 336.938 -35.1786 -35.7587
  976 490.221 93.8486 22.1061
  977 377.433 -6.72588 0.361221
  978 377.417 -6.69025 -0.364283
  979 413.047 -7.71241 -12.4155
  980 383.427 33.1466 -14.5736
  981 855.125 255.680 172.280
  982 81.1933 4.45805 -37.6763
  983 82.4179 3.70197 37.7556
  984 6.04280 -6.84524 2.42459
  985 384.473 21.3550 29.9148
  986 336.861 -35.3949 35.5015
  987 416.798 -19.7310 -33.4012
  988 453.361 37.0376 41.2511
  989 434.879 -35.1203 -43.5876
  990 634.442 133.405 44.9292
  991 370.668 -6.05388 -0.232926
  992 370.620 -6.00522 0.233008
  993 433.175 -17.7168 31.4411
  994 30.2374 51.7990 52.8423
  995 197.210 -4.09834 25.6316
  996 196.609 -4.04558 -25.8978
  997 234.728 -11.4072 35.0919
  998 233.931 -11.2306 -35.2182
  999 264.114 -10.8125 25.2739
  1000 288.749 -2.25361 -1.29086
  1001 288.792 -2.23713 1.28581
  1002 709.217 228.707 -146.636
  1003 645.836 161.961 67.6224
  1004 263.900 -10.8661 -25.4797
  1005 446.115 -2.09036 34.7422
  1006 400.449 41.5540 -25.8461
  1007 282.965 -24.3982 78.0159
  1008 362.655 -42.8591 -42.4605
  1009 414.331 -3.43961 -13.5126
  1010 187.957 12.7325 90.2381
  1011 241.128 -18.4023 62.3264
  1012 367.866 18.9284 -18.7649
  1013 419.132 -8.33546 -40.5771
  1014 527.873 220.757 232.430
  1015 347.963 10.7223 13.3855
  1016 471.344 101.269 -1.58067
  1017 345.401 13.7167 -132.552
  1018 352.385 -37.0296 -24.5959
  1019 445.176 -0.530895 -1.44889
  1020 429.043 39.3901 -40.5716
  1021 253.550 -1.60167 6.47716
  1022 253.430 -1.61785 -6.53571
  1023 9.40174 6.05988 -13.9609
  1024 284.747 -12.9131 -21.8767
  1025 240.831 -18.6386 -62.7855
  1026 284.540 -12.8861 21.6435
  1027 409.829 -12.5081 37.5321
  1028 367.887 -22.7123 -1.45327
  1029 386.987 7.15058 -35.9776
  1030 398.266 49.7297 7.54785
  1031 536.244 33.2119 21.3161
  1032 405.718 -30.8516 17.3607
  1033 257.930 -20.5462 -47.7853
  1034 383.835 13.6298 -33.7126
  1035 285.368 -24.0783 -78.4123
  1036 546.149 118.182 -2.50669
  1037 373.435 24.5757 17.0718
  1038 469.151 -2.69540 -20.4995
  1039 354.567 -37.0500 22.7115
  1040 405.988 -12.9069 28.9205
  1041 403.198 -21.3188 20.4698
  1042 400.981 -20.2006 17.6588
  1043 494.429 62.9459 -29.2937
  1044 400.878 -6.48586 29.5397
  1045 362.092 -42.9784 41.7784
  1046 386.483 -15.8327 5.46941
  1047 258.094 -20.5871 47.5284
  1048 363.242 -26.7145 -5.70047
  1049 212.265 -10.3449 -66.6466
  1050 301.722 -31.2878 53.0189
  1051 408.032 -2.80205 -15.7379
  1052 397.799 -4.49728 -33.6552
  1053 344.783 -27.2007 -15.1775
  1054 212.627 -10.6372 66.1369
  1055 371.795 0.931665 -23.5366
  1056 277.096 -18.2884 -33.8914
  1057 499.170 106.048 13.7944
  1058 112.602 18.4349 -63.6631
  1059 844.730 59.6485 80.9040
  1060 201.109 14.8035 -94.4149
  1061 400.836 -33.2249 -10.2436
  1062 277.176 -18.1345 33.6224
  1063 367.964 3.94641 26.3582
  1064 207.814 -4.16784 21.2248
  1065 207.711 -4.27040 -21.4356
  1066 406.097 -11.3230 -34.8159
  1067 430.591 -2.24900 2.23194
  1068 422.907 -0.980304 6.89883
  1069 418.904 13.8835 43.7691
  1070 392.304 -2.95156 31.6584
  1071 303.424 32.4856 143.302
  1072 447.936 -0.375433 0.684415
  1073 422.071 57.1397 27.9375
  1074 358.352 5.24882 22.7346
  1075 428.043 -1.66252 6.60819
  1076 277.446 -2.92753 -5.41126
  1077 277.499 -2.89444 5.37779
  1078 177.283 -4.98639 -35.4183
  1079 177.962 -5.16630 35.1849
  1080 359.510 18.0063 9.55026
  1081 537.747 29.6060 -41.1725
  1082 494.176 -0.0379685 -76.2437
  1083 396.293 -0.363302 -9.64068
  1084 301.821 -31.5200 -53.4135
  1085 345.510 -25.8721 13.6275
  1086 398.527 -0.922417 10.0576
  1087 416.518 -30.2644 -20.5643
  1088 262.320 -0.575073 3.21162
  1089 262.250 -0.585452 -3.23078
  1090 400.076 -34.1759 10.2350
  1091 380.427 -7.84097 0.895192
  1092 380.362 -7.84928 -0.871827
  1093 370.272 -37.2599 14.6891
  1094 475.723 -15.2788 -6.59572
  1095 218.092 -0.379311 -6.02203
  1096 218.440 -0.366087 5.96018
  1097 324.955 -20.6423 -89.8447
  1098 346.253 -8.26115 2.00084
  1099 346.284 -8.30548 -2.01705
  1100 209.090 113.110 157.488
  1101 478.417 39.3341 -33.3639
  1102 71.4684 34.5776 -48.4472
  1103 413.568 -6.24103 -6.68088
  1104 111.615 38.0313 -73.0372
  1105 231.651 -14.5022 -45.3339
  1106 447.968 -0.531217 0.441384
  1107 448.131 -0.500857 -0.322338
  1108 407.253 -23.2846 -24.9475
  1109 360.578 -40.5176 -58.0736
  1110 112.681 15.6939 60.6639
  1111 443.178 43.8411 39.3310
  1112 401.794 -4.15065 -0.569561
  1113 401.842 -4.15325 0.606568
  1114 438.105 -28.0838 70.4967
  1115 454.171 90.7668 15.0674
  1116 271.099 -6.46338 -13.7578
  1117 271.169 -6.43384 13.6638
  1118 205.316 23.3477 111.761
  1119 386.018 1.98728 -34.7987
  1120 121.759 39.0395 78.4588
  1121 493.280 -8.21818 -24.7328
  1122 486.295 107.201 4.48490
  1123 334.987 -26.4245 18.3220
  1124 310.791 1.69528 -1.44364
  1125 423.843 -3.77673 8.39198
  1126 438.457 -0.587836 3.26551
  1127 98.0189 0.164996 -17.8590
  1128 99.3095 0.119033 17.7403
  1129 347.441 5.87059 -16.8544
  1130 356.979 -10.4983 -1.57724
  1131 356.900 -10.4511 1.56912
  1132 37.7965 61.3440 -56.2760
  1133 59.8053 132.322 -111.639
  1134 361.458 -14.1115 1.37740
  1135 361.594 -14.1080 -1.39878
  1136 373.277 -9.03306 0.909495
  1137 373.224 -9.01538 -0.879433
  1138 98.6126 62.8955 79.0733
  1139 295.859 -3.61799 -2.62673
  1140 295.895 -3.59234 2.61485
  1141 371.530 28.1321 -0.392432
  1142 469.807 60.7165 -165.277
  1143 452.030 77.8570 -25.8326
  1144 412.234 -15.8566 -35.3960
  1145 406.026 -20.2854 -25.3886
  1146 335.173 -26.6685 -18.6225
  1147 338.308 1.12896 10.4040
  1148 379.678 23.7142 -25.0136
  1149 374.476 20.1857 23.9083
  1150 386.232 -15.3761 -5.36367
  1151 368.818 -22.2591 1.17510
  1152 335.712 -21.6252 -13.8326
  1153 399.294 -2.36125 18.7314
  1154 701.320 70.7376 9.84224
  1155 401.921 -8.58673 34.1106
  1156 403.575 26.4989 37.4916
  1157 371.994 -36.5773 -11.1994
  1158 47.1689 7.68022 -27.7864
  1159 378.964 -17.5444 -3.62042
  1160 253.661 -0.379873 -0.164508
  1161 253.722 -0.378247 0.162822
  1162 460.810 -12.2276 17.3490
  1163 439.083 -36.9912 16.9924
  1164 629.935 112.632 27.9107
  1165 152.751 -0.299653 -14.8479
  1166 153.640 -0.266943 14.7390
  1167 338.943 -6.85838 -1.61667
  1168 338.928 -6.81666 1.60552
  1169 380.109 -33.5169 -1.80377
  1170 313.522 1.44565 4.72981
  1171 389.214 -27.7170 7.78940
  1172 22.3663 26.5737 -13.2726
  1173 70.7089 35.0640 47.3621
  1174 261.004 -14.2651 86.8222
  1175 450.392 85.6774 -18.4521
  1176 429.580 -1.20972 -5.22253
  1177 449.836 -0.740863 0.287201
  1178 450.258 -1.00164 -0.176467
  1179 263.728 -0.604091 -0.534171
  1180 263.788 -0.599259 0.530353
  1181 415.129 26.5292 42.4918
  1182 612.162 104.377 -2.22214
  1183 427.827 70.6621 -18.8838
  1184 319.723 -23.5749 89.2730
  1185 259.618 -13.7229 -86.6541
  1186 288.920 -19.2594 -30.4291
  1187 398.660 -11.1961 7.73322
  1188 555.578 122.573 5.93263
  1189 288.949 -19.1465 30.1958
  1190 407.182 -7.18405 5.85069
  1191 364.839 13.6057 22.8270
  1192 401.389 12.4446 40.8755
  1193 570.191 127.282 14.5631
  1194 339.573 -8.85369 3.00539
  1195 339.589 -8.89524 -3.02552
  1196 412.538 -7.80533 12.8999
  1197 246.350 -2.60385 10.1311
  1198 246.177 -2.63003 -10.2204
  1199 403.468 -5.56373 -2.55436
  1200 166.549 99.4265 -152.456
  1201 349.423 -19.7278 -95.6037
  1202 330.391 -10.3284 -5.48594
  1203 330.426 -10.2826 5.48793
  1204 432.303 -2.09400 2.03245
  1205 409.542 -5.43624 4.67094
  1206 22.6979 28.7458 21.2582
  1207 444.956 -0.522047 1.69546
  1208 53.4509 68.0780 67.5405
  1209 400.114 -6.04858 -3.29707
  1210 -0.459948 -9.75276 -8.55397
  1211 283.624 -27.6855 -67.2502
  1212 282.855 -27.0155 66.5844
  1213 444.939 -0.804332 -1.87970
  1214 381.348 -20.1252 -4.36670
  1215 432.010 -1.91630 -2.07125
  1216 346.915 -11.2161 -2.94248
  1217 346.881 -11.1762 2.91164
  1218 403.212 -5.52548 2.39477
  1219 378.693 -17.1995 3.58266
  1220 364.528 -11.7422 0.328240
  1221 364.655 -11.7729 -0.285462
  1222 431.627 -1.97467 -1.68757
  1223 373.006 -39.3115 -65.4391
  1224 422.470 -2.68214 -1.71250
  1225 401.804 -6.21459 3.55919
  1226 281.860 -3.05309 -4.02327
  1227 281.909 -3.02345 4.00060
  1228 314.270 -4.60245 -2.08902
  1229 314.287 -4.57134 2.07903
  1230 507.040 79.1712 24.3262
  1231 426.244 -32.7964 14.9676
  1232 292.689 -1.41335 110.251
  1233 236.169 -0.385942 3.89109
  1234 235.972 -0.390156 -3.92887
  1235 404.317 -7.48968 25.5838
  1236 386.806 -5.92018 0.633321
  1237 386.821 -5.90064 -0.632959
  1238 443.273 86.1566 8.63881
  1239 405.163 -42.4482 52.0451
  1240 236.369 -3.30884 14.1939
  1241 236.137 -3.33345 -14.2954
  1242 386.272 -9.47347 2.73728
  1243 386.186 -9.53942 -2.65091
  1244 398.443 -11.0618 -7.44297
  1245 367.249 0.0806379 12.1807
  1246 631.414 156.970 -52.9245
  1247 405.927 -14.8892 -22.4501
  1248 70.3740 16.6084 40.3611
  1249 419.258 -22.3793 31.0378
  1250 338.236 7.45459 -9.22311
  1251 26.2304 19.0643 14.8153
  1252 550.992 61.9094 -6.52089
  1253 409.572 -18.6538 -31.4884
  1254 339.826 4.88168 14.1312
  1255 233.264 -14.5279 45.2627
  1256 415.887 -32.2254 18.2510
  1257 601.990 116.123 38.0936
  1258 140.556 20.6280 77.1409
  1259 417.827 -5.02178 -11.1213
  1260 798.538 8.95250 -8.00240
  1261 824.772 12.3698 35.6216
  1262 880.206 29.8278 -84.7501
  1263 405.503 -12.6886 -28.0845
  1264 405.419 -18.5357 23.7628
  1265 411.812 -29.3419 21.9443
  1266 -12.0927 1.41679 7.64899
  1267 -10.9967 1.14045 -8.33593
  1268 400.683 -44.3110 -24.6425
  1269 410.330 -41.5188 -36.6519
  1270 315.737 2.03544 -5.83776
  1271 398.987 -45.1001 36.5471
  1272 426.412 -20.2571 -31.4712
  1273 8.65262 12.8373 1.70157
  1274 347.239 -6.35827 1.10842
  1275 347.264 -6.40269 -1.11135
  1276 423.524 -3.44781 7.54108
  1277 407.149 -7.05776 -5.48877
  1278 383.656 -41.8816 -13.3138
  1279 350.851 -18.9547 6.03631
  1280 349.098 -18.6870 -6.53296
  1281 411.147 -8.73312 17.8219
  1282 421.381 -15.5109 -36.3832
  1283 27.2137 19.8763 -14.3828
</Section>

newXOutput 56

<Section columns = "stress_xx | stress_yy | stress_xy">
  1 460.416 -0.122425 0.880471
  2 460.426 -0.114418 -0.882950
  3 254.265 -0.0818463 -0.318269
  4 -3.20623 -3.17022 -4.61003
  5 822.495 330.716 264.085
  6 814.901 342.588 -263.390
  7 -3.72420 -3.01165 4.90632
  8 254.204 -0.0827633 0.317433
  9 463.584 -0.782455 0.263353
  10 462.647 -1.23239 -0.241582
  11 461.656 -0.832838 1.00233
  12 460.655 -1.13759 0.258671
  13 458.495 -0.961514 1.57806
  14 456.527 -0.969711 1.13784
  15 451.832 -0.856251 2.27274
  16 445.062 -0.610951 3.35477
  17 439.039 -0.641056 3.74842
  18 430.053 -0.880693 4.54682
  19 417.530 -0.0817735 6.74197
  20 405.962 -0.648709 6.42572
  21 392.715 -0.833583 9.07593
  22 373.591 0.587945 7.91380
  23 359.689 0.902398 9.37036
  24 341.548 1.51171 7.34554
  25 328.969 1.60735 7.41199
  26 310.752 2.23223 3.78306
  27 306.901 3.51154 4.05972
  28 304.579 2.88904 -1.20049
  29 307.742 1.69167 -2.63216
  30 313.569 1.63108 -3.22993
  31 327.220 2.04807 -6.44295
  32 340.478 1.61816 -8.13910
  33 359.884 0.371935 -9.64313
  34 375.401 -0.193817 -8.76232
  35 391.898 -0.661876 -8.58938
  36 406.812 -0.507652 -6.05250
  37 419.585 -0.536391 -5.16246
  38 430.083 -0.862753 -4.31930
  39 439.454 -0.623215 -2.99153
  40 445.266 -0.747450 -3.16624
  41 450.883 -0.908526 -2.31044
  42 456.161 -1.07289 -0.988483
  43 458.857 -0.867202 -1.17909
  44 460.239 -0.544809 -0.726013
  45 459.113 -0.318349 -0.663167
  46 463.099 -1.23840 0.166506
  47 463.717 -0.813168 -0.271483
  48 448.930 -0.409397 -0.545189
  49 439.115 -1.95121 -0.999939
  50 427.089 -2.84876 -0.627490
  51 412.401 -4.17773 -0.866624
  52 398.444 -4.55795 -1.06250
  53 383.524 -5.65840 -1.01483
  54 370.297 -6.26641 -0.542550
  55 358.694 -6.97312 -0.176302
  56 345.299 -5.77713 -0.166911
  57 329.858 -5.38006 -0.311772
  58 314.981 -4.22921 -0.0637732
  59 300.892 -2.67957 -0.00459666
  60 287.508 -1.89667 0.0505777
  61 275.782 -0.955784 0.146529
  62 263.806 -0.243903 -0.362623
  63 254.394 0.359296 0.481299
  64 250.156 0.981859 0.332404
  65 252.978 0.0160765 0.771429
  66 249.697 -0.123513 0.933774
  67 246.626 -0.188536 1.16320
  68 242.473 -0.0142247 1.50856
  69 237.238 -0.00709064 1.89498
  70 233.314 -0.291741 3.62924
  71 222.293 0.324581 3.95839
  72 214.502 -0.0164026 4.51926
  73 202.901 -0.194634 5.12993
  74 189.554 -0.332396 6.24035
  75 172.866 -0.0707823 7.57743
  76 152.522 0.0980443 8.36089
  77 134.888 -0.171723 11.9509
  78 100.164 1.10270 11.2915
  79 76.4296 0.950250 11.9613
  80 47.9172 -0.221837 13.2853
  81 24.1692 2.18241 13.8405
  82 -2.90205 3.27753 8.36241
  83 -22.6713 3.33335 3.03022
  84 -22.2645 3.23099 -1.08770
  85 -21.4373 2.69209 -6.41881
  86 -12.6297 -0.836877 -6.12832
  87 -1.52816 -12.1239 -6.76966
  88 1.22502 -22.2900 -8.42987
  89 3.35963 -34.9907 -4.55972
  90 7.43492 -35.3248 0.650957
  91 15.6934 -6.92893 21.0315
  92 46.5904 74.0687 70.5604
  93 270.944 257.806 236.565
  94 996.339 149.225 166.330
  95 898.550 21.3402 54.0449
  96 836.141 8.87200 16.5385
  97 813.113 7.54615 1.27214
  98 825.356 10.0280 -14.3401
  99 896.615 19.9002 -42.7765
  100 1054.82 71.9760 -143.018
  101 161.140 264.150 -198.101
  102 34.8797 53.4699 -58.5508
  103 17.1456 -5.20695 -22.2842
  104 6.96007 -35.2747 -4.02240
  105 1.99371 -26.5708 5.22607
  106 2.49173 -28.1105 7.30011
  107 0.128054 -10.4675 7.49888
  108 -13.1867 -0.531562 5.80808
  109 -22.1172 2.02094 5.59471
  110 -23.4504 3.92554 1.21265
  111 -23.3980 3.27954 -2.81495
  112 -4.54246 3.35892 -7.83962
  113 22.7258 2.20129 -13.1989
  114 46.4449 0.0108626 -13.0673
  115 74.9095 1.02722 -11.9860
  116 98.7826 1.13147 -11.3769
  117 133.817 -0.176666 -12.0504
  118 151.606 0.108876 -8.44115
  119 172.065 -0.0677366 -7.67185
  120 189.144 -0.368728 -6.28619
  121 202.348 -0.184530 -5.14299
  122 214.081 -0.00220664 -4.56564
  123 221.948 0.320674 -4.00132
  124 233.065 -0.294649 -3.66562
  125 237.038 -0.00897606 -1.91731
  126 242.320 -0.0160222 -1.52691
  127 246.509 -0.191511 -1.17774
  128 249.606 -0.126062 -0.943923
  129 252.902 0.0138920 -0.777906
  130 250.089 0.980737 -0.335408
  131 254.331 0.358737 -0.483182
  132 263.744 -0.246398 0.361638
  133 275.723 -0.962034 -0.148841
  134 287.458 -1.91040 -0.0532804
  135 300.853 -2.69864 0.00199546
  136 314.958 -4.25670 0.0612018
  137 329.854 -5.41483 0.309752
  138 345.315 -5.81736 0.164856
  139 358.725 -7.01821 0.175389
  140 370.339 -6.31138 0.544053
  141 383.584 -5.69932 1.01943
  142 398.496 -4.58617 1.07905
  143 412.440 -4.20298 0.946181
  144 427.166 -2.69756 0.641469
  145 439.423 -1.90135 0.977814
  146 449.008 -0.479124 0.536855
  147 402.775 -37.8479 -1.88408
  148 402.432 -37.3371 2.02676
  149 423.433 60.7905 -20.3495
  150 450.472 26.5368 42.8466
  151 341.312 -32.9057 -75.6412
  152 344.090 -32.8593 73.2311
  153 332.502 -14.0519 9.29242
  154 332.528 -14.2457 -9.29862
  155 477.116 17.2074 -32.2293
  156 401.710 -14.4981 8.40947
  157 401.538 -14.1518 -8.30591
  158 519.233 115.585 4.93827
  159 411.660 -0.657514 -42.0931
  160 305.316 -23.9376 -33.9627
  161 305.330 -23.7399 33.6702
  162 412.265 -9.35282 37.8943
  163 392.364 28.6597 25.2121
  164 162.552 25.9445 -90.3066
  165 180.092 24.5940 95.1342
  166 503.049 5.91989 2.68118
  167 413.104 -15.8820 -26.1214
  168 546.298 119.962 -1.18512
  169 372.348 -10.5304 -0.254736
  170 372.270 -10.4992 0.286094
  171 417.406 -5.14024 -3.65309
  172 418.696 -4.62843 3.14985
  173 293.787 -4.17249 -5.45057
  174 293.826 -4.12962 5.42341
  175 447.380 -11.5733 96.1685
  176 380.007 15.8183 -27.1685
  177 248.881 -18.6064 -54.3085
  178 249.621 -18.4714 53.9617
  179 279.802 -9.10791 -17.8088
  180 279.830 -9.00423 17.6803
  181 415.070 -10.9451 22.2086
  182 377.494 -25.8921 -1.46787
  183 376.182 -25.6996 2.05965
  184 428.434 -41.5009 -8.17306
  185 430.687 -39.5380 2.85776
  186 591.405 139.280 -21.5843
  187 431.681 69.2391 19.0133
  188 432.052 26.5310 -43.2310
  189 445.682 -3.46178 -111.595
  190 428.325 -24.2372 -29.7573
  191 432.025 -17.3190 35.2197
  192 360.462 -40.9123 37.3565
  193 360.537 -40.6207 -37.2457
  194 386.296 4.94779 32.6103
  195 177.515 -4.39563 -66.4738
  196 177.943 -4.76659 66.0741
  197 666.037 99.6177 14.4705
  198 405.809 -24.2011 15.9413
  199 420.674 -7.78776 -14.3825
  200 334.548 -8.15940 -4.27787
  201 334.556 -8.11878 4.26491
  202 404.486 -5.26650 -29.2411
  203 460.241 67.5239 -34.4050
  204 386.033 34.7158 -5.04917
  205 252.145 -8.86355 24.9686
  206 251.763 -8.89077 -25.1503
  207 426.691 -4.81012 7.78565
  208 416.401 7.83115 43.3094
  209 338.871 -24.6085 -16.6160
  210 336.623 -23.2985 16.9871
  211 490.135 72.7125 31.1370
  212 574.738 79.5634 14.8061
  213 39.7571 30.8794 -25.7650
  214 36.7869 28.5449 21.9193
  215 237.665 68.2504 158.565
  216 401.761 -26.7136 -12.0428
  217 428.188 -4.61905 -7.02989
  218 382.004 3.39311 -30.0361
  219 269.115 -2.63954 -7.91159
  220 269.202 -2.60994 7.84442
  221 362.018 -16.9641 -3.73137
  222 362.187 -17.0703 3.52705
  223 407.877 -5.51267 24.8470
  224 468.314 -27.0860 11.6927
  225 466.452 95.1597 -9.92625
  226 365.795 -35.2926 -17.9134
  227 461.727 -8.05158 26.8986
  228 393.843 -6.68607 1.26039
  229 393.846 -6.63216 -1.25866
  230 363.146 -35.1257 18.5798
  231 415.640 -26.4056 24.1298
  232 581.924 76.2301 -38.6767
  233 130.278 77.5131 -115.384
  234 353.626 12.4837 6.50159
  235 418.079 36.8514 36.5161
  236 444.653 -3.13985 -38.1691
  237 415.728 -14.9917 -35.3322
  238 223.219 -7.13179 -31.2170
  239 223.981 -7.02486 31.1221
  240 416.334 -5.06251 -19.1383
  241 396.674 -10.1011 4.32252
  242 396.489 -10.0891 -4.16918
  243 84.6497 7.67631 -42.6099
  244 85.9659 6.72764 42.4637
  245 441.193 -38.6321 -35.1032
  246 436.355 -1.64353 1.03124
  247 436.805 -1.67403 -1.13365
  248 408.456 33.8696 -33.4670
  249 360.491 6.99383 19.6930
  250 746.104 119.467 80.2855
  251 739.791 84.2226 -50.1310
  252 538.854 115.923 -0.335290
  253 336.486 -16.2745 100.463
  254 309.021 -10.6393 -105.028
  255 354.929 -7.29414 -1.55389
  256 354.897 -7.24849 1.54330
  257 295.620 -7.85276 10.9604
  258 295.616 -7.96008 -11.0545
  259 426.325 -4.65797 11.7075
  260 413.946 -29.5072 -19.6749
  261 270.656 -0.483406 -1.86131
  262 270.719 -0.474915 1.85017
  263 408.761 -16.5968 -15.7220
  264 175.101 -5.69999 -43.3388
  265 175.843 -5.71795 43.0332
  266 413.935 -17.9820 28.1655
  267 316.526 -33.5934 60.8674
  268 317.313 -34.1940 -60.6805
  269 358.694 13.8050 -9.16638
  270 309.557 -4.70785 -3.67651
  271 309.586 -4.67634 3.66281
  272 388.974 -0.953202 24.0311
  273 464.001 84.8239 23.8276
  274 250.500 -3.01401 13.3413
  275 250.310 -3.03897 -13.4520
  276 424.899 -35.5306 13.3781
  277 393.329 -44.1755 -41.1744
  278 438.039 -2.19500 3.58535
  279 306.086 -18.0451 -23.2600
  280 305.569 -17.8451 23.1746
  281 536.992 58.0467 140.968
  282 256.069 -20.6899 72.5167
  283 412.425 57.8792 -2.15706
  284 519.335 57.7154 -19.5272
  285 392.580 -30.3598 4.25857
  286 393.657 -45.3792 37.1807
  287 256.829 -20.3560 -73.3208
  288 47.9868 59.2422 54.1316
  289 408.831 -16.6531 16.0156
  290 534.799 70.3040 14.7927
  291 441.408 -1.96097 -3.10912
  292 401.534 14.0805 -38.5278
  293 395.579 -22.3879 8.29612
  294 387.382 -32.6850 1.73614
  295 400.120 18.3896 37.1379
  296 422.888 -35.5365 -11.8595
  297 598.045 116.040 -10.5275
  298 395.473 -21.5219 -7.92965
  299 325.669 94.5720 -193.631
  300 404.116 -42.8589 -8.73525
  301 401.282 -44.0306 13.3151
  302 295.905 -26.7099 -47.8081
  303 268.177 -0.996424 -4.04034
  304 268.254 -0.979040 4.00950
  305 296.038 -26.7328 47.5536
  306 427.804 -0.733851 -43.3678
  307 460.935 -19.0944 -17.4057
  308 352.221 -21.1581 -8.99420
  309 352.002 -21.2071 9.15588
  310 419.650 -36.1242 65.5072
  311 419.701 -3.40358 14.4839
  312 508.260 2.80281 24.2319
  313 345.243 -12.1524 -4.99086
  314 345.268 -12.1131 4.96421
  315 315.015 -8.14445 -7.27732
  316 315.019 -8.06920 7.26712
  317 356.847 4.84841 -19.0426
  318 455.863 33.4111 -41.4899
  319 701.364 189.609 -90.9681
  320 414.901 -3.76088 -1.20394
  321 414.671 -3.71143 1.23859
  322 223.471 -0.553235 90.4944
  323 313.302 -14.1276 -15.4734
  324 312.723 -14.0818 15.5136
  325 223.428 -1.08018 -90.1485
  326 435.075 51.3121 -35.4770
  327 485.678 24.1280 30.4968
  328 419.562 -29.9318 -72.6455
  329 386.792 -14.9608 3.42159
  330 386.404 -14.8542 -3.25648
  331 412.360 -8.63871 -7.51365
  332 389.238 -0.723672 -22.4699
  333 435.580 1.83428 42.3912
  334 433.908 -3.10735 -8.04817
  335 262.851 -15.8619 36.4301
  336 262.562 -15.9490 -36.7040
  337 405.745 -0.909719 39.9989
  338 252.117 -2.01743 -7.93348
  339 252.278 -1.99863 7.86338
  340 415.455 -9.63028 11.8992
  341 498.537 101.675 -17.1900
  342 412.167 -8.70094 7.80300
  343 439.905 55.1797 35.5767
  344 420.781 -7.85633 41.3094
  345 334.164 -6.23898 1.58571
  346 334.165 -6.27652 -1.59572
  347 398.761 -1.41159 -35.5095
  348 526.423 110.559 10.4783
  349 438.778 80.2839 0.740869
  350 268.602 31.1630 -134.283
  351 28.4488 12.1831 -18.7621
  352 31.1242 13.1869 20.1543
  353 -1.15512 3.21629 7.90764
  354 0.451387 1.87960 -8.27599
  355 763.413 52.9756 18.0949
  356 363.417 -29.4507 -10.7114
  357 415.762 -9.31147 -11.6064
  358 375.703 -6.67338 0.396907
  359 375.660 -6.62128 -0.399476
  360 402.710 44.4843 -18.1308
  361 343.354 -34.9225 30.7546
  362 30.5183 45.5231 -33.7803
  363 343.664 -34.9102 -31.2995
  364 407.897 46.3873 19.2918
  365 415.023 -11.1312 -21.1295
  366 439.901 -24.5978 -25.0870
  367 469.582 98.8927 6.83339
  368 440.849 -27.5891 20.4862
  369 184.644 -4.55037 29.0113
  370 183.564 -4.46199 -29.1918
  371 104.920 2.49977 -40.4315
  372 105.994 2.08923 40.2535
  373 362.352 1.26358 19.2462
  374 680.839 199.930 79.2231
  375 428.755 -2.79109 -10.3029
  376 334.807 -28.1822 -23.6019
  377 334.543 -28.1140 23.5709
  378 412.743 -9.56817 -26.9294
  379 468.865 -22.6640 1.97343
  380 363.404 -29.4256 11.0215
  381 513.596 4.15798 -43.6488
  382 293.583 -2.32162 -1.44713
  383 293.629 -2.30195 1.43751
  384 406.267 -2.38812 -17.2729
  385 220.913 -3.14243 -18.9146
  386 221.048 -3.24447 18.6890
  387 484.427 61.9205 -34.7303
  388 262.409 18.4723 124.834
  389 379.895 -19.9377 1.24123
  390 380.265 -19.9041 -1.25782
  391 446.596 75.4428 -22.4531
  392 422.328 -12.5561 -39.0613
  393 422.701 -43.2474 36.2566
  394 353.706 -9.39248 -2.44414
  395 353.667 -9.34878 2.42202
  396 407.356 -31.4564 12.9170
  397 437.927 -2.16276 5.96453
  398 275.385 -9.94779 -22.2488
  399 275.496 -9.94937 22.0649
  400 414.341 13.9192 -42.7436
  401 390.608 -8.56449 1.88440
  402 390.589 -8.58557 -1.83481
  403 404.586 -4.79051 32.5532
  404 378.145 27.6194 8.73524
  405 418.914 -17.7421 33.9851
  406 603.796 126.141 23.2264
  407 203.920 -10.9587 -58.1488
  408 204.480 -10.9608 57.7160
  409 91.3732 48.7057 -69.9057
  410 447.401 -1.41245 1.60744
  411 230.336 -1.90428 -11.9776
  412 230.637 -1.86397 11.8777
  413 413.048 -10.8267 26.3464
  414 374.769 -40.6510 20.6257
  415 422.398 -5.37173 5.30956
  416 431.290 21.8789 44.4563
  417 95.6927 51.8607 72.8067
  418 375.319 -40.4163 -19.0295
  419 387.743 -36.0223 -4.42398
  420 128.460 -2.57117 -36.5788
  421 129.396 -2.66521 36.3317
  422 298.165 -23.9645 -87.4451
  423 444.687 -6.69061 37.1965
  424 297.073 -24.3115 86.6904
  425 411.063 -23.1310 -21.7161
  426 383.311 25.9263 -19.1050
  427 411.118 -17.8285 20.6757
  428 441.333 -2.07018 -3.98234
  429 13.7544 14.8695 6.90029
  430 90.3470 104.843 103.084
  431 396.524 -1.45139 16.6993
  432 334.542 4.66415 8.36137
  433 340.168 5.66491 -11.3320
  434 290.228 -4.72343 -7.73480
  435 290.261 -4.66359 7.68669
  436 405.296 -31.4347 -11.7633
  437 409.912 -8.06007 -36.3883
  438 336.276 6.40043 -3.07737
  439 603.420 143.883 31.0782
  440 84.8962 27.8894 -52.4326
  441 93.4757 25.5912 55.9527
  442 379.543 -13.5566 1.26633
  443 379.402 -13.5269 -1.16803
  444 505.672 111.355 -1.32615
  445 314.088 132.130 197.938
  446 485.220 -6.67929 -5.29836
  447 281.104 -14.5533 -30.1805
  448 281.238 -14.4554 29.9323
  449 283.273 -6.24129 11.9942
  450 283.218 -6.28633 -12.0985
  451 381.005 8.52525 -30.9498
  452 449.617 -0.731466 -1.05755
  453 370.728 17.0965 17.4160
  454 466.375 57.5447 37.9588
  455 388.524 -28.8334 -2.87289
  456 422.218 -5.12130 -5.16320
  457 443.104 -1.88385 3.66680
  458 448.306 -0.786436 0.603302
  459 448.651 -0.876234 -0.436008
  460 250.725 -0.425804 2.94924
  461 250.598 -0.432279 -2.97860
  462 424.621 -27.0480 26.2587
  463 384.614 15.2352 29.9785
  464 401.437 1.64463 -39.0499
  465 418.199 -8.91124 15.6079
  466 598.774 103.376 -119.435
  467 419.369 -23.3296 -29.5740
  468 4.62331 8.03653 3.61649
  469 4.56370 8.18910 -1.53898
  470 333.338 -18.7818 13.4485
  471 332.245 -18.5256 -13.2784
  472 518.876 10.4578 64.8628
  473 145.864 134.400 -150.685
  474 414.145 -1.29889 12.9134
  475 467.682 -27.1447 -37.3950
  476 251.704 -14.3958 42.1346
  477 502.352 89.1539 -24.7395
  478 413.364 -22.4358 24.7086
  479 347.923 -16.5614 -6.86756
  480 348.228 -16.2899 6.85031
  481 362.266 1.96771 -16.9885
  482 250.926 -14.3370 -42.3857
  483 371.191 0.206635 17.0596
  484 354.327 -40.5555 -54.5655
  485 353.447 -40.6173 54.7756
  486 426.415 -2.89228 11.3844
  487 389.110 36.7341 3.60901
  488 392.525 7.08641 135.745
  489 578.068 117.272 -0.733021
  490 399.856 -6.85482 2.30210
  491 399.876 -6.83063 -2.39203
  492 309.328 -5.42284 -4.95701
  493 309.352 -5.37864 4.93972
  494 163.777 7.38412 76.1978
  495 415.257 -20.0615 -29.0148
  496 376.880 -8.25922 0.0969310
  497 376.842 -8.23165 -0.0897575
  498 328.665 -34.7389 44.6436
  499 166.904 9.77827 -78.1138
  500 415.632 -33.9237 -13.5016
  501 7.40717 2.02690 2.83541
  502 365.314 18.9660 1.27839
  503 401.244 -4.77352 -0.746613
  504 401.237 -4.83631 0.727407
  505 328.846 -34.6756 -44.9842
  506 468.126 -23.9444 47.3760
  507 465.050 16.8873 38.4494
  508 428.733 -3.04368 -2.52656
  509 414.365 -34.3971 13.7150
  510 262.630 -0.224657 -0.538408
  511 262.693 -0.222373 0.534241
  512 414.065 -15.9532 -31.0745
  513 401.966 29.7646 32.7466
  514 459.404 11.3513 -37.9991
  515 261.033 -0.386921 -1.66177
  516 261.106 -0.381391 1.65096
  517 795.453 114.950 -102.593
  518 418.077 49.7509 28.7869
  519 429.093 -2.81936 2.24506
  520 388.589 -36.8199 5.36566
  521 327.874 -10.7727 7.47439
  522 327.868 -10.8532 -7.45914
  523 451.372 -27.5555 10.6514
  524 434.426 -8.73673 -39.3710
  525 485.882 95.5504 21.0061
  526 404.905 6.98702 40.5073
  527 407.267 -7.94736 4.66294
  528 395.586 -42.2962 -52.7426
  529 411.090 -10.2266 30.7345
  530 785.721 36.1049 -14.3457
  531 447.997 -33.8319 0.605430
  532 426.074 -2.96109 -0.572061
  533 426.178 -3.14118 0.493228
  534 793.908 53.2501 50.1845
  535 395.016 -0.107715 34.4532
  536 550.274 93.0602 -7.19292
  537 414.560 -11.3695 -15.1036
  538 190.091 -1.75171 -12.9298
  539 190.663 -1.66708 12.8011
  540 281.885 -26.3632 -60.7981
  541 282.119 -25.9223 60.3550
  542 407.041 -7.62576 -4.62507
  543 443.319 16.2526 -43.1893
  544 389.663 -26.5122 4.36830
  545 419.892 48.1233 -29.8468
  546 421.950 -4.98950 15.3166
  547 527.028 26.9165 -7.88376
  548 361.794 -12.3898 -2.24332
  549 361.688 -12.3492 2.21942
  550 392.374 -18.5498 6.06914
  551 576.116 114.907 -10.6866
  552 413.936 18.1133 42.0597
  553 177.578 45.6161 112.488
  554 398.340 -23.8755 91.1359
  555 524.109 26.5065 -100.703
  556 423.154 34.9855 -39.0929
  557 374.366 -32.4367 -79.0809
  558 405.603 -44.4979 -16.5171
  559 423.232 -42.9280 -23.8095
  560 56.1967 73.4295 -69.5480
  561 425.511 -5.50203 -9.27807
  562 638.419 124.021 -36.8390
  563 394.434 -17.8070 -6.86758
  564 397.596 -13.0089 5.67410
  565 397.230 -12.7173 -5.42884
  566 276.811 -1.54615 -3.68075
  567 276.873 -1.52621 3.65756
  568 40.4663 4.06246 -22.4017
  569 42.6030 4.26227 22.9126
  570 206.240 -9.52416 -44.3272
  571 207.785 -9.57704 44.2668
  572 403.076 -21.8882 -13.4603
  573 410.271 -44.6812 17.8073
  574 421.698 -40.0987 1.43271
  575 347.103 -6.13897 -1.37296
  576 347.084 -6.09665 1.36616
  577 328.731 -34.5253 -67.6645
  578 367.275 -30.1963 83.6083
  579 320.887 -32.4767 68.0313
  580 414.968 -9.24792 -39.0737
  581 262.300 -4.29644 13.4313
  582 262.171 -4.34074 -13.5384
  583 396.515 21.9627 -32.9079
  584 396.789 -0.698320 -15.1536
  585 494.646 107.084 -9.37078
  586 324.536 -4.87621 -1.32730
  587 324.547 -4.84482 1.32134
  588 422.000 -1.27694 -8.47561
  589 293.311 -9.81494 -14.9607
  590 293.323 -9.78202 14.8356
  591 238.893 10.8882 107.503
  592 410.721 -18.9541 -20.8907
  593 230.479 -12.2625 77.2890
  594 403.630 -20.9601 13.7761
  595 424.422 -6.09796 10.2669
  596 418.928 -3.97150 -2.21581
  597 296.895 -3.61976 -3.45111
  598 296.935 -3.59061 3.43429
  599 474.577 94.5714 -19.0018
  600 230.311 -11.8111 -77.5690
  601 402.274 -17.4751 -10.9488
  602 363.493 -6.78857 -0.715484
  603 363.456 -6.74029 0.712684
  604 677.709 91.0861 -16.2236
  605 243.474 -1.53216 7.39391
  606 243.266 -1.54695 -7.46053
  607 376.597 8.69439 28.2566
  608 534.211 45.2932 -4.32408
  609 254.413 1.60823 -106.670
  610 131.474 3.21386 -58.3664
  611 132.540 2.47920 58.0589
  612 319.544 -18.5523 18.6329
  613 322.814 -19.0993 -18.1241
  614 540.992 109.136 8.10843
  615 417.254 -4.11149 1.98897
  616 360.699 10.2339 -17.0877
  617 447.761 80.3254 17.7653
  618 446.211 83.3466 -11.8168
  619 366.665 -20.2930 -3.60842
  620 369.414 -19.8427 2.30919
  621 262.549 57.4091 -153.012
  622 316.178 -10.7424 -10.4124
  623 316.207 -10.6214 10.3790
  624 791.541 162.135 122.165
  625 414.325 -13.6196 33.6069
  626 238.744 -8.36849 -28.3926
  627 638.053 151.050 102.262
  628 239.291 -8.32321 28.2898
  629 395.016 -15.0153 -106.236
  630 281.794 -1.34725 -1.35567
  631 281.849 -1.33564 1.34915
  632 348.158 3.17534 14.9117
  633 159.607 -2.34913 -25.4717
  634 160.465 -2.35528 25.2773
  635 361.994 -25.5759 8.32490
  636 379.317 -30.3549 -2.92699
  637 445.581 -1.02012 -3.38066
  638 254.811 -0.393837 2.18869
  639 254.712 -0.400971 -2.21022
  640 342.018 -7.70001 -2.14876
  641 342.006 -7.65831 2.13397
  642 390.919 -43.4378 53.2647
  643 449.740 50.1961 -39.1318
  644 300.692 -13.9338 -19.2692
  645 300.486 -13.7003 19.1342
  646 355.407 -25.5100 -11.3182
  647 557.942 121.256 4.26435
  648 419.241 -40.6141 0.851019
  649 364.846 -8.76669 -1.14242
  650 364.793 -8.72537 1.14223
  651 500.223 54.8886 28.7745
  652 420.251 -6.14338 -16.6441
  653 373.280 -0.430413 -13.8865
  654 173.857 -5.94531 -55.7982
  655 174.376 -6.10775 55.3535
  656 354.413 -30.5214 -17.9013
  657 530.382 116.478 0.142568
  658 412.519 55.8238 -12.9669
  659 275.334 -2.46187 -6.74350
  660 275.401 -2.42784 6.69202
  661 384.082 -10.9145 -1.39915
  662 384.156 -10.9245 1.47834
  663 710.829 92.7056 40.9148
  664 451.903 -1.28353 0.887796
  665 437.511 -1.78573 5.85587
  666 435.884 -1.80969 -6.89569
  667 414.228 -38.6022 5.20667
  668 306.839 -3.53257 -1.72390
  669 306.871 -3.50798 1.71660
  670 443.343 70.9569 27.4035
  671 567.142 125.885 -8.41762
  672 312.110 -23.0999 -27.2949
  673 312.029 -22.8763 27.1629
  674 388.982 -40.0727 -9.10569
  675 410.995 24.4438 -39.6114
  676 485.916 1.34759 15.6485
  677 324.681 -6.00867 -3.48265
  678 324.693 -5.97116 3.46928
  679 280.839 -24.5820 -54.8893
  680 410.342 -39.7188 -1.44827
  681 341.639 -37.8784 49.2002
  682 164.109 51.6685 -108.582
  683 319.530 -29.5360 37.9588
  684 385.515 0.107270 12.8024
  685 281.104 -24.3052 54.5299
  686 402.044 -17.8085 11.0840
  687 319.623 -29.4095 -38.2953
  688 329.087 4.35448 3.13346
  689 254.674 -6.77204 20.2260
  690 254.449 -6.77810 -20.3627
  691 341.803 -38.8591 -49.7415
  692 421.841 -27.8427 -25.3716
  693 387.099 -5.52827 -0.378815
  694 387.161 -5.58362 0.380712
  695 430.979 -27.5183 25.0210
  696 391.923 -40.9582 10.6874
  697 475.781 43.6739 37.3974
  698 429.650 -8.09845 40.6680
  699 413.443 -14.9000 24.5913
  700 396.143 32.6093 -24.9635
  701 475.107 79.8244 29.6417
  702 410.417 -5.70850 -24.0915
  703 408.588 -13.6211 12.3692
  704 423.452 66.2191 7.00102
  705 415.864 -7.10894 20.8764
  706 131.705 89.7532 113.928
  707 386.886 -44.5260 -31.1468
  708 447.924 8.11203 41.2275
  709 451.890 -14.0128 -28.8156
  710 449.961 -0.658668 1.84123
  711 413.056 -14.2645 -19.2430
  712 387.471 -44.8743 28.3804
  713 744.448 65.9595 -11.0195
  714 233.676 -0.977503 7.73431
  715 233.402 -0.988080 -7.80466
  716 418.613 -7.70973 -8.82562
  717 452.574 -0.506833 -1.80290
  718 353.785 -31.0176 17.9936
  719 424.151 -15.8327 36.8362
  720 640.608 154.507 -49.8706
  721 402.037 -29.1624 11.1105
  722 445.099 -29.3589 -14.1167
  723 408.733 -13.2612 -12.1687
  724 452.242 -0.849128 -0.557271
  725 414.458 -0.0557520 42.5836
  726 19.3914 18.9269 24.8422
  727 465.372 -17.6392 -69.8240
  728 506.995 30.3228 17.2313
  729 422.832 -43.2545 21.3891
  730 303.597 -7.22735 8.51315
  731 303.593 -7.32672 -8.55196
  732 391.047 202.599 -207.809
  733 431.149 -28.5750 -23.0232
  734 327.829 1.79921 -5.99176
  735 380.424 2.14308 27.5047
  736 416.234 -20.8770 29.4774
  737 398.958 -33.6213 5.00295
  738 414.027 -37.8137 -57.2506
  739 396.559 -31.3785 -5.78054
  740 467.359 -22.3669 -3.58571
  741 430.578 -3.62648 5.12703
  742 385.265 -23.1445 2.76192
  743 695.726 139.035 -74.5404
  744 410.466 -11.0700 9.75946
  745 407.015 6.68335 -41.5821
  746 346.518 -3.81356 119.325
  747 435.632 35.0508 42.2891
  748 374.789 -29.4778 4.83905
  749 290.455 -22.7887 -40.1682
  750 290.490 -22.7286 39.8512
  751 399.286 44.9117 -5.80675
  752 405.527 -4.70835 37.0139
  753 409.697 -9.77927 -31.4344
  754 385.698 -23.6226 -2.87827
  755 373.028 -33.3939 10.4712
  756 426.666 70.2922 -7.87865
  757 398.473 -34.4899 -3.43438
  758 399.488 -25.3087 10.8632
  759 404.459 -5.30805 1.61779
  760 404.699 -5.16891 -1.60458
  761 543.967 119.128 1.92339
  762 444.399 -37.8413 -14.6970
  763 414.301 -12.7518 19.1843
  764 430.698 -3.61939 -4.64967
  765 436.076 2.87119 -42.8032
  766 495.406 26.2408 -24.0450
  767 246.204 -0.216749 -3.62685
  768 246.365 -0.213355 3.59198
  769 3.65171 -7.20608 -5.05405
  770 423.009 -0.525497 7.84083
  771 388.840 -0.594481 -30.3713
  772 401.238 -3.76217 26.6726
  773 364.227 45.9537 174.458
  774 456.555 93.6238 -0.952647
  775 325.281 -23.1823 21.4288
  776 58.5382 1.25328 -22.0409
  777 60.1507 0.917458 22.2730
  778 397.786 -2.82611 -30.1360
  779 326.137 -23.4095 -21.4280
  780 428.180 -3.97682 3.85381
  781 221.315 -9.38239 37.8150
  782 219.451 -9.34821 -37.8236
  783 410.434 -10.7525 -9.50198
  784 264.378 -6.59154 -17.6246
  785 264.510 -6.54934 17.4744
  786 427.244 -4.11290 -11.4545
  787 327.781 -8.70976 -5.97963
  788 327.794 -8.65457 5.98215
  789 466.276 -2.93676 -28.7577
  790 420.493 -4.42543 -42.6315
  791 216.363 -1.35853 -9.83720
  792 216.770 -1.34583 9.72640
  793 11.6193 5.38411 -13.5364
  794 13.4829 5.68357 14.2303
  795 342.962 1.67233 -10.8268
  796 383.834 -43.1230 -23.4208
  797 -4.36123 -2.99732 7.57961
  798 -3.84334 -3.57621 -7.55985
  799 399.363 -8.10224 3.51048
  800 432.748 -33.8274 -12.4622
  801 447.695 66.2714 -31.9369
  802 429.964 -3.58342 -3.66706
  803 909.246 184.456 -170.762
  804 399.279 -8.07802 -3.46319
  805 599.645 113.986 9.66828
  806 427.744 12.4422 -44.5008
  807 471.774 35.6454 -38.3527
  808 81.3367 -0.950782 -20.3056
  809 82.7658 -1.06743 20.2707
  810 268.892 -3.82274 10.4802
  811 268.794 -3.85402 -10.5693
  812 257.351 -0.583992 1.96912
  813 257.269 -0.590184 -1.98409
  814 477.466 80.3308 -29.3374
  815 284.524 -1.73156 -2.92824
  816 284.577 -1.71186 2.91287
  817 406.763 -4.09532 -38.6523
  818 582.669 61.2416 52.5008
  819 367.285 8.28812 -23.7768
  820 128.887 -1.14119 21.6914
  821 127.841 -1.15189 -21.8573
  822 470.083 13.4868 125.639
  823 418.214 -7.77243 9.10868
  824 375.882 25.0203 -9.90077
  825 175.551 -0.262357 14.7467
  826 174.686 -0.181778 -14.8519
  827 262.500 -1.30224 -5.15027
  828 262.597 -1.28355 5.10510
  829 47.3198 42.0097 36.7407
  830 391.389 9.37912 35.2549
  831 434.961 63.8392 -27.4714
  832 467.234 54.2573 -38.3051
  833 308.594 -11.5735 -13.5751
  834 308.422 -11.4899 13.5600
  835 484.277 102.794 13.2193
  836 417.172 -3.59645 -0.462453
  837 417.200 -3.56990 0.531275
  838 413.550 -12.4599 -24.8654
  839 347.142 -23.0553 12.7361
  840 381.532 -42.8653 23.5096
  841 447.165 -36.6353 36.4641
  842 344.254 -9.96316 -3.67284
  843 344.253 -9.92773 3.65035
  844 393.916 36.5434 16.0491
  845 370.567 5.12667 -25.6607
  846 102.908 123.970 118.565
  847 374.175 -33.1188 -9.55803
  848 375.486 -16.7777 0.196059
  849 375.685 -16.8153 -0.218155
  850 413.042 -6.10618 40.5606
  851 409.170 -26.9221 -17.9642
  852 365.957 -24.1798 -5.49188
  853 824.492 26.6860 -40.5227
  854 348.038 -32.8521 24.4382
  855 347.752 -33.2741 -24.8215
  856 412.474 -4.96114 20.4755
  857 618.115 160.185 -37.5697
  858 326.889 -29.5990 -30.2838
  859 360.499 -40.5478 29.0128
  860 326.815 -29.2467 30.0240
  861 354.162 -14.2229 -4.28727
  862 354.155 -14.1776 4.25916
  863 53.3776 22.4098 31.8890
  864 443.210 33.1068 -42.6918
  865 340.158 -13.2226 -6.58251
  866 340.222 -13.0918 6.60501
  867 336.110 -5.55204 -0.801455
  868 336.107 -5.51516 0.796546
  869 368.875 -7.38245 -0.275200
  870 368.831 -7.33580 0.272162
  871 301.260 -5.83525 -7.35007
  872 301.287 -5.77097 7.32119
  873 341.368 -17.8816 -9.83645
  874 341.414 -17.7634 9.87965
  875 8.46247 -2.14694 -4.52827
  876 512.666 96.2119 21.1198
  877 441.202 -15.5228 -33.6800
  878 360.186 -39.9572 -29.3068
  879 388.823 -12.5767 3.07647
  880 388.654 -12.4505 -2.97293
  881 424.072 0.502834 43.5652
  882 459.480 -32.7663 -20.8833
  883 406.025 29.6146 -151.553
  884 186.967 -3.16106 75.2222
  885 -6.15979 4.35870 -5.40033
  886 -5.27045 4.92359 5.94525
  887 53.0572 23.8310 -32.5682
  888 414.028 -11.9776 14.9982
  889 434.939 -2.93293 -6.28862
  890 391.430 -37.7254 65.5033
  891 186.529 -2.97375 -75.5137
  892 436.191 -35.7768 8.25196
  893 484.286 -13.9394 57.5678
  894 355.089 1.45297 11.4690
  895 405.692 38.5980 27.2815
  896 220.750 -12.4037 55.2112
  897 219.906 -12.5033 -55.5663
  898 264.646 -12.4952 -30.9998
  899 276.578 -13.6869 -95.7736
  900 436.800 -10.2697 38.1180
  901 597.921 141.285 23.9353
  902 438.836 16.8461 43.5361
  903 414.770 -8.90279 -22.7322
  904 282.322 -12.2611 98.1443
  905 527.707 97.4670 -14.8536
  906 53.3188 45.1380 -45.1762
  907 384.473 -0.752856 -12.2119
  908 264.922 -12.3939 30.7333
  909 322.169 -7.05677 5.25227
  910 322.157 -7.10361 -5.26291
  911 409.757 -26.7774 18.5836
  912 424.645 -2.82889 1.42972
  913 312.953 2.80197 -118.859
  914 447.328 -1.03173 2.97061
  915 444.204 -0.853323 -3.82719
  916 335.387 2.95051 -9.97094
  917 430.002 -1.76978 -6.93409
  918 323.063 -15.0221 -12.6336
  919 323.279 -14.8004 12.6737
  920 -10.3333 4.01149 -5.90663
  921 -14.3888 2.42049 6.30592
  922 424.627 -2.63488 -1.46116
  923 142.693 -3.26455 50.7917
  924 141.865 -2.96662 -51.0735
  925 454.877 66.2757 33.6445
  926 805.429 14.5778 12.4862
  927 428.530 47.6194 35.6415
  928 483.121 -16.8404 17.4602
  929 421.203 -23.4985 29.6180
  930 524.035 109.716 -11.3371
  931 328.440 1.45604 7.51995
  932 405.127 -9.62129 -5.74511
  933 421.673 22.6785 -43.1539
  934 507.281 15.3322 -6.43555
  935 395.215 -24.4202 -8.35346
  936 204.581 -1.11609 -10.9980
  937 204.782 -1.07639 10.8459
  938 416.762 -9.86174 -17.6442
  939 14.3376 18.0402 4.22281
  940 400.104 -41.4876 -5.24510
  941 349.010 10.4300 -1.02724
  942 520.688 114.166 -7.51771
  943 83.3405 61.9133 -74.3752
  944 401.258 -2.99248 -23.8992
  945 279.837 -4.60551 -9.81895
  946 279.895 -4.55209 9.73996
  947 2.54896 -11.2515 8.50967
  948 273.606 -20.2715 -44.4765
  949 407.658 -23.6028 -17.4743
  950 256.582 0.553457 -0.821744
  951 256.650 0.555913 0.816537
  952 412.711 50.0647 -21.8106
  953 440.122 -1.40615 -0.598136
  954 440.141 -1.42296 0.790608
  955 273.735 -20.2184 44.1848
  956 412.961 -0.596041 -9.40926
  957 473.869 3.44809 27.5857
  958 420.590 -6.03467 6.99731
  959 68.5907 17.1184 -40.0329
  960 435.779 -2.72516 5.68603
  961 397.103 3.23687 37.6831
  962 418.754 57.9460 19.3968
  963 418.461 4.84928 -44.0977
  964 289.617 -15.4159 -26.7061
  965 450.603 -16.0243 27.7546
  966 289.807 -15.3588 26.4455
  967 13.7228 14.7922 -1.83658
  968 50.7204 8.50982 29.3612
  969 237.418 -4.13898 18.2467
  970 237.133 -4.14123 -18.3455
  971 405.414 -9.79834 6.07323
  972 436.923 75.8495 10.6814
  973 222.785 20.2416 -112.725
  974 365.291 -22.7593 4.84663
  975 342.928 -35.7969 -36.4499
  976 498.843 95.4889 22.3767
  977 384.102 -6.85166 0.349852
  978 384.086 -6.81553 -0.353018
  979 420.295 -7.85701 -12.5763
  980 390.308 33.7467 -14.8016
  981 869.298 260.108 175.243
  982 82.7787 4.53281 -38.3901
  983 84.0221 3.76373 38.4705
  984 6.16134 -6.89940 2.50939
  985 391.361 21.7435 30.3829
  986 342.852 -36.0173 36.1886
  987 424.140 -20.0829 -33.8700
  988 461.336 37.6881 41.8398
  989 442.441 -35.7312 -44.4667
  990 645.401 135.699 45.7709
  991 377.232 -6.16723 -0.243034
  992 377.183 -6.11786 0.243094
  993 440.778 -18.0333 31.8626
  994 30.7960 52.9158 53.8772
  995 200.908 -4.16860 26.0962
  996 200.298 -4.11491 -26.3662
  997 239.049 -11.6051 35.7330
  998 238.239 -11.4252 -35.8609
  999 268.946 -10.9979 25.7421
  1000 294.032 -2.28847 -1.31562
  1001 294.077 -2.27177 1.31050
  1002 721.119 232.807 -149.336
  1003 656.971 164.766 68.8943
  1004 268.728 -11.0522 -25.9509
  1005 453.940 -2.13007 35.2129
  1006 407.599 42.2964 -26.2449
  1007 288.022 -24.8410 79.4505
  1008 369.053 -43.6169 -43.2850
  1009 421.625 -3.50490 -13.7061
  1010 191.374 12.9444 91.9071
  1011 245.504 -18.7341 63.4710
  1012 374.497 19.2777 -19.0612
  1013 426.526 -8.48581 -41.1702
  1014 536.603 224.930 236.506
  1015 354.285 10.9255 13.5992
  1016 479.688 103.030 -1.60185
  1017 351.426 13.9718 -134.956
  1018 358.637 -37.6788 -25.0964
  1019 452.872 -0.546232 -1.46517
  1020 436.639 40.0859 -41.1788
  1021 258.261 -1.62606 6.59893
  1022 258.139 -1.64247 -6.65829
  1023 9.58738 6.28676 -14.2763
  1024 289.924 -13.1342 -22.2882
  1025 245.201 -18.9744 -63.9372
  1026 289.713 -13.1069 22.0515
  1027 417.071 -12.7327 38.0815
  1028 374.408 -23.1110 -1.54300
  1029 393.903 7.28243 -36.5353
  1030 405.390 50.6175 7.66452
  1031 545.469 33.8625 21.8737
  1032 412.860 -31.3982 17.5583
  1033 262.615 -20.9086 -48.6630
  1034 390.706 13.8795 -34.2386
  1035 290.461 -24.5159 -79.8525
  1036 555.716 120.215 -2.58165
  1037 380.155 25.0247 17.3413
  1038 477.332 -2.73514 -20.7087
  1039 360.857 -37.7001 23.1813
  1040 413.157 -13.1397 29.3354
  1041 410.303 -21.6988 20.7341
  1042 408.046 -20.5610 17.8798
  1043 503.073 64.0620 -29.6472
  1044 407.982 -6.60347 29.9793
  1045 368.483 -43.7383 42.5906
  1046 393.303 -16.1162 5.50476
  1047 262.782 -20.9505 48.4026
  1048 369.685 -27.1812 -5.86772
  1049 216.142 -10.5375 -67.8696
  1050 307.122 -31.8426 54.0044
  1051 415.240 -2.85576 -15.9677
  1052 404.862 -4.57811 -34.1630
  1053 350.924 -27.6747 -15.5022
  1054 216.510 -10.8346 67.3520
  1055 378.477 0.951836 -23.9030
  1056 282.124 -18.6059 -34.5201
  1057 507.957 107.889 13.9494
  1058 114.713 18.7554 -64.8653
  1059 858.795 60.6376 82.2080
  1060 204.750 15.0499 -96.1551
  1061 407.893 -33.8121 -10.3210
  1062 282.205 -18.4497 34.2471
  1063 374.590 4.02358 26.7718
  1064 211.703 -4.23934 21.6100
  1065 211.599 -4.34359 -21.8241
  1066 413.278 -11.5261 -35.3281
  1067 438.075 -2.29841 2.25368
  1068 430.329 -1.00133 6.99609
  1069 426.317 14.1274 44.4276
  1070 399.288 -3.00390 32.1400
  1071 308.749 33.0715 145.894
  1072 455.671 -0.386072 0.690569
  1073 429.575 58.1490 28.3599
  1074 364.832 5.35045 23.0939
  1075 435.532 -1.69575 6.69972
  1076 282.545 -2.97349 -5.51679
  1077 282.598 -2.93991 5.48287
  1078 180.613 -5.07441 -36.0634
  1079 181.302 -5.25755 35.8268
  1080 366.013 18.3409 9.70201
  1081 546.972 30.1927 -42.0616
  1082 502.660 0.0159183 -77.7064
  1083 403.340 -0.371172 -9.78535
  1084 307.221 -32.0788 -54.4056
  1085 351.664 -26.3231 13.9249
  1086 405.607 -0.940002 10.2082
  1087 423.839 -30.8015 -20.8079
  1088 267.190 -0.581792 3.27257
  1089 267.119 -0.592320 -3.29198
  1090 407.121 -34.7799 10.3120
  1091 387.144 -7.98667 0.885608
  1092 387.078 -7.99521 -0.861973
  1093 376.820 -37.9140 15.0263
  1094 483.975 -15.5337 -6.85804
  1095 222.195 -0.385160 -6.13161
  1096 222.549 -0.371731 6.06887
  1097 330.690 -21.0179 -91.4954
  1098 352.434 -8.40742 2.05814
  1099 352.465 -8.45231 -2.07464
  1100 212.774 115.186 160.340
  1101 486.787 40.0336 -33.7947
  1102 72.8262 35.2064 -49.3953
  1103 420.807 -6.36097 -6.75667
  1104 113.691 38.7077 -74.4193
  1105 235.899 -14.7579 -46.1625
  1106 455.694 -0.545851 0.446888
  1107 455.859 -0.514967 -0.326063
  1108 414.430 -23.6995 -25.2803
  1109 366.926 -41.2369 -59.1737
  1110 114.794 15.9668 61.8094
  1111 451.002 44.6126 39.9056
  1112 408.836 -4.23579 -0.573710
  1113 408.886 -4.23837 0.611251
  1114 445.696 -28.5568 71.8420
  1115 462.221 92.3520 15.2805
  1116 276.073 -6.57123 -14.0174
  1117 276.145 -6.54132 13.9220
  1118 209.013 23.7521 113.815
  1119 392.914 2.02610 -35.3362
  1120 124.010 39.7365 79.9361
  1121 501.802 -8.33390 -25.3157
  1122 494.886 109.056 4.54018
  1123 340.969 -26.8841 18.6980
  1124 316.540 1.73240 -1.46681
  1125 431.255 -3.85039 8.50152
  1126 446.085 -0.602748 3.30740
  1127 99.9659 0.166717 -18.1878
  1128 101.276 0.120025 18.0673
  1129 353.754 5.98566 -17.1222
  1130 363.328 -10.6844 -1.63771
  1131 363.249 -10.6367 1.62938
  1132 38.4964 62.6930 -57.3831
  1133 60.8806 135.019 -113.726
  1134 367.878 -14.3606 1.44610
  1135 368.016 -14.3568 -1.46801
  1136 379.882 -9.19746 0.894784
  1137 379.829 -9.17964 -0.864364
  1138 100.436 64.0472 80.5762
  1139 301.251 -3.67695 -2.68046
  1140 301.288 -3.65095 2.66842
  1141 378.223 28.6460 -0.398157
  1142 477.806 61.9169 -168.249
  1143 460.031 79.2231 -26.1994
  1144 419.508 -16.1401 -35.9055
  1145 413.184 -20.6479 -25.7350
  1146 341.157 -27.1320 -19.0040
  1147 344.486 1.15285 10.5693
  1148 386.493 24.1461 -25.4059
  1149 381.209 20.5554 24.2850
  1150 393.048 -15.6520 -5.39778
  1151 375.354 -22.6503 1.25944
  1152 341.712 -21.9998 -14.1242
  1153 406.379 -2.40500 19.0109
  1154 713.274 71.9357 10.0060
  1155 409.042 -8.74116 34.6182
  1156 410.761 26.9715 38.0689
  1157 378.571 -37.2189 -11.4769
  1158 48.1207 7.81459 -28.3304
  1159 385.664 -17.8561 -3.62277
  1160 258.409 -0.384024 -0.168287
  1161 258.471 -0.382374 0.166581
  1162 468.848 -12.4407 17.5083
  1163 446.737 -37.6387 17.4138
  1164 640.826 114.554 28.4265
  1165 155.688 -0.303028 -15.1172
  1166 156.589 -0.269738 15.0067
  1167 345.010 -6.97911 -1.65849
  1168 344.994 -6.93683 1.64715
  1169 386.824 -34.1059 -1.91878
  1170 319.315 1.47645 4.80613
  1171 396.082 -28.2065 7.83899
  1172 22.8068 27.0961 -13.5792
  1173 72.0492 35.7030 48.2873
  1174 265.681 -14.5323 88.4149
  1175 458.377 87.1769 -18.7153
  1176 437.092 -1.23370 -5.29526
  1177 457.590 -0.756554 0.289529
  1178 458.017 -1.02167 -0.177187
  1179 268.626 -0.610910 -0.545181
  1180 268.688 -0.606011 0.541316
  1181 422.495 26.9988 43.1387
  1182 622.768 106.151 -2.26064
  1183 435.436 71.9066 -19.1655
  1184 325.376 -24.0020 90.9137
  1185 264.270 -13.9815 -88.2433
  1186 294.146 -19.5928 -30.9988
  1187 405.672 -11.4014 7.81331
  1188 565.251 124.733 6.19254
  1189 294.177 -19.4783 30.7620
  1190 414.321 -7.32111 5.91108
  1191 371.421 13.8592 23.1880
  1192 408.530 12.6682 41.5036
  1193 580.125 129.489 14.9301
  1194 345.648 -9.00857 3.08169
  1195 345.664 -9.05063 -3.10216
  1196 419.780 -7.95201 13.0677
  1197 250.926 -2.64590 10.3195
  1198 250.750 -2.67246 -10.4100
  1199 410.541 -5.67281 -2.57328
  1200 169.528 101.234 -155.238
  1201 355.554 -20.0796 -97.3628
  1202 336.319 -10.5066 -5.61165
  1203 336.354 -10.4602 5.61371
  1204 439.808 -2.13988 2.05427
  1205 416.713 -5.54324 4.71827
  1206 23.1374 29.3362 21.7145
  1207 452.662 -0.534758 1.71509
  1208 54.4490 69.4027 68.8536
  1209 407.138 -6.16599 -3.32318
  1210 -0.462216 -9.91621 -8.69872
  1211 288.702 -28.1827 -68.4887
  1212 287.922 -27.5011 67.8117
  1213 452.644 -0.821557 -1.90217
  1214 388.087 -20.4816 -4.37591
  1215 439.513 -1.95931 -2.09183
  1216 353.104 -11.4128 -3.02778
  1217 353.071 -11.3724 2.99641
  1218 410.281 -5.63402 2.41179
  1219 385.389 -17.5049 3.58501
  1220 370.996 -11.9518 0.373213
  1221 371.125 -11.9827 -0.329878
  1222 439.121 -2.01889 -1.70382
  1223 379.550 -40.0083 -66.6720
  1224 429.827 -2.74095 -1.72720
  1225 408.854 -6.33473 3.58945
  1226 287.031 -3.10119 -4.10380
  1227 287.081 -3.07112 4.08083
  1228 319.949 -4.68030 -2.13535
  1229 319.967 -4.64879 2.12521
  1230 515.900 80.5702 24.5915
  1231 433.714 -33.3778 15.1075
  1232 297.870 -1.44635 112.265
  1233 240.596 -0.390511 3.96365
  1234 240.395 -0.394787 -4.00196
  1235 411.466 -7.62582 25.9582
  1236 393.620 -6.03416 0.629790
  1237 393.635 -6.01434 -0.629435
  1238 451.145 87.6648 8.76419
  1239 412.242 -43.1947 53.0564
  1240 240.765 -3.36349 14.4540
  1241 240.530 -3.38844 -14.5569
  1242 393.083 -9.64778 2.74693
  1243 392.995 -9.71506 -2.65935
  1244 405.451 -11.2651 -7.51891
  1245 373.867 0.0832114 12.3697
  1246 642.322 159.691 -53.9410
  1247 413.082 -15.1576 -22.7583
  1248 71.7298 16.9038 41.1434
  1249 426.635 -22.7785 31.4617
  1250 344.408 7.59990 -9.37014
  1251 26.7641 19.4172 15.1347
  1252 560.489 63.0558 -6.83328
  1253 416.796 -18.9869 -31.9330
  1254 346.023 4.97837 14.3570
  1255 237.540 -14.7843 46.0911
  1256 423.194 -32.7966 18.4555
  1257 612.318 118.273 38.9927
  1258 143.149 20.9869 78.5857
  1259 425.150 -5.11947 -11.2674
  1260 811.891 9.10711 -8.13095
  1261 838.510 12.5717 36.1849
  1262 894.787 30.3005 -86.1057
  1263 412.664 -12.9177 -28.4871
  1264 412.564 -18.8677 24.0851
  1265 419.057 -29.8630 22.2160
  1266 -12.3023 1.44650 7.77754
  1267 -11.1856 1.16590 -8.47796
  1268 407.710 -45.0935 -25.1752
  1269 417.502 -42.2504 -37.4002
  1270 321.564 2.07708 -5.93150
  1271 405.978 -45.8951 37.2867
  1272 433.906 -20.6178 -31.8974
  1273 8.84887 13.0829 1.77297
  1274 353.437 -6.47237 1.13130
  1275 353.461 -6.51740 -1.13428
  1276 430.926 -3.51769 7.63621
  1277 414.287 -7.19271 -5.54423
  1278 390.418 -42.6189 -13.6380
  1279 357.100 -19.2851 6.19297
  1280 355.318 -19.0124 -6.69652
  1281 418.382 -8.89433 18.0680
  1282 428.801 -15.7883 -36.9001
  1283 27.7662 20.2441 -14.6985
</Section>

newXOutput 57

<Section columns = "stress_xx | stress_yy | stress_xy">
  1 468.188 -0.128648 0.893074
  2 468.197 -0.120415 -0.895563
  3 258.954 -0.0818146 -0.322771
  4 -3.26364 -3.22649 -4.69269
  5 835.548 336.550 268.496
  6 827.843 348.605 -267.725
  7 -3.79105 -3.06464 4.99494
  8 258.892 -0.0827439 0.321929
  9 471.400 -0.797562 0.266425
  10 470.452 -1.25538 -0.247225
  11 469.453 -0.850159 1.01497
  12 468.443 -1.15966 0.258956
  13 466.262 -0.980816 1.59781
  14 464.273 -0.988810 1.15025
  15 459.523 -0.872932 2.30209
  16 452.667 -0.625428 3.39884
  17 446.568 -0.654867 3.79928
  18 437.464 -0.897138 4.61026
  19 424.767 -0.0856239 6.83835
  20 413.041 -0.660704 6.51955
  21 399.602 -0.847477 9.21104
  22 380.202 0.597433 8.03355
  23 366.093 0.919105 9.51383
  24 347.680 1.53841 7.45952
  25 334.911 1.63891 7.52773
  26 316.417 2.27316 3.84259
  27 312.506 3.57542 4.12416
  28 310.147 2.94330 -1.21977
  29 313.358 1.72635 -2.67344
  30 319.276 1.66245 -3.28087
  31 333.134 2.08588 -6.54396
  32 346.594 1.64813 -8.26519
  33 366.289 0.381043 -9.79155
  34 382.036 -0.195792 -8.89483
  35 398.773 -0.672696 -8.71712
  36 413.900 -0.517234 -6.14123
  37 426.852 -0.547235 -5.23662
  38 437.492 -0.879091 -4.37988
  39 446.988 -0.635935 -3.03144
  40 452.873 -0.763612 -3.20754
  41 458.561 -0.926566 -2.34014
  42 463.902 -1.09358 -0.998757
  43 466.628 -0.884407 -1.19308
  44 468.022 -0.557201 -0.733598
  45 466.875 -0.327987 -0.670201
  46 470.910 -1.26097 0.170965
  47 471.534 -0.828652 -0.274634
  48 456.540 -0.424037 -0.553043
  49 446.587 -1.99454 -1.01589
  50 434.387 -2.90967 -0.635283
  51 419.482 -4.26191 -0.878014
  52 405.317 -4.64802 -1.07536
  53 390.172 -5.76467 -1.02755
  54 376.744 -6.38084 -0.547665
  55 364.964 -7.09595 -0.175752
  56 351.364 -5.87765 -0.165827
  57 335.686 -5.47134 -0.313682
  58 320.581 -4.29877 -0.0616593
  59 306.277 -2.72140 -0.00232138
  60 292.691 -1.92468 0.0532849
  61 280.788 -0.967803 0.150289
  62 268.635 -0.245334 -0.367545
  63 259.084 0.366285 0.490359
  64 254.781 0.997885 0.339497
  65 257.639 0.0172615 0.786450
  66 254.301 -0.124302 0.952351
  67 251.174 -0.190345 1.18620
  68 246.947 -0.0132022 1.53753
  69 241.620 -0.00639916 1.93076
  70 237.620 -0.294822 3.69517
  71 226.411 0.330460 4.02979
  72 218.483 -0.0159389 4.59930
  73 206.678 -0.196996 5.22121
  74 193.098 -0.336952 6.35091
  75 176.117 -0.0711430 7.71175
  76 155.418 0.100225 8.51016
  77 137.466 -0.173281 12.1649
  78 102.132 1.12139 11.4960
  79 77.9710 0.966249 12.1784
  80 48.9350 -0.227441 13.5298
  81 24.7408 2.21896 14.0999
  82 -2.84416 3.33478 8.52818
  83 -23.0009 3.39216 3.10109
  84 -22.6182 3.29060 -1.08959
  85 -21.8068 2.74291 -6.52457
  86 -12.8506 -0.848495 -6.23371
  87 -1.55200 -12.3359 -6.88726
  88 1.25122 -22.6732 -8.57098
  89 3.42454 -35.5641 -4.62084
  90 7.57436 -35.8499 0.696948
  91 15.9814 -6.84588 21.4601
  92 47.4117 75.6934 71.8752
  93 275.351 262.622 240.582
  94 1012.28 151.674 168.916
  95 913.073 21.6855 54.8655
  96 849.785 9.02034 16.7897
  97 826.435 7.67490 1.28977
  98 838.858 10.1957 -14.5615
  99 911.126 20.2281 -43.4283
  100 1071.52 73.1556 -145.195
  101 163.803 269.168 -201.506
  102 35.4928 54.8031 -59.6653
  103 17.4625 -5.09212 -22.7553
  104 7.09169 -35.7863 -4.13701
  105 2.03657 -26.9957 5.29373
  106 2.54135 -28.5963 7.42040
  107 0.132316 -10.6484 7.62948
  108 -13.4179 -0.537051 5.90700
  109 -22.4982 2.05914 5.68582
  110 -23.8239 3.99759 1.21624
  111 -23.7372 3.33697 -2.88229
  112 -4.50968 3.41757 -7.99616
  113 23.2763 2.23813 -13.4470
  114 47.4412 0.00932543 -13.3079
  115 76.4284 1.04448 -12.2033
  116 100.731 1.15059 -11.5828
  117 136.379 -0.178313 -12.2659
  118 154.488 0.111237 -8.59160
  119 175.304 -0.0680775 -7.80760
  120 192.682 -0.373887 -6.39734
  121 206.116 -0.186692 -5.23438
  122 218.055 -0.00150933 -4.64634
  123 226.060 0.326499 -4.07332
  124 237.367 -0.297770 -3.73206
  125 241.416 -0.00831061 -1.95340
  126 246.792 -0.0150255 -1.55614
  127 251.055 -0.193364 -1.20094
  128 254.208 -0.126889 -0.962633
  129 257.561 0.0150470 -0.793009
  130 254.712 0.996756 -0.342537
  131 259.019 0.365721 -0.492266
  132 268.571 -0.247861 0.366552
  133 280.728 -0.974135 -0.152628
  134 292.639 -1.93858 -0.0560171
  135 306.237 -2.74072 -0.000307365
  136 320.558 -4.32662 0.0590587
  137 335.681 -5.50655 0.311637
  138 351.379 -5.91842 0.163741
  139 364.995 -7.14167 0.174820
  140 376.786 -6.42644 0.549186
  141 390.234 -5.80617 1.03223
  142 405.370 -4.67662 1.09216
  143 419.522 -4.28750 0.958757
  144 434.465 -2.75587 0.649421
  145 446.900 -1.94383 0.993391
  146 456.621 -0.494969 0.544568
  147 409.733 -38.5029 -1.81679
  148 409.384 -37.9831 1.96182
  149 430.834 61.8466 -20.6513
  150 458.257 26.9934 43.4545
  151 347.222 -33.4842 -77.0185
  152 350.050 -33.4361 74.5678
  153 338.360 -14.2894 9.48951
  154 338.385 -14.4862 -9.49568
  155 485.297 17.5105 -32.6303
  156 408.651 -14.7552 8.48984
  157 408.475 -14.4032 -8.38548
  158 528.198 117.544 4.97443
  159 418.824 -0.668553 -42.7166
  160 310.709 -24.3460 -34.5903
  161 310.724 -24.1453 34.2934
  162 419.424 -9.51802 38.4440
  163 399.263 29.1687 25.5983
  164 165.473 26.3858 -91.9554
  165 183.307 25.0143 96.8676
  166 511.601 6.04418 2.56352
  167 420.251 -16.1620 -26.4772
  168 555.669 122.017 -1.07565
  169 378.827 -10.7160 -0.293018
  170 378.748 -10.6844 0.324751
  171 424.571 -5.24063 -3.68567
  172 425.879 -4.72030 3.17713
  173 299.055 -4.23884 -5.55788
  174 299.095 -4.19537 5.53038
  175 454.956 -11.7387 97.9244
  176 386.712 16.1046 -27.5863
  177 253.326 -18.9314 -55.2846
  178 254.078 -18.7941 54.9328
  179 284.823 -9.25882 -18.1371
  180 284.852 -9.15359 18.0068
  181 422.246 -11.1406 22.5120
  182 384.053 -26.3377 -1.56431
  183 382.720 -26.1419 2.16468
  184 435.787 -42.2195 -8.43036
  185 438.081 -40.2227 3.02593
  186 601.482 141.667 -22.0879
  187 439.218 70.4362 19.2930
  188 439.554 26.9913 -43.8645
  189 453.213 -3.48061 -113.610
  190 435.713 -24.6602 -30.1468
  191 439.480 -17.6232 35.6997
  192 366.720 -41.6202 38.0737
  193 366.795 -41.3231 -37.9613
  194 393.087 5.03906 33.1069
  195 180.734 -4.48319 -67.6776
  196 181.169 -4.85989 67.2717
  197 677.269 101.278 14.7228
  198 412.825 -24.6229 16.1225
  199 427.921 -7.93042 -14.5703
  200 340.444 -8.29764 -4.37442
  201 340.452 -8.25653 4.36127
  202 411.531 -5.35969 -29.6700
  203 468.215 68.6886 -34.8868
  204 392.841 35.3329 -5.12597
  205 256.703 -9.01181 25.4187
  206 256.315 -9.03933 -25.6029
  207 434.010 -4.90319 7.87807
  208 423.647 7.96776 43.9536
  209 344.814 -25.0273 -16.9544
  210 342.533 -23.6947 17.3295
  211 498.575 73.9675 31.5300
  212 584.444 81.0109 15.2677
  213 40.5203 31.4454 -26.2919
  214 37.4955 29.0680 22.3710
  215 241.790 69.4633 161.384
  216 408.710 -27.1777 -12.1579
  217 435.527 -4.70823 -7.11292
  218 388.730 3.45783 -30.4943
  219 273.994 -2.68018 -8.05872
  220 274.083 -2.65016 7.99063
  221 368.336 -17.2553 -3.84462
  222 368.508 -17.3638 3.63692
  223 414.969 -5.61065 25.2075
  224 476.297 -27.5430 12.0314
  225 474.562 96.7878 -10.0594
  226 372.155 -35.8988 -18.2941
  227 469.647 -8.19116 27.2168
  228 400.649 -6.81084 1.26107
  229 400.652 -6.75612 -1.25936
  230 369.466 -35.7293 18.9703
  231 422.821 -26.8664 24.4352
  232 591.697 77.6418 -39.5474
  233 132.610 78.8976 -117.495
  234 359.934 12.7159 6.60382
  235 425.376 37.4935 37.0629
  236 452.320 -3.19651 -38.6926
  237 422.931 -15.2551 -35.8334
  238 227.286 -7.25252 -31.7730
  239 228.059 -7.14391 31.6771
  240 423.538 -5.15545 -19.4077
  241 403.530 -10.2833 4.35199
  242 403.342 -10.2713 -4.19650
  243 86.2529 7.80532 -43.4087
  244 87.5890 6.84048 43.2593
  245 448.726 -39.2957 -35.8218
  246 443.790 -1.68278 1.03891
  247 444.246 -1.71390 -1.14355
  248 415.604 34.4641 -33.9723
  249 366.902 7.12676 19.9987
  250 758.536 121.455 81.6338
  251 752.100 85.6241 -50.9596
  252 548.133 117.882 -0.303726
  253 342.297 -16.5632 102.270
  254 314.381 -10.8368 -106.912
  255 361.140 -7.42186 -1.59701
  256 361.108 -7.37562 1.58621
  257 300.905 -7.98216 11.1714
  258 300.900 -8.09108 -11.2668
  259 433.657 -4.74639 11.8614
  260 421.095 -30.0207 -19.9045
  261 275.581 -0.488188 -1.89735
  262 275.646 -0.479583 1.88606
  263 415.822 -16.8900 -15.9127
  264 178.322 -5.80066 -44.1165
  265 179.075 -5.81889 43.8064
  266 421.097 -18.2979 28.5505
  267 322.060 -34.1807 61.9786
  268 322.858 -34.7917 -61.7881
  269 365.079 14.0604 -9.30873
  270 315.072 -4.78461 -3.74946
  271 315.101 -4.75269 3.73559
  272 395.801 -0.967465 24.3926
  273 472.056 86.2797 24.1568
  274 255.062 -3.06184 13.5823
  275 254.868 -3.08715 -13.6946
  276 432.215 -36.1482 13.4890
  277 400.101 -44.9419 -41.9752
  278 445.511 -2.24283 3.62448
  279 311.510 -18.3498 -23.6965
  280 310.986 -18.1467 23.6099
  281 545.912 59.1975 143.495
  282 260.601 -21.0594 73.8252
  283 419.655 58.8890 -2.18875
  284 528.198 58.7354 -19.6851
  285 399.378 -30.8844 4.24433
  286 400.438 -46.1658 37.9132
  287 261.373 -20.7202 -74.6417
  288 48.8775 60.3485 55.1776
  289 415.894 -16.9470 16.2103
  290 543.907 71.5414 14.8624
  291 448.927 -2.00387 -3.14311
  292 408.561 14.3309 -39.1102
  293 402.426 -22.7773 8.36052
  294 394.095 -33.2488 1.85017
  295 407.128 18.7149 37.7014
  296 430.173 -36.1535 -11.9472
  297 608.247 117.987 -10.7453
  298 402.319 -21.8966 -7.99039
  299 331.172 96.2738 -197.018
  300 411.084 -43.6004 -8.98674
  301 408.204 -44.7927 13.6430
  302 301.127 -27.1714 -48.6772
  303 273.055 -1.01011 -4.11730
  304 273.133 -0.992483 4.08605
  305 301.263 -27.1950 48.4189
  306 435.215 -0.747894 -43.9955
  307 468.829 -19.4222 -17.5638
  308 358.381 -21.5189 -9.20151
  309 358.159 -21.5688 9.36638
  310 426.818 -36.7417 66.7357
  311 426.957 -3.46732 14.6873
  312 516.870 2.89299 24.8069
  313 351.302 -12.3595 -5.11093
  314 351.327 -12.3198 5.08388
  315 320.607 -8.27986 -7.42490
  316 320.611 -8.20354 7.41462
  317 363.202 4.94099 -19.3378
  318 463.737 33.9895 -42.0722
  319 713.147 192.842 -92.6050
  320 422.021 -3.83816 -1.21266
  321 421.788 -3.78781 1.24786
  322 227.435 -0.578549 92.1284
  323 318.852 -14.3648 -15.7742
  324 318.264 -14.3187 15.8154
  325 227.391 -1.11570 -91.7762
  326 442.646 52.2016 -35.9967
  327 493.997 24.5513 30.8622
  328 426.721 -30.4416 -73.9964
  329 393.498 -15.2233 3.42502
  330 393.103 -15.1152 -3.25746
  331 419.459 -8.79789 -7.59296
  332 396.068 -0.734658 -22.8075
  333 443.112 1.86252 42.9958
  334 441.343 -3.16855 -8.15160
  335 267.558 -16.1323 37.0883
  336 267.264 -16.2207 -37.3662
  337 412.820 -0.924324 40.5952
  338 256.720 -2.04837 -8.07896
  339 256.884 -2.02930 8.00790
  340 422.613 -9.80545 12.0435
  341 507.149 103.415 -17.3873
  342 419.265 -8.86089 7.88628
  343 447.553 56.1329 36.0947
  344 428.076 -7.99544 41.9066
  345 340.057 -6.34515 1.62424
  346 340.058 -6.38317 -1.63440
  347 405.730 -1.43454 -36.0407
  348 535.479 112.449 10.5428
  349 446.437 81.6679 0.751405
  350 273.268 31.6976 -136.677
  351 29.0317 12.3991 -19.1413
  352 31.7523 13.4213 20.5574
  353 -1.15217 3.28575 8.02438
  354 0.477957 1.92799 -8.40025
  355 776.044 53.8546 18.3836
  356 369.749 -29.9553 -10.9632
  357 422.923 -9.48147 -11.7467
  358 382.233 -6.79507 0.390666
  359 382.189 -6.74223 -0.393311
  360 409.778 45.2656 -18.4054
  361 349.352 -35.5230 31.3470
  362 31.0985 46.4025 -34.4612
  363 349.664 -35.5101 -31.9005
  364 415.047 47.2001 19.5837
  365 422.196 -11.3302 -21.4158
  366 447.467 -25.0259 -25.3874
  367 477.746 100.583 6.92369
  368 448.425 -28.0694 20.7073
  369 188.055 -4.62766 29.5295
  370 186.959 -4.53772 -29.7124
  371 106.911 2.53969 -41.1719
  372 108.001 2.12247 40.9911
  373 368.790 1.29343 19.5428
  374 692.262 203.391 80.7448
  375 436.131 -2.84539 -10.4429
  376 340.678 -28.6629 -24.0624
  377 340.411 -28.5941 24.0309
  378 419.895 -9.73864 -27.3102
  379 476.868 -23.0503 1.86545
  380 369.736 -29.9301 11.2788
  381 522.265 4.27441 -44.5518
  382 298.856 -2.35701 -1.47890
  383 298.902 -2.33708 1.46916
  384 413.340 -2.43187 -17.5249
  385 224.968 -3.19383 -19.2505
  386 225.104 -3.29770 19.0214
  387 492.767 62.9924 -35.1819
  388 266.983 18.7880 127.070
  389 386.492 -20.2825 1.19925
  390 386.869 -20.2485 -1.21598
  391 454.372 76.7437 -22.7731
  392 429.640 -12.7767 -39.6174
  393 429.943 -43.9935 36.9869
  394 359.898 -9.55497 -2.51411
  395 359.859 -9.51077 2.49161
  396 414.394 -32.0019 13.0378
  397 445.418 -2.20634 6.03948
  398 280.327 -10.1131 -22.6542
  399 280.441 -10.1149 22.4677
  400 421.560 14.1636 -43.3818
  401 397.367 -8.72052 1.88336
  402 397.348 -8.74210 -1.83315
  403 411.634 -4.87572 33.0326
  404 384.829 28.1150 8.87092
  405 426.162 -18.0537 34.4576
  406 614.088 128.267 23.6892
  407 207.605 -11.1546 -59.1955
  408 208.174 -11.1566 58.7561
  409 93.0533 49.5727 -71.2228
  410 455.000 -1.44507 1.62338
  411 234.566 -1.93347 -12.1911
  412 234.872 -1.89255 12.0898
  413 420.203 -11.0190 26.7159
  414 381.269 -41.3522 21.0617
  415 429.643 -5.47546 5.36464
  416 438.777 22.2574 45.1095
  417 97.4415 52.7838 74.1694
  418 381.827 -41.1129 -19.4379
  419 394.458 -36.6435 -4.58778
  420 130.878 -2.61881 -37.2416
  421 131.828 -2.71433 36.9907
  422 303.368 -24.3936 -89.0220
  423 452.349 -6.80989 37.7022
  424 302.261 -24.7454 88.2554
  425 418.169 -23.5349 -21.9901
  426 390.072 26.3912 -19.3984
  427 418.224 -18.1426 20.9420
  428 448.858 -2.11409 -4.02814
  429 14.0233 15.1818 7.08146
  430 91.9747 106.799 104.995
  431 403.461 -1.47618 16.9468
  432 340.563 4.75629 8.49280
  433 346.273 5.77481 -11.5090
  434 295.437 -4.79883 -7.88387
  435 295.471 -4.73813 7.83511
  436 412.301 -31.9796 -11.8661
  437 417.036 -8.20257 -36.9191
  438 342.322 6.52521 -3.12536
  439 613.688 146.348 31.7454
  440 86.4777 28.3780 -53.4266
  441 95.2053 26.0389 57.0061
  442 386.135 -13.7940 1.24028
  443 385.991 -13.7640 -1.14057
  444 514.423 113.242 -1.33786
  445 319.335 134.587 201.400
  446 493.494 -6.77945 -5.23652
  447 286.120 -14.7996 -30.7301
  448 286.257 -14.7002 30.4783
  449 288.363 -6.34286 12.2194
  450 288.306 -6.38851 -12.3251
  451 387.720 8.68257 -31.4242
  452 457.245 -0.751243 -1.06699
  453 377.295 17.4084 17.6861
  454 474.432 58.5366 38.4836
  455 395.258 -29.3315 -2.84087
  456 429.459 -5.22099 -5.21722
  457 450.655 -1.92457 3.70884
  458 455.910 -0.808035 0.608576
  459 456.259 -0.899494 -0.439068
  460 255.328 -0.430940 3.00461
  461 255.199 -0.437508 -3.03437
  462 431.945 -27.5199 26.5908
  463 391.388 15.5101 30.4385
  464 408.450 1.67539 -39.6353
  465 425.409 -9.07344 15.8112
  466 608.695 105.335 -121.653
  467 426.616 -23.7372 -29.9689
  468 4.75756 8.18422 3.71361
  469 4.69465 8.34171 -1.60002
  470 339.202 -19.1003 13.7251
  471 338.091 -18.8392 -13.5506
  472 527.610 10.7130 66.1246
  473 148.390 136.877 -153.380
  474 421.329 -1.32468 13.0989
  475 475.630 -27.5970 -38.1689
  476 256.219 -14.6426 42.8915
  477 511.000 90.6910 -25.0265
  478 420.509 -22.8283 25.0309
  479 354.020 -16.8434 -7.02923
  480 354.330 -16.5676 7.01182
  481 368.703 2.00587 -17.2497
  482 255.428 -14.5826 -43.1460
  483 377.760 0.214226 17.3200
  484 360.469 -41.2616 -55.5805
  485 359.576 -41.3245 55.7960
  486 433.760 -2.94756 11.5402
  487 395.966 37.3859 3.66489
  488 399.195 7.23951 138.159
  489 587.966 119.242 -0.745139
  490 406.755 -6.98320 2.31370
  491 406.775 -6.95863 -2.40513
  492 314.836 -5.51143 -5.05796
  493 314.861 -5.46663 5.04046
  494 166.734 7.50074 77.5909
  495 422.440 -20.4131 -29.4089
  496 383.429 -8.40744 0.0746990
  497 383.390 -8.37955 -0.0674982
  498 334.414 -35.3399 45.4723
  499 169.914 9.93512 -79.5401
  500 422.802 -34.5130 -13.6229
  501 7.55741 2.10855 2.84451
  502 371.801 19.3125 1.29903
  503 408.160 -4.86728 -0.749177
  504 408.153 -4.93104 0.729647
  505 334.596 -35.2751 -45.8185
  506 476.078 -24.3360 48.3169
  507 473.047 17.1786 38.9649
  508 436.062 -3.10763 -2.54952
  509 421.514 -34.9941 13.8403
  510 267.439 -0.225937 -0.549580
  511 267.504 -0.223621 0.545362
  512 421.235 -16.2334 -31.5084
  513 409.011 30.2884 33.2436
  514 467.309 11.5479 -38.5106
  515 265.812 -0.391148 -1.69326
  516 265.887 -0.385540 1.68231
  517 808.595 116.854 -104.267
  518 425.384 50.6166 29.2185
  519 436.426 -2.87993 2.26495
  520 395.318 -37.4552 5.54620
  521 333.663 -10.9541 7.63346
  522 333.656 -11.0357 -7.61789
  523 459.105 -28.0324 10.6995
  524 441.927 -8.89170 -39.9211
  525 494.291 97.1851 21.2740
  526 411.975 7.11126 41.1159
  527 414.283 -8.09463 4.70267
  528 402.383 -43.0302 -53.7431
  529 418.223 -10.4081 31.1740
  530 798.661 36.7063 -14.5779
  531 455.667 -34.4150 0.744676
  532 433.358 -3.02421 -0.574552
  533 433.463 -3.20727 0.494343
  534 806.984 54.1255 50.9873
  535 401.932 -0.107245 34.9710
  536 559.640 94.6992 -7.12488
  537 421.710 -11.5738 -15.2944
  538 193.630 -1.78051 -13.1587
  539 194.210 -1.69445 13.0281
  540 286.860 -26.8249 -61.8971
  541 287.098 -26.3764 61.4468
  542 414.053 -7.76778 -4.66497
  543 450.983 16.5329 -43.8056
  544 396.416 -26.9708 4.36270
  545 427.227 48.9620 -30.2920
  546 429.228 -5.08305 15.5255
  547 535.959 27.4224 -8.19493
  548 368.110 -12.6040 -2.32044
  549 368.003 -12.5631 2.29607
  550 399.169 -18.8734 6.10516
  551 585.891 116.925 -11.0657
  552 421.153 18.4299 42.6902
  553 180.724 46.4171 114.528
  554 405.147 -24.2806 92.7940
  555 532.880 27.0532 -102.558
  556 430.527 35.5952 -39.6742
  557 380.802 -33.0015 -80.5264
  558 412.589 -45.2684 -16.9032
  559 430.489 -43.6707 -24.3281
  560 57.2221 74.8255 -70.8641
  561 432.816 -5.60711 -9.39137
  562 649.238 126.109 -37.5219
  563 401.261 -18.1190 -6.91795
  564 404.469 -13.2401 5.71665
  565 404.097 -12.9439 -5.46799
  566 281.825 -1.56825 -3.75199
  567 281.888 -1.54803 3.72850
  568 41.3052 4.13108 -22.8267
  569 43.4758 4.33462 23.3465
  570 209.992 -9.68957 -45.1214
  571 211.562 -9.74349 45.0608
  572 410.047 -22.2708 -13.6065
  573 417.331 -45.4551 18.2176
  574 428.953 -40.7941 1.34282
  575 353.194 -6.24591 -1.40456
  576 353.176 -6.20303 1.39765
  577 334.451 -35.1309 -68.8985
  578 373.597 -30.7229 85.1305
  579 326.481 -33.0473 69.2704
  580 422.170 -9.41084 -39.6403
  581 267.054 -4.36538 13.6772
  582 266.923 -4.41032 -13.7857
  583 403.472 22.3534 -33.4091
  584 403.729 -0.710830 -15.3781
  585 503.213 108.906 -9.48134
  586 330.281 -4.95745 -1.35516
  587 330.293 -4.92566 1.34911
  588 429.295 -1.30132 -8.59571
  589 298.551 -9.97733 -15.2430
  590 298.564 -9.94406 15.1161
  591 243.094 11.0639 109.438
  592 417.821 -19.2870 -21.1587
  593 234.577 -12.4885 78.6851
  594 410.608 -21.3265 13.9283
  595 431.715 -6.21278 10.3943
  596 426.111 -4.05220 -2.23398
  597 302.215 -3.67711 -3.52063
  598 302.256 -3.64756 3.50360
  599 482.809 96.1902 -19.2521
  600 234.406 -12.0301 -78.9690
  601 409.228 -17.7827 -11.0629
  602 369.836 -6.90952 -0.735911
  603 369.799 -6.86057 0.733044
  604 689.108 92.6037 -16.5045
  605 247.936 -1.55590 7.52745
  606 247.725 -1.57090 -7.59499
  607 383.247 8.85452 28.6915
  608 543.273 46.1178 -4.20994
  609 258.874 1.62025 -108.586
  610 133.897 3.26019 -59.4368
  611 134.980 2.51378 59.1239
  612 325.186 -18.8659 18.9940
  613 328.507 -19.4221 -18.4778
  614 550.253 111.018 8.09385
  615 424.412 -4.19460 2.00376
  616 367.112 10.4254 -17.3528
  617 455.560 81.7080 18.0189
  618 453.989 84.7801 -11.9859
  619 373.054 -20.6416 -3.72748
  620 375.847 -20.1843 2.40664
  621 267.083 58.4209 -155.730
  622 321.783 -10.9215 -10.6198
  623 321.812 -10.7987 10.5860
  624 804.663 164.834 124.205
  625 421.506 -13.8595 34.0826
  626 243.075 -8.50901 -28.9004
  627 648.649 153.833 104.265
  628 243.631 -8.46314 28.7964
  629 401.757 -15.2646 -108.150
  630 286.889 -1.36577 -1.38178
  631 286.945 -1.35401 1.37518
  632 354.384 3.23771 15.1435
  633 162.593 -2.38907 -25.9256
  634 163.464 -2.39535 25.7284
  635 368.306 -26.0140 8.53088
  636 385.902 -30.8771 -3.05438
  637 453.176 -1.04245 -3.42196
  638 259.486 -0.398653 2.23092
  639 259.384 -0.405890 -2.25274
  640 348.030 -7.83217 -2.20416
  641 348.019 -7.78995 2.18913
  642 397.646 -44.1917 54.2715
  643 457.535 51.0642 -39.6922
  644 306.040 -14.1674 -19.6314
  645 305.830 -13.9302 19.4943
  646 361.615 -25.9455 -11.5719
  647 567.513 123.313 4.42234
  648 426.457 -41.3179 0.977467
  649 371.209 -8.92137 -1.18777
  650 371.156 -8.87954 1.18751
  651 508.793 55.8448 29.1051
  652 427.502 -6.25714 -16.8707
  653 379.880 -0.435023 -14.0977
  654 177.034 -6.05481 -56.8044
  655 177.561 -6.21974 56.3528
  656 360.597 -31.0440 -18.2727
  657 539.530 118.444 0.136638
  658 419.747 56.7980 -13.1614
  659 280.315 -2.49945 -6.87092
  660 280.384 -2.46493 6.81875
  661 390.743 -11.1087 -1.38361
  662 390.818 -11.1187 1.46388
  663 722.722 94.2460 41.6014
  664 459.561 -1.31130 0.896330
  665 445.004 -1.82194 5.93121
  666 443.356 -1.84542 -6.98749
  667 421.368 -39.2714 5.18676
  668 312.314 -3.58929 -1.75856
  669 312.346 -3.56439 1.75117
  670 451.060 72.1800 27.7996
  671 576.852 128.024 -8.66031
  672 317.620 -23.4924 -27.8075
  673 317.540 -23.2654 27.6737
  674 395.714 -40.7641 -9.35229
  675 418.172 24.8726 -40.2074
  676 494.210 1.37972 15.7608
  677 330.427 -6.10910 -3.55800
  678 330.439 -6.07112 3.54444
  679 285.808 -25.0098 -55.8806
  680 417.418 -40.4067 -1.36706
  681 347.587 -38.5366 50.1151
  682 167.029 52.5713 -110.556
  683 325.142 -30.0441 38.6654
  684 392.296 0.109458 12.9947
  685 286.078 -24.7285 55.5157
  686 408.995 -18.1214 11.1995
  687 325.235 -29.9152 -39.0070
  688 335.024 4.44009 3.18263
  689 259.286 -6.88369 20.5915
  690 259.058 -6.88971 -20.7301
  691 347.751 -39.5341 -50.6659
  692 429.121 -28.3280 -25.6912
  693 393.802 -5.63314 -0.376232
  694 393.865 -5.68932 0.378131
  695 438.404 -27.9984 25.3262
  696 398.701 -41.6658 10.9634
  697 483.967 44.4291 37.8927
  698 437.079 -8.24271 41.2456
  699 420.593 -15.1638 24.9250
  700 403.102 33.1864 -25.3439
  701 483.326 81.1958 30.0391
  702 417.541 -5.81050 -24.4382
  703 415.641 -13.8637 12.5124
  704 430.859 67.3680 7.10531
  705 423.059 -7.23741 21.1679
  706 134.049 91.3691 116.008
  707 393.564 -45.2971 -31.7726
  708 455.652 8.24959 41.8029
  709 459.654 -14.2560 -29.1728
  710 457.603 -0.675792 1.86116
  711 420.190 -14.5181 -19.4936
  712 394.161 -45.6513 28.9583
  713 756.812 67.0587 -11.2008
  714 237.972 -0.992231 7.87361
  715 237.694 -1.00295 -7.94494
  716 425.810 -7.85262 -8.92767
  717 460.254 -0.520488 -1.82317
  718 359.961 -31.5489 18.3667
  719 431.485 -16.1112 37.3512
  720 651.348 157.242 -50.9483
  721 408.990 -29.6682 11.2073
  722 452.737 -29.8675 -14.2276
  723 415.787 -13.4980 -12.3093
  724 459.903 -0.869886 -0.560970
  725 421.664 -0.0580409 43.2123
  726 19.7542 19.3806 25.3499
  727 473.254 -17.9138 -71.1465
  728 515.640 30.8658 17.3562
  729 430.087 -44.0019 21.8680
  730 309.010 -7.34622 8.68119
  731 309.006 -7.44706 -8.72051
  732 397.468 206.335 -211.433
  733 438.575 -29.0726 -23.2951
  734 333.746 1.83994 -6.08596
  735 387.128 2.18485 27.9239
  736 423.432 -21.2430 29.8762
  737 405.857 -34.2027 4.99430
  738 421.111 -38.4674 -58.3340
  739 403.421 -31.9214 -5.78917
  740 475.341 -22.7471 -3.50627
  741 437.947 -3.69935 5.18369
  742 391.948 -23.5446 2.73779
  743 707.425 141.369 -75.8300
  744 417.543 -11.2699 9.86770
  745 414.117 6.80246 -42.2055
  746 352.471 -3.87233 121.462
  747 443.196 35.6571 42.9089
  748 381.303 -29.9848 4.99645
  749 295.602 -23.1795 -40.8992
  750 295.638 -23.1186 40.5775
  751 406.304 45.7025 -5.89440
  752 412.592 -4.79171 37.5602
  753 416.812 -9.95186 -31.8869
  754 392.387 -24.0315 -2.85548
  755 379.510 -33.9680 10.7273
  756 434.126 71.5094 -7.99353
  757 405.364 -35.0866 -3.39886
  758 406.399 -25.7485 10.9630
  759 411.425 -5.41101 1.62668
  760 411.669 -5.26960 -1.61318
  761 553.320 121.145 1.88418
  762 451.998 -38.4928 -15.0735
  763 421.456 -12.9791 19.4362
  764 438.066 -3.69249 -4.69951
  765 443.617 2.91883 -43.4143
  766 503.875 26.7086 -24.2944
  767 250.728 -0.218289 -3.69359
  768 250.891 -0.214846 3.65823
  769 3.72782 -7.29982 -5.11591
  770 430.319 -0.537683 7.95127
  771 395.664 -0.600751 -30.8296
  772 408.239 -3.82830 27.0662
  773 370.399 46.8102 177.528
  774 464.506 95.2279 -0.966403
  775 331.008 -23.5762 21.8446
  776 59.7222 1.27274 -22.4505
  777 61.3593 0.931205 22.6866
  778 404.738 -2.87473 -30.5847
  779 331.876 -23.8068 -21.8441
  780 435.506 -4.05664 3.89260
  781 225.334 -9.54365 38.4909
  782 223.440 -9.50874 -38.4988
  783 417.509 -10.9471 -9.60701
  784 269.153 -6.69930 -17.9449
  785 269.287 -6.65654 17.7926
  786 434.590 -4.19217 -11.6059
  787 333.571 -8.85580 -6.10753
  788 333.584 -8.79988 6.11015
  789 474.273 -2.98464 -29.1048
  790 427.787 -4.50388 -43.2526
  791 220.360 -1.38026 -10.0123
  792 220.773 -1.36734 9.89982
  793 11.9230 5.47925 -13.8035
  794 13.8159 5.78431 14.5100
  795 349.111 1.70503 -10.9946
  796 390.472 -43.8684 -23.9111
  797 -4.43166 -3.04394 7.70690
  798 -3.90715 -3.63526 -7.68925
  799 406.257 -8.25161 3.53400
  800 440.189 -34.4145 -12.5531
  801 455.475 67.4153 -32.3949
  802 437.315 -3.65613 -3.70441
  803 923.981 187.555 -173.526
  804 406.171 -8.22715 -3.48624
  805 609.875 115.898 9.86782
  806 435.166 12.6577 -45.1529
  807 479.892 36.2641 -38.8669
  808 82.9434 -0.968924 -20.6773
  809 84.3939 -1.08751 20.6419
  810 273.759 -3.88398 10.6742
  811 273.660 -3.91568 -10.7645
  812 262.071 -0.591667 2.00628
  813 261.987 -0.597950 -2.02144
  814 485.721 81.7134 -29.7264
  815 289.657 -1.75680 -2.98538
  816 289.712 -1.73684 2.96982
  817 413.848 -4.16647 -39.2242
  818 592.425 62.4128 53.5988
  819 373.796 8.44350 -24.1441
  820 131.340 -1.16110 22.0821
  821 130.278 -1.17200 -22.2504
  822 477.987 13.7816 127.891
  823 425.407 -7.91641 9.21395
  824 382.531 25.4708 -10.0533
  825 178.832 -0.265156 15.0084
  826 177.955 -0.183180 -15.1152
  827 267.284 -1.32105 -5.24694
  828 267.383 -1.30208 5.20115
  829 48.2081 42.7864 37.4677
  830 398.259 9.54883 35.7919
  831 442.542 64.9441 -27.8737
  832 475.303 55.1960 -38.8341
  833 314.075 -11.7666 -13.8377
  834 313.901 -11.6818 13.8227
  835 492.673 104.547 13.3855
  836 424.324 -3.67105 -0.465220
  837 424.353 -3.64399 0.535092
  838 420.706 -12.6818 -25.2084
  839 353.220 -23.4486 13.0091
  840 388.134 -43.6062 23.9993
  841 454.794 -37.2597 37.2109
  842 350.299 -10.1334 -3.76526
  843 350.298 -10.0976 3.74242
  844 400.846 37.1900 16.2951
  845 377.125 5.22404 -26.0555
  846 104.719 126.364 120.726
  847 380.675 -33.6879 -9.79895
  848 382.014 -17.0685 0.144737
  849 382.217 -17.1071 -0.167364
  850 420.220 -6.21431 41.1544
  851 416.242 -27.3910 -18.1724
  852 372.334 -24.5941 -5.64890
  853 837.997 27.1223 -41.1605
  854 354.116 -33.4157 24.9213
  855 353.824 -33.8444 -25.3110
  856 419.629 -5.05048 20.7687
  857 628.598 162.950 -38.3778
  858 332.627 -30.1055 -30.8580
  859 366.766 -41.2472 29.5858
  860 332.553 -29.7476 30.5940
  861 360.358 -14.4665 -4.40147
  862 360.352 -14.4207 4.37287
  863 54.3953 22.8093 32.5158
  864 450.889 33.6799 -43.3078
  865 346.136 -13.4473 -6.73233
  866 346.201 -13.3145 6.75524
  867 342.034 -5.64693 -0.820182
  868 342.030 -5.60956 0.815198
  869 375.300 -7.51502 -0.297981
  870 375.256 -7.46773 0.294842
  871 306.641 -5.93011 -7.49376
  872 306.669 -5.86490 7.46451
  873 347.360 -18.1847 -10.0500
  874 347.407 -18.0650 10.0941
  875 8.62996 -2.10989 -4.65968
  876 521.479 97.8693 21.3393
  877 448.801 -15.7946 -34.1264
  878 366.446 -40.6461 -29.8843
  879 395.559 -12.7994 3.08048
  880 395.387 -12.6714 -2.97555
  881 431.427 0.509316 44.2008
  882 467.314 -33.3233 -21.3742
  883 412.894 30.1833 -154.238
  884 190.330 -3.22957 76.5875
  885 -6.20014 4.43695 -5.52200
  886 -5.29747 5.01235 6.07610
  887 54.0717 24.2557 -33.2094
  888 421.170 -12.1925 15.1862
  889 442.380 -2.99247 -6.36502
  890 398.151 -38.3801 66.7194
  891 189.884 -3.03986 -76.8835
  892 443.680 -36.3980 8.26898
  893 492.481 -14.1429 58.6875
  894 361.422 1.48078 11.6461
  895 412.801 39.2755 27.6953
  896 224.725 -12.6224 56.2018
  897 223.868 -12.7237 -56.5621
  898 269.397 -12.7062 -31.5592
  899 281.417 -13.9395 -97.4979
  900 444.338 -10.4515 38.6456
  901 608.060 143.751 24.5383
  902 446.434 17.1354 44.1643
  903 421.948 -9.06264 -23.0497
  904 287.255 -12.4873 99.9103
  905 536.751 99.1556 -14.9506
  906 54.3179 45.9636 -46.0600
  907 391.237 -0.764219 -12.3954
  908 269.677 -12.6034 31.2889
  909 327.875 -7.17481 5.36293
  910 327.861 -7.22226 -5.37369
  911 416.838 -27.2436 18.8016
  912 431.911 -2.89023 1.44058
  913 318.361 2.84308 -120.982
  914 454.948 -1.05397 3.00621
  915 451.789 -0.872296 -3.87577
  916 341.421 3.00783 -10.1267
  917 437.404 -1.80234 -7.03047
  918 328.770 -15.2750 -12.8874
  919 328.989 -15.0500 12.9284
  920 -10.4904 4.08822 -5.99294
  921 -14.6197 2.46689 6.40294
  922 431.892 -2.69276 -1.47317
  923 145.331 -3.32800 51.7164
  924 144.490 -3.02535 -52.0026
  925 462.767 67.4172 34.1211
  926 818.644 14.8197 12.6781
  927 435.996 48.4452 36.1695
  928 491.337 -17.1107 17.9045
  929 428.479 -23.9094 30.0115
  930 533.052 111.594 -11.4136
  931 334.370 1.48817 7.63776
  932 412.113 -9.79708 -5.79614
  933 429.011 23.0741 -43.7955
  934 515.911 15.6242 -6.37777
  935 402.058 -24.8442 -8.41468
  936 208.372 -1.13363 -11.1925
  937 208.576 -1.09328 11.0380
  938 423.953 -10.0399 -17.8774
  939 14.6249 18.3884 4.34884
  940 407.012 -42.2049 -5.43386
  941 355.248 10.6272 -1.04320
  942 529.668 116.109 -7.56755
  943 84.8673 63.0403 -75.7790
  944 408.258 -3.04515 -24.2518
  945 284.881 -4.67923 -10.0031
  946 284.939 -4.62503 9.92303
  947 2.60595 -11.4319 8.64112
  948 278.476 -20.6199 -45.2786
  949 414.705 -24.0150 -17.6802
  950 261.300 0.563865 -0.837739
  951 261.370 0.566351 0.832467
  952 419.937 50.9396 -22.1382
  953 447.607 -1.44056 -0.605104
  954 447.628 -1.45755 0.800368
  955 278.607 -20.5662 44.9825
  956 420.132 -0.609384 -9.54517
  957 481.987 3.51049 27.9075
  958 427.813 -6.14919 7.07469
  959 69.8953 17.4164 -40.7979
  960 443.231 -2.78090 5.75401
  961 404.054 3.29748 38.2521
  962 426.080 58.9539 19.6876
  963 425.734 4.93383 -44.7496
  964 294.776 -15.6761 -27.1967
  965 458.345 -16.3049 28.0941
  966 294.970 -15.6183 26.9322
  967 14.0023 15.0796 -1.91800
  968 51.7169 8.65667 29.9246
  969 241.747 -4.20665 18.5736
  970 241.457 -4.20881 -18.6736
  971 412.406 -9.97676 6.12892
  972 444.550 77.1589 10.8372
  973 226.708 20.5819 -114.756
  974 371.658 -23.1497 4.99019
  975 348.910 -36.4140 -37.1420
  976 507.448 97.1260 22.6427
  977 390.760 -6.97744 0.337929
  978 390.744 -6.94081 -0.341199
  979 427.529 -8.00164 -12.7349
  980 397.181 34.3462 -15.0282
  981 883.416 264.525 178.197
  982 84.3667 4.60731 -39.1045
  983 85.6288 3.82526 39.1858
  984 6.28011 -6.95106 2.59556
  985 398.240 22.1317 30.8481
  986 348.834 -36.6386 36.8765
  987 431.469 -20.4343 -34.3339
  988 469.295 38.3375 42.4228
  989 449.986 -36.3407 -45.3482
  990 656.332 137.987 46.6126
  991 383.785 -6.28058 -0.253318
  992 383.735 -6.23050 0.253357
  993 448.367 -18.3494 32.2789
  994 31.3545 54.0378 54.9139
  995 204.607 -4.23867 26.5603
  996 203.987 -4.18404 -26.8342
  997 243.368 -11.8026 36.3738
  998 242.545 -11.6193 -36.5032
  999 273.775 -11.1828 26.2102
  1000 299.312 -2.32309 -1.34039
  1001 299.358 -2.30618 1.33520
  1002 732.980 236.902 -152.035
  1003 668.078 167.565 70.1665
  1004 273.554 -11.2379 -26.4220
  1005 461.749 -2.16975 35.6780
  1006 414.740 43.0378 -26.6410
  1007 293.072 -25.2834 80.8845
  1008 375.440 -44.3734 -44.1105
  1009 428.906 -3.57023 -13.8979
  1010 194.789 13.1555 93.5760
  1011 249.876 -19.0655 64.6151
  1012 381.121 19.6270 -19.3557
  1013 433.908 -8.63598 -41.7582
  1014 545.298 229.105 240.574
  1015 360.603 11.1290 13.8117
  1016 488.019 104.787 -1.62277
  1017 357.437 14.2270 -137.358
  1018 364.878 -38.3268 -25.5983
  1019 460.550 -0.561735 -1.48113
  1020 444.222 40.7806 -41.7813
  1021 262.972 -1.65028 6.72072
  1022 262.847 -1.66692 -6.78089
  1023 9.77339 6.51756 -14.5935
  1024 295.096 -13.3546 -22.6997
  1025 249.568 -19.3100 -65.0884
  1026 294.883 -13.3272 22.4596
  1027 424.300 -12.9570 38.6262
  1028 380.919 -23.5089 -1.63469
  1029 400.809 7.41426 -37.0894
  1030 412.505 51.5040 7.78042
  1031 554.670 34.5144 22.4364
  1032 419.989 -31.9438 17.7519
  1033 267.296 -21.2703 -49.5403
  1034 397.569 14.1290 -34.7614
  1035 295.548 -24.9532 -81.2921
  1036 565.263 122.242 -2.65749
  1037 386.868 25.4736 17.6093
  1038 485.495 -2.77445 -20.9124
  1039 367.136 -38.3489 23.6526
  1040 420.313 -13.3723 29.7464
  1041 417.395 -22.0783 20.9947
  1042 415.100 -20.9210 18.0974
  1043 511.700 65.1764 -29.9946
  1044 415.074 -6.72098 30.4154
  1045 374.863 -44.4969 43.4039
  1046 400.110 -16.3994 5.53805
  1047 267.466 -21.3132 49.2764
  1048 376.119 -27.6469 -6.03689
  1049 220.016 -10.7302 -69.0921
  1050 312.515 -32.3967 54.9899
  1051 422.435 -2.90953 -16.1955
  1052 411.914 -4.65885 -34.6671
  1053 357.057 -28.1476 -15.8282
  1054 220.391 -11.0319 68.5667
  1055 385.151 0.972105 -24.2670
  1056 287.148 -18.9227 -35.1487
  1057 516.729 109.727 14.1011
  1058 116.824 19.0752 -66.0682
  1059 872.807 61.6228 83.5056
  1060 208.388 15.2954 -97.8948
  1061 414.938 -34.3983 -10.3947
  1062 287.231 -18.7641 34.8716
  1063 381.208 4.10089 27.1830
  1064 215.593 -4.31064 21.9949
  1065 215.488 -4.41658 -22.2123
  1066 420.447 -11.7290 -35.8360
  1067 445.542 -2.34805 2.27481
  1068 437.737 -1.02245 7.09237
  1069 433.718 14.3708 45.0810
  1070 406.262 -3.05615 32.6181
  1071 314.063 33.6570 148.484
  1072 463.387 -0.396821 0.696525
  1073 437.068 59.1567 28.7791
  1074 371.307 5.45223 23.4510
  1075 443.006 -1.72906 6.79027
  1076 287.641 -3.01918 -5.62245
  1077 287.696 -2.98512 5.58809
  1078 183.943 -5.16227 -36.7081
  1079 184.643 -5.34863 36.4682
  1080 372.510 18.6756 9.85292
  1081 556.171 30.7807 -42.9547
  1082 511.121 0.0716990 -79.1705
  1083 410.376 -0.379080 -9.92891
  1084 312.614 -32.6367 -55.3977
  1085 357.810 -26.7731 14.2237
  1086 412.677 -0.957603 10.3576
  1087 431.147 -31.3379 -21.0471
  1088 272.060 -0.588382 3.33354
  1089 271.988 -0.599057 -3.35321
  1090 414.153 -35.3828 10.3854
  1091 393.849 -8.13236 0.875217
  1092 393.782 -8.14113 -0.851318
  1093 383.357 -38.5670 15.3655
  1094 492.209 -15.7876 -7.12484
  1095 226.301 -0.390968 -6.24111
  1096 226.659 -0.377337 6.17748
  1097 336.414 -21.3932 -93.1456
  1098 358.607 -8.55343 2.11606
  1099 358.638 -8.59888 -2.13285
  1100 216.451 117.262 163.189
  1101 495.140 40.7323 -34.2195
  1102 74.1851 35.8348 -50.3452
  1103 428.032 -6.48101 -6.83096
  1104 115.767 39.3830 -75.8023
  1105 240.146 -15.0132 -46.9906
  1106 463.401 -0.560626 0.452310
  1107 463.567 -0.529219 -0.329719
  1108 421.595 -24.1137 -25.6090
  1109 373.263 -41.9551 -60.2744
  1110 116.908 16.2391 62.9555
  1111 458.813 45.3827 40.4751
  1112 415.866 -4.32116 -0.577661
  1113 415.916 -4.32371 0.615732
  1114 453.269 -29.0281 73.1886
  1115 470.258 93.9339 15.4914
  1116 281.046 -6.67868 -14.2770
  1117 281.119 -6.64840 14.1804
  1118 212.705 24.1556 115.869
  1119 399.800 2.06499 -35.8702
  1120 126.261 40.4326 81.4140
  1121 510.304 -8.44831 -25.9025
  1122 503.462 110.908 4.59455
  1123 346.944 -27.3426 19.0750
  1124 322.288 1.76970 -1.48986
  1125 438.653 -3.92416 8.60962
  1126 453.696 -0.617786 3.34871
  1127 101.917 0.168397 -18.5166
  1128 103.247 0.120980 18.3942
  1129 360.062 6.10095 -17.3886
  1130 369.669 -10.8702 -1.69915
  1131 369.588 -10.8219 1.69059
  1132 39.1961 64.0491 -58.4922
  1133 61.9545 137.725 -115.813
  1134 374.288 -14.6093 1.51614
  1135 374.428 -14.6051 -1.53857
  1136 386.477 -9.36173 0.879099
  1137 386.423 -9.34377 -0.848327
  1138 102.259 65.1984 82.0802
  1139 306.639 -3.73562 -2.73433
  1140 306.678 -3.70928 2.72214
  1141 384.909 29.1595 -0.403834
  1142 485.781 63.1199 -171.217
  1143 468.019 80.5867 -26.5626
  1144 426.768 -16.4232 -36.4102
  1145 420.329 -21.0099 -26.0773
  1146 347.133 -27.5944 -19.3866
  1147 350.660 1.17685 10.7336
  1148 393.300 24.5779 -25.7958
  1149 387.935 20.9250 24.6594
  1150 399.852 -15.9275 -5.42984
  1151 381.880 -23.0407 1.34573
  1152 347.705 -22.3736 -14.4169
  1153 413.453 -2.44875 19.2882
  1154 725.194 73.1301 10.1692
  1155 416.153 -8.89542 35.1217
  1156 417.938 27.4435 38.6422
  1157 385.137 -37.8593 -11.7565
  1158 49.0750 7.94869 -28.8754
  1159 392.353 -18.1674 -3.62311
  1160 263.158 -0.388079 -0.172088
  1161 263.221 -0.386406 0.170363
  1162 476.869 -12.6534 17.6624
  1163 454.374 -38.2849 17.8386
  1164 651.689 116.471 28.9421
  1165 158.628 -0.306325 -15.3863
  1166 159.542 -0.272457 15.2742
  1167 351.069 -7.09961 -1.70066
  1168 351.053 -7.05677 1.68913
  1169 393.527 -34.6939 -2.03635
  1170 325.106 1.50738 4.88206
  1171 402.939 -28.6951 7.88558
  1172 23.2483 27.6195 -13.8878
  1173 73.3903 36.3417 49.2141
  1174 270.352 -14.7996 90.0069
  1175 466.350 88.6733 -18.9759
  1176 444.589 -1.25773 -5.36724
  1177 465.325 -0.772301 0.291766
  1178 465.757 -1.04174 -0.177830
  1179 273.525 -0.617585 -0.556223
  1180 273.588 -0.612621 0.552311
  1181 429.849 27.4677 43.7809
  1182 633.349 107.920 -2.29905
  1183 443.034 73.1489 -19.4449
  1184 331.020 -24.4289 92.5539
  1185 268.917 -14.2402 -89.8318
  1186 299.368 -19.9254 -31.5685
  1187 412.671 -11.6067 7.89142
  1188 574.903 126.890 6.45713
  1189 299.400 -19.8093 31.3283
  1190 421.446 -7.45826 5.96999
  1191 377.996 14.1127 23.5470
  1192 415.661 12.8915 42.1276
  1193 590.038 131.690 15.3002
  1194 351.716 -9.16312 3.15862
  1195 351.732 -9.20569 -3.17941
  1196 427.007 -8.09873 13.2332
  1197 255.502 -2.68774 10.5078
  1198 255.323 -2.71468 -10.5996
  1199 417.601 -5.78205 -2.59133
  1200 172.503 103.041 -158.019
  1201 361.673 -20.4308 -99.1213
  1202 342.240 -10.6844 -5.73808
  1203 342.276 -10.6374 5.74022
  1204 447.296 -2.18595 2.07560
  1205 423.871 -5.65041 4.76438
  1206 23.5776 29.9285 22.1728
  1207 460.350 -0.547560 1.73437
  1208 55.4473 70.7295 70.1686
  1209 414.149 -6.28354 -3.34820
  1210 -0.464267 -10.0791 -8.84299
  1211 293.774 -28.6794 -69.7268
  1212 292.982 -27.9862 69.0387
  1213 460.332 -0.838850 -1.92427
  1214 394.815 -20.8374 -4.38288
  1215 447.000 -2.00254 -2.11186
  1216 359.285 -11.6091 -3.11402
  1217 359.252 -11.5683 3.08213
  1218 417.337 -5.74272 2.42797
  1219 392.073 -17.8098 3.58535
  1220 377.455 -12.1611 0.419384
  1221 377.586 -12.1923 -0.375500
  1222 446.598 -2.06334 -1.71961
  1223 386.081 -40.7041 -67.9054
  1224 437.169 -2.80002 -1.74138
  1225 415.891 -6.45501 3.61860
  1226 292.199 -3.14899 -4.18450
  1227 292.250 -3.11851 4.16123
  1228 325.624 -4.75789 -2.18190
  1229 325.642 -4.72598 2.17162
  1230 524.742 81.9670 24.8508
  1231 441.169 -33.9582 15.2431
  1232 303.042 -1.47957 114.279
  1233 245.024 -0.394995 4.03619
  1234 244.819 -0.399332 -4.07504
  1235 418.604 -7.76185 26.3295
  1236 400.422 -6.14823 0.625789
  1237 400.437 -6.12814 -0.625441
  1238 459.005 89.1701 8.88843
  1239 419.306 -43.9398 54.0692
  1240 245.162 -3.41792 14.7139
  1241 244.922 -3.44319 -14.8183
  1242 399.882 -9.82201 2.75531
  1243 399.792 -9.89062 -2.66653
  1244 412.446 -11.4684 -7.59290
  1245 380.479 0.0858206 12.5574
  1246 653.202 162.406 -54.9583
  1247 420.224 -15.4257 -23.0632
  1248 73.0874 17.1987 41.9268
  1249 433.999 -23.1770 31.8808
  1250 350.576 7.74544 -9.51636
  1251 27.2993 19.7700 15.4557
  1252 569.961 64.2023 -7.15172
  1253 424.007 -19.3195 -32.3732
  1254 352.216 5.07526 14.5816
  1255 241.813 -15.0402 46.9190
  1256 430.487 -33.3669 18.6557
  1257 622.617 120.423 39.8976
  1258 145.741 21.3451 80.0310
  1259 432.459 -5.21729 -11.4116
  1260 825.196 9.26134 -8.25887
  1261 852.199 12.7726 36.7451
  1262 909.311 30.7707 -87.4543
  1263 419.812 -13.1467 -28.8860
  1264 419.697 -19.1993 24.4035
  1265 426.289 -30.3832 22.4833
  1266 -12.5113 1.47632 7.90563
  1267 -11.3740 1.19149 -8.61956
  1268 414.723 -45.8747 -25.7102
  1269 424.659 -42.9807 -38.1505
  1270 327.388 2.11885 -6.02476
  1271 412.956 -46.6887 38.0282
  1272 441.387 -20.9780 -32.3185
  1273 9.04635 13.3288 1.84573
  1274 359.626 -6.58631 1.15424
  1275 359.651 -6.63196 -1.15728
  1276 438.312 -3.58774 7.72994
  1277 421.410 -7.32777 -5.59825
  1278 397.168 -43.3549 -13.9646
  1279 363.339 -19.6148 6.35101
  1280 361.529 -19.3371 -6.86138
  1281 425.603 -9.05550 18.3114
  1282 436.209 -16.0654 -37.4118
  1283 28.3203 20.6119 -15.0159
</Section>

newXOutput 58

<Section columns = "stress_xx | stress_yy | stress_xy">
  1 475.941 -0.134988 0.905571
  2 475.949 -0.126528 -0.908070
  3 263.645 -0.0817342 -0.327233
  4 -3.32102 -3.28272 -4.77531
  5 848.540 342.376 272.894
  6 840.725 354.614 -272.044
  7 -3.85787 -3.11758 5.08353
  8 263.580 -0.0826755 0.326385
  9 479.197 -0.812689 0.269446
  10 478.238 -1.27838 -0.252901
  11 477.231 -0.867541 1.02743
  12 476.211 -1.18177 0.259110
  13 474.009 -1.00017 1.61729
  14 472.001 -1.00795 1.16241
  15 467.197 -0.889644 2.33108
  16 460.255 -0.640008 3.44239
  17 454.082 -0.668745 3.84961
  18 444.861 -0.913596 4.67310
  19 431.993 -0.0895508 6.93391
  20 420.108 -0.672704 6.61265
  21 406.480 -0.861331 9.34520
  22 386.806 0.606883 8.15251
  23 372.491 0.935820 9.65641
  24 353.809 1.56509 7.57285
  25 340.850 1.67055 7.64284
  26 322.082 2.31409 3.90180
  27 318.111 3.63931 4.18829
  28 315.716 2.99761 -1.23897
  29 318.975 1.76117 -2.71451
  30 324.982 1.69389 -3.33154
  31 339.046 2.12370 -6.64443
  32 352.707 1.67811 -8.39055
  33 372.689 0.390227 -9.93909
  34 388.664 -0.197717 -9.02647
  35 405.638 -0.683478 -8.84395
  36 420.978 -0.526827 -6.22928
  37 434.106 -0.558113 -5.31015
  38 444.888 -0.895449 -4.43991
  39 454.506 -0.648698 -3.07090
  40 460.463 -0.779853 -3.24834
  41 466.221 -0.944650 -2.36945
  42 471.624 -1.11430 -1.00880
  43 474.381 -0.901651 -1.20684
  44 475.786 -0.569665 -0.741015
  45 474.617 -0.337738 -0.677083
  46 478.701 -1.28354 0.175464
  47 479.332 -0.844152 -0.277731
  48 464.133 -0.438888 -0.560832
  49 454.042 -2.03810 -1.03176
  50 441.668 -2.97084 -0.642965
  51 426.550 -4.34631 -0.889270
  52 412.178 -4.73827 -1.08803
  53 396.810 -5.87102 -1.04010
  54 383.181 -6.49525 -0.552636
  55 371.225 -7.21862 -0.175090
  56 357.420 -5.97800 -0.164618
  57 341.507 -5.56238 -0.315478
  58 326.176 -4.36808 -0.0594468
  59 311.658 -2.76300 2.42508e-05
  60 297.871 -1.95247 0.0560450
  61 285.793 -0.979648 0.154082
  62 273.463 -0.246668 -0.372415
  63 263.775 0.373288 0.499425
  64 259.407 1.01385 0.346619
  65 262.300 0.0184753 0.801495
  66 258.907 -0.125044 0.970972
  67 255.723 -0.192102 1.20926
  68 251.423 -0.0121385 1.56655
  69 246.003 -0.00568083 1.96658
  70 241.928 -0.297831 3.76108
  71 230.530 0.336339 4.10115
  72 222.465 -0.0154496 4.67925
  73 210.457 -0.199318 5.31240
  74 196.645 -0.341458 6.46136
  75 179.372 -0.0714709 7.84593
  76 158.318 0.102420 8.65931
  77 140.048 -0.174784 12.3788
  78 104.106 1.14003 11.7006
  79 79.5172 0.982210 12.3954
  80 49.9576 -0.233092 13.7744
  81 25.3168 2.25541 14.3595
  82 -2.78253 3.39195 8.69441
  83 -23.3277 3.45090 3.17250
  84 -22.9702 3.35023 -1.09088
  85 -22.1757 2.79380 -6.62995
  86 -13.0712 -0.859991 -6.33890
  87 -1.57570 -12.5476 -7.00466
  88 1.27755 -23.0556 -8.71167
  89 3.48959 -36.1354 -4.68122
  90 7.71395 -36.3710 0.744090
  91 16.2695 -6.75581 21.8903
  92 48.2320 77.3270 73.1907
  93 279.742 267.440 244.589
  94 1028.14 154.113 171.488
  95 927.537 22.0293 55.6811
  96 863.379 9.16827 17.0393
  97 839.709 7.80336 1.30723
  98 852.311 10.3630 -14.7818
  99 925.580 20.5550 -44.0762
  100 1088.15 74.3310 -147.359
  101 166.456 274.191 -204.903
  102 36.1050 56.1480 -60.7812
  103 17.7795 -4.97025 -23.2285
  104 7.22348 -36.2935 -4.25302
  105 2.07967 -27.4186 5.36045
  106 2.59113 -29.0813 7.54027
  107 0.136644 -10.8289 7.75987
  108 -13.6489 -0.542397 6.00568
  109 -22.8784 2.09738 5.77656
  110 -24.1956 4.06966 1.21921
  111 -24.0735 3.39433 -2.95016
  112 -4.47299 3.47614 -8.15316
  113 23.8313 2.27487 -13.6952
  114 48.4426 0.00773674 -13.5485
  115 77.9525 1.06170 -12.4206
  116 102.685 1.16966 -11.7886
  117 138.946 -0.179905 -12.4812
  118 157.374 0.113614 -8.74194
  119 178.548 -0.0683868 -7.94320
  120 196.223 -0.378993 -6.50837
  121 209.887 -0.188814 -5.32567
  122 222.032 -0.000787273 -4.72696
  123 230.175 0.332325 -4.14528
  124 241.671 -0.300818 -3.79847
  125 245.796 -0.00761804 -1.98952
  126 251.265 -0.0139875 -1.58540
  127 255.602 -0.195165 -1.22419
  128 258.812 -0.127668 -0.981385
  129 262.221 0.0162311 -0.808135
  130 259.337 1.01272 -0.349695
  131 263.709 0.372719 -0.501355
  132 273.398 -0.249227 0.371414
  133 285.732 -0.986062 -0.156446
  134 297.818 -1.96655 -0.0588062
  135 311.618 -2.78256 -0.00268003
  136 326.152 -4.39627 0.0568175
  137 341.502 -5.59804 0.313408
  138 357.436 -6.01930 0.162501
  139 371.257 -7.26496 0.174139
  140 383.224 -6.54148 0.554174
  141 396.872 -5.91309 1.04484
  142 412.232 -4.76724 1.10506
  143 426.591 -4.37224 0.971191
  144 441.749 -2.81444 0.657258
  145 454.360 -1.98653 1.00890
  146 464.215 -0.511022 0.552217
  147 416.679 -39.1568 -1.74633
  148 416.323 -38.6279 1.89371
  149 438.225 62.9011 -20.9509
  150 466.027 27.4493 44.0568
  151 353.122 -34.0619 -78.3956
  152 356.001 -34.0121 75.9046
  153 344.210 -14.5264 9.68742
  154 344.236 -14.7261 -9.69355
  155 493.462 17.8134 -33.0255
  156 415.579 -15.0120 8.56798
  157 415.401 -14.6543 -8.46286
  158 537.147 119.499 5.00892
  159 425.977 -0.679532 -43.3356
  160 316.097 -24.7535 -35.2181
  161 316.113 -24.5498 34.9168
  162 426.572 -9.68304 38.9893
  163 406.154 29.6772 25.9822
  164 168.393 26.8261 -93.6043
  165 186.519 25.4337 98.6010
  166 520.134 6.16910 2.44065
  167 427.386 -16.4417 -26.8292
  168 565.021 124.068 -0.962133
  169 385.296 -10.9013 -0.332315
  170 385.216 -10.8694 0.364415
  171 431.721 -5.34121 -3.71721
  172 433.047 -4.81238 3.20349
  173 304.321 -4.30487 -5.66542
  174 304.362 -4.26081 5.63758
  175 462.513 -11.9026 99.6803
  176 393.409 16.3908 -28.0016
  177 257.767 -19.2558 -56.2602
  178 258.532 -19.1164 55.9035
  179 289.842 -9.40924 -18.4655
  180 289.872 -9.30246 18.3334
  181 429.409 -11.3359 22.8124
  182 390.601 -26.7825 -1.66288
  183 389.248 -26.5834 2.27178
  184 443.125 -42.9368 -8.69105
  185 445.461 -40.9061 3.19773
  186 611.536 144.048 -22.5947
  187 446.744 71.6312 19.5706
  188 447.043 27.4509 -44.4931
  189 460.725 -3.49794 -115.624
  190 443.088 -25.0826 -30.5314
  191 446.921 -17.9270 36.1745
  192 372.969 -42.3268 38.7921
  193 373.043 -42.0243 -38.6781
  194 399.870 5.13037 33.6005
  195 183.953 -4.57098 -68.8810
  196 184.395 -4.95340 68.4691
  197 688.471 102.933 14.9748
  198 419.829 -25.0440 16.3004
  199 435.155 -8.07309 -14.7559
  200 346.334 -8.43553 -4.47151
  201 346.342 -8.39393 4.45819
  202 418.565 -5.45279 -30.0956
  203 476.176 69.8512 -35.3641
  204 399.641 35.9495 -5.20228
  205 261.260 -9.15963 25.8685
  206 260.866 -9.18743 -26.0552
  207 441.314 -4.99642 7.96898
  208 430.881 8.10420 44.5930
  209 350.750 -25.4451 -17.2939
  210 348.436 -24.0899 17.6729
  211 506.999 75.2203 31.9174
  212 594.125 82.4585 15.7353
  213 41.2847 32.0115 -26.8207
  214 38.2055 29.5912 22.8244
  215 245.908 70.6752 164.201
  216 415.647 -27.6409 -12.2697
  217 442.850 -4.79755 -7.19457
  218 395.449 3.52264 -30.9497
  219 278.873 -2.72058 -8.20591
  220 278.964 -2.69014 8.13692
  221 374.644 -17.5460 -3.95922
  222 374.819 -17.6566 3.74817
  223 422.049 -5.70856 25.5652
  224 484.263 -27.9987 12.3740
  225 482.659 98.4126 -10.1910
  226 378.506 -36.5039 -18.6765
  227 477.551 -8.33044 27.5295
  228 407.444 -6.93568 1.26108
  229 407.446 -6.88014 -1.25940
  230 375.776 -36.3316 19.3624
  231 429.988 -27.3267 24.7363
  232 601.443 79.0543 -40.4230
  233 134.941 80.2812 -119.605
  234 366.237 12.9483 6.70552
  235 432.662 38.1348 37.6059
  236 459.972 -3.25309 -39.2106
  237 430.121 -15.5181 -36.3302
  238 231.352 -7.37293 -32.3284
  239 232.138 -7.26267 32.2316
  240 430.730 -5.24841 -19.6746
  241 410.374 -10.4655 4.37996
  242 410.182 -10.4535 -4.22235
  243 87.8580 7.93398 -44.2083
  244 89.2139 6.95300 44.0556
  245 456.243 -39.9580 -36.5429
  246 451.208 -1.72231 1.04624
  247 451.670 -1.75404 -1.15313
  248 422.741 35.0579 -34.4743
  249 373.306 7.25988 20.3026
  250 770.931 123.437 82.9783
  251 764.370 87.0214 -51.7855
  252 557.394 119.837 -0.271008
  253 348.098 -16.8515 104.077
  254 319.733 -11.0344 -108.795
  255 367.343 -7.54939 -1.64057
  256 367.311 -7.50255 1.62957
  257 306.186 -8.11110 11.3827
  258 306.181 -8.22162 -11.4794
  259 440.974 -4.83491 12.0135
  260 428.231 -30.5333 -20.1301
  261 280.506 -0.492839 -1.93344
  262 280.573 -0.484121 1.92201
  263 422.870 -17.1829 -16.1004
  264 181.544 -5.90122 -44.8937
  265 182.308 -5.91972 44.5791
  266 428.247 -18.6135 28.9314
  267 327.586 -34.7672 63.0898
  268 328.396 -35.3886 -62.8957
  269 371.459 14.3159 -9.45029
  270 320.582 -4.86107 -3.82258
  271 320.612 -4.82874 3.80853
  272 402.619 -0.981625 24.7517
  273 480.099 87.7326 24.4827
  274 259.623 -3.10945 13.8232
  275 259.426 -3.13509 -13.9370
  276 439.517 -36.7648 13.5959
  277 406.860 -45.7071 -42.7776
  278 452.968 -2.29090 3.66282
  279 316.930 -18.6536 -24.1333
  280 316.398 -18.4475 24.0456
  281 554.805 60.3514 146.020
  282 265.129 -21.4286 75.1333
  283 426.875 59.8972 -2.22021
  284 537.042 59.7546 -19.8368
  285 406.164 -31.4080 4.22726
  286 407.207 -46.9510 38.6474
  287 265.911 -21.0841 -75.9620
  288 49.7687 61.4557 56.2257
  289 422.944 -17.2405 16.4020
  290 552.995 72.7776 14.9258
  291 456.429 -2.04698 -3.17642
  292 415.578 14.5812 -39.6888
  293 409.262 -23.1661 8.42224
  294 400.797 -33.8116 1.96674
  295 414.127 19.0398 38.2613
  296 437.444 -36.7695 -12.0308
  297 618.425 119.930 -10.9638
  298 409.153 -22.2708 -8.04856
  299 336.661 97.9750 -200.401
  300 418.039 -44.3405 -9.24109
  301 415.113 -45.5536 13.9735
  302 306.344 -27.6322 -49.5461
  303 277.933 -1.02366 -4.19434
  304 278.013 -1.00578 4.16269
  305 306.483 -27.6564 49.2840
  306 442.613 -0.761914 -44.6180
  307 476.706 -19.7493 -17.7168
  308 364.532 -21.8789 -9.41012
  309 364.309 -21.9297 9.57819
  310 433.971 -37.3579 67.9651
  311 434.201 -3.53112 14.8888
  312 525.460 2.98453 25.3860
  313 357.353 -12.5662 -5.23187
  314 357.379 -12.5261 5.20442
  315 326.193 -8.41485 -7.57292
  316 326.198 -8.33746 7.56256
  317 369.551 5.03371 -19.6313
  318 471.597 34.5670 -42.6490
  319 724.897 196.067 -94.2408
  320 429.127 -3.91567 -1.22099
  321 428.892 -3.86442 1.25673
  322 231.395 -0.604366 93.7618
  323 324.396 -14.6014 -16.0756
  324 323.800 -14.5549 16.1176
  325 231.350 -1.15174 -93.4033
  326 450.205 53.0897 -36.5124
  327 502.300 24.9741 31.2216
  328 433.865 -30.9502 -75.3481
  329 400.192 -15.4855 3.42665
  330 399.791 -15.3759 -3.25667
  331 426.545 -8.95709 -7.67052
  332 402.889 -0.745573 -23.1427
  333 450.631 1.89064 43.5950
  334 448.763 -3.22989 -8.25371
  335 272.263 -16.4021 37.7463
  336 271.964 -16.4917 -38.0281
  337 419.884 -0.938843 41.1873
  338 261.324 -2.07911 -8.22443
  339 261.491 -2.05978 8.15242
  340 429.757 -9.98060 12.1855
  341 515.746 105.152 -17.5810
  342 426.349 -9.02087 7.96776
  343 455.189 57.0844 36.6084
  344 435.358 -8.13438 42.4989
  345 345.943 -6.45106 1.66306
  346 345.944 -6.48955 -1.67337
  347 412.689 -1.45739 -36.5683
  348 544.517 114.335 10.6032
  349 454.085 83.0494 0.761842
  350 277.926 32.2311 -139.069
  351 29.6167 12.6149 -19.5218
  352 32.3825 13.6555 20.9617
  353 -1.14840 3.35558 8.14020
  354 0.505150 1.97685 -8.52362
  355 788.632 54.7309 18.6710
  356 376.071 -30.4589 -11.2167
  357 430.071 -9.65147 -11.8849
  358 388.752 -6.91674 0.384018
  359 388.707 -6.86315 -0.386742
  360 416.837 46.0459 -18.6782
  361 355.340 -36.1225 31.9404
  362 31.6796 47.2836 -35.1442
  363 355.656 -36.1088 -32.5024
  364 422.188 48.0120 19.8737
  365 429.357 -11.5292 -21.6991
  366 455.019 -25.4534 -25.6829
  367 485.896 102.269 7.01291
  368 455.987 -28.5489 20.9236
  369 191.469 -4.70475 30.0474
  370 190.356 -4.61326 -30.2326
  371 108.905 2.57943 -41.9125
  372 110.011 2.15555 41.7287
  373 375.222 1.32351 19.8378
  374 703.653 206.846 82.2683
  375 443.492 -2.89980 -10.5814
  376 346.542 -29.1425 -24.5237
  377 346.271 -29.0731 24.4917
  378 427.035 -9.90899 -27.6876
  379 484.853 -23.4356 1.75296
  380 376.058 -30.4335 11.5378
  381 530.912 4.39225 -45.4581
  382 304.125 -2.39217 -1.51083
  383 304.173 -2.37198 1.50098
  384 420.401 -2.47563 -17.7750
  385 229.023 -3.24503 -19.5860
  386 229.162 -3.35073 19.3535
  387 501.091 64.0625 -35.6278
  388 271.549 19.1030 129.305
  389 393.080 -20.6267 1.15530
  390 393.462 -20.5923 -1.17216
  391 462.137 78.0422 -23.0903
  392 436.940 -12.9971 -40.1685
  393 437.170 -44.7383 37.7194
  394 366.081 -9.71716 -2.58484
  395 366.041 -9.67245 2.56196
  396 421.419 -32.5466 13.1549
  397 452.894 -2.25004 6.11341
  398 285.267 -10.2778 -23.0594
  399 285.383 -10.2799 22.8704
  400 428.769 14.4077 -44.0155
  401 404.115 -8.87653 1.88125
  402 404.095 -8.89860 -1.83043
  403 418.672 -4.96085 33.5084
  404 391.507 28.6104 9.00583
  405 433.398 -18.3650 34.9254
  406 624.358 130.387 24.1530
  407 211.288 -11.3503 -60.2417
  408 211.867 -11.3523 59.7958
  409 94.7339 50.4390 -72.5412
  410 462.580 -1.47788 1.63891
  411 238.796 -1.96247 -12.4044
  412 239.107 -1.92094 12.3018
  413 427.345 -11.2110 27.0820
  414 387.758 -42.0523 21.4996
  415 436.873 -5.57934 5.41845
  416 446.251 22.6354 45.7576
  417 99.1905 53.7062 75.5333
  418 388.325 -41.8082 -19.8482
  419 401.162 -37.2635 -4.75415
  420 133.299 -2.66647 -37.9042
  421 134.262 -2.76346 37.6495
  422 308.563 -24.8224 -90.5984
  423 459.998 -6.92902 38.2025
  424 307.441 -25.1789 89.8198
  425 425.263 -23.9383 -22.2603
  426 396.826 26.8558 -19.6900
  427 425.318 -18.4563 21.2049
  428 456.367 -2.15818 -4.07312
  429 14.2929 15.4955 7.26449
  430 93.6015 108.757 106.906
  431 410.388 -1.50092 17.1926
  432 346.581 4.84868 8.62355
  433 352.375 5.88492 -11.6850
  434 300.643 -4.87389 -8.03315
  435 300.678 -4.81232 7.98375
  436 419.294 -32.5236 -11.9654
  437 424.148 -8.34491 -37.4457
  438 348.365 6.65026 -3.17309
  439 623.932 148.808 32.4155
  440 88.0603 28.8659 -54.4220
  441 96.9358 26.4861 58.0607
  442 392.716 -14.0309 1.21273
  443 392.570 -14.0008 -1.11162
  444 523.159 115.125 -1.34919
  445 324.568 137.047 204.857
  446 501.749 -6.87883 -5.16971
  447 291.133 -15.0452 -31.2796
  448 291.273 -14.9445 31.0242
  449 293.451 -6.44403 12.4447
  450 293.392 -6.49028 -12.5519
  451 394.428 8.83997 -31.8957
  452 464.855 -0.771210 -1.07615
  453 383.856 17.7204 17.9547
  454 482.474 59.5266 39.0031
  455 401.981 -29.8288 -2.80626
  456 436.685 -5.32086 -5.27002
  457 458.190 -1.96547 3.75013
  458 463.496 -0.829845 0.613680
  459 463.849 -0.922967 -0.441982
  460 259.932 -0.435991 3.06001
  461 259.801 -0.442651 -3.09016
  462 439.256 -27.9911 26.9184
  463 398.154 15.7849 30.8957
  464 415.453 1.70618 -40.2167
  465 432.606 -9.23561 16.0120
  466 618.583 107.296 -123.872
  467 433.850 -24.1443 -30.3592
  468 4.89351 8.33196 3.81179
  469 4.82721 8.49444 -1.66216
  470 345.058 -19.4180 14.0025
  471 343.931 -19.1520 -13.8238
  472 536.321 10.9703 67.3888
  473 150.911 139.355 -156.072
  474 428.501 -1.35054 13.2828
  475 483.559 -28.0478 -38.9457
  476 260.732 -14.8889 43.6480
  477 519.632 92.2253 -25.3084
  478 427.641 -23.2203 25.3493
  479 360.109 -17.1247 -7.19199
  480 360.424 -16.8446 7.17442
  481 375.134 2.04411 -17.5094
  482 259.929 -14.8276 -43.9059
  483 384.322 0.221941 17.5788
  484 366.602 -41.9667 -56.5961
  485 365.694 -42.0306 56.8170
  486 441.091 -3.00291 11.6943
  487 402.815 38.0371 3.72043
  488 405.849 7.39345 140.572
  489 597.843 121.207 -0.757219
  490 413.641 -7.11165 2.32438
  491 413.661 -7.08670 -2.41731
  492 320.340 -5.59968 -5.15921
  493 320.365 -5.55428 5.14150
  494 169.691 7.61678 78.9841
  495 429.610 -20.7643 -29.7988
  496 389.966 -8.55556 0.0517451
  497 389.927 -8.52735 -0.0445202
  498 340.154 -35.9398 46.3014
  499 172.923 10.0913 -80.9664
  500 429.959 -35.1012 -13.7402
  501 7.70818 2.19172 2.85216
  502 378.282 19.6590 1.31958
  503 415.064 -4.96123 -0.751410
  504 415.057 -5.02594 0.731556
  505 340.338 -35.8735 -46.6533
  506 484.010 -24.7261 49.2603
  507 481.028 17.4694 39.4745
  508 443.375 -3.17181 -2.57179
  509 428.649 -35.5901 13.9617
  510 272.248 -0.227127 -0.560789
  511 272.315 -0.224780 0.556523
  512 428.392 -16.5133 -31.9381
  513 416.046 30.8115 33.7374
  514 475.199 11.7442 -39.0165
  515 270.591 -0.395284 -1.72477
  516 270.668 -0.389599 1.71368
  517 821.693 118.752 -105.935
  518 432.680 51.4811 29.6472
  519 443.744 -2.94076 2.28422
  520 402.035 -38.0893 5.72930
  521 339.445 -11.1351 7.79319
  522 339.438 -11.2177 -7.77730
  523 466.823 -28.5084 10.7430
  524 449.415 -9.04648 -40.4658
  525 502.685 98.8164 21.5383
  526 419.035 7.23543 41.7204
  527 421.286 -8.24196 4.74103
  528 409.167 -43.7631 -54.7447
  529 425.344 -10.5894 31.6097
  530 811.557 37.3058 -14.8092
  531 463.321 -34.9970 0.887944
  532 440.626 -3.08758 -0.576806
  533 440.734 -3.27362 0.495222
  534 820.016 54.9979 51.7864
  535 408.839 -0.106683 35.4854
  536 568.984 96.3364 -7.05065
  537 428.848 -11.7780 -15.4825
  538 197.171 -1.80920 -13.3873
  539 197.760 -1.72171 13.2548
  540 291.828 -27.2860 -62.9956
  541 292.072 -26.8299 62.5383
  542 421.051 -7.90986 -4.70352
  543 458.635 16.8128 -44.4165
  544 403.157 -27.4285 4.35447
  545 434.551 49.7995 -30.7340
  546 436.492 -5.17667 15.7323
  547 544.868 27.9289 -8.51133
  548 374.416 -12.8179 -2.39866
  549 374.308 -12.7766 2.37380
  550 405.953 -19.1966 6.13889
  551 595.642 118.940 -11.4504
  552 428.359 18.7461 43.3164
  553 183.867 47.2172 116.568
  554 411.940 -24.6847 94.4518
  555 541.625 27.6020 -104.414
  556 437.889 36.2041 -40.2514
  557 387.224 -33.5655 -81.9718
  558 419.562 -46.0376 -17.2919
  559 437.731 -44.4120 -24.8493
  560 58.2476 76.2233 -72.1817
  561 440.107 -5.71232 -9.50296
  562 660.030 128.192 -38.2051
  563 408.077 -18.4306 -6.96603
  564 411.330 -13.4711 5.75734
  565 410.952 -13.1702 -5.50532
  566 286.837 -1.59015 -3.82334
  567 286.901 -1.56965 3.79955
  568 42.1476 4.19953 -23.2522
  569 44.3518 4.40680 23.7809
  570 213.744 -9.85470 -45.9150
  571 215.339 -9.90967 45.8543
  572 417.005 -22.6529 -13.7497
  573 424.377 -46.2276 18.6306
  574 436.193 -41.4882 1.24931
  575 359.278 -6.35267 -1.43635
  576 359.260 -6.30924 1.42932
  577 340.162 -35.7356 -70.1324
  578 379.907 -31.2488 86.6525
  579 332.067 -33.6171 70.5093
  580 429.360 -9.57356 -40.2023
  581 271.807 -4.43402 13.9230
  582 271.673 -4.47959 -14.0330
  583 410.420 22.7438 -33.9073
  584 410.659 -0.723335 -15.6010
  585 511.765 110.724 -9.59002
  586 336.021 -5.03843 -1.38312
  587 336.033 -5.00624 1.37698
  588 436.577 -1.32574 -8.71474
  589 303.788 -10.1392 -15.5256
  590 303.801 -10.1056 15.3968
  591 247.290 11.2387 111.371
  592 424.909 -19.6195 -21.4231
  593 238.672 -12.7145 80.0808
  594 417.574 -21.6924 14.0775
  595 438.993 -6.32770 10.5199
  596 433.279 -4.13315 -2.25149
  597 307.532 -3.73416 -3.59034
  598 307.574 -3.70423 3.57310
  599 491.026 97.8057 -19.4993
  600 238.497 -12.2491 -80.3685
  601 416.170 -18.0899 -11.1744
  602 376.170 -7.03036 -0.756558
  603 376.132 -6.98074 0.753623
  604 700.475 94.1167 -16.7849
  605 252.398 -1.57951 7.66091
  606 252.184 -1.59471 -7.72937
  607 389.890 9.01471 29.1238
  608 552.313 46.9425 -4.08978
  609 263.329 1.63171 -110.502
  610 136.321 3.30611 -60.5075
  611 137.421 2.54801 60.1891
  612 330.823 -19.1787 19.3556
  613 334.194 -19.7441 -18.8323
  614 559.494 112.897 8.07422
  615 431.556 -4.27792 2.01790
  616 373.520 10.6171 -17.6163
  617 463.348 83.0880 18.2703
  618 461.756 86.2109 -12.1535
  619 379.434 -20.9895 -3.84815
  620 382.270 -20.5253 2.50577
  621 271.609 59.4315 -158.446
  622 327.382 -11.1001 -10.8277
  623 327.412 -10.9756 10.7935
  624 817.742 167.525 126.239
  625 428.674 -14.0992 34.5541
  626 247.405 -8.64914 -29.4079
  627 659.211 156.617 106.273
  628 247.970 -8.60268 29.3027
  629 408.483 -15.5131 -110.063
  630 291.983 -1.38409 -1.40793
  631 292.040 -1.37218 1.40124
  632 360.606 3.30023 15.3741
  633 165.581 -2.42892 -26.3792
  634 166.465 -2.43533 26.1792
  635 374.609 -26.4512 8.73850
  636 392.477 -31.3983 -3.18404
  637 460.755 -1.06489 -3.46264
  638 264.161 -0.403393 2.27321
  639 264.057 -0.410732 -2.29532
  640 354.035 -7.96405 -2.26005
  641 354.024 -7.92132 2.24478
  642 404.361 -44.9443 55.2795
  643 465.317 51.9308 -40.2476
  644 311.383 -14.4003 -19.9939
  645 311.171 -14.1594 19.8547
  646 367.813 -26.3800 -11.8270
  647 577.065 125.365 4.58277
  648 433.658 -42.0204 1.10738
  649 377.564 -9.07585 -1.23385
  650 377.509 -9.03353 1.23351
  651 517.346 56.7996 29.4296
  652 434.740 -6.37095 -17.0950
  653 386.474 -0.439528 -14.3077
  654 180.211 -6.16435 -57.8102
  655 180.746 -6.33175 57.3519
  656 366.771 -31.5654 -18.6455
  657 548.660 120.406 0.130439
  658 426.966 57.7709 -13.3546
  659 285.295 -2.53680 -6.99846
  660 285.365 -2.50179 6.94560
  661 397.392 -11.3028 -1.36683
  662 397.469 -11.3127 1.44816
  663 734.581 95.7817 42.2861
  664 467.201 -1.33919 0.904636
  665 452.480 -1.85826 6.00559
  666 450.813 -1.88123 -7.07825
  667 428.494 -39.9395 5.16327
  668 317.784 -3.64576 -1.79331
  669 317.818 -3.62054 1.78583
  670 458.765 73.4009 28.1924
  671 586.541 130.157 -8.90571
  672 323.125 -23.8839 -28.3206
  673 323.044 -23.6536 28.1849
  674 402.434 -41.4544 -9.60138
  675 425.339 25.3009 -40.7994
  676 502.485 1.41219 15.8677
  677 336.167 -6.20923 -3.63368
  678 336.180 -6.17077 3.61994
  679 290.772 -25.4370 -56.8716
  680 424.481 -41.0935 -1.28249
  681 353.525 -39.1936 51.0306
  682 169.947 53.4729 -112.530
  683 330.748 -30.5513 39.3723
  684 399.068 0.111653 13.1858
  685 291.048 -25.1511 56.5012
  686 415.933 -18.4339 11.3123
  687 330.841 -30.4198 -39.7191
  688 340.959 4.52591 3.23155
  689 263.898 -6.99496 20.9568
  690 263.666 -7.00093 -21.0972
  691 353.691 -40.2080 -51.5907
  692 436.388 -28.8126 -26.0064
  693 400.493 -5.73811 -0.373364
  694 400.557 -5.79511 0.375262
  695 445.814 -28.4778 25.6267
  696 405.466 -42.3722 11.2419
  697 492.138 45.1831 38.3821
  698 444.496 -8.38681 41.8181
  699 427.731 -15.4274 25.2552
  700 410.052 33.7629 -25.7218
  701 491.530 82.5646 30.4321
  702 424.655 -5.91244 -24.7820
  703 422.680 -14.1062 12.6531
  704 438.257 68.5152 7.20885
  705 430.241 -7.36583 21.4567
  706 136.390 92.9843 118.088
  707 400.230 -46.0670 -32.4001
  708 463.365 8.38689 42.3727
  709 467.403 -14.4988 -29.5247
  710 465.227 -0.693068 1.88069
  711 427.312 -14.7715 -19.7412
  712 400.840 -46.4269 29.5380
  713 769.138 68.1546 -11.3814
  714 242.269 -1.00686 8.01283
  715 241.986 -1.01772 -8.08513
  716 432.994 -7.99557 -9.02793
  717 467.916 -0.534273 -1.84306
  718 366.127 -32.0791 18.7411
  719 438.806 -16.3893 37.8612
  720 662.059 159.974 -52.0309
  721 415.930 -30.1731 11.3008
  722 460.360 -30.3753 -14.3340
  723 422.828 -13.7346 -12.4474
  724 467.546 -0.890797 -0.564479
  725 428.860 -0.0603387 43.8363
  726 20.1174 19.8379 25.8594
  727 481.118 -18.1869 -72.4705
  728 524.266 31.4086 17.4751
  729 437.328 -44.7479 22.3497
  730 314.420 -7.46466 8.84960
  731 314.415 -7.56697 -8.88942
  732 403.867 210.072 -215.052
  733 445.986 -29.5693 -23.5623
  734 339.661 1.88093 -6.17968
  735 393.823 2.22670 28.3405
  736 430.618 -21.6084 30.2707
  737 412.744 -34.7831 4.98256
  738 428.180 -39.1199 -59.4186
  739 410.272 -32.4633 -5.79481
  740 483.306 -23.1263 -3.42228
  741 445.301 -3.77242 5.23924
  742 398.620 -23.9440 2.71138
  743 719.092 143.697 -77.1171
  744 424.606 -11.4697 9.97380
  745 421.209 6.92152 -42.8246
  746 358.411 -3.93073 123.598
  747 450.747 36.2623 43.5238
  748 387.806 -30.4908 5.15596
  749 300.744 -23.5694 -41.6301
  750 300.782 -23.5078 41.3037
  751 413.312 46.4924 -5.98146
  752 419.646 -4.87498 38.1024
  753 423.916 -10.1243 -32.3356
  754 399.066 -24.4397 -2.83038
  755 385.981 -34.5410 10.9854
  756 441.575 72.7244 -8.10750
  757 412.243 -35.6822 -3.36030
  758 413.299 -26.1876 11.0598
  759 418.378 -5.51412 1.63494
  760 418.625 -5.37047 -1.62116
  761 562.655 123.157 1.84269
  762 459.582 -39.1432 -15.4535
  763 428.598 -13.2063 19.6850
  764 445.417 -3.76579 -4.74830
  765 451.144 2.96638 -44.0200
  766 512.326 27.1762 -24.5378
  767 255.252 -0.219751 -3.76032
  768 255.418 -0.216260 3.72450
  769 3.80426 -7.39229 -5.17676
  770 437.617 -0.549953 8.06070
  771 402.480 -0.606865 -31.2849
  772 415.229 -3.89434 27.4569
  773 376.555 47.6674 180.595
  774 472.446 96.8286 -0.980048
  775 336.727 -23.9691 22.2610
  776 60.9102 1.29211 -22.8604
  777 62.5717 0.944859 23.1005
  778 411.680 -2.92325 -31.0302
  779 337.608 -24.2031 -22.2609
  780 442.817 -4.13667 3.93044
  781 229.353 -9.70458 39.1663
  782 227.428 -9.66894 -39.1735
  783 424.571 -11.1416 -9.70997
  784 273.927 -6.80666 -18.2651
  785 274.063 -6.76334 18.1107
  786 441.922 -4.27156 -11.7555
  787 339.354 -9.00142 -6.23599
  788 339.368 -8.94478 6.23870
  789 482.253 -3.03227 -29.4464
  790 435.069 -4.58222 -43.8687
  791 224.358 -1.40189 -10.1872
  792 224.778 -1.38876 10.0731
  793 12.2297 5.57430 -14.0713
  794 14.1518 5.88496 14.7905
  795 355.256 1.73780 -11.1615
  796 397.099 -44.6124 -24.4034
  797 -4.50179 -3.09029 7.83383
  798 -3.97076 -3.69410 -7.81837
  799 413.139 -8.40102 3.55630
  800 447.614 -35.0008 -12.6397
  801 463.243 68.5571 -32.8490
  802 444.651 -3.72906 -3.74087
  803 938.656 190.645 -176.278
  804 413.051 -8.37630 -3.50808
  805 620.081 117.804 10.0680
  806 442.575 12.8729 -45.8000
  807 487.996 36.8820 -39.3753
  808 84.5543 -0.987086 -21.0491
  809 86.0260 -1.10761 21.0132
  810 278.626 -3.94494 10.8682
  811 278.525 -3.97707 -10.9597
  812 266.792 -0.599247 2.04346
  813 266.707 -0.605620 -2.05882
  814 493.962 83.0934 -30.1108
  815 294.789 -1.78184 -3.04263
  816 294.844 -1.76162 3.02688
  817 420.922 -4.23749 -39.7919
  818 602.153 63.5859 54.7010
  819 380.300 8.59903 -24.5094
  820 133.796 -1.18098 22.4726
  821 132.719 -1.19208 -22.6434
  822 485.870 14.0781 130.143
  823 432.586 -8.06046 9.31738
  824 389.172 25.9211 -10.2050
  825 182.116 -0.267888 15.2699
  826 181.226 -0.184516 -15.3781
  827 272.068 -1.33970 -5.34367
  828 272.169 -1.32046 5.29728
  829 49.0973 43.5634 38.1966
  830 405.121 9.71851 36.3255
  831 450.112 66.0471 -28.2728
  832 483.359 56.1332 -39.3577
  833 319.552 -11.9590 -14.1008
  834 319.376 -11.8732 14.0858
  835 501.055 106.296 13.5492
  836 431.462 -3.74590 -0.467818
  837 431.492 -3.71833 0.538732
  838 427.849 -12.9036 -25.5479
  839 359.290 -23.8409 13.2832
  840 394.726 -44.3458 24.4908
  841 462.405 -37.8826 37.9603
  842 356.337 -10.3032 -3.85844
  843 356.336 -10.2670 3.83526
  844 407.767 37.8360 16.5396
  845 383.677 5.32155 -26.4479
  846 106.527 128.763 122.887
  847 387.164 -34.2558 -10.0419
  848 388.533 -17.3587 0.0917475
  849 388.739 -17.3984 -0.114908
  850 427.386 -6.32231 41.7436
  851 423.302 -27.8592 -18.3769
  852 378.701 -25.0075 -5.80764
  853 851.453 27.5570 -41.7952
  854 360.185 -33.9780 25.4055
  855 359.888 -34.4135 -25.8017
  856 426.773 -5.13979 21.0594
  857 639.055 165.711 -39.1896
  858 338.358 -30.6109 -31.4329
  859 373.024 -41.9453 30.1601
  860 338.284 -30.2475 31.1648
  861 366.546 -14.7096 -4.51676
  862 366.540 -14.6633 4.48766
  863 55.4145 23.2085 33.1441
  864 458.555 34.2522 -43.9186
  865 352.107 -13.6713 -6.88304
  866 352.174 -13.5366 6.90635
  867 347.950 -5.74159 -0.839030
  868 347.947 -5.70375 0.833972
  869 381.716 -7.64749 -0.321295
  870 381.671 -7.59958 0.318055
  871 312.018 -6.02458 -7.63771
  872 312.047 -5.95846 7.60811
  873 353.345 -18.4872 -10.2645
  874 353.393 -18.3659 10.3096
  875 8.79790 -2.07027 -4.79274
  876 530.275 99.5236 21.5535
  877 456.385 -16.0659 -34.5675
  878 372.697 -41.3338 -30.4631
  879 402.283 -13.0220 3.08290
  880 402.109 -12.8921 -2.97659
  881 438.770 0.515754 44.8313
  882 475.131 -33.8789 -21.8685
  883 419.746 30.7530 -156.921
  884 193.692 -3.29844 77.9526
  885 -6.23805 4.51517 -5.64445
  886 -5.32215 5.10109 6.20771
  887 55.0879 24.6800 -33.8522
  888 428.298 -12.4073 15.3715
  889 449.805 -3.05219 -6.44027
  890 404.860 -39.0338 67.9361
  891 193.239 -3.10636 -78.2531
  892 451.154 -37.0182 8.28182
  893 500.656 -14.3447 59.8094
  894 367.750 1.50863 11.8221
  895 419.901 39.9522 28.1065
  896 228.699 -12.8409 57.1918
  897 227.828 -12.9439 -57.5573
  898 274.145 -12.9167 -32.1184
  899 286.251 -14.1922 -99.2213
  900 451.862 -10.6331 39.1679
  901 618.175 146.214 25.1464
  902 454.018 17.4243 44.7873
  903 429.113 -9.22240 -23.3642
  904 292.181 -12.7135 101.675
  905 545.776 100.841 -15.0421
  906 55.3180 46.7893 -46.9458
  907 397.993 -0.775507 -12.5776
  908 274.430 -12.8124 31.8442
  909 333.574 -7.29250 5.47402
  910 333.560 -7.34055 -5.48490
  911 423.906 -27.7092 19.0159
  912 439.161 -2.95186 1.45099
  913 323.760 2.88388 -123.105
  914 462.551 -1.07632 3.04125
  915 459.358 -0.891372 -3.92371
  916 347.451 3.06527 -10.2816
  917 444.792 -1.83491 -7.12593
  918 334.470 -15.5272 -13.1419
  919 334.694 -15.2988 13.1839
  920 -10.6466 4.16507 -6.07852
  921 -14.8495 2.51337 6.49935
  922 439.142 -2.75092 -1.48474
  923 147.969 -3.39158 52.6410
  924 147.116 -3.08422 -52.9315
  925 470.644 68.5567 34.5932
  926 831.812 15.0608 12.8690
  927 443.451 49.2697 36.6936
  928 499.534 -17.3796 18.3527
  929 435.743 -24.3197 30.4005
  930 542.052 113.468 -11.4860
  931 340.297 1.52049 7.75495
  932 419.087 -9.97286 -5.84553
  933 436.338 23.4691 -44.4324
  934 524.522 15.9167 -6.31452
  935 408.889 -25.2674 -8.47308
  936 212.166 -1.15107 -11.3867
  937 212.372 -1.11009 11.2299
  938 431.131 -10.2181 -18.1079
  939 14.9131 18.7373 4.47652
  940 413.909 -42.9209 -5.62552
  941 361.482 10.8247 -1.05908
  942 538.632 118.047 -7.61468
  943 86.3942 64.1673 -77.1844
  944 415.248 -3.09776 -24.6018
  945 289.922 -4.75261 -10.1874
  946 289.982 -4.69765 10.1062
  947 2.66331 -11.6114 8.77178
  948 283.341 -20.9677 -46.0803
  949 421.739 -24.4266 -17.8826
  950 266.019 0.574285 -0.853761
  951 266.090 0.576798 0.848424
  952 427.153 51.8133 -22.4635
  953 455.076 -1.47522 -0.611953
  954 455.098 -1.49239 0.809986
  955 283.475 -20.9134 45.7800
  956 427.291 -0.622807 -9.67998
  957 490.088 3.57296 28.2236
  958 435.022 -6.26382 7.15056
  959 71.2018 17.7139 -41.5641
  960 450.667 -2.83681 5.82091
  961 410.995 3.35817 38.8174
  962 433.395 59.9603 19.9764
  963 432.996 5.01831 -45.3967
  964 299.931 -15.9356 -27.6874
  965 466.071 -16.5850 28.4283
  966 300.129 -15.8771 27.4190
  967 14.2828 15.3676 -2.00103
  968 52.7159 8.80325 30.4889
  969 246.075 -4.27407 18.9001
  970 245.782 -4.27612 -19.0015
  971 419.385 -10.1552 6.18294
  972 452.166 78.4659 10.9917
  973 230.627 20.9214 -116.785
  974 378.015 -23.5393 5.13543
  975 354.883 -37.0301 -37.8349
  976 516.038 98.7598 22.9043
  977 397.407 -7.10322 0.325455
  978 397.390 -7.06609 -0.328831
  979 434.749 -8.14630 -12.8913
  980 404.045 34.9453 -15.2534
  981 897.478 268.933 181.144
  982 85.9574 4.68155 -39.8193
  983 87.2380 3.88656 39.9016
  984 6.39910 -7.00023 2.68308
  985 405.111 22.5197 31.3104
  986 354.807 -37.2587 37.5652
  987 438.785 -20.7852 -34.7930
  988 477.241 38.9858 43.0001
  989 457.514 -36.9489 -46.2318
  990 667.236 140.269 47.4543
  991 390.327 -6.39393 -0.263777
  992 390.276 -6.34315 0.263793
  993 455.941 -18.6650 32.6899
  994 31.9128 55.1650 55.9522
  995 208.307 -4.30854 27.0241
  996 207.678 -4.25298 -27.3018
  997 247.687 -11.9997 37.0141
  998 246.851 -11.8130 -37.1451
  999 278.602 -11.3673 26.6782
  1000 304.590 -2.35748 -1.36519
  1001 304.637 -2.34036 1.35993
  1002 744.800 240.991 -154.731
  1003 679.156 170.357 71.4388
  1004 278.377 -11.4230 -26.8930
  1005 469.543 -2.20938 36.1375
  1006 421.871 43.7783 -27.0345
  1007 298.115 -25.7256 82.3181
  1008 381.815 -45.1287 -44.9372
  1009 436.174 -3.63560 -14.0878
  1010 198.201 13.3659 95.2446
  1011 254.245 -19.3966 65.7588
  1012 387.739 19.9762 -19.6486
  1013 441.277 -8.78597 -42.3411
  1014 553.958 233.281 244.633
  1015 366.916 11.3325 14.0231
  1016 496.336 106.540 -1.64343
  1017 363.436 14.4822 -139.758
  1018 371.111 -38.9735 -26.1016
  1019 468.210 -0.577402 -1.49677
  1020 451.793 41.4742 -42.3791
  1021 267.682 -1.67432 6.84253
  1022 267.556 -1.69120 -6.90350
  1023 9.95979 6.75229 -14.9126
  1024 300.265 -13.5745 -23.1113
  1025 253.931 -19.6451 -66.2391
  1026 300.049 -13.5468 22.8678
  1027 431.517 -13.1810 39.1661
  1028 387.419 -23.9061 -1.72831
  1029 407.706 7.54609 -37.6400
  1030 419.610 52.3895 7.89555
  1031 563.847 35.1675 23.0042
  1032 427.105 -32.4886 17.9415
  1033 271.973 -21.6315 -50.4173
  1034 404.424 14.3785 -35.2809
  1035 300.628 -25.3903 -82.7311
  1036 574.791 124.264 -2.73421
  1037 393.573 25.9222 17.8758
  1038 493.642 -2.81335 -21.1106
  1039 373.406 -38.9965 24.1253
  1040 427.457 -13.6046 30.1536
  1041 424.475 -22.4572 21.2517
  1042 422.140 -21.2804 18.3117
  1043 520.309 66.2893 -30.3358
  1044 422.155 -6.83839 30.8480
  1045 381.232 -45.2543 44.2183
  1046 406.907 -16.6822 5.56928
  1047 272.146 -21.6753 50.1498
  1048 382.542 -28.1116 -6.20795
  1049 223.888 -10.9230 -70.3141
  1050 317.902 -32.9498 55.9754
  1051 429.618 -2.96335 -16.4214
  1052 418.956 -4.73948 -35.1674
  1053 363.181 -28.6195 -16.1554
  1054 224.269 -11.2293 69.7809
  1055 391.817 0.992473 -24.6288
  1056 292.168 -19.2388 -35.7772
  1057 525.484 111.561 14.2496
  1058 118.936 19.3943 -67.2718
  1059 886.767 62.6043 84.7970
  1060 212.023 15.5400 -99.6341
  1061 421.970 -34.9836 -10.4649
  1062 292.253 -19.0779 35.4961
  1063 387.819 4.17834 27.5917
  1064 219.484 -4.38173 22.3795
  1065 219.378 -4.48937 -22.6000
  1066 427.604 -11.9316 -36.3396
  1067 452.993 -2.39791 2.29534
  1068 445.130 -1.04366 7.18770
  1069 441.107 14.6138 45.7294
  1070 413.226 -3.10831 33.0928
  1071 319.367 34.2419 151.072
  1072 471.084 -0.407679 0.702284
  1073 444.551 60.1627 29.1951
  1074 377.775 5.55415 23.8062
  1075 450.464 -1.76245 6.87986
  1076 292.736 -3.06459 -5.72825
  1077 292.791 -3.03005 5.69345
  1078 187.275 -5.24998 -37.3523
  1079 187.985 -5.43956 37.1092
  1080 379.001 19.0103 10.0030
  1081 565.345 31.3701 -43.8516
  1082 519.559 0.129369 -80.6361
  1083 417.402 -0.387026 -10.0714
  1084 318.001 -33.1937 -56.3897
  1085 363.947 -27.2222 14.5238
  1086 419.735 -0.975219 10.5059
  1087 438.441 -31.8734 -21.2820
  1088 276.930 -0.594841 3.39454
  1089 276.856 -0.605663 -3.41446
  1090 421.172 -35.9848 10.4552
  1091 400.543 -8.27801 0.864027
  1092 400.474 -8.28702 -0.839869
  1093 389.883 -39.2187 15.7067
  1094 500.423 -16.0404 -7.39607
  1095 230.407 -0.396737 -6.35051
  1096 230.772 -0.382904 6.28600
  1097 342.129 -21.7683 -94.7952
  1098 364.771 -8.69918 2.17459
  1099 364.803 -8.74519 -2.19167
  1100 220.122 119.337 166.036
  1101 503.476 41.4300 -34.6382
  1102 75.5449 36.4628 -51.2967
  1103 435.242 -6.60117 -6.90377
  1104 117.844 40.0574 -77.1862
  1105 244.390 -15.2680 -47.8182
  1106 471.088 -0.575541 0.457649
  1107 471.256 -0.543613 -0.333307
  1108 428.746 -24.5274 -25.9335
  1109 379.588 -42.6722 -61.3758
  1110 119.022 16.5109 64.1023
  1111 466.610 46.1515 41.0396
  1112 422.881 -4.40675 -0.581416
  1113 422.932 -4.40928 0.620013
  1114 460.824 -29.4977 74.5362
  1115 478.283 95.5125 15.7001
  1116 286.016 -6.78572 -14.5367
  1117 286.091 -6.75508 14.4388
  1118 216.394 24.5582 117.921
  1119 406.677 2.10396 -36.4008
  1120 128.512 41.1278 82.8926
  1121 518.784 -8.56143 -26.4932
  1122 512.023 112.755 4.64803
  1123 352.910 -27.8001 19.4532
  1124 328.034 1.80720 -1.51279
  1125 446.035 -3.99803 8.71628
  1126 461.291 -0.632947 3.38945
  1127 103.873 0.170037 -18.8452
  1128 105.221 0.121899 18.7210
  1129 366.365 6.21644 -17.6535
  1130 375.999 -11.0556 -1.76153
  1131 375.917 -11.0068 1.75276
  1132 39.8957 65.4123 -59.6033
  1133 63.0272 140.438 -117.901
  1134 380.689 -14.8575 1.58750
  1135 380.830 -14.8529 -1.61046
  1136 393.062 -9.52585 0.862448
  1137 393.006 -9.50777 -0.831331
  1138 104.082 66.3491 83.5854
  1139 312.024 -3.79402 -2.78835
  1140 312.063 -3.76735 2.77600
  1141 391.588 29.6728 -0.409463
  1142 493.732 64.3255 -174.181
  1143 475.993 81.9478 -26.9221
  1144 434.016 -16.7059 -36.9102
  1145 427.462 -21.3715 -26.4157
  1146 353.100 -28.0557 -19.7703
  1147 356.830 1.20094 10.8971
  1148 400.099 25.0094 -26.1833
  1149 394.654 21.2944 25.0316
  1150 406.644 -16.2027 -5.45988
  1151 388.396 -23.4305 1.43396
  1152 353.689 -22.7464 -14.7106
  1153 420.516 -2.49250 19.5634
  1154 737.078 74.3208 10.3317
  1155 423.252 -9.04951 35.6211
  1156 425.104 27.9148 39.2117
  1157 391.693 -38.4985 -12.0383
  1158 50.0319 8.08253 -29.4213
  1159 399.030 -18.4782 -3.62144
  1160 267.907 -0.392041 -0.175911
  1161 267.972 -0.390344 0.174166
  1162 484.873 -12.8655 17.8112
  1163 461.994 -38.9299 18.2667
  1164 662.526 118.382 29.4574
  1165 161.571 -0.309546 -15.6551
  1166 162.499 -0.275101 15.5415
  1167 357.120 -7.21986 -1.74318
  1168 357.105 -7.17649 1.73147
  1169 400.219 -35.2807 -2.15647
  1170 330.896 1.53844 4.95761
  1171 409.783 -29.1829 7.92920
  1172 23.6906 28.1440 -14.1985
  1173 74.7325 36.9799 50.1424
  1174 275.017 -15.0669 91.5983
  1175 474.309 90.1668 -19.2339
  1176 452.070 -1.28181 -5.43847
  1177 473.040 -0.788103 0.293913
  1178 473.477 -1.06185 -0.178397
  1179 278.423 -0.624116 -0.567295
  1180 278.488 -0.619088 0.563337
  1181 437.191 27.9360 44.4185
  1182 643.905 109.684 -2.33737
  1183 450.621 74.3890 -19.7221
  1184 336.654 -24.8554 94.1936
  1185 273.558 -14.4991 -91.4196
  1186 304.586 -20.2572 -32.1383
  1187 419.658 -11.8119 7.96757
  1188 584.534 129.043 6.72636
  1189 304.619 -20.1395 31.8947
  1190 428.558 -7.59551 6.02741
  1191 384.565 14.3663 23.9040
  1192 422.782 13.1146 42.7472
  1193 599.929 133.887 15.6731
  1194 357.776 -9.31734 3.23616
  1195 357.792 -9.36040 -3.25729
  1196 434.221 -8.24549 13.3965
  1197 260.079 -2.72936 10.6961
  1198 259.897 -2.75669 -10.7892
  1199 424.647 -5.89144 -2.60850
  1200 175.474 104.847 -160.798
  1201 367.781 -20.7816 -100.879
  1202 348.154 -10.8617 -5.86523
  1203 348.191 -10.8142 5.86743
  1204 454.768 -2.23223 2.09644
  1205 431.015 -5.75775 4.80929
  1206 24.0185 30.5227 22.6332
  1207 468.020 -0.560454 1.75328
  1208 56.4457 72.0583 71.4854
  1209 421.146 -6.40122 -3.37215
  1210 -0.466101 -10.2413 -8.98678
  1211 298.839 -29.1756 -70.9645
  1212 298.036 -28.4708 70.2653
  1213 468.001 -0.856211 -1.94599
  1214 401.531 -21.1927 -4.38762
  1215 454.469 -2.04599 -2.13134
  1216 365.458 -11.8050 -3.20119
  1217 365.424 -11.7638 3.16877
  1218 424.378 -5.85158 2.44330
  1219 398.746 -18.1143 3.58372
  1220 383.904 -12.3701 0.466745
  1221 384.036 -12.4015 -0.422319
  1222 454.058 -2.10800 -1.73494
  1223 392.599 -41.3988 -69.1393
  1224 444.495 -2.85935 -1.75503
  1225 422.915 -6.57540 3.64665
  1226 297.365 -3.19651 -4.26535
  1227 297.417 -3.16561 4.24180
  1228 331.293 -4.83522 -2.22867
  1229 331.312 -4.80291 2.21826
  1230 533.565 83.3616 25.1042
  1231 448.610 -34.5378 15.3742
  1232 308.205 -1.51301 116.291
  1233 249.453 -0.399393 4.10874
  1234 249.245 -0.403792 -4.14810
  1235 425.730 -7.89778 26.6975
  1236 407.212 -6.26240 0.621323
  1237 407.227 -6.24204 -0.620982
  1238 466.853 90.6725 9.01154
  1239 426.355 -44.6835 55.0833
  1240 249.558 -3.47212 14.9737
  1241 249.315 -3.49772 -15.0794
  1242 406.669 -9.99616 2.76242
  1243 406.578 -10.0661 -2.67246
  1244 419.429 -11.6716 -7.66497
  1245 387.084 0.0884651 12.7439
  1246 664.055 165.115 -55.9765
  1247 427.354 -15.6935 -23.3646
  1248 74.4466 17.4933 42.7113
  1249 441.349 -23.5750 32.2950
  1250 356.741 7.89123 -9.66178
  1251 27.8361 20.1229 15.7781
  1252 579.410 65.3489 -7.47616
  1253 431.205 -19.6518 -32.8089
  1254 358.405 5.17237 14.8051
  1255 246.085 -15.2957 47.7465
  1256 437.767 -33.9363 18.8516
  1257 632.889 122.573 40.8084
  1258 148.332 21.7024 81.4767
  1259 439.753 -5.31523 -11.5539
  1260 838.454 9.41520 -8.38618
  1261 865.836 12.9728 37.3022
  1262 923.779 31.2382 -88.7961
  1263 426.948 -13.3754 -29.2810
  1264 426.818 -19.5304 24.7182
  1265 433.507 -30.9027 22.7464
  1266 -12.7199 1.50626 8.03326
  1267 -11.5619 1.21724 -8.76073
  1268 421.723 -46.6545 -26.2477
  1269 431.802 -43.7098 -38.9030
  1270 333.212 2.16075 -6.11753
  1271 419.920 -47.4810 38.7717
  1272 448.854 -21.3376 -32.7346
  1273 9.24506 13.5750 1.91986
  1274 365.806 -6.70011 1.17725
  1275 365.832 -6.74635 -1.18035
  1276 445.683 -3.65798 7.82229
  1277 428.520 -7.46292 -5.65084
  1278 403.906 -44.0896 -14.2936
  1279 369.570 -19.9438 6.51040
  1280 367.732 -19.6610 -7.02752
  1281 432.811 -9.21663 18.5521
  1282 443.603 -16.3420 -37.9185
  1283 28.8760 20.9797 -15.3349
</Section>

newXOutput 59

<Section columns = "stress_xx | stress_yy | stress_xy">
  1 483.674 -0.141444 0.917964
  2 483.681 -0.132755 -0.920471
  3 268.337 -0.0816052 -0.331655
  4 -3.37837 -3.33890 -4.85789
  5 861.472 348.195 277.277
  6 853.548 360.615 -276.347
  7 -3.92466 -3.17045 5.17211
  8 268.271 -0.0825583 0.330801
  9 486.973 -0.827838 0.272416
  10 486.004 -1.30139 -0.258611
  11 484.989 -0.884982 1.03972
  12 483.961 -1.20392 0.259135
  13 481.739 -1.01957 1.63649
  14 479.711 -1.02713 1.17432
  15 474.854 -0.906388 2.35970
  16 467.828 -0.654690 3.48542
  17 461.581 -0.682689 3.89941
  18 452.243 -0.930067 4.73535
  19 439.206 -0.0935536 7.02865
  20 427.165 -0.684707 6.70503
  21 413.348 -0.875143 9.47840
  22 393.404 0.616294 8.27070
  23 378.884 0.952545 9.79813
  24 359.935 1.59174 7.68554
  25 346.787 1.70226 7.75733
  26 327.746 2.35503 3.96071
  27 323.716 3.70319 4.25210
  28 321.285 3.05199 -1.25808
  29 324.592 1.79611 -2.75536
  30 330.687 1.72538 -3.38196
  31 344.956 2.16154 -6.74436
  32 358.816 1.70811 -8.51520
  33 379.083 0.399488 -10.0858
  34 395.285 -0.199591 -9.15726
  35 412.495 -0.694222 -8.96988
  36 428.045 -0.536431 -6.31666
  37 441.348 -0.569026 -5.38306
  38 452.270 -0.911827 -4.49938
  39 462.009 -0.661504 -3.10992
  40 468.037 -0.796172 -3.28865
  41 473.864 -0.962778 -2.39839
  42 479.327 -1.13506 -1.01861
  43 482.114 -0.918935 -1.22038
  44 483.531 -0.582200 -0.748265
  45 482.340 -0.347600 -0.683816
  46 486.472 -1.30610 0.180002
  47 487.110 -0.859668 -0.280775
  48 471.707 -0.453947 -0.568556
  49 461.479 -2.08188 -1.04756
  50 448.934 -3.03226 -0.650537
  51 433.604 -4.43093 -0.900392
  52 419.027 -4.82870 -1.10051
  53 403.436 -5.97743 -1.05248
  54 389.608 -6.60963 -0.557463
  55 377.477 -7.34113 -0.174315
  56 363.470 -6.07817 -0.163287
  57 347.322 -5.65318 -0.317160
  58 331.766 -4.43713 -0.0571367
  59 317.036 -2.80437 0.00243959
  60 303.048 -1.98005 0.0588577
  61 290.797 -0.991320 0.157906
  62 278.292 -0.247906 -0.377232
  63 268.467 0.380306 0.508498
  64 264.035 1.02976 0.353771
  65 266.963 0.0197178 0.816566
  66 263.513 -0.125740 0.989635
  67 260.274 -0.193807 1.23236
  68 255.900 -0.0110338 1.59560
  69 250.388 -0.00493577 2.00242
  70 246.238 -0.300767 3.82698
  71 234.652 0.342217 4.17247
  72 226.450 -0.0149348 4.75912
  73 214.239 -0.201601 5.40351
  74 200.194 -0.345913 6.57170
  75 182.630 -0.0717660 7.97997
  76 161.221 0.104632 8.80835
  77 142.634 -0.176232 12.5925
  78 106.084 1.15863 11.9050
  79 81.0684 0.998132 12.6124
  80 50.9850 -0.238788 14.0190
  81 25.8972 2.29176 14.6194
  82 -2.71715 3.44904 8.86108
  83 -23.6517 3.50958 3.24444
  84 -23.3205 3.40990 -1.09156
  85 -22.5439 2.84474 -6.73495
  86 -13.2915 -0.871364 -6.44388
  87 -1.59927 -12.7590 -7.12187
  88 1.30402 -23.4373 -8.85194
  89 3.55476 -36.7045 -4.74086
  90 7.85367 -36.8882 0.792380
  91 16.5577 -6.65875 22.3219
  92 49.0512 78.9694 74.5070
  93 284.116 272.262 248.586
  94 1043.94 156.545 174.046
  95 941.943 22.3719 56.4916
  96 876.922 9.31578 17.2874
  97 852.936 7.93155 1.32453
  98 865.716 10.5298 -15.0008
  99 939.976 20.8808 -44.7203
  100 1104.69 75.5025 -149.510
  101 169.101 279.219 -208.292
  102 36.7164 57.5046 -61.8984
  103 18.0967 -4.84137 -23.7039
  104 7.35543 -36.7963 -4.37042
  105 2.12298 -27.8395 5.42624
  106 2.64104 -29.5654 7.65971
  107 0.141037 -11.0091 7.89006
  108 -13.8795 -0.547602 6.10413
  109 -23.2580 2.13567 5.86694
  110 -24.5654 4.14175 1.22155
  111 -24.4068 3.45161 -3.01859
  112 -4.43240 3.53463 -8.31062
  113 24.3909 2.31150 -13.9437
  114 49.4490 0.00609700 -13.7892
  115 79.4817 1.07887 -12.6379
  116 104.643 1.18869 -11.9944
  117 141.516 -0.181441 -12.6964
  118 160.264 0.116005 -8.89215
  119 181.794 -0.0686644 -8.07866
  120 199.766 -0.384046 -6.61928
  121 213.660 -0.190897 -5.41688
  122 226.010 -4.05478e-05 -4.80747
  123 234.291 0.338151 -4.21719
  124 245.977 -0.303794 -3.86486
  125 250.177 -0.00689849 -2.02566
  126 255.739 -0.0129081 -1.61469
  127 260.151 -0.196913 -1.24748
  128 263.417 -0.128401 -1.00018
  129 266.882 0.0174442 -0.823286
  130 263.963 1.02862 -0.356881
  131 268.399 0.379732 -0.510451
  132 278.226 -0.250497 0.376225
  133 290.734 -0.997814 -0.160295
  134 302.994 -1.99430 -0.0616474
  135 316.995 -2.82416 -0.00512188
  136 331.741 -4.46567 0.0544791
  137 347.317 -5.68929 0.315067
  138 363.485 -6.11999 0.161139
  139 377.509 -7.38807 0.173345
  140 389.652 -6.65648 0.559018
  141 403.499 -6.02006 1.05728
  142 419.081 -4.85805 1.11777
  143 433.646 -4.45719 0.983483
  144 449.016 -2.87328 0.664982
  145 461.802 -2.02946 1.02433
  146 471.791 -0.527281 0.559801
  147 423.612 -39.8096 -1.67274
  148 423.249 -39.2717 1.82246
  149 445.605 63.9540 -21.2482
  150 473.784 27.9044 44.6537
  151 359.012 -34.6390 -79.7727
  152 361.941 -34.5874 77.2413
  153 350.054 -14.7628 9.88614
  154 350.079 -14.9654 -9.89222
  155 501.611 18.1161 -33.4148
  156 422.495 -15.2685 8.64390
  157 422.314 -14.9053 -8.53805
  158 546.079 121.449 5.04173
  159 433.118 -0.690451 -43.9500
  160 321.479 -25.1600 -35.8461
  161 321.497 -24.9534 35.5404
  162 433.708 -9.84787 39.5302
  163 413.037 30.1853 26.3637
  164 171.311 27.2653 -95.2532
  165 189.730 25.8521 100.334
  166 528.646 6.29466 2.31259
  167 434.509 -16.7210 -27.1775
  168 574.353 126.114 -0.844611
  169 391.756 -11.0863 -0.372616
  170 391.675 -11.0542 0.405079
  171 438.858 -5.44197 -3.74774
  172 440.201 -4.90467 3.22896
  173 309.584 -4.37059 -5.77318
  174 309.626 -4.32593 5.74500
  175 470.052 -12.0650 101.436
  176 400.099 16.6771 -28.4143
  177 262.205 -19.5798 -57.2354
  178 262.982 -19.4382 56.8737
  179 294.857 -9.55916 -18.7939
  180 294.888 -9.45086 18.6601
  181 436.559 -11.5311 23.1096
  182 397.138 -27.2264 -1.76357
  183 395.766 -27.0240 2.38093
  184 450.448 -43.6528 -8.95510
  185 452.827 -41.5884 3.37314
  186 621.567 146.425 -23.1048
  187 454.259 72.8241 19.8460
  188 454.520 27.9098 -45.1168
  189 468.218 -3.51378 -117.637
  190 450.449 -25.5043 -30.9113
  191 454.349 -18.2304 36.6442
  192 379.207 -43.0323 39.5115
  193 379.280 -42.7242 -39.3960
  194 406.645 5.22173 34.0909
  195 187.171 -4.65902 -70.0842
  196 187.619 -5.04712 69.6663
  197 699.644 104.584 15.2263
  198 426.820 -25.4645 16.4749
  199 442.375 -8.21578 -14.9392
  200 352.216 -8.57306 -4.56914
  201 352.225 -8.53099 4.55564
  202 425.588 -5.54579 -30.5180
  203 484.123 71.0118 -35.8368
  204 406.434 36.5657 -5.27811
  205 265.815 -9.30702 26.3181
  206 265.415 -9.33510 -26.5073
  207 448.603 -5.08979 8.05840
  208 438.104 8.24049 45.2279
  209 356.678 -25.8620 -17.6345
  210 354.331 -24.4842 18.0172
  211 515.407 76.4709 32.2993
  212 603.781 83.9062 16.2086
  213 42.0505 32.5778 -27.3513
  214 38.9167 30.1145 23.2796
  215 250.019 71.8862 167.015
  216 422.571 -28.1034 -12.3784
  217 450.159 -4.88701 -7.27486
  218 402.160 3.58756 -31.4023
  219 283.751 -2.76074 -8.35316
  220 283.843 -2.72988 8.28327
  221 380.943 -17.8361 -4.07519
  222 381.122 -17.9489 3.86078
  223 429.118 -5.80637 25.9200
  224 492.211 -28.4532 12.7205
  225 490.744 100.034 -10.3211
  226 384.846 -37.1077 -19.0605
  227 485.439 -8.46942 27.8369
  228 414.226 -7.06057 1.26043
  229 414.229 -7.00422 -1.25877
  230 382.076 -36.9328 19.7560
  231 437.142 -27.7862 25.0332
  232 611.162 80.4678 -41.3036
  233 137.270 81.6639 -121.715
  234 372.535 13.1809 6.80669
  235 439.938 38.7752 38.1451
  236 467.610 -3.30959 -39.7233
  237 437.299 -15.7808 -36.8225
  238 235.418 -7.49304 -32.8834
  239 236.216 -7.38113 32.7856
  240 437.909 -5.34139 -19.9391
  241 417.205 -10.6476 4.40644
  242 417.010 -10.6356 -4.24673
  243 89.4651 8.06229 -45.0086
  244 90.8407 7.06521 44.8526
  245 463.744 -40.6189 -37.2664
  246 458.610 -1.76211 1.05324
  247 459.078 -1.79445 -1.16239
  248 429.869 35.6510 -34.9730
  249 379.705 7.39319 20.6049
  250 783.288 125.413 84.3189
  251 776.603 88.4145 -52.6086
  252 566.637 121.787 -0.237146
  253 353.888 -17.1397 105.883
  254 325.075 -11.2321 -110.677
  255 373.538 -7.67672 -1.68456
  256 373.505 -7.62931 1.67336
  257 311.464 -8.23960 11.5943
  258 311.458 -8.35170 -11.6923
  259 448.278 -4.92353 12.1638
  260 435.354 -31.0452 -20.3516
  261 285.431 -0.497360 -1.96958
  262 285.499 -0.488531 1.95802
  263 429.906 -17.4755 -16.2852
  264 184.767 -6.00166 -45.6705
  265 185.542 -6.02043 45.3515
  266 435.384 -18.9286 29.3084
  267 333.105 -35.3529 64.2009
  268 333.925 -35.9847 -64.0032
  269 377.833 14.5715 -9.59105
  270 326.088 -4.93723 -3.89587
  271 326.119 -4.90450 3.88164
  272 409.428 -0.995682 25.1084
  273 488.128 89.1827 24.8052
  274 264.183 -3.15682 14.0640
  275 263.984 -3.18279 -14.1793
  276 446.805 -37.3805 13.6985
  277 413.606 -46.4710 -43.5815
  278 460.408 -2.33918 3.70037
  279 322.344 -18.9567 -24.5704
  280 321.805 -18.7475 24.4816
  281 563.670 61.5084 148.544
  282 269.652 -21.7977 76.4409
  283 434.085 60.9041 -2.25142
  284 545.866 60.7728 -19.9824
  285 412.939 -31.9307 4.20736
  286 413.963 -47.7350 39.3832
  287 270.445 -21.4479 -77.2818
  288 50.6603 62.5638 57.2756
  289 429.981 -17.5337 16.5907
  290 562.061 74.0126 14.9831
  291 463.914 -2.09030 -3.20905
  292 422.585 14.8313 -40.2636
  293 416.086 -23.5544 8.48130
  294 407.488 -34.3734 2.08582
  295 421.116 19.3644 38.8177
  296 444.701 -37.3845 -12.1105
  297 628.581 121.867 -11.1831
  298 415.975 -22.6444 -8.10417
  299 342.136 99.6755 -203.779
  300 424.981 -45.0794 -9.49829
  301 422.010 -46.3131 14.3067
  302 311.554 -28.0920 -50.4149
  303 282.809 -1.03706 -4.27146
  304 282.891 -1.01894 4.23942
  305 311.697 -28.1170 50.1490
  306 449.999 -0.775909 -45.2354
  307 484.567 -20.0757 -17.8648
  308 370.675 -22.2381 -9.62003
  309 370.449 -22.2898 9.79130
  310 441.109 -37.9728 69.1956
  311 441.431 -3.59496 15.0884
  312 534.028 3.07744 25.9693
  313 363.397 -12.7723 -5.35367
  314 363.423 -12.7318 5.32582
  315 331.775 -8.54940 -7.72135
  316 331.780 -8.47096 7.71092
  317 375.895 5.12658 -19.9231
  318 479.442 35.1436 -43.2203
  319 736.615 199.286 -95.8756
  320 436.219 -3.99343 -1.22892
  321 435.981 -3.94128 1.26520
  322 235.352 -0.630685 95.3948
  323 329.935 -14.8374 -16.3775
  324 329.331 -14.7905 16.4204
  325 235.306 -1.18830 -95.0299
  326 457.752 53.9763 -37.0240
  327 510.584 25.3965 31.5750
  328 440.992 -31.4577 -76.7006
  329 406.874 -15.7473 3.42650
  330 406.468 -15.6362 -3.25411
  331 433.617 -9.11633 -7.74633
  332 409.701 -0.756415 -23.4757
  333 458.137 1.91865 44.1890
  334 456.168 -3.29135 -8.35451
  335 276.965 -16.6713 38.4040
  336 276.660 -16.7622 -38.6897
  337 426.938 -0.953275 41.7752
  338 265.928 -2.10967 -8.36990
  339 266.097 -2.09007 8.29694
  340 436.888 -10.1557 12.3253
  341 524.328 106.885 -17.7711
  342 433.420 -9.18086 8.04745
  343 462.813 58.0343 37.1181
  344 442.628 -8.27316 43.0863
  345 351.823 -6.55670 1.70215
  346 351.823 -6.59567 -1.71261
  347 419.637 -1.48014 -37.0922
  348 553.537 116.218 10.6597
  349 461.722 84.4283 0.772180
  350 282.577 32.7636 -141.460
  351 30.2039 12.8304 -19.9035
  352 33.0147 13.8895 21.3672
  353 -1.14382 3.42578 8.25510
  354 0.532965 2.02620 -8.64609
  355 801.180 55.6045 18.9571
  356 382.384 -30.9615 -11.4719
  357 437.205 -9.82146 -12.0208
  358 395.261 -7.03837 0.376968
  359 395.215 -6.98404 -0.379770
  360 423.886 46.8252 -18.9492
  361 361.320 -36.7207 32.5346
  362 32.2614 48.1664 -35.8294
  363 361.639 -36.7063 -33.1051
  364 429.319 48.8228 20.1618
  365 436.504 -11.7279 -21.9793
  366 462.557 -25.8802 -25.9735
  367 494.034 103.952 7.10104
  368 463.533 -29.0276 21.1352
  369 194.883 -4.78166 30.5648
  370 193.754 -4.68860 -30.7523
  371 110.902 2.61899 -42.6531
  372 112.023 2.18849 42.4665
  373 381.648 1.35381 20.1310
  374 715.012 210.295 83.7938
  375 450.839 -2.95431 -10.7185
  376 352.397 -29.6210 -24.9858
  377 352.124 -29.5511 24.9534
  378 434.163 -10.0792 -28.0616
  379 492.820 -23.8200 1.63597
  380 382.370 -30.9359 11.7984
  381 539.537 4.51152 -46.3677
  382 309.392 -2.42709 -1.54291
  383 309.440 -2.40666 1.53295
  384 427.452 -2.51940 -18.0231
  385 233.079 -3.29603 -19.9211
  386 233.219 -3.40356 19.6853
  387 509.399 65.1310 -36.0680
  388 276.108 19.4174 131.539
  389 399.656 -20.9702 1.10940
  390 400.044 -20.9354 -1.12638
  391 469.889 79.3383 -23.4047
  392 444.227 -13.2171 -40.7147
  393 444.382 -45.4817 38.4541
  394 372.256 -9.87905 -2.65633
  395 372.216 -9.83385 2.63307
  396 428.432 -33.0903 13.2686
  397 460.353 -2.29386 6.18632
  398 290.204 -10.4420 -23.4647
  399 290.322 -10.4443 23.2730
  400 435.966 14.6515 -44.6448
  401 410.851 -9.03249 1.87808
  402 410.831 -9.05506 -1.82666
  403 425.698 -5.04591 33.9806
  404 398.177 29.1055 9.13999
  405 440.621 -18.6758 35.3887
  406 634.604 132.502 24.6180
  407 214.971 -11.5459 -61.2875
  408 215.559 -11.5478 60.8351
  409 96.4150 51.3046 -73.8611
  410 470.144 -1.51090 1.65405
  411 243.027 -1.99130 -12.6175
  412 243.343 -1.94916 12.5135
  413 434.476 -11.4030 27.4446
  414 394.237 -42.7510 21.9392
  415 444.089 -5.68339 5.47100
  416 453.713 23.0127 46.4007
  417 100.940 54.6279 76.8983
  418 394.811 -42.5022 -20.2603
  419 407.855 -37.8823 -4.92307
  420 135.722 -2.71416 -38.5667
  421 136.699 -2.81260 38.3082
  422 313.750 -25.2509 -92.1742
  423 467.632 -7.04800 38.6973
  424 312.614 -25.6122 91.3838
  425 432.344 -24.3411 -22.5268
  426 403.573 27.3203 -19.9798
  427 432.398 -18.7696 21.4643
  428 463.859 -2.20245 -4.11730
  429 14.5630 15.8106 7.44937
  430 95.2276 110.716 108.819
  431 417.306 -1.52561 17.4366
  432 352.596 4.94129 8.75361
  433 358.473 5.99526 -11.8601
  434 305.846 -4.94861 -8.18264
  435 305.882 -4.88618 8.13261
  436 426.274 -33.0666 -12.0613
  437 431.250 -8.48708 -37.9682
  438 354.405 6.77558 -3.22056
  439 634.152 151.262 33.0886
  440 89.6441 29.3531 -55.4186
  441 98.6671 26.9326 59.1164
  442 399.286 -14.2676 1.18370
  443 399.138 -14.2373 -1.08121
  444 531.880 117.004 -1.36014
  445 329.784 139.508 208.310
  446 509.986 -6.97743 -5.09796
  447 296.142 -15.2902 -31.8290
  448 296.285 -15.1881 31.5700
  449 298.536 -6.54481 12.6702
  450 298.476 -6.59164 -12.7788
  451 401.127 8.99744 -32.3644
  452 472.448 -0.791365 -1.08501
  453 390.409 18.0324 18.2218
  454 490.503 60.5149 39.5173
  455 408.693 -30.3252 -2.76907
  456 443.896 -5.42090 -5.32161
  457 465.707 -2.00655 3.79068
  458 471.064 -0.851866 0.618615
  459 471.421 -0.946650 -0.444752
  460 264.537 -0.440958 3.11545
  461 264.403 -0.447710 -3.14599
  462 446.553 -28.4616 27.2413
  463 404.912 16.0596 31.3501
  464 422.446 1.73703 -40.7941
  465 439.789 -9.39777 16.2104
  466 628.439 109.260 -126.091
  467 441.070 -24.5508 -30.7450
  468 5.03114 8.47974 3.91101
  469 4.96138 8.64729 -1.72541
  470 350.908 -19.7349 14.2809
  471 349.763 -19.4641 -14.0978
  472 545.009 11.2299 68.6553
  473 153.428 141.833 -158.763
  474 435.662 -1.37646 13.4651
  475 491.469 -28.4972 -39.7253
  476 265.243 -15.1347 44.4041
  477 528.247 93.7569 -25.5852
  478 434.761 -23.6117 25.6637
  479 366.190 -17.4054 -7.35584
  480 366.510 -17.1211 7.33810
  481 381.559 2.08242 -17.7676
  482 264.426 -15.0721 -44.6653
  483 390.878 0.229780 17.8360
  484 372.724 -42.6707 -57.6122
  485 371.802 -42.7356 57.8387
  486 448.408 -3.05834 11.8469
  487 409.656 38.6878 3.77566
  488 412.487 7.54821 142.982
  489 607.699 123.166 -0.769261
  490 420.515 -7.24018 2.33416
  491 420.535 -7.21485 -2.42857
  492 325.839 -5.68759 -5.26075
  493 325.866 -5.64160 5.24284
  494 172.647 7.73223 80.3775
  495 436.767 -21.1150 -30.1845
  496 396.494 -8.70358 0.0280756
  497 396.454 -8.67506 -0.0208298
  498 345.887 -36.5387 47.1309
  499 175.931 10.2467 -82.3928
  500 437.103 -35.6886 -13.8536
  501 7.85947 2.27640 2.85839
  502 384.757 20.0056 1.34005
  503 421.954 -5.05535 -0.753313
  504 421.947 -5.12102 0.733136
  505 346.072 -36.4709 -47.4884
  506 491.925 -25.1148 50.2061
  507 488.994 17.7597 39.9783
  508 450.673 -3.23624 -2.59338
  509 435.772 -36.1851 14.0792
  510 277.058 -0.228227 -0.572037
  511 277.126 -0.225850 0.567721
  512 435.537 -16.7929 -32.3637
  513 423.072 31.3340 34.2280
  514 483.074 11.9403 -39.5166
  515 275.371 -0.399329 -1.75631
  516 275.449 -0.393569 1.74509
  517 834.747 120.644 -107.596
  518 439.966 52.3442 30.0729
  519 451.046 -3.00186 2.30286
  520 408.741 -38.7223 5.91493
  521 345.221 -11.3155 7.95359
  522 345.214 -11.3992 -7.93737
  523 474.525 -28.9835 10.7820
  524 456.889 -9.20108 -41.0053
  525 511.064 100.444 21.7989
  526 426.085 7.35952 42.3207
  527 428.276 -8.38933 4.77803
  528 415.937 -44.4948 -55.7476
  529 432.454 -10.7706 32.0416
  530 824.408 37.9036 -15.0396
  531 470.959 -35.5779 1.03521
  532 447.879 -3.15122 -0.578825
  533 447.989 -3.34021 0.495870
  534 833.003 55.8674 52.5821
  535 415.736 -0.106030 35.9963
  536 578.307 97.9720 -6.97029
  537 435.972 -11.9822 -15.6681
  538 200.714 -1.83778 -13.6157
  539 201.311 -1.74888 13.4814
  540 296.792 -27.7466 -64.0938
  541 297.041 -27.2829 63.6294
  542 428.037 -8.05201 -4.74074
  543 466.273 17.0923 -45.0219
  544 409.887 -27.8854 4.34364
  545 441.866 50.6358 -31.1729
  546 443.743 -5.27038 15.9369
  547 553.755 28.4361 -8.83290
  548 380.714 -13.0314 -2.47795
  549 380.604 -12.9897 2.45261
  550 412.725 -19.5192 6.17036
  551 605.369 120.953 -11.8408
  552 435.554 19.0620 43.9382
  553 187.006 48.0163 118.607
  554 418.717 -25.0879 96.1096
  555 550.346 28.1530 -106.271
  556 445.239 36.8121 -40.8244
  557 393.635 -34.1286 -83.4174
  558 426.522 -46.8055 -17.6832
  559 444.959 -45.1521 -25.3732
  560 59.2731 77.6231 -73.5009
  561 447.383 -5.81766 -9.61286
  562 670.795 130.270 -38.8885
  563 414.881 -18.7418 -7.01183
  564 418.179 -13.7019 5.79619
  565 417.795 -13.3964 -5.54083
  566 291.848 -1.61185 -3.89479
  567 291.914 -1.59109 3.87072
  568 42.9934 4.26780 -23.6783
  569 45.2311 4.47880 24.2158
  570 217.496 -10.0196 -46.7082
  571 219.115 -10.0756 46.6474
  572 423.951 -23.0344 -13.8898
  573 431.410 -46.9989 19.0463
  574 443.419 -42.1812 1.15219
  575 365.354 -6.45925 -1.46834
  576 365.336 -6.41527 1.46119
  577 345.863 -36.3397 -71.3664
  578 386.206 -31.7740 88.1744
  579 337.644 -34.1863 71.7482
  580 436.538 -9.73607 -40.7597
  581 276.559 -4.50235 14.1689
  582 276.423 -4.54856 -14.2803
  583 417.359 23.1339 -34.4022
  584 417.579 -0.735834 -15.8223
  585 520.302 112.538 -9.69681
  586 341.756 -5.11915 -1.41119
  587 341.768 -5.08657 1.40496
  588 443.845 -1.35019 -8.83272
  589 309.021 -10.3005 -15.8084
  590 309.035 -10.2665 15.6778
  591 251.481 11.4129 113.304
  592 431.983 -19.9515 -21.6841
  593 242.763 -12.9407 81.4760
  594 424.528 -22.0577 14.2237
  595 446.257 -6.44271 10.6436
  596 440.433 -4.21432 -2.26833
  597 312.845 -3.79094 -3.66022
  598 312.888 -3.76062 3.64278
  599 499.230 99.4179 -19.7434
  600 242.585 -12.4684 -81.7676
  601 423.099 -18.3967 -11.2832
  602 382.494 -7.15107 -0.777422
  603 382.456 -7.10080 0.774419
  604 711.812 95.6253 -17.0648
  605 256.861 -1.60297 7.79431
  606 256.643 -1.61838 -7.86368
  607 396.526 9.17498 29.5536
  608 561.331 47.7674 -3.96365
  609 267.777 1.64261 -112.416
  610 138.745 3.35164 -61.5783
  611 139.862 2.58190 61.2545
  612 336.453 -19.4906 19.7179
  613 339.875 -20.0653 -19.1873
  614 568.716 114.772 8.04958
  615 438.685 -4.36148 2.03139
  616 379.922 10.8090 -17.8784
  617 471.124 84.4654 18.5195
  618 469.511 87.6389 -12.3197
  619 385.804 -21.3367 -3.97042
  620 388.684 -20.8656 2.60656
  621 276.127 60.4411 -161.160
  622 332.975 -11.2782 -11.0361
  623 333.007 -11.1518 11.0015
  624 830.780 170.208 128.266
  625 435.830 -14.3386 35.0213
  626 251.735 -8.78887 -29.9151
  627 669.740 159.402 108.284
  628 252.309 -8.74183 29.8085
  629 415.195 -15.7608 -111.976
  630 297.074 -1.40221 -1.43411
  631 297.133 -1.39015 1.42734
  632 366.823 3.36290 15.6034
  633 168.572 -2.46866 -26.8324
  634 169.468 -2.47520 26.6296
  635 380.903 -26.8875 8.94776
  636 399.041 -31.9186 -3.31596
  637 468.317 -1.08745 -3.50271
  638 268.836 -0.408057 2.31557
  639 268.731 -0.415497 -2.33796
  640 360.033 -8.09565 -2.31641
  641 360.021 -8.05240 2.30091
  642 411.063 -45.6958 56.2885
  643 473.085 52.7960 -40.7983
  644 316.722 -14.6325 -20.3566
  645 316.507 -14.3879 20.2154
  646 374.003 -26.8136 -12.0835
  647 586.597 127.412 4.74562
  648 440.846 -42.7218 1.24074
  649 383.908 -9.23015 -1.28067
  650 383.853 -9.18734 1.28024
  651 525.880 57.7532 29.7480
  652 441.965 -6.48480 -17.3169
  653 393.060 -0.443929 -14.5163
  654 183.388 -6.27391 -58.8156
  655 183.931 -6.44377 58.3505
  656 372.937 -32.0857 -19.0196
  657 557.774 122.362 0.123974
  658 434.175 58.7424 -13.5465
  659 290.273 -2.57391 -7.12610
  660 290.344 -2.53842 7.07257
  661 404.031 -11.4966 -1.34881
  662 404.108 -11.5065 1.43120
  663 746.405 97.3127 42.9688
  664 474.822 -1.36720 0.912716
  665 459.942 -1.89470 6.07902
  666 458.256 -1.91712 -7.16798
  667 435.607 -40.6065 5.13621
  668 323.251 -3.70197 -1.82815
  669 323.285 -3.67644 1.82057
  670 466.459 74.6195 28.5819
  671 596.210 132.286 -9.15380
  672 328.623 -24.2746 -28.8340
  673 328.542 -24.0409 28.6965
  674 409.142 -42.1433 -9.85294
  675 432.495 25.7286 -41.3874
  676 510.742 1.44500 15.9692
  677 341.901 -6.30905 -3.70971
  678 341.915 -6.27013 3.69580
  679 295.731 -25.8635 -57.8622
  680 431.531 -41.7791 -1.19460
  681 359.455 -39.8497 51.9466
  682 172.862 54.3732 -114.503
  683 336.346 -31.0574 40.0796
  684 405.832 0.113855 13.3755
  685 296.012 -25.5730 57.4864
  686 422.858 -18.7460 11.4225
  687 336.440 -30.9235 -40.4315
  688 346.891 4.61193 3.28020
  689 268.508 -7.10585 21.3220
  690 268.272 -7.11175 -21.4642
  691 359.621 -40.8809 -52.5160
  692 443.642 -29.2965 -26.3170
  693 407.173 -5.84318 -0.370212
  694 407.238 -5.90099 0.372110
  695 453.210 -28.9564 25.9225
  696 412.219 -43.0773 11.5230
  697 500.294 45.9359 38.8656
  698 451.899 -8.53076 42.3853
  699 434.857 -15.6907 25.5819
  700 416.994 34.3389 -26.0974
  701 499.720 83.9308 30.8205
  702 431.756 -6.01431 -25.1230
  703 429.707 -14.3484 12.7912
  704 445.644 69.6604 7.31164
  705 437.411 -7.49422 21.7426
  706 138.730 94.5988 120.168
  707 406.884 -46.8355 -33.0294
  708 471.065 8.52393 42.9369
  709 475.137 -14.7412 -29.8713
  710 472.833 -0.710493 1.89981
  711 434.421 -15.0247 -19.9857
  712 407.506 -47.2012 30.1196
  713 781.425 69.2472 -11.5614
  714 246.567 -1.02138 8.15197
  715 246.280 -1.03238 -8.22524
  716 440.164 -8.13857 -9.12640
  717 475.560 -0.548189 -1.86257
  718 372.284 -32.6083 19.1169
  719 446.113 -16.6670 38.3664
  720 672.739 162.704 -53.1184
  721 422.858 -30.6773 11.3910
  722 467.967 -30.8821 -14.4359
  723 429.857 -13.9710 -12.5830
  724 475.170 -0.911860 -0.567799
  725 436.044 -0.0626436 44.4557
  726 20.4809 20.2989 26.3707
  727 488.962 -18.4585 -73.7960
  728 532.873 31.9512 17.5881
  729 444.554 -45.4925 22.8341
  730 319.825 -7.58269 9.01835
  731 319.820 -7.68644 -9.05867
  732 410.243 213.810 -218.665
  733 453.383 -30.0653 -23.8249
  734 345.573 1.92219 -6.27291
  735 400.511 2.26866 28.7544
  736 437.791 -21.9733 30.6608
  737 419.618 -35.3624 4.96774
  738 435.234 -39.7713 -60.5044
  739 417.110 -33.0044 -5.79748
  740 491.253 -23.5045 -3.33378
  741 452.639 -3.84568 5.29368
  742 405.280 -24.3427 2.68271
  743 730.728 146.018 -78.4018
  744 431.656 -11.6694 10.0778
  745 428.290 7.04052 -43.4395
  746 364.340 -3.98876 125.732
  747 458.287 36.8666 44.1340
  748 394.299 -30.9959 5.31758
  749 305.881 -23.9585 -42.3609
  750 305.920 -23.8962 42.0298
  751 420.313 47.2814 -6.06794
  752 426.689 -4.95814 38.6406
  753 431.008 -10.2965 -32.7806
  754 405.734 -24.8471 -2.80300
  755 392.441 -35.1128 11.2454
  756 449.013 73.9374 -8.22056
  757 419.110 -36.2768 -3.31872
  758 420.186 -26.6260 11.1536
  759 425.318 -5.61740 1.64260
  760 425.569 -5.47151 -1.62853
  761 571.971 125.164 1.79892
  762 467.149 -39.7922 -15.8368
  763 435.727 -13.4332 19.9309
  764 452.754 -3.83929 -4.79604
  765 458.659 3.01383 -44.6204
  766 520.759 27.6435 -24.7752
  767 259.777 -0.221136 -3.82706
  768 259.946 -0.217598 3.79077
  769 3.88103 -7.48349 -5.23659
  770 444.901 -0.562306 8.16913
  771 409.288 -0.612825 -31.7373
  772 422.209 -3.96031 27.8447
  773 382.696 48.5253 183.657
  774 480.373 98.4261 -0.993583
  775 342.440 -24.3611 22.6782
  776 62.1021 1.31136 -23.2705
  777 63.7879 0.958420 23.5146
  778 418.612 -2.97167 -31.4726
  779 343.333 -24.5985 -22.6785
  780 450.113 -4.21691 3.96734
  781 233.371 -9.86520 39.8412
  782 231.416 -9.82882 -39.8476
  783 431.620 -11.3360 -9.81085
  784 278.699 -6.91362 -18.5852
  785 278.838 -6.86975 18.4287
  786 449.239 -4.35108 -11.9034
  787 345.132 -9.14662 -6.36499
  788 345.146 -9.08926 6.36780
  789 490.217 -3.07963 -29.7824
  790 442.339 -4.66045 -44.4799
  791 228.358 -1.42342 -10.3619
  792 228.783 -1.41008 10.2462
  793 12.5396 5.66925 -14.3398
  794 14.4906 5.98552 15.0716
  795 361.398 1.77065 -11.3274
  796 403.714 -45.3551 -24.8977
  797 -4.57161 -3.13637 7.96040
  798 -4.03415 -3.75275 -7.94721
  799 420.008 -8.55044 3.57737
  800 455.026 -35.5860 -12.7221
  801 470.998 69.6970 -33.2992
  802 451.971 -3.80219 -3.77646
  803 953.274 193.727 -179.019
  804 419.919 -8.52548 -3.52871
  805 630.265 119.705 10.2688
  806 449.973 13.0878 -46.4421
  807 496.083 37.4989 -39.8779
  808 86.1693 -1.00527 -21.4209
  809 87.6620 -1.12773 21.3846
  810 283.491 -4.00562 11.0622
  811 283.388 -4.03818 -11.1549
  812 271.514 -0.606733 2.08067
  813 271.426 -0.613194 -2.09623
  814 502.188 84.4709 -30.4907
  815 299.918 -1.80667 -3.09998
  816 299.975 -1.78619 3.08403
  817 427.986 -4.30838 -40.3555
  818 611.854 64.7610 55.8075
  819 386.799 8.75471 -24.8725
  820 136.255 -1.20083 22.8629
  821 135.164 -1.21213 -23.0362
  822 493.732 14.3763 132.393
  823 439.751 -8.20456 9.41896
  824 395.807 26.3713 -10.3558
  825 185.403 -0.270552 15.5311
  826 184.500 -0.185787 -15.6408
  827 276.851 -1.35818 -5.44046
  828 276.955 -1.33869 5.39348
  829 49.9873 44.3408 38.9274
  830 411.975 9.88817 36.8558
  831 457.671 67.1482 -28.6688
  832 491.400 57.0689 -39.8760
  833 325.024 -12.1509 -14.3643
  834 324.845 -12.0640 14.3493
  835 509.422 108.042 13.7106
  836 438.586 -3.82100 -0.470247
  837 438.616 -3.79291 0.542198
  838 434.980 -13.1251 -25.8839
  839 365.352 -24.2324 13.5586
  840 401.306 -45.0841 24.9841
  841 470.000 -38.5041 38.7122
  842 362.367 -10.4726 -3.95238
  843 362.366 -10.4361 3.92885
  844 414.680 38.4814 16.7827
  845 390.223 5.41919 -26.8379
  846 108.333 131.166 125.048
  847 393.643 -34.8226 -10.2869
  848 395.041 -17.6485 0.0371027
  849 395.250 -17.6892 -0.0608025
  850 434.541 -6.43018 42.3282
  851 430.349 -28.3266 -18.5777
  852 385.058 -25.4200 -5.96810
  853 864.861 27.9902 -42.4269
  854 366.246 -34.5393 25.8908
  855 365.942 -34.9814 -26.2934
  856 433.904 -5.22907 21.3476
  857 649.487 168.466 -40.0049
  858 344.082 -31.1153 -32.0084
  859 379.272 -42.6421 30.7357
  860 344.008 -30.7463 31.7362
  861 372.725 -14.9522 -4.63312
  862 372.719 -14.9054 4.60353
  863 56.4352 23.6075 33.7739
  864 466.207 34.8235 -44.5243
  865 358.070 -13.8949 -7.03462
  866 358.139 -13.7582 7.05834
  867 353.860 -5.83603 -0.857999
  868 353.856 -5.79772 0.852866
  869 388.122 -7.77988 -0.345138
  870 388.076 -7.73134 0.341795
  871 317.392 -6.11868 -7.78193
  872 317.421 -6.05165 7.75197
  873 359.322 -18.7889 -10.4800
  874 359.371 -18.6661 10.5262
  875 8.96628 -2.02809 -4.92743
  876 539.054 101.175 21.7626
  877 463.955 -16.3368 -35.0034
  878 378.938 -42.0202 -31.0432
  879 408.995 -13.2443 3.08376
  880 408.819 -13.1126 -2.97608
  881 446.100 0.522149 45.4569
  882 482.930 -34.4333 -22.3662
  883 426.580 31.3237 -159.601
  884 197.051 -3.36768 79.3175
  885 -6.27355 4.59335 -5.76769
  886 -5.34451 5.18980 6.34009
  887 56.1056 25.1040 -34.4966
  888 435.413 -12.6220 15.5543
  889 457.215 -3.11210 -6.51436
  890 411.555 -39.6865 69.1535
  891 196.591 -3.17326 -79.6224
  892 458.614 -37.6373 8.29051
  893 508.810 -14.5448 60.9334
  894 374.073 1.53653 11.9972
  895 426.992 40.6281 28.5150
  896 232.672 -13.0591 58.1813
  897 231.786 -13.1638 -58.5520
  898 278.890 -13.1267 -32.6773
  899 291.077 -14.4451 -100.944
  900 459.373 -10.8145 39.6850
  901 628.265 148.674 25.7594
  902 461.590 17.7126 45.4051
  903 436.266 -9.38208 -23.6757
  904 297.100 -12.9399 103.440
  905 554.782 102.525 -15.1283
  906 56.3189 47.6151 -47.8336
  907 404.742 -0.786721 -12.7586
  908 279.180 -13.0208 32.3993
  909 339.268 -7.40983 5.58554
  910 339.254 -7.45847 -5.59653
  911 430.962 -28.1740 19.2265
  912 446.397 -3.01377 1.46095
  913 329.149 2.92436 -125.226
  914 470.136 -1.09877 3.07574
  915 466.910 -0.910551 -3.97102
  916 353.479 3.12283 -10.4357
  917 452.166 -1.86749 -7.22047
  918 340.165 -15.7788 -13.3971
  919 340.392 -15.5471 13.4400
  920 -10.8016 4.24206 -6.16340
  921 -15.0783 2.55993 6.59517
  922 446.376 -2.80936 -1.49588
  923 150.609 -3.45529 53.5655
  924 149.744 -3.14324 -53.8604
  925 478.509 69.6941 35.0610
  926 844.934 15.3011 13.0587
  927 450.895 50.0928 37.2138
  928 507.711 -17.6474 18.8049
  929 442.993 -24.7294 30.7849
  930 551.034 115.339 -11.5545
  931 346.222 1.55299 7.87151
  932 426.048 -10.1486 -5.89331
  933 443.654 23.8635 -45.0648
  934 533.113 16.2097 -6.24581
  935 415.708 -25.6900 -8.52870
  936 215.961 -1.16843 -11.5807
  937 216.169 -1.12680 11.4216
  938 438.297 -10.3962 -18.3357
  939 15.2022 19.0869 4.60584
  940 420.792 -43.6357 -5.82004
  941 367.712 11.0225 -1.07488
  942 547.578 119.981 -7.65911
  943 87.9214 65.2943 -78.5913
  944 422.228 -3.15031 -24.9492
  945 294.961 -4.82566 -10.3718
  946 295.022 -4.76994 10.2895
  947 2.72103 -11.7901 8.90165
  948 288.203 -21.3148 -46.8816
  949 428.761 -24.8376 -18.0816
  950 270.739 0.584715 -0.869809
  951 270.811 0.587257 0.864408
  952 434.359 52.6859 -22.7866
  953 462.528 -1.51013 -0.618684
  954 462.550 -1.52747 0.819463
  955 288.340 -21.2598 46.5771
  956 434.439 -0.636309 -9.81368
  957 498.172 3.63551 28.5340
  958 442.216 -6.37858 7.22490
  959 72.5101 18.0109 -42.3315
  960 458.087 -2.89290 5.88673
  961 417.927 3.41893 39.3789
  962 440.701 60.9651 20.2632
  963 440.246 5.10270 -46.0389
  964 305.082 -16.1944 -28.1782
  965 473.781 -16.8647 28.7573
  966 305.283 -16.1353 27.9059
  967 14.5644 15.6562 -2.08567
  968 53.7172 8.94956 31.0541
  969 250.404 -4.34123 19.2265
  970 250.106 -4.34318 -19.3291
  971 426.350 -10.3335 6.23530
  972 459.771 79.7706 11.1449
  973 234.541 21.2599 -118.814
  974 384.363 -23.9281 5.28233
  975 360.847 -37.6449 -38.5286
  976 524.612 100.390 23.1615
  977 404.043 -7.22899 0.312436
  978 404.026 -7.19138 -0.315920
  979 441.955 -8.29100 -13.0456
  980 410.902 35.5438 -15.4772
  981 911.486 273.329 184.082
  982 87.5507 4.75553 -40.5346
  983 88.8498 3.94764 40.6178
  984 6.51832 -7.04691 2.77196
  985 411.974 22.9075 31.7700
  986 360.772 -37.8777 38.2547
  987 446.088 -21.1356 -35.2474
  988 485.171 39.6329 43.5717
  989 465.025 -37.5557 -47.1175
  990 678.113 142.545 48.2960
  991 396.859 -6.50727 -0.274408
  992 396.807 -6.45580 0.274402
  993 463.501 -18.9802 33.0958
  994 32.4710 56.2974 56.9922
  995 212.008 -4.37822 27.4874
  996 211.370 -4.32172 -27.7688
  997 252.004 -12.1963 37.6540
  998 251.154 -12.0062 -37.7866
  999 283.426 -11.5512 27.1462
  1000 309.864 -2.39164 -1.39000
  1001 309.912 -2.37431 1.38467
  1002 756.579 245.076 -157.427
  1003 690.207 173.143 72.7112
  1004 283.197 -11.6076 -27.3639
  1005 477.321 -2.24898 36.5914
  1006 428.992 44.5179 -27.4254
  1007 303.151 -26.1674 83.7512
  1008 388.180 -45.8828 -45.7650
  1009 443.428 -3.70102 -14.2760
  1010 201.610 13.5754 96.9130
  1011 258.611 -19.7274 66.9020
  1012 394.349 20.3253 -19.9397
  1013 448.633 -8.93577 -42.9188
  1014 562.585 237.460 248.684
  1015 373.224 11.5362 14.2333
  1016 504.640 108.289 -1.66384
  1017 369.421 14.7375 -142.157
  1018 377.333 -39.6189 -26.6061
  1019 475.851 -0.593232 -1.51208
  1020 459.352 42.1668 -42.9723
  1021 272.393 -1.69819 6.96436
  1022 272.264 -1.71529 -7.02613
  1023 10.1466 6.99091 -15.2337
  1024 305.430 -13.7937 -23.5230
  1025 258.291 -19.9800 -67.3893
  1026 305.211 -13.7658 23.2761
  1027 438.723 -13.4047 39.7014
  1028 393.910 -24.3025 -1.82386
  1029 414.593 7.67791 -38.1870
  1030 426.706 53.2738 8.00991
  1031 573.000 35.8219 23.5770
  1032 434.209 -33.0325 18.1273
  1033 276.646 -21.9920 -51.2939
  1034 411.270 14.6279 -35.7972
  1035 305.702 -25.8270 -84.1696
  1036 584.300 126.280 -2.81180
  1037 400.271 26.3706 18.1407
  1038 501.770 -2.85182 -21.3034
  1039 379.665 -39.6429 24.5995
  1040 434.590 -13.8367 30.5569
  1041 431.542 -22.8355 21.5051
  1042 429.168 -21.6394 18.5227
  1043 528.900 67.4006 -30.6711
  1044 429.225 -6.95570 31.2771
  1045 387.590 -46.0104 45.0339
  1046 413.691 -16.9647 5.59849
  1047 276.823 -22.0368 51.0229
  1048 388.955 -28.5754 -6.38089
  1049 227.758 -11.1157 -71.5355
  1050 323.281 -33.5021 56.9608
  1051 436.789 -3.01723 -16.6453
  1052 425.987 -4.82002 -35.6640
  1053 369.296 -29.0905 -16.4840
  1054 228.145 -11.4267 70.9946
  1055 398.476 1.01294 -24.9882
  1056 297.184 -19.5541 -36.4056
  1057 534.223 113.390 14.3950
  1058 121.049 19.7126 -68.4760
  1059 900.676 63.5819 86.0821
  1060 215.654 15.7836 -101.373
  1061 428.990 -35.5678 -10.5315
  1062 297.271 -19.3909 36.1206
  1063 394.423 4.25593 27.9979
  1064 223.376 -4.45263 22.7637
  1065 223.268 -4.56194 -22.9874
  1066 434.750 -12.1340 -36.8389
  1067 460.427 -2.44800 2.31529
  1068 452.509 -1.06495 7.28207
  1069 448.484 14.8565 46.3729
  1070 420.181 -3.16038 33.5641
  1071 324.660 34.8263 153.658
  1072 478.763 -0.418645 0.707849
  1073 452.022 61.1671 29.6081
  1074 384.237 5.65622 24.1593
  1075 457.908 -1.79590 6.96849
  1076 297.828 -3.10972 -5.83417
  1077 297.885 -3.07471 5.79894
  1078 190.608 -5.33752 -37.9960
  1079 191.328 -5.53032 37.7498
  1080 385.486 19.3450 10.1522
  1081 574.495 31.9609 -44.7523
  1082 527.975 0.188922 -82.1030
  1083 424.417 -0.395010 -10.2128
  1084 323.381 -33.7499 -57.3817
  1085 370.075 -27.6702 14.8253
  1086 426.783 -0.992851 10.6530
  1087 445.722 -32.4081 -21.5124
  1088 281.800 -0.601171 3.45556
  1089 281.724 -0.612139 -3.47573
  1090 428.179 -36.5858 10.5215
  1091 407.225 -8.42364 0.852045
  1092 407.156 -8.43288 -0.827632
  1093 396.399 -39.8691 16.0499
  1094 508.619 -16.2922 -7.67172
  1095 234.516 -0.402466 -6.45982
  1096 234.885 -0.388432 6.39444
  1097 347.834 -22.1432 -96.4442
  1098 370.927 -8.84468 2.23372
  1099 370.960 -8.89123 -2.25109
  1100 223.786 121.411 168.880
  1101 511.796 42.1269 -35.0509
  1102 76.9059 37.0903 -52.2498
  1103 442.438 -6.72144 -6.97510
  1104 119.920 40.7308 -78.5709
  1105 248.633 -15.5224 -48.6452
  1106 478.757 -0.590596 0.462907
  1107 478.926 -0.558148 -0.336825
  1108 435.885 -24.9404 -26.2539
  1109 385.903 -43.3883 -62.4779
  1110 121.138 16.7820 65.2496
  1111 474.394 46.9189 41.5991
  1112 429.883 -4.49257 -0.584978
  1113 429.935 -4.49507 0.624094
  1114 468.361 -29.9658 75.8850
  1115 486.294 97.0879 15.9067
  1116 290.984 -6.89236 -14.7964
  1117 291.060 -6.86137 14.6973
  1118 220.079 24.9598 119.973
  1119 413.546 2.14301 -36.9278
  1120 130.761 41.8221 84.3719
  1121 527.245 -8.67325 -27.0877
  1122 520.570 114.597 4.70062
  1123 358.868 -28.2566 19.8324
  1124 333.780 1.84488 -1.53560
  1125 453.403 -4.07200 8.82153
  1126 468.869 -0.648233 3.42962
  1127 105.833 0.171638 -19.1737
  1128 107.200 0.122782 19.0477
  1129 372.663 6.33215 -17.9169
  1130 382.321 -11.2408 -1.82485
  1131 382.238 -11.1914 1.81586
  1132 40.5951 66.7825 -60.7163
  1133 64.0984 143.159 -119.988
  1134 387.079 -15.1053 1.66016
  1135 387.223 -15.1003 -1.68366
  1136 399.635 -9.68984 0.844839
  1137 399.579 -9.67164 -0.813383
  1138 105.904 67.4993 85.0918
  1139 317.405 -3.85215 -2.84250
  1140 317.445 -3.82514 2.83001
  1141 398.259 30.1858 -0.415045
  1142 501.660 65.5336 -177.142
  1143 483.955 83.3063 -27.2780
  1144 441.252 -16.9882 -37.4055
  1145 434.583 -21.7325 -26.7502
  1146 359.060 -28.5161 -20.1550
  1147 362.996 1.22513 11.0596
  1148 406.890 25.4406 -26.5685
  1149 401.364 21.6637 25.4016
  1150 413.425 -16.4776 -5.48791
  1151 394.901 -23.8194 1.52409
  1152 359.666 -23.1184 -15.0053
  1153 427.568 -2.53624 19.8364
  1154 748.927 75.5078 10.4936
  1155 430.340 -9.20341 36.1166
  1156 432.260 28.3856 39.7774
  1157 398.237 -39.1364 -12.3222
  1158 50.9914 8.21611 -29.9682
  1159 405.697 -18.7885 -3.61777
  1160 272.657 -0.395910 -0.179754
  1161 272.724 -0.394189 0.177990
  1162 492.859 -13.0771 17.9549
  1163 469.599 -39.5735 18.6982
  1164 673.336 120.287 29.9726
  1165 164.517 -0.312690 -15.9237
  1166 165.458 -0.277669 15.8086
  1167 363.164 -7.33988 -1.78606
  1168 363.148 -7.29597 1.77416
  1169 406.900 -35.8664 -2.27911
  1170 336.685 1.56964 5.03279
  1171 416.616 -29.6699 7.96985
  1172 24.1338 28.6694 -14.5113
  1173 76.0755 37.6178 51.0722
  1174 279.677 -15.3344 93.1889
  1175 482.256 91.6574 -19.4894
  1176 459.537 -1.30593 -5.50895
  1177 480.736 -0.803958 0.295971
  1178 481.178 -1.08200 -0.178888
  1179 283.321 -0.630505 -0.578398
  1180 283.387 -0.625414 0.574394
  1181 444.522 28.4035 45.0516
  1182 654.436 111.442 -2.37561
  1183 458.196 75.6270 -19.9972
  1184 342.279 -25.2816 95.8326
  1185 278.194 -14.7581 -93.0067
  1186 309.798 -20.5882 -32.7082
  1187 426.631 -12.0170 8.04176
  1188 594.144 131.193 7.00020
  1189 309.833 -20.4690 32.4611
  1190 435.655 -7.73284 6.08335
  1191 391.127 14.6199 24.2589
  1192 429.892 13.3376 43.3627
  1193 609.799 136.079 16.0490
  1194 363.829 -9.47123 3.31431
  1195 363.845 -9.51478 -3.33577
  1196 441.422 -8.39230 13.5575
  1197 264.655 -2.77078 10.8844
  1198 264.470 -2.79848 -10.9787
  1199 431.679 -6.00098 -2.62482
  1200 178.442 106.651 -163.575
  1201 373.876 -21.1319 -102.637
  1202 354.061 -11.0385 -5.99308
  1203 354.100 -10.9905 5.99536
  1204 462.222 -2.27871 2.11680
  1205 438.144 -5.86526 4.85300
  1206 24.4599 31.1189 23.0957
  1207 475.672 -0.573437 1.77184
  1208 57.4442 73.3892 72.8042
  1209 428.131 -6.51903 -3.39503
  1210 -0.467720 -10.4030 -9.13009
  1211 303.898 -29.6712 -72.2018
  1212 303.084 -28.9549 71.4916
  1213 475.653 -0.873639 -1.96733
  1214 408.236 -21.5473 -4.39014
  1215 461.922 -2.08965 -2.15029
  1216 371.623 -12.0005 -3.28929
  1217 371.588 -11.9589 3.25634
  1218 431.407 -5.96060 2.45781
  1219 405.408 -18.4182 3.58011
  1220 390.342 -12.5788 0.515283
  1221 390.477 -12.6105 -0.470324
  1222 461.501 -2.15289 -1.74982
  1223 399.105 -42.0924 -70.3738
  1224 451.805 -2.91894 -1.76818
  1225 429.925 -6.69592 3.67361
  1226 302.529 -3.24375 -4.34637
  1227 302.582 -3.21244 4.32253
  1228 336.957 -4.91229 -2.27566
  1229 336.976 -4.87959 2.26511
  1230 542.370 84.7540 25.3517
  1231 456.035 -35.1164 15.5010
  1232 313.360 -1.54666 118.302
  1233 253.883 -0.403707 4.18127
  1234 253.672 -0.408167 -4.22115
  1235 432.844 -8.03361 27.0623
  1236 413.990 -6.37666 0.616396
  1237 414.005 -6.35604 -0.616062
  1238 474.688 92.1719 9.13351
  1239 433.390 -45.4259 56.0988
  1240 253.954 -3.52609 15.2333
  1241 253.708 -3.55202 -15.3404
  1242 413.444 -10.1702 2.76828
  1243 413.351 -10.2415 -2.67715
  1244 426.398 -11.8748 -7.73513
  1245 393.682 0.0911448 12.9293
  1246 674.881 167.817 -56.9953
  1247 434.471 -15.9611 -23.6626
  1248 75.8074 17.7874 43.4969
  1249 448.686 -23.9725 32.7043
  1250 362.901 8.03725 -9.80642
  1251 28.3746 20.4757 16.1021
  1252 588.834 66.4955 -7.80656
  1253 438.391 -19.9835 -33.2402
  1254 364.590 5.26968 15.0273
  1255 250.354 -15.5508 48.5735
  1256 445.033 -34.5047 19.0433
  1257 643.133 124.723 41.7249
  1258 150.923 22.0590 82.9228
  1259 447.033 -5.41331 -11.6944
  1260 851.664 9.56869 -8.51286
  1261 879.424 13.1720 37.8562
  1262 938.191 31.7032 -90.1311
  1263 434.072 -13.6038 -29.6724
  1264 433.926 -19.8612 25.0292
  1265 440.712 -31.4213 23.0052
  1266 -12.9279 1.53633 8.16044
  1267 -11.7493 1.24313 -8.90147
  1268 428.709 -47.4331 -26.7875
  1269 438.931 -44.4376 -39.6576
  1270 339.033 2.20278 -6.20982
  1271 426.871 -48.2719 39.5171
  1272 456.306 -21.6967 -33.1456
  1273 9.44499 13.8214 1.99535
  1274 371.979 -6.81374 1.20032
  1275 372.004 -6.86059 -1.20348
  1276 453.039 -3.72838 7.91327
  1277 435.616 -7.59818 -5.70202
  1278 410.632 -44.8230 -14.6250
  1279 375.792 -20.2721 6.67114
  1280 373.926 -19.9842 -7.19494
  1281 440.006 -9.37772 18.7903
  1282 450.984 -16.6183 -38.4201
  1283 29.4334 21.3475 -15.6556
</Section>

newXOutput 60

<Section columns = "stress_xx | stress_yy | stress_xy">
  1 491.387 -0.148015 0.930254
  2 491.394 -0.139095 -0.932769
  3 273.030 -0.0814280 -0.336037
  4 -3.43568 -3.39503 -4.94043
  5 874.344 354.008 281.647
  6 866.311 366.608 -280.635
  7 -3.99141 -3.22326 5.26066
  8 272.962 -0.0823928 0.335178
  9 494.730 -0.843007 0.275335
  10 493.750 -1.32441 -0.264354
  11 492.728 -0.902483 1.05185
  12 491.691 -1.22610 0.259034
  13 489.449 -1.03903 1.65543
  14 487.403 -1.04635 1.18599
  15 482.493 -0.923163 2.38797
  16 475.384 -0.669474 3.52793
  17 469.065 -0.696699 3.94869
  18 459.612 -0.946551 4.79701
  19 446.408 -0.0976321 7.12258
  20 434.212 -0.696715 6.79669
  21 420.208 -0.888914 9.61066
  22 399.994 0.625666 8.38812
  23 385.272 0.969278 9.93898
  24 366.057 1.61836 7.79759
  25 352.722 1.73404 7.87119
  26 333.410 2.39599 4.01931
  27 329.321 3.76708 4.31561
  28 326.854 3.10642 -1.27710
  29 330.208 1.83118 -2.79600
  30 336.392 1.75693 -3.43211
  31 350.864 2.19939 -6.84377
  32 364.922 1.73813 -8.63914
  33 385.472 0.408824 -10.2316
  34 401.899 -0.201417 -9.28719
  35 419.342 -0.704929 -9.09492
  36 435.101 -0.546047 -6.40338
  37 448.577 -0.579973 -5.45537
  38 459.637 -0.928224 -4.55829
  39 469.497 -0.674352 -3.14850
  40 475.595 -0.812568 -3.32846
  41 481.489 -0.980948 -2.42696
  42 487.013 -1.15584 -1.02820
  43 489.829 -0.936258 -1.23369
  44 491.256 -0.594805 -0.755350
  45 490.044 -0.357574 -0.690400
  46 494.224 -1.32866 0.184580
  47 494.868 -0.875199 -0.283766
  48 479.264 -0.469212 -0.576217
  49 468.900 -2.12588 -1.06329
  50 456.185 -3.09393 -0.658000
  51 440.644 -4.51576 -0.911381
  52 425.862 -4.91932 -1.11278
  53 410.051 -6.08390 -1.06468
  54 396.025 -6.72399 -0.562147
  55 383.721 -7.46347 -0.173429
  56 369.511 -6.17817 -0.161833
  57 353.131 -5.74375 -0.318729
  58 337.351 -4.50593 -0.0547299
  59 322.411 -2.84550 0.00492398
  60 308.224 -2.00741 0.0617223
  61 295.800 -1.00282 0.161761
  62 283.122 -0.249049 -0.381998
  63 273.161 0.387338 0.517576
  64 268.665 1.04561 0.360951
  65 271.627 0.0209888 0.831660
  66 268.122 -0.126389 1.00834
  67 264.827 -0.195460 1.25551
  68 260.379 -0.00988829 1.62469
  69 254.774 -0.00416413 2.03829
  70 250.549 -0.303633 3.89285
  71 238.776 0.348096 4.24375
  72 230.437 -0.0143947 4.83890
  73 218.022 -0.203844 5.49453
  74 203.746 -0.350318 6.68191
  75 185.891 -0.0720284 8.11387
  76 164.128 0.106858 8.95727
  77 145.224 -0.177624 12.8061
  78 108.067 1.17719 12.1095
  79 82.6246 1.01402 12.8293
  80 52.0172 -0.244529 14.2637
  81 26.4820 2.32801 14.8795
  82 -2.64805 3.50606 9.02821
  83 -23.9729 3.56819 3.31691
  84 -23.6690 3.46959 -1.09164
  85 -22.9113 2.89575 -6.83958
  86 -13.5115 -0.882615 -6.54866
  87 -1.62271 -12.9701 -7.23889
  88 1.33062 -23.8182 -8.99179
  89 3.62006 -37.2715 -4.79975
  90 7.99353 -37.4013 0.841814
  91 16.8459 -6.55471 22.7550
  92 49.8695 80.6207 75.8239
  93 288.473 277.086 252.573
  94 1059.67 158.967 176.590
  95 956.292 22.7131 57.2973
  96 890.415 9.46288 17.5339
  97 866.116 8.05946 1.34166
  98 879.073 10.6961 -15.2187
  99 954.315 21.2056 -45.3606
  100 1121.16 76.6699 -151.648
  101 171.736 284.253 -211.674
  102 37.3271 58.8729 -63.0169
  103 18.4141 -4.70549 -24.1813
  104 7.48754 -37.2946 -4.48920
  105 2.16652 -28.2584 5.49111
  106 2.69111 -30.0486 7.77872
  107 0.145495 -11.1890 8.02005
  108 -14.1099 -0.552666 6.20235
  109 -23.6368 2.17401 5.95695
  110 -24.9335 4.21387 1.22326
  111 -24.7372 3.50882 -3.08755
  112 -4.38793 3.59304 -8.46854
  113 24.9551 2.34803 -14.1925
  114 50.4604 0.00440671 -14.0300
  115 81.0159 1.09600 -12.8551
  116 106.606 1.20767 -12.2001
  117 144.091 -0.182921 -12.9114
  118 163.158 0.118410 -9.04223
  119 185.044 -0.0689105 -8.21397
  120 203.313 -0.389046 -6.73006
  121 217.436 -0.192939 -5.50799
  122 229.991 0.000730754 -4.88790
  123 238.409 0.343977 -4.28905
  124 250.284 -0.306698 -3.93122
  125 254.561 -0.00615210 -2.06182
  126 260.215 -0.0117878 -1.64402
  127 264.701 -0.198609 -1.27081
  128 268.023 -0.129087 -1.01901
  129 271.544 0.0186860 -0.838460
  130 268.591 1.04446 -0.364096
  131 273.091 0.386759 -0.519552
  132 283.054 -0.251671 0.380984
  133 295.736 -1.00939 -0.164175
  134 308.168 -2.02183 -0.0645400
  135 322.369 -2.86553 -0.00763228
  136 337.326 -4.53481 0.0520443
  137 353.125 -5.78029 0.316612
  138 369.527 -6.22051 0.159654
  139 383.753 -7.51102 0.172440
  140 396.070 -6.77144 0.563718
  141 410.116 -6.12708 1.06955
  142 425.918 -4.94904 1.13028
  143 440.687 -4.54236 0.995633
  144 456.268 -2.93236 0.672594
  145 469.228 -2.07260 1.03968
  146 479.350 -0.543744 0.567323
  147 430.533 -40.4612 -1.59604
  148 430.163 -39.9143 1.74808
  149 452.975 65.0052 -21.5434
  150 481.526 28.3587 45.2452
  151 364.892 -35.2154 -81.1496
  152 367.871 -35.1620 78.5780
  153 355.891 -14.9985 10.0857
  154 355.916 -15.2040 -10.0917
  155 509.742 18.4185 -33.7983
  156 429.399 -15.5248 8.71763
  157 429.214 -15.1560 -8.61107
  158 554.995 123.394 5.07288
  159 440.248 -0.701308 -44.5599
  160 326.855 -25.5657 -36.4742
  161 326.874 -25.3561 36.1642
  162 440.832 -10.0125 40.0667
  163 419.911 30.6931 26.7428
  164 174.227 27.7035 -96.9022
  165 192.937 26.2697 102.068
  166 537.139 6.42086 2.17938
  167 441.618 -17.0001 -27.5222
  168 583.666 128.157 -0.723113
  169 398.205 -11.2712 -0.413913
  170 398.122 -11.2387 0.446732
  171 445.980 -5.54291 -3.77726
  172 447.340 -4.99716 3.25353
  173 314.843 -4.43599 -5.88114
  174 314.886 -4.39075 5.85263
  175 477.572 -12.2259 103.192
  176 406.781 16.9632 -28.8247
  177 266.640 -19.9034 -58.2100
  178 267.430 -19.7595 57.8434
  179 299.870 -9.70859 -19.1224
  180 299.902 -9.59877 18.9869
  181 443.696 -11.7262 23.4037
  182 403.665 -27.6694 -1.86636
  183 402.273 -27.4638 2.49210
  184 457.757 -44.3676 -9.22249
  185 460.177 -42.2695 3.55213
  186 631.574 148.797 -23.6181
  187 461.763 74.0150 20.1194
  188 461.985 28.3680 -45.7356
  189 475.692 -3.52813 -119.650
  190 457.797 -25.9255 -31.2864
  191 461.763 -18.5334 37.1089
  192 385.435 -43.7365 40.2319
  193 385.507 -43.4230 -40.1150
  194 413.411 5.31313 34.5782
  195 190.389 -4.74730 -71.2871
  196 190.843 -5.14105 70.8632
  197 710.787 106.229 15.4774
  198 433.798 -25.8844 16.6460
  199 449.582 -8.35846 -15.1202
  200 358.092 -8.71024 -4.66731
  201 358.101 -8.66770 4.65363
  202 432.600 -5.63869 -30.9372
  203 492.056 72.1703 -36.3049
  204 413.218 37.1813 -5.35345
  205 270.369 -9.45398 26.7675
  206 269.963 -9.48233 -26.9591
  207 455.878 -5.18332 8.14634
  208 445.315 8.37662 45.8582
  209 362.599 -26.2779 -17.9760
  210 360.219 -24.8777 18.3624
  211 523.799 77.7195 32.6758
  212 613.413 85.3539 16.6878
  213 42.8175 33.1441 -27.8839
  214 39.6292 30.6379 23.7365
  215 254.124 73.0963 169.827
  216 429.483 -28.5652 -12.4838
  217 457.452 -4.97661 -7.35380
  218 408.862 3.65259 -31.8520
  219 288.628 -2.80065 -8.50046
  220 288.722 -2.76938 8.42968
  221 387.233 -18.1256 -4.19249
  222 387.415 -18.2406 3.97474
  223 436.176 -5.90411 26.2719
  224 500.141 -28.9065 13.0709
  225 498.815 101.652 -10.4498
  226 391.177 -37.7103 -19.4461
  227 493.311 -8.60809 28.1388
  228 420.996 -7.18552 1.25912
  229 420.999 -7.12837 -1.25748
  230 388.367 -37.5328 20.1511
  231 444.284 -28.2451 25.3261
  232 620.854 81.8821 -42.1892
  233 139.598 83.0457 -123.826
  234 378.829 13.4136 6.90734
  235 447.203 39.4146 38.6806
  236 475.234 -3.36602 -40.2305
  237 444.465 -16.0431 -37.3103
  238 239.484 -7.61285 -33.4379
  239 240.293 -7.49930 33.3392
  240 445.076 -5.43439 -20.2011
  241 424.024 -10.8295 4.43146
  242 423.826 -10.8176 -4.26965
  243 91.0743 8.19025 -45.8097
  244 92.4694 7.17710 45.6504
  245 471.228 -41.2786 -37.9923
  246 465.996 -1.80216 1.05992
  247 466.469 -1.83512 -1.17133
  248 436.987 36.2434 -35.4684
  249 386.099 7.52668 20.9054
  250 795.607 127.383 85.6556
  251 788.798 89.8033 -53.4290
  252 575.862 123.732 -0.202150
  253 359.668 -17.4275 107.688
  254 330.408 -11.4300 -112.558
  255 379.724 -7.80387 -1.72898
  256 379.690 -7.75587 1.71759
  257 316.738 -8.36765 11.8061
  258 316.731 -8.48131 -11.9054
  259 455.567 -5.01225 12.3123
  260 442.464 -31.5563 -20.5692
  261 290.354 -0.501753 -2.00578
  262 290.424 -0.492813 1.99408
  263 436.930 -17.7677 -16.4670
  264 187.990 -6.10199 -46.4469
  265 188.777 -6.12103 46.1234
  266 442.509 -19.2434 29.6814
  267 338.615 -35.9378 65.3120
  268 339.446 -36.5799 -65.1107
  269 384.201 14.8273 -9.73102
  270 331.590 -5.01309 -3.96931
  271 331.621 -4.97997 3.95491
  272 416.228 -1.00964 25.4627
  273 496.144 90.6300 25.1244
  274 268.744 -3.20396 14.3047
  275 268.541 -3.23026 -14.4215
  276 454.079 -37.9951 13.7971
  277 420.339 -47.2336 -44.3869
  278 467.831 -2.38770 3.73716
  279 327.753 -19.2590 -25.0078
  280 327.207 -19.0467 24.9179
  281 572.508 62.6685 151.066
  282 274.171 -22.1664 77.7480
  283 441.286 61.9095 -2.28239
  284 554.670 61.7901 -20.1218
  285 419.702 -32.4525 4.18467
  286 420.706 -48.5177 40.1207
  287 274.975 -21.8114 -78.6010
  288 51.5525 63.6728 58.3275
  289 437.006 -17.8266 16.7765
  290 571.108 75.2463 15.0342
  291 471.383 -2.13382 -3.24101
  292 429.582 15.0812 -40.8345
  293 422.898 -23.9420 8.53774
  294 414.167 -34.9341 2.20741
  295 428.096 19.6888 39.3704
  296 451.944 -37.9985 -12.1862
  297 638.714 123.799 -11.4031
  298 422.785 -23.0174 -8.15724
  299 347.597 101.375 -207.152
  300 431.911 -45.8170 -9.75832
  301 428.893 -47.0713 14.6424
  302 316.760 -28.5511 -51.2836
  303 287.686 -1.05031 -4.34867
  304 287.769 -1.03195 4.31623
  305 316.905 -28.5768 51.0139
  306 457.372 -0.789876 -45.8477
  307 492.411 -20.4014 -18.0079
  308 376.810 -22.5965 -9.83120
  309 376.581 -22.6491 10.0057
  310 448.231 -38.5863 70.4272
  311 448.648 -3.65886 15.2862
  312 542.576 3.17170 26.5566
  313 369.432 -12.9780 -5.47632
  314 369.459 -12.9371 5.44807
  315 337.351 -8.68352 -7.87020
  316 337.357 -8.60404 7.85970
  317 382.234 5.21959 -20.2132
  318 487.273 35.7193 -43.7861
  319 748.300 202.497 -97.5092
  320 443.297 -4.07142 -1.23647
  321 443.055 -4.01838 1.27328
  322 239.305 -0.657503 97.0272
  323 335.469 -15.0726 -16.6799
  324 334.856 -15.0254 16.7237
  325 239.258 -1.22539 -96.6560
  326 465.287 54.8615 -37.5316
  327 518.852 25.8185 31.9224
  328 448.103 -31.9639 -78.0539
  329 413.546 -16.0087 3.42459
  330 413.134 -15.8962 -3.24980
  331 440.676 -9.27560 -7.82041
  332 416.505 -0.767186 -23.8065
  333 465.629 1.94656 44.7777
  334 463.557 -3.35295 -8.45401
  335 281.663 -16.9399 39.0614
  336 281.354 -17.0319 -39.3510
  337 433.981 -0.967621 42.3590
  338 270.532 -2.14004 -8.51536
  339 270.704 -2.12018 8.44147
  340 444.006 -10.3308 12.4629
  341 532.894 108.614 -17.9576
  342 440.477 -9.34087 8.12538
  343 470.424 58.9826 37.6236
  344 449.886 -8.41176 43.6689
  345 357.696 -6.66209 1.74153
  346 357.696 -6.70152 -1.75214
  347 426.576 -1.50278 -37.6125
  348 562.540 118.096 10.7124
  349 469.348 85.8047 0.782419
  350 287.219 33.2950 -143.849
  351 30.7932 13.0458 -20.2865
  352 33.6490 14.1234 21.7739
  353 -1.13844 3.49635 8.36909
  354 0.561398 2.07602 -8.76768
  355 813.687 56.4753 19.2420
  356 388.687 -31.4631 -11.7287
  357 444.326 -9.99143 -12.1546
  358 401.759 -7.15997 0.369518
  359 401.713 -7.10491 -0.372400
  360 430.927 47.6037 -19.2184
  361 367.292 -37.3178 33.1298
  362 32.8440 49.0508 -36.5167
  363 367.614 -37.3027 -33.7088
  364 436.441 49.6325 20.4480
  365 443.639 -11.9266 -22.2565
  366 470.080 -26.3064 -26.2591
  367 502.159 105.632 7.18810
  368 471.065 -29.5056 21.3420
  369 198.299 -4.85838 31.0819
  370 197.153 -4.76376 -31.2717
  371 112.901 2.65838 -43.3939
  372 114.038 2.22127 43.2043
  373 388.069 1.38433 20.4225
  374 726.339 213.739 85.3212
  375 458.173 -3.00892 -10.8541
  376 358.245 -30.0985 -25.4488
  377 357.969 -30.0280 25.4159
  378 441.279 -10.2493 -28.4322
  379 500.771 -24.2034 1.51452
  380 388.673 -31.4373 12.0608
  381 548.139 4.63219 -47.2806
  382 314.655 -2.46180 -1.57515
  383 314.705 -2.44112 1.56507
  384 434.492 -2.56317 -18.2693
  385 237.136 -3.34685 -20.2559
  386 237.278 -3.45621 20.0167
  387 517.692 66.1977 -36.5025
  388 280.661 19.7311 133.771
  389 406.222 -21.3132 1.06155
  390 406.616 -21.2780 -1.07865
  391 477.629 80.6321 -23.7163
  392 451.502 -13.4368 -41.2560
  393 451.580 -46.2237 39.1908
  394 378.422 -10.0406 -2.72856
  395 378.382 -9.99495 2.70492
  396 435.432 -33.6332 13.3787
  397 467.797 -2.33780 6.25821
  398 295.138 -10.6058 -23.8698
  399 295.258 -10.6083 23.6756
  400 443.153 14.8950 -45.2696
  401 417.575 -9.18843 1.87385
  402 417.555 -9.21150 -1.82184
  403 432.714 -5.13088 34.4493
  404 404.841 29.6004 9.27340
  405 447.831 -18.9862 35.8474
  406 644.826 134.611 25.0840
  407 218.653 -11.7413 -62.3328
  408 219.249 -11.7431 61.8740
  409 98.0965 52.1696 -75.1823
  410 477.689 -1.54411 1.66880
  411 247.259 -2.01995 -12.8304
  412 247.579 -1.97721 12.7251
  413 441.594 -11.5947 27.8038
  414 400.704 -43.4485 22.3807
  415 451.290 -5.78759 5.52232
  416 461.163 23.3895 47.0389
  417 102.689 55.5489 78.2645
  418 401.287 -43.1949 -20.6743
  419 414.536 -38.5000 -5.09451
  420 138.148 -2.76185 -39.2290
  421 139.138 -2.86175 38.9668
  422 318.929 -25.6792 -93.7494
  423 475.252 -7.16684 39.1868
  424 317.780 -26.0452 92.9472
  425 439.412 -24.7433 -22.7895
  426 410.311 27.7845 -20.2679
  427 439.466 -19.0826 21.7204
  428 471.335 -2.24690 -4.16069
  429 14.8338 16.1271 7.63611
  430 96.8528 112.676 110.733
  431 424.214 -1.55025 17.6788
  432 358.608 5.03415 8.88300
  433 364.567 6.10583 -12.0343
  434 311.047 -5.02297 -8.33234
  435 311.084 -4.95970 8.28169
  436 433.242 -33.6088 -12.1537
  437 438.339 -8.62910 -38.4865
  438 360.441 6.90117 -3.26776
  439 644.348 153.712 33.7645
  440 91.2289 29.8397 -56.4164
  441 100.399 27.3785 60.1731
  442 405.846 -14.5039 1.15320
  443 405.696 -14.4734 -1.04935
  444 540.585 118.878 -1.37070
  445 334.985 141.970 211.757
  446 518.204 -7.07525 -5.02130
  447 301.147 -15.5346 -32.3782
  448 301.293 -15.4311 32.1157
  449 303.618 -6.64519 12.8959
  450 303.557 -6.69261 -13.0058
  451 407.819 9.15499 -32.8302
  452 480.022 -0.811705 -1.09359
  453 396.957 18.3445 18.4874
  454 498.516 61.5015 40.0263
  455 415.393 -30.8207 -2.72931
  456 451.093 -5.52111 -5.37201
  457 473.207 -2.04783 3.83050
  458 478.614 -0.874094 0.623382
  459 478.975 -0.970541 -0.447380
  460 269.142 -0.445842 3.17092
  461 269.006 -0.452684 -3.20185
  462 453.837 -28.9315 27.5597
  463 411.663 16.3343 31.8017
  464 429.429 1.76793 -41.3675
  465 446.959 -9.55991 16.4062
  466 638.264 111.226 -128.312
  467 448.278 -24.9567 -31.1264
  468 5.17045 8.62758 4.01128
  469 5.09716 8.80026 -1.78977
  470 356.750 -20.0510 14.5601
  471 355.589 -19.7753 -14.3727
  472 553.673 11.4916 69.9242
  473 155.940 144.313 -161.452
  474 442.810 -1.40245 13.6460
  475 499.361 -28.9452 -40.5077
  476 269.751 -15.3800 45.1597
  477 536.845 95.2858 -25.8568
  478 441.868 -24.0026 25.9741
  479 372.263 -17.6854 -7.52075
  480 372.589 -17.3969 7.50286
  481 387.978 2.12082 -18.0242
  482 268.922 -15.3161 -45.4242
  483 397.427 0.237742 18.0916
  484 378.836 -43.3736 -58.6289
  485 377.899 -43.4396 58.8610
  486 455.712 -3.11385 11.9979
  487 416.488 39.3379 3.83057
  488 419.110 7.70381 145.391
  489 617.534 125.121 -0.781266
  490 427.376 -7.36879 2.34303
  491 427.396 -7.34308 -2.43893
  492 331.334 -5.77516 -5.36259
  493 331.361 -5.72859 5.34448
  494 175.602 7.84709 81.7709
  495 443.912 -21.4652 -30.5660
  496 403.011 -8.85149 0.00369680
  497 402.970 -8.82266 0.00356675
  498 351.612 -37.1365 47.9608
  499 178.938 10.4015 -83.8192
  500 444.234 -36.2749 -13.9632
  501 8.01127 2.36258 2.86319
  502 391.226 20.3522 1.36042
  503 428.832 -5.14964 -0.754889
  504 428.825 -5.21626 0.734391
  505 351.797 -37.0672 -48.3238
  506 499.820 -25.5019 51.1542
  507 496.944 18.0496 40.4762
  508 457.955 -3.30090 -2.61428
  509 442.881 -36.7791 14.1929
  510 281.868 -0.229239 -0.583321
  511 281.938 -0.226831 0.578958
  512 442.669 -17.0720 -32.7852
  513 430.089 31.8560 34.7154
  514 490.933 12.1361 -40.0111
  515 280.151 -0.403285 -1.78788
  516 280.231 -0.397449 1.77652
  517 847.759 122.530 -109.252
  518 447.242 53.2061 30.4956
  519 458.333 -3.06321 2.32087
  520 415.435 -39.3541 6.10307
  521 350.991 -11.4954 8.11465
  522 350.984 -11.5803 -8.09810
  523 482.211 -29.4578 10.8165
  524 464.350 -9.35549 -41.5395
  525 519.429 102.069 22.0560
  526 433.125 7.48354 42.9169
  527 435.253 -8.53674 4.81367
  528 422.694 -45.2253 -56.7516
  529 439.551 -10.9516 32.4698
  530 837.217 38.4996 -15.2691
  531 478.581 -36.1576 1.18643
  532 455.117 -3.21510 -0.580612
  533 455.228 -3.40705 0.496286
  534 845.946 56.7338 53.3743
  535 422.624 -0.105284 36.5037
  536 587.609 99.6059 -6.88383
  537 443.083 -12.1862 -15.8511
  538 204.259 -1.86627 -13.8439
  539 204.865 -1.77594 13.7076
  540 301.750 -28.2065 -65.1916
  541 302.004 -27.7352 64.7202
  542 435.010 -8.19422 -4.77664
  543 473.897 17.3713 -45.6221
  544 416.606 -28.3415 4.33022
  545 449.169 51.4709 -31.6087
  546 450.981 -5.36416 16.1394
  547 562.620 28.9438 -9.15962
  548 387.002 -13.2444 -2.55832
  549 386.890 -13.2024 2.53249
  550 419.485 -19.8414 6.19957
  551 615.074 122.964 -12.2367
  552 442.738 19.3774 44.5558
  553 190.143 48.8144 120.646
  554 425.480 -25.4900 97.7671
  555 559.041 28.7061 -108.127
  556 452.579 37.4193 -41.3933
  557 400.032 -34.6909 -84.8630
  558 433.469 -47.5721 -18.0772
  559 452.172 -45.8908 -25.8997
  560 60.2985 79.0247 -74.8215
  561 454.645 -5.92314 -9.72108
  562 681.533 132.341 -39.5720
  563 421.674 -19.0525 -7.05537
  564 425.016 -13.9324 5.83321
  565 424.625 -13.6223 -5.57456
  566 296.858 -1.63336 -3.96636
  567 296.925 -1.61232 3.94200
  568 43.8425 4.33591 -24.1050
  569 46.1136 4.55064 24.6513
  570 221.247 -10.1841 -47.5009
  571 222.891 -10.2412 47.4400
  572 430.884 -23.4154 -14.0270
  573 438.430 -47.7689 19.4645
  574 450.631 -42.8731 1.05149
  575 371.423 -6.56565 -1.50052
  576 371.404 -6.52113 1.49325
  577 351.556 -36.9429 -72.6002
  578 392.492 -32.2983 89.6962
  579 343.213 -34.7548 72.9869
  580 443.705 -9.89837 -41.3126
  581 281.310 -4.57037 14.4147
  582 281.172 -4.61721 -14.5276
  583 424.289 23.5237 -34.8941
  584 424.490 -0.748328 -16.0419
  585 528.824 114.348 -9.80174
  586 347.484 -5.19961 -1.43936
  587 347.497 -5.16665 1.43304
  588 451.101 -1.37467 -8.94965
  589 314.250 -10.4613 -16.0914
  590 314.265 -10.4270 15.9590
  591 255.667 11.5863 115.237
  592 439.046 -20.2832 -21.9416
  593 246.850 -13.1670 82.8707
  594 431.470 -22.4226 14.3668
  595 453.507 -6.55783 10.7656
  596 447.572 -4.29572 -2.28451
  597 318.156 -3.84743 -3.73029
  598 318.200 -3.81673 3.71265
  599 507.421 101.027 -19.9846
  600 246.669 -12.6877 -83.1661
  601 430.016 -18.7032 -11.3895
  602 388.809 -7.27167 -0.798502
  603 388.771 -7.22075 0.795430
  604 723.117 97.1293 -17.3442
  605 261.324 -1.62631 7.92764
  606 261.103 -1.64192 -7.99791
  607 403.155 9.33531 29.9809
  608 570.328 48.5924 -3.83159
  609 272.220 1.65294 -114.330
  610 141.171 3.39677 -62.6493
  611 142.304 2.61544 62.3201
  612 342.077 -19.8018 20.0807
  613 345.550 -20.3857 -19.5431
  614 577.919 116.644 8.01995
  615 445.800 -4.44525 2.04426
  616 386.318 11.0011 -18.1390
  617 478.889 85.8403 18.7665
  618 477.255 89.0643 -12.4844
  619 392.165 -21.6832 -4.09428
  620 395.088 -21.2053 2.70901
  621 280.636 61.4496 -163.871
  622 338.564 -11.4557 -11.2449
  623 338.596 -11.3276 11.2100
  624 843.775 172.883 130.287
  625 442.973 -14.5777 35.4842
  626 256.063 -8.92821 -30.4218
  627 680.236 162.188 110.298
  628 256.646 -8.88060 30.3141
  629 421.892 -16.0077 -113.888
  630 302.164 -1.42014 -1.46032
  631 302.224 -1.40794 1.45348
  632 373.036 3.42573 15.8314
  633 171.566 -2.50830 -27.2852
  634 172.474 -2.51497 27.0796
  635 387.187 -27.3228 9.15863
  636 405.594 -32.4378 -3.45011
  637 475.862 -1.11012 -3.54217
  638 273.513 -0.412645 2.35798
  639 273.405 -0.420186 -2.38065
  640 366.023 -8.22696 -2.37324
  641 366.012 -8.18321 2.35752
  642 417.751 -46.4460 57.2986
  643 480.841 53.6597 -41.3442
  644 322.056 -14.8640 -20.7196
  645 321.838 -14.6158 20.5764
  646 380.184 -27.2463 -12.3414
  647 596.110 129.455 4.91087
  648 448.019 -43.4219 1.37751
  649 390.244 -9.38425 -1.32821
  650 390.188 -9.34096 1.32769
  651 534.397 58.7056 30.0603
  652 449.176 -6.59871 -17.5365
  653 399.639 -0.448226 -14.7235
  654 186.566 -6.38351 -59.8207
  655 187.116 -6.55581 59.3488
  656 379.094 -32.6050 -19.3950
  657 566.870 124.314 0.117244
  658 441.374 59.7125 -13.7370
  659 295.250 -2.61078 -7.25385
  660 295.322 -2.57482 7.19964
  661 410.658 -11.6903 -1.32958
  662 410.737 -11.7001 1.41301
  663 758.195 98.8390 43.6496
  664 482.425 -1.39534 0.920571
  665 467.387 -1.93124 6.15151
  666 465.682 -1.95309 -7.25668
  667 442.707 -41.2723 5.10562
  668 328.714 -3.75793 -1.86308
  669 328.749 -3.73210 1.85541
  670 474.140 75.8359 28.9681
  671 605.858 134.410 -9.40454
  672 334.116 -24.6643 -29.3478
  673 334.034 -24.4273 29.2085
  674 415.838 -42.8310 -10.1069
  675 439.641 26.1559 -41.9714
  676 518.981 1.47815 16.0654
  677 347.629 -6.40857 -3.78608
  678 347.644 -6.36919 3.77198
  679 300.686 -26.2893 -58.8524
  680 438.568 -42.4635 -1.10339
  681 365.376 -40.5047 52.8630
  682 175.774 55.2723 -116.476
  683 341.937 -31.5626 40.7873
  684 412.588 0.116064 13.5640
  685 300.972 -25.9943 58.4712
  686 429.772 -19.0577 11.5301
  687 342.031 -31.4262 -41.1443
  688 352.821 4.69817 3.32860
  689 273.117 -7.21635 21.6869
  690 272.877 -7.22219 -21.8310
  691 365.542 -41.5527 -53.4418
  692 450.882 -29.7796 -26.6233
  693 413.841 -5.94833 -0.366780
  694 413.907 -6.00695 0.368677
  695 460.592 -29.4343 26.2136
  696 418.961 -43.7812 11.8065
  697 508.433 46.6875 39.3433
  698 459.290 -8.67456 42.9475
  699 441.970 -15.9537 25.9050
  700 423.927 34.9143 -26.4706
  701 507.896 85.2944 31.2045
  702 438.846 -6.11611 -25.4611
  703 436.721 -14.5905 12.9269
  704 453.021 70.8039 7.41369
  705 444.568 -7.62256 22.0259
  706 141.067 96.2128 122.248
  707 413.525 -47.6028 -33.6604
  708 478.751 8.66072 43.4956
  709 482.856 -14.9831 -30.2127
  710 480.422 -0.728067 1.91853
  711 441.517 -15.2777 -20.2271
  712 414.160 -47.9742 30.7030
  713 793.673 70.3367 -11.7407
  714 250.866 -1.03581 8.29103
  715 250.574 -1.04694 -8.36525
  716 447.320 -8.28162 -9.22311
  717 483.186 -0.562235 -1.88172
  718 378.432 -33.1363 19.4940
  719 453.408 -16.9444 38.8667
  720 683.389 165.431 -54.2107
  721 429.774 -31.1805 11.4780
  722 475.559 -31.3881 -14.5331
  723 436.873 -14.2073 -12.7162
  724 482.776 -0.933073 -0.570931
  725 443.216 -0.0649541 45.0705
  726 20.8447 20.7636 26.8838
  727 496.787 -18.7284 -75.1229
  728 541.461 32.4937 17.6952
  729 451.765 -46.2359 23.3213
  730 325.226 -7.70029 9.18746
  731 325.220 -7.80548 -9.22826
  732 416.596 217.549 -222.272
  733 460.766 -30.5605 -24.0829
  734 351.484 1.96370 -6.36565
  735 407.191 2.31070 29.1658
  736 444.951 -22.3378 31.0467
  737 426.481 -35.9408 4.94987
  738 442.273 -40.4215 -61.5913
  739 423.937 -33.5444 -5.79720
  740 499.183 -23.8819 -3.24079
  741 459.961 -3.91913 5.34703
  742 411.930 -24.7407 2.65178
  743 742.331 148.333 -79.6841
  744 438.693 -11.8690 10.1797
  745 435.361 7.15946 -44.0501
  746 370.257 -4.04642 127.865
  747 465.814 37.4699 44.7394
  748 400.782 -31.4999 5.48127
  749 311.013 -24.3468 -43.0915
  750 311.054 -24.2838 42.7558
  751 427.304 48.0696 -6.15384
  752 433.722 -5.04122 39.1747
  753 438.089 -10.4685 -33.2218
  754 412.390 -25.2538 -2.77334
  755 398.892 -35.6836 11.5074
  756 456.442 75.1484 -8.33271
  757 425.965 -36.8703 -3.27415
  758 427.061 -27.0637 11.2444
  759 432.245 -5.72084 1.64964
  760 432.499 -5.57271 -1.63528
  761 581.269 127.167 1.75288
  762 474.700 -40.4400 -16.2235
  763 442.843 -13.6600 20.1737
  764 460.075 -3.91299 -4.84275
  765 466.160 3.06119 -45.2155
  766 529.174 28.1106 -25.0068
  767 264.303 -0.222444 -3.89380
  768 264.475 -0.218859 3.85705
  769 3.95812 -7.57343 -5.29540
  770 452.172 -0.574741 8.27657
  771 416.086 -0.618631 -32.1866
  772 429.178 -4.02619 28.2297
  773 388.822 49.3839 186.717
  774 488.288 100.020 -1.00701
  775 348.146 -24.7521 23.0961
  776 63.2978 1.33052 -23.6809
  777 65.0078 0.971890 23.9290
  778 425.534 -3.01999 -31.9119
  779 349.051 -24.9930 -23.0968
  780 457.393 -4.29734 4.00331
  781 237.389 -10.0255 40.5156
  782 235.404 -9.98837 -40.5212
  783 438.655 -11.5304 -9.90968
  784 283.469 -7.02017 -18.9052
  785 283.611 -6.97576 18.7467
  786 456.542 -4.43072 -12.0495
  787 350.903 -9.29139 -6.49454
  788 350.918 -9.23333 6.49744
  789 498.165 -3.12674 -30.1128
  790 449.597 -4.73858 -45.0863
  791 232.359 -1.44484 -10.5364
  792 232.791 -1.43131 10.4192
  793 12.8525 5.76411 -14.6089
  794 14.8324 6.08599 15.3534
  795 367.535 1.80357 -11.4924
  796 410.317 -46.0965 -25.3938
  797 -4.64114 -3.18219 8.08660
  798 -4.09734 -3.81118 -8.07577
  799 426.865 -8.69989 3.59724
  800 462.423 -36.1703 -12.8002
  801 478.740 70.8348 -33.7454
  802 459.276 -3.87553 -3.81116
  803 967.834 196.800 -181.749
  804 426.774 -8.67469 -3.54815
  805 640.425 121.601 10.4703
  806 457.358 13.3023 -47.0791
  807 504.155 38.1150 -40.3746
  808 87.7884 -1.02347 -21.7927
  809 89.3020 -1.14785 21.7559
  810 288.354 -4.06603 11.2563
  811 288.250 -4.09901 -11.3502
  812 276.236 -0.614124 2.11791
  813 276.147 -0.620673 -2.13366
  814 510.400 85.8458 -30.8660
  815 305.045 -1.83129 -3.15743
  816 305.104 -1.81056 3.14129
  817 435.039 -4.37914 -40.9149
  818 621.527 65.9380 56.9181
  819 393.291 8.91054 -25.2335
  820 138.718 -1.22064 23.2531
  821 137.611 -1.23214 -23.4288
  822 501.572 14.6761 134.641
  823 446.903 -8.34870 9.51871
  824 402.435 26.8213 -10.5056
  825 188.692 -0.273147 15.7921
  826 187.777 -0.186992 -15.9033
  827 281.635 -1.37651 -5.53732
  828 281.740 -1.35675 5.48974
  829 50.8781 45.1185 39.6601
  830 418.819 10.0578 37.3827
  831 465.218 68.2475 -29.0617
  832 499.426 58.0031 -40.3889
  833 330.491 -12.3422 -14.6282
  834 330.310 -12.2543 14.6133
  835 517.775 109.784 13.8697
  836 445.695 -3.89634 -0.472510
  837 445.726 -3.86775 0.545490
  838 442.099 -13.3465 -26.2166
  839 371.406 -24.6230 13.8351
  840 407.874 -45.8211 25.4794
  841 477.578 -39.1242 39.4666
  842 368.389 -10.6417 -4.04705
  843 368.388 -10.6048 4.02318
  844 421.584 39.1262 17.0242
  845 396.762 5.51697 -27.2257
  846 110.137 133.573 127.209
  847 400.111 -35.3883 -10.5339
  848 401.538 -17.9378 -0.0191833
  849 401.751 -17.9796 -0.00505959
  850 441.684 -6.53792 42.9083
  851 437.383 -28.7933 -18.7749
  852 391.406 -25.8317 -6.13026
  853 878.221 28.4218 -43.0554
  854 372.297 -35.0994 26.3772
  855 371.988 -35.5482 -26.7862
  856 441.023 -5.31830 21.6333
  857 659.894 171.217 -40.8237
  858 349.799 -31.6186 -32.5845
  859 385.510 -43.3377 31.3126
  860 349.724 -31.2441 32.3081
  861 378.895 -15.1942 -4.75054
  862 378.890 -15.1470 4.72046
  863 57.4574 24.0062 34.4052
  864 473.847 35.3939 -45.1250
  865 364.026 -14.1179 -7.18708
  866 364.096 -13.9793 7.21119
  867 359.763 -5.93025 -0.877085
  868 359.759 -5.89148 0.871879
  869 394.518 -7.91217 -0.369505
  870 394.471 -7.86301 0.366058
  871 322.762 -6.21240 -7.92641
  872 322.792 -6.14447 7.89610
  873 365.291 -19.0898 -10.6965
  874 365.342 -18.9655 10.7437
  875 9.13512 -1.98336 -5.06376
  876 547.816 102.823 21.9666
  877 471.510 -16.6073 -35.4341
  878 385.169 -42.7053 -31.6245
  879 415.697 -13.4664 3.08306
  880 415.517 -13.3328 -2.97403
  881 453.418 0.528503 46.0775
  882 490.711 -34.9863 -22.8673
  883 433.398 31.8954 -162.279
  884 200.410 -3.43727 80.6822
  885 -6.30664 4.67150 -5.89172
  886 -5.36455 5.27848 6.47323
  887 57.1249 25.5277 -35.1426
  888 442.515 -12.8365 15.7344
  889 464.610 -3.17217 -6.58731
  890 418.237 -40.3381 70.3715
  891 199.943 -3.24054 -80.9914
  892 466.058 -38.2555 8.29506
  893 516.945 -14.7432 62.0595
  894 380.391 1.56447 12.1712
  895 434.073 41.3031 28.9208
  896 236.642 -13.2771 59.1702
  897 235.743 -13.3834 -59.5460
  898 283.633 -13.3361 -33.2360
  899 295.897 -14.6980 -102.666
  900 466.869 -10.9957 40.1969
  901 638.330 151.130 26.3773
  902 469.148 18.0005 46.0177
  903 443.406 -9.54167 -23.9842
  904 302.012 -13.1663 105.203
  905 563.770 104.205 -15.2091
  906 57.3207 48.4410 -48.7233
  907 411.481 -0.797862 -12.9384
  908 283.928 -13.2287 32.9542
  909 344.956 -7.52681 5.69748
  910 344.941 -7.57604 -5.70858
  911 438.006 -28.6380 19.4334
  912 453.617 -3.07594 1.47046
  913 334.529 2.96454 -127.346
  914 477.705 -1.12132 3.10968
  915 474.446 -0.929833 -4.01769
  916 359.504 3.18051 -10.5890
  917 459.525 -1.90008 -7.31409
  918 345.853 -16.0296 -13.6529
  919 346.084 -15.7946 13.6968
  920 -10.9557 4.31916 -6.24755
  921 -15.3060 2.60658 6.69038
  922 453.595 -2.86807 -1.50658
  923 153.250 -3.51912 54.4900
  924 152.373 -3.20240 -54.7891
  925 486.360 70.8294 35.5245
  926 858.010 15.5407 13.2474
  927 458.327 50.9147 37.7302
  928 515.870 -17.9139 19.2609
  929 450.230 -25.1386 31.1648
  930 559.999 117.206 -11.6189
  931 352.145 1.58568 7.98745
  932 432.995 -10.3244 -5.93947
  933 450.958 24.2575 -45.6926
  934 541.685 16.5032 -6.17168
  935 422.516 -26.1119 -8.58155
  936 219.758 -1.18568 -11.7746
  937 219.969 -1.14342 11.6131
  938 445.449 -10.5742 -18.5608
  939 15.4922 19.4371 4.73680
  940 427.663 -44.3492 -6.01742
  941 373.938 11.2205 -1.09058
  942 556.509 121.911 -7.70088
  943 89.4487 66.4212 -79.9998
  944 429.197 -3.20280 -25.2941
  945 299.998 -4.89837 -10.5563
  946 300.061 -4.84191 10.4730
  947 2.77910 -11.9680 9.03073
  948 293.060 -21.6611 -47.6826
  949 435.771 -25.2480 -18.2771
  950 275.459 0.595157 -0.885883
  951 275.534 0.597725 0.880420
  952 441.556 53.5572 -23.1075
  953 469.963 -1.54529 -0.625297
  954 469.986 -1.56280 0.828801
  955 293.200 -21.6056 47.3739
  956 441.574 -0.649889 -9.94629
  957 506.239 3.69813 28.8388
  958 449.397 -6.49346 7.29775
  959 73.8202 18.3075 -43.1000
  960 465.492 -2.94916 5.95149
  961 424.849 3.47976 39.9367
  962 447.996 61.9684 20.5480
  963 447.484 5.18700 -46.6764
  964 310.229 -16.4525 -28.6689
  965 481.477 -17.1439 29.0811
  966 310.433 -16.3927 28.3929
  967 14.8469 15.9454 -2.17191
  968 54.7210 9.09561 31.6203
  969 254.733 -4.40814 19.5526
  970 254.430 -4.40998 -19.6564
  971 433.303 -10.5119 6.28601
  972 467.364 81.0729 11.2970
  973 238.450 21.5975 -120.842
  974 390.702 -24.3162 5.43088
  975 366.803 -38.2586 -39.2231
  976 533.171 102.018 23.4142
  977 410.668 -7.35476 0.298876
  978 410.650 -7.31666 -0.302469
  979 449.147 -8.43572 -13.1978
  980 417.750 36.1419 -15.6997
  981 925.439 277.716 187.012
  982 89.1467 4.82925 -41.2504
  983 90.4640 4.00849 41.3345
  984 6.63776 -7.09111 2.86219
  985 418.828 23.2951 32.2267
  986 366.728 -38.4956 38.9451
  987 453.377 -21.4855 -35.6969
  988 493.087 40.2790 44.1377
  989 472.520 -38.1611 -48.0055
  990 688.963 144.816 49.1377
  991 403.380 -6.62061 -0.285211
  992 403.328 -6.56845 0.285181
  993 471.047 -19.2949 33.4966
  994 33.0290 57.4350 58.0339
  995 215.710 -4.44769 27.9503
  996 215.063 -4.39026 -28.2355
  997 256.319 -12.3924 38.2935
  998 255.457 -12.1990 -38.4276
  999 288.248 -11.7346 27.6140
  1000 315.136 -2.42557 -1.41483
  1001 315.185 -2.40803 1.40944
  1002 768.317 249.156 -160.120
  1003 701.229 175.922 73.9837
  1004 288.015 -11.7917 -27.8346
  1005 485.085 -2.28852 37.0398
  1006 436.104 45.2565 -27.8136
  1007 308.182 -26.6088 85.1837
  1008 394.534 -46.6357 -46.5938
  1009 450.670 -3.76648 -14.4624
  1010 205.018 13.7841 98.5812
  1011 262.973 -20.0578 68.0447
  1012 400.953 20.6744 -20.2292
  1013 455.976 -9.08538 -43.4915
  1014 571.178 241.640 252.726
  1015 379.527 11.7401 14.4424
  1016 512.929 110.034 -1.68399
  1017 375.394 14.9928 -144.553
  1018 383.546 -40.2631 -27.1120
  1019 483.474 -0.609223 -1.52708
  1020 466.898 42.8582 -43.5607
  1021 277.103 -1.72188 7.08620
  1022 276.972 -1.73921 -7.14875
  1023 10.3337 7.23343 -15.5566
  1024 310.591 -14.0123 -23.9348
  1025 262.648 -20.3145 -68.5390
  1026 310.369 -13.9843 23.6845
  1027 445.916 -13.6282 40.2319
  1028 400.390 -24.6981 -1.92131
  1029 421.472 7.80972 -38.7305
  1030 433.794 54.1569 8.12352
  1031 582.130 36.4776 24.1548
  1032 441.299 -33.5756 18.3091
  1033 281.317 -22.3518 -52.1700
  1034 418.107 14.8772 -36.3103
  1035 310.768 -26.2634 -85.6075
  1036 593.790 128.292 -2.89024
  1037 406.962 26.8187 18.4040
  1038 509.882 -2.88987 -21.4907
  1039 385.916 -40.2881 25.0751
  1040 441.710 -14.0685 30.9564
  1041 438.597 -23.2134 21.7548
  1042 436.184 -21.9978 18.7303
  1043 537.473 68.5103 -31.0003
  1044 436.284 -7.07291 31.7028
  1045 393.937 -46.7653 45.8505
  1046 420.464 -17.2468 5.62567
  1047 281.496 -22.3977 51.8957
  1048 395.359 -29.0382 -6.55570
  1049 231.626 -11.3085 -72.7565
  1050 328.654 -34.0536 57.9462
  1051 443.947 -3.07116 -16.8673
  1052 433.007 -4.90045 -36.1569
  1053 375.403 -29.5603 -16.8138
  1054 232.019 -11.6241 72.2079
  1055 405.127 1.03350 -25.3455
  1056 302.196 -19.8687 -37.0338
  1057 542.946 115.216 14.5371
  1058 123.162 20.0302 -69.6809
  1059 914.532 64.5558 87.3609
  1060 219.283 16.0263 -103.111
  1061 435.996 -36.1511 -10.5947
  1062 302.284 -19.7032 36.7449
  1063 401.020 4.33365 28.4017
  1064 227.269 -4.52334 23.1476
  1065 227.160 -4.63432 -23.3745
  1066 441.883 -12.3361 -37.3340
  1067 467.845 -2.49830 2.33464
  1068 459.874 -1.08634 7.37550
  1069 455.849 15.0987 47.0115
  1070 427.125 -3.21236 34.0321
  1071 329.944 35.4101 156.241
  1072 486.423 -0.429718 0.713220
  1073 459.482 62.1699 30.0180
  1074 390.694 5.75844 24.5103
  1075 465.337 -1.82943 7.05616
  1076 302.918 -3.15458 -5.94023
  1077 302.976 -3.11910 5.90456
  1078 193.942 -5.42491 -38.6393
  1079 194.673 -5.62092 38.3900
  1080 391.965 19.6797 10.3006
  1081 583.620 32.5530 -45.6569
  1082 536.368 0.250355 -83.5713
  1083 431.422 -0.403032 -10.3531
  1084 328.754 -34.3052 -58.3736
  1085 376.195 -28.1174 15.1280
  1086 433.820 -1.01050 10.7990
  1087 452.989 -32.9419 -21.7385
  1088 286.669 -0.607373 3.51661
  1089 286.591 -0.618484 -3.53702
  1090 435.173 -37.1857 10.5843
  1091 413.896 -8.56924 0.839277
  1092 413.825 -8.57871 -0.814614
  1093 402.903 -40.5183 16.3951
  1094 516.796 -16.5430 -7.95175
  1095 238.626 -0.408155 -6.56903
  1096 239.001 -0.393923 6.50280
  1097 353.529 -22.5178 -98.0925
  1098 377.075 -8.98993 2.29344
  1099 377.108 -9.03701 -2.31110
  1100 227.443 123.485 171.722
  1101 520.098 42.8228 -35.4576
  1102 78.2678 37.7175 -53.2045
  1103 449.620 -6.84180 -7.04498
  1104 121.997 41.4032 -79.9565
  1105 252.874 -15.7763 -49.4718
  1106 486.407 -0.605788 0.468083
  1107 486.577 -0.572821 -0.340277
  1108 443.011 -25.3529 -26.5702
  1109 392.205 -44.1033 -63.5805
  1110 123.254 17.0525 66.3977
  1111 482.164 47.6851 42.1536
  1112 436.871 -4.57860 -0.588347
  1113 436.925 -4.58107 0.627979
  1114 475.880 -30.4322 77.2348
  1115 494.293 98.6601 16.1112
  1116 295.950 -6.99860 -15.0563
  1117 296.028 -6.96726 14.9559
  1118 223.760 25.3605 122.024
  1119 420.405 2.18213 -37.4514
  1120 133.011 42.5155 85.8519
  1121 535.684 -8.78377 -27.6862
  1122 529.102 116.436 4.75231
  1123 364.818 -28.7121 20.2126
  1124 339.524 1.88276 -1.55830
  1125 460.756 -4.14608 8.92537
  1126 476.430 -0.663640 3.46923
  1127 107.797 0.173199 -19.5021
  1128 109.183 0.123629 19.3744
  1129 378.957 6.44806 -18.1788
  1130 388.633 -11.4256 -1.88910
  1131 388.549 -11.3758 1.87989
  1132 41.2945 68.1597 -61.8312
  1133 65.1683 145.888 -122.076
  1134 393.460 -15.3526 1.73412
  1135 393.605 -15.3472 -1.75816
  1136 406.198 -9.85369 0.826280
  1137 406.141 -9.83538 -0.794491
  1138 107.726 68.6489 86.5992
  1139 322.783 -3.91000 -2.89679
  1140 322.824 -3.88267 2.88415
  1141 404.924 30.6986 -0.420580
  1142 509.564 66.7444 -180.100
  1143 491.903 84.6623 -27.6304
  1144 448.475 -17.2702 -37.8962
  1145 441.691 -22.0931 -27.0807
  1146 365.011 -28.9753 -20.5408
  1147 369.159 1.24942 11.2213
  1148 413.673 25.8716 -26.9514
  1149 408.068 22.0328 25.7695
  1150 420.193 -16.7521 -5.51395
  1151 401.396 -24.2077 1.61613
  1152 365.635 -23.4895 -15.3011
  1153 434.609 -2.57998 20.1073
  1154 760.742 76.6912 10.6549
  1155 437.417 -9.35714 36.6081
  1156 439.405 28.8558 40.3392
  1157 404.770 -39.7731 -12.6083
  1158 51.9535 8.34941 -30.5161
  1159 412.352 -19.0984 -3.61214
  1160 277.408 -0.399686 -0.183618
  1161 277.477 -0.397942 0.181835
  1162 500.829 -13.2881 18.0935
  1163 477.187 -40.2158 19.1330
  1164 684.120 122.188 30.4875
  1165 167.467 -0.315758 -16.1921
  1166 168.420 -0.280162 16.0754
  1167 369.200 -7.45967 -1.82928
  1168 369.185 -7.41522 1.81720
  1169 413.570 -36.4511 -2.40427
  1170 342.472 1.60097 5.10758
  1171 423.437 -30.1561 8.00757
  1172 24.5778 29.1958 -14.8260
  1173 77.4194 38.2553 52.0036
  1174 284.331 -15.6019 94.7789
  1175 490.191 93.1451 -19.7424
  1176 466.988 -1.33010 -5.57869
  1177 488.413 -0.819865 0.297942
  1178 488.860 -1.10219 -0.179305
  1179 288.218 -0.636751 -0.589530
  1180 288.286 -0.631598 0.585482
  1181 451.842 28.8704 45.6801
  1182 664.942 113.195 -2.41377
  1183 465.760 76.8628 -20.2700
  1184 347.895 -25.7074 97.4710
  1185 282.823 -15.0172 -94.5932
  1186 315.007 -20.9184 -33.2782
  1187 433.592 -12.2219 8.11403
  1188 603.733 133.338 7.27860
  1189 315.042 -20.7976 33.0277
  1190 442.739 -7.87027 6.13784
  1191 397.683 14.8735 24.6117
  1192 436.992 13.5603 43.9740
  1193 619.647 138.265 16.4277
  1194 369.874 -9.62479 3.39307
  1195 369.890 -9.66881 -3.41485
  1196 448.608 -8.53914 13.7164
  1197 269.231 -2.81200 11.0727
  1198 269.043 -2.84007 -11.1681
  1199 438.698 -6.11068 -2.64027
  1200 181.405 108.454 -166.351
  1201 379.960 -21.4817 -104.394
  1202 359.962 -11.2149 -6.12163
  1203 360.001 -11.1664 6.12398
  1204 469.660 -2.32539 2.13669
  1205 445.259 -5.97293 4.89552
  1206 24.9019 31.7169 23.5603
  1207 483.307 -0.586510 1.79004
  1208 58.4429 74.7221 74.1248
  1209 435.102 -6.63697 -3.41685
  1210 -0.469124 -10.5640 -9.27293
  1211 308.951 -30.1663 -73.4387
  1212 308.126 -29.4384 72.7176
  1213 483.287 -0.891134 -1.98831
  1214 414.930 -21.9014 -4.39047
  1215 469.358 -2.13353 -2.16871
  1216 377.779 -12.1956 -3.37829
  1217 377.744 -12.1536 3.34482
  1218 438.421 -6.06977 2.47150
  1219 412.059 -18.7217 3.57455
  1220 396.771 -12.7872 0.564990
  1221 396.908 -12.8191 -0.519505
  1222 468.928 -2.19798 -1.76425
  1223 405.598 -42.7850 -71.6088
  1224 459.099 -2.97879 -1.78081
  1225 436.922 -6.81656 3.69949
  1226 307.690 -3.29071 -4.42754
  1227 307.744 -3.25899 4.40342
  1228 342.616 -4.98910 -2.32287
  1229 342.635 -4.95602 2.31218
  1230 551.157 86.1443 25.5933
  1231 463.447 -35.6940 15.6235
  1232 318.506 -1.58053 120.312
  1233 258.314 -0.407937 4.25380
  1234 258.100 -0.412456 -4.29419
  1235 439.947 -8.16934 27.4240
  1236 420.755 -6.49102 0.611012
  1237 420.771 -6.47013 -0.610686
  1238 482.512 93.6683 9.25436
  1239 440.410 -46.1669 57.1157
  1240 258.351 -3.57984 15.4927
  1241 258.101 -3.60608 -15.6012
  1242 420.207 -10.3442 2.77290
  1243 420.113 -10.4168 -2.68060
  1244 433.355 -12.0778 -7.80339
  1245 400.273 0.0938596 13.1134
  1246 685.680 170.513 -58.0149
  1247 441.575 -16.2284 -23.9572
  1248 77.1699 18.0811 44.2837
  1249 456.010 -24.3694 33.1089
  1250 369.058 8.18350 -9.95026
  1251 28.9146 20.8284 16.4276
  1252 598.235 67.6422 -8.14286
  1253 445.565 -20.3148 -33.6671
  1254 370.771 5.36720 15.2483
  1255 254.622 -15.8054 49.4000
  1256 452.285 -35.0723 19.2308
  1257 653.349 126.873 42.6472
  1258 153.513 22.4148 84.3693
  1259 454.298 -5.51152 -11.8331
  1260 864.828 9.72180 -8.63892
  1261 892.961 13.3703 38.4072
  1262 952.547 32.1657 -91.4592
  1263 441.184 -13.8321 -30.0600
  1264 441.021 -20.1915 25.3365
  1265 447.904 -31.9392 23.2597
  1266 -13.1354 1.56650 8.28717
  1267 -11.9361 1.26917 -9.04178
  1268 435.682 -48.2103 -27.3296
  1269 446.044 -45.1640 -40.4143
  1270 344.854 2.24494 -6.30163
  1271 433.807 -49.0614 40.2644
  1272 463.745 -22.0553 -33.5517
  1273 9.64615 14.0680 2.07219
  1274 378.143 -6.92722 1.22346
  1275 378.169 -6.97466 -1.22668
  1276 460.380 -3.79896 8.00288
  1277 442.698 -7.73353 -5.75179
  1278 417.346 -45.5550 -14.9588
  1279 382.005 -20.5996 6.83322
  1280 380.111 -20.3068 -7.36361
  1281 447.188 -9.53876 19.0258
  1282 458.352 -16.8942 -38.9167
  1283 29.9923 21.7152 -15.9779
</Section>

newXOutput 61

<Section columns = "stress_xx | stress_yy | stress_xy">
  1 499.081 -0.154700 0.942442
  2 499.087 -0.145546 -0.944962
  3 277.724 -0.0812028 -0.340380
  4 -3.49296 -3.45112 -5.02293
  5 887.157 359.813 286.004
  6 879.015 372.593 -284.908
  7 -4.05813 -3.27602 5.34919
  8 277.655 -0.0821792 0.339515
  9 502.467 -0.858196 0.278203
  10 501.476 -1.34744 -0.270130
  11 500.447 -0.920042 1.06381
  12 499.401 -1.24832 0.258806
  13 497.141 -1.05853 1.67411
  14 495.076 -1.06561 1.19742
  15 490.115 -0.939968 2.41587
  16 482.923 -0.684359 3.56994
  17 476.533 -0.710774 3.99744
  18 466.968 -0.963048 4.85809
  19 453.597 -0.101786 7.21571
  20 441.248 -0.708726 6.88764
  21 427.058 -0.902645 9.74198
  22 406.578 0.635000 8.50477
  23 391.654 0.986021 10.0790
  24 372.175 1.64496 7.90901
  25 358.654 1.76590 7.98443
  26 339.073 2.43696 4.07761
  27 334.926 3.83098 4.37880
  28 332.422 3.16091 -1.29605
  29 335.824 1.86639 -2.83641
  30 342.095 1.78853 -3.48201
  31 356.769 2.23727 -6.94266
  32 371.024 1.76817 -8.76236
  33 391.855 0.418235 -10.3765
  34 408.505 -0.203193 -9.41627
  35 426.180 -0.715598 -9.21906
  36 442.146 -0.555674 -6.48943
  37 455.794 -0.590953 -5.52707
  38 466.991 -0.944640 -4.61666
  39 476.970 -0.687243 -3.18665
  40 483.136 -0.829041 -3.36779
  41 489.098 -0.999162 -2.45516
  42 494.680 -1.17666 -1.03756
  43 497.526 -0.953618 -1.24679
  44 498.963 -0.607481 -0.762271
  45 497.730 -0.367657 -0.696836
  46 501.956 -1.35121 0.189196
  47 502.606 -0.890744 -0.286704
  48 486.802 -0.484681 -0.583814
  49 476.304 -2.17009 -1.07894
  50 463.420 -3.15585 -0.665353
  51 447.670 -4.60080 -0.922238
  52 432.686 -5.01011 -1.12487
  53 416.655 -6.19043 -1.07671
  54 402.432 -6.83831 -0.566689
  55 389.955 -7.58565 -0.172433
  56 375.545 -6.27799 -0.160258
  57 358.933 -5.83408 -0.320187
  58 342.932 -4.57448 -0.0522270
  59 327.782 -2.88641 0.00747678
  60 313.397 -2.03456 0.0646384
  61 300.802 -1.01415 0.165646
  62 287.951 -0.250096 -0.386713
  63 277.856 0.394383 0.526660
  64 273.297 1.06141 0.368160
  65 276.292 0.0222881 0.846778
  66 272.731 -0.126993 1.02709
  67 269.380 -0.197062 1.27871
  68 264.859 -0.00870222 1.65382
  69 259.162 -0.00336602 2.07419
  70 254.861 -0.306427 3.95869
  71 242.901 0.353973 4.31499
  72 234.426 -0.0138292 4.91859
  73 221.808 -0.206048 5.58547
  74 207.300 -0.354672 6.79201
  75 189.156 -0.0722582 8.24763
  76 167.038 0.109100 9.10607
  77 147.818 -0.178961 13.0196
  78 110.055 1.19571 12.3138
  79 84.1856 1.02986 13.0462
  80 53.0542 -0.250315 14.5085
  81 27.0712 2.36416 15.1398
  82 -2.57522 3.56300 9.19579
  83 -24.2913 3.62675 3.38991
  84 -24.0158 3.52931 -1.09111
  85 -23.2781 2.94682 -6.94384
  86 -13.7312 -0.893744 -6.65322
  87 -1.64601 -13.1809 -7.35572
  88 1.35734 -24.1983 -9.13122
  89 3.68549 -37.8363 -4.85790
  90 8.13352 -37.9104 0.892389
  91 17.1342 -6.44372 23.1895
  92 50.6867 82.2808 77.1414
  93 292.813 281.913 256.549
  94 1075.33 161.381 179.121
  95 970.583 23.0529 58.0980
  96 903.858 9.60956 17.7790
  97 879.249 8.18710 1.35863
  98 892.381 10.8620 -15.4354
  99 968.598 21.5293 -45.9970
  100 1137.55 77.8333 -153.773
  101 174.363 289.293 -215.049
  102 37.9369 60.2527 -64.1367
  103 18.7315 -4.56265 -24.6608
  104 7.61982 -37.7885 -4.60935
  105 2.21028 -28.6754 5.55505
  106 2.74131 -30.5309 7.89731
  107 0.150019 -11.3686 8.14985
  108 -14.3399 -0.557589 6.30035
  109 -24.0149 2.21240 6.04661
  110 -25.2998 4.28601 1.22436
  111 -25.0646 3.56596 -3.15706
  112 -4.33958 3.65138 -8.62692
  113 25.5238 2.38446 -14.4415
  114 51.4768 0.00266635 -14.2709
  115 82.5553 1.11309 -13.0722
  116 108.574 1.22660 -12.4057
  117 146.670 -0.184347 -13.1263
  118 166.056 0.120831 -9.19218
  119 188.297 -0.0691250 -8.34913
  120 206.862 -0.393994 -6.84072
  121 221.214 -0.194941 -5.59902
  122 233.974 0.00152654 -4.96823
  123 242.530 0.349803 -4.36087
  124 254.592 -0.309530 -3.99756
  125 258.945 -0.00537899 -2.09801
  126 264.692 -0.0106266 -1.67338
  127 269.252 -0.200253 -1.29420
  128 272.630 -0.129727 -1.03788
  129 276.208 0.0199565 -0.853656
  130 273.221 1.06025 -0.371339
  131 277.784 0.393800 -0.528659
  132 287.882 -0.252749 0.385692
  133 300.737 -1.02080 -0.168085
  134 313.340 -2.04914 -0.0674835
  135 327.739 -2.90666 -0.0102106
  136 342.906 -4.60369 0.0495139
  137 358.927 -5.87106 0.318046
  138 375.561 -6.32084 0.158048
  139 389.988 -7.63379 0.171425
  140 402.478 -6.88638 0.568277
  141 416.721 -6.23417 1.08164
  142 432.743 -5.04019 1.14259
  143 447.713 -4.62773 1.00764
  144 463.505 -2.99169 0.680094
  145 476.637 -2.11595 1.05497
  146 486.890 -0.560409 0.574781
  147 437.441 -41.1118 -1.51624
  148 437.065 -40.5558 1.67061
  149 460.334 66.0548 -21.8364
  150 489.255 28.8122 45.8312
  151 370.761 -35.7911 -82.5264
  152 373.791 -35.7359 79.9148
  153 361.721 -15.2336 10.2860
  154 361.747 -15.4420 -10.2919
  155 517.858 18.7207 -34.1760
  156 436.290 -15.7809 8.78917
  157 436.102 -15.4065 -8.68195
  158 563.895 125.334 5.10238
  159 447.367 -0.712103 -45.1653
  160 332.226 -25.9705 -37.1025
  161 332.246 -25.7579 36.7882
  162 447.945 -10.1769 40.5987
  163 426.777 31.2004 27.1196
  164 177.142 28.1407 -98.5513
  165 196.143 26.6864 103.801
  166 545.612 6.54770 2.04105
  167 448.716 -17.2788 -27.8631
  168 592.960 130.195 -0.597667
  169 404.644 -11.4558 -0.456199
  170 404.560 -11.4230 0.489367
  171 453.087 -5.64402 -3.80578
  172 454.466 -5.08985 3.27721
  173 320.100 -4.50108 -5.98932
  174 320.144 -4.45525 5.96048
  175 485.074 -12.3853 104.948
  176 413.456 17.2494 -29.2325
  177 271.072 -20.2264 -59.1840
  178 271.874 -20.0804 58.8126
  179 304.880 -9.85754 -19.4509
  180 304.913 -9.74621 19.3137
  181 450.821 -11.9211 23.6947
  182 410.182 -28.1116 -1.97123
  183 408.769 -27.9027 2.60529
  184 465.051 -45.0812 -9.49320
  185 467.513 -42.9494 3.73468
  186 641.559 151.164 -24.1347
  187 469.256 75.2039 20.3906
  188 469.437 28.8255 -46.3496
  189 483.147 -3.54099 -121.662
  190 465.131 -26.3459 -31.6568
  191 469.163 -18.8360 37.5686
  192 391.653 -44.4395 40.9535
  193 391.724 -44.1205 -40.8350
  194 420.169 5.40459 35.0624
  195 193.606 -4.83582 -72.4897
  196 194.067 -5.23519 72.0598
  197 721.901 107.870 15.7280
  198 440.764 -26.3036 16.8139
  199 456.775 -8.50116 -15.2990
  200 363.961 -8.84707 -4.76601
  201 363.970 -8.80406 4.75215
  202 439.601 -5.73149 -31.3531
  203 499.976 73.3268 -36.7685
  204 419.995 37.7965 -5.42832
  205 274.922 -9.60050 27.2166
  206 274.509 -9.62912 -27.4107
  207 463.138 -5.27700 8.23280
  208 452.516 8.51259 46.4840
  209 368.512 -26.6929 -18.3186
  210 366.100 -25.2701 18.7086
  211 532.175 78.9659 33.0469
  212 623.019 86.8017 17.1727
  213 43.5859 33.7106 -28.4184
  214 40.3430 31.1614 24.1951
  215 258.221 74.3054 172.637
  216 436.384 -29.0262 -12.5860
  217 464.731 -5.06634 -7.43140
  218 415.557 3.71771 -32.2989
  219 293.503 -2.84033 -8.64781
  220 293.599 -2.80865 8.57615
  221 393.514 -18.4145 -4.31112
  222 393.698 -18.5317 4.09004
  223 443.222 -6.00176 26.6209
  224 508.053 -29.3585 13.4252
  225 506.874 103.266 -10.5769
  226 397.497 -38.3118 -19.8333
  227 501.167 -8.74646 28.4355
  228 427.754 -7.31052 1.25715
  229 427.757 -7.25257 -1.25553
  230 394.648 -38.1316 20.5478
  231 451.413 -28.7033 25.6147
  232 630.520 83.2973 -43.0796
  233 141.924 84.4266 -125.937
  234 385.117 13.6465 7.00747
  235 454.457 40.0532 39.2123
  236 482.844 -3.42235 -40.7324
  237 451.619 -16.3052 -37.7938
  238 243.549 -7.73234 -33.9919
  239 244.371 -7.61716 33.8923
  240 452.230 -5.52740 -20.4607
  241 430.831 -11.0114 4.45500
  242 430.630 -10.9995 -4.29113
  243 92.6854 8.31785 -46.6114
  244 94.0998 7.28867 46.4488
  245 478.695 -41.9369 -38.7206
  246 473.365 -1.84248 1.06628
  247 473.843 -1.87606 -1.17997
  248 444.095 36.8351 -35.9605
  249 392.486 7.66035 21.2042
  250 807.889 129.348 86.9886
  251 800.956 91.1880 -54.2467
  252 585.070 125.673 -0.166028
  253 365.437 -17.7152 109.493
  254 335.733 -11.6279 -114.438
  255 385.901 -7.93082 -1.77383
  256 385.868 -7.88225 1.76224
  257 322.008 -8.49525 12.0183
  258 322.001 -8.61048 -12.1189
  259 462.842 -5.10107 12.4590
  260 449.562 -32.0665 -20.7828
  261 295.278 -0.506017 -2.04203
  262 295.348 -0.496968 2.03020
  263 443.941 -18.0597 -16.6460
  264 191.215 -6.20221 -47.2227
  265 192.012 -6.22151 46.8949
  266 449.621 -19.5578 30.0505
  267 344.118 -36.5219 66.4231
  268 344.960 -37.1743 -66.2182
  269 390.565 15.0832 -9.87021
  270 337.087 -5.08865 -4.04291
  271 337.119 -5.05514 4.02834
  272 423.020 -1.02349 25.8146
  273 504.147 92.0744 25.4404
  274 273.303 -3.25086 14.5452
  275 273.097 -3.27750 -14.6635
  276 461.340 -38.6087 13.8916
  277 427.059 -47.9950 -45.1939
  278 475.239 -2.43643 3.77317
  279 333.157 -19.5604 -25.4455
  280 332.603 -19.3452 25.3546
  281 581.318 63.8317 153.586
  282 278.685 -22.5350 79.0546
  283 448.477 62.9135 -2.31313
  284 563.455 62.8066 -20.2552
  285 426.453 -32.9733 4.15920
  286 427.436 -49.2991 40.8599
  287 279.500 -22.1746 -79.9196
  288 52.4451 64.7826 59.3813
  289 444.018 -18.1192 16.9593
  290 580.133 76.4787 15.0792
  291 478.835 -2.17755 -3.27230
  292 436.570 15.3309 -41.4018
  293 429.699 -24.3290 8.59155
  294 420.835 -35.4938 2.33147
  295 435.066 20.0129 39.9195
  296 459.174 -38.6115 -12.2579
  297 648.825 125.725 -11.6239
  298 429.584 -23.3898 -8.20779
  299 353.044 103.075 -210.520
  300 438.827 -46.5533 -10.0211
  301 435.765 -47.8283 14.9808
  302 321.959 -29.0094 -52.1520
  303 292.561 -1.06343 -4.42595
  304 292.646 -1.04483 4.39312
  305 322.108 -29.0357 51.8786
  306 464.733 -0.803814 -46.4549
  307 500.239 -20.7264 -18.1461
  308 382.936 -22.9540 -10.0436
  309 382.705 -23.0076 10.2213
  310 455.338 -39.1986 71.6597
  311 455.853 -3.72281 15.4821
  312 551.102 3.26732 27.1480
  313 375.460 -13.1832 -5.59982
  314 375.488 -13.1420 5.57116
  315 342.923 -8.81722 -8.01946
  316 342.929 -8.73671 8.00889
  317 388.568 5.31274 -20.5018
  318 495.090 36.2941 -44.3465
  319 759.953 205.701 -99.1416
  320 450.360 -4.14965 -1.24362
  321 450.116 -4.09571 1.28097
  322 243.254 -0.684818 98.6590
  323 340.997 -15.3073 -16.9828
  324 340.376 -15.2597 17.0276
  325 243.206 -1.26299 -98.2815
  326 472.810 55.7454 -38.0353
  327 527.103 26.2401 32.2640
  328 455.199 -32.4690 -79.4079
  329 420.206 -16.2698 3.42092
  330 419.788 -16.1559 -3.24376
  331 447.722 -9.43489 -7.89278
  332 423.299 -0.777885 -24.1349
  333 473.108 1.97436 45.3611
  334 470.931 -3.41468 -8.55221
  335 286.359 -17.2079 39.7185
  336 286.045 -17.3011 -40.0120
  337 441.014 -0.981878 42.9386
  338 275.135 -2.17022 -8.66081
  339 275.310 -2.15011 8.58599
  340 451.110 -10.5058 12.5983
  341 541.444 110.340 -18.1406
  342 447.521 -9.50089 8.20155
  343 478.024 59.9292 38.1251
  344 457.131 -8.55020 44.2466
  345 363.563 -6.76722 1.78118
  346 363.562 -6.80711 -1.79194
  347 433.505 -1.52532 -38.1292
  348 571.525 119.971 10.7611
  349 476.963 87.1786 0.792559
  350 291.855 33.8254 -146.236
  351 31.3847 13.2611 -20.6707
  352 34.2853 14.3570 22.1818
  353 -1.13224 3.56728 8.48216
  354 0.590450 2.12633 -8.88838
  355 826.154 57.3435 19.5255
  356 394.980 -31.9636 -11.9873
  357 451.433 -10.1614 -12.2863
  358 408.248 -7.28154 0.361673
  359 408.201 -7.22575 -0.364635
  360 437.959 48.3812 -19.4859
  361 373.254 -37.9137 33.7259
  362 33.4274 49.9368 -37.2061
  363 373.580 -37.8979 -34.3133
  364 443.553 50.4413 20.7322
  365 450.761 -12.1251 -22.5307
  366 477.588 -26.7318 -26.5400
  367 510.270 107.307 7.27407
  368 478.582 -29.9828 21.5442
  369 201.716 -4.93490 31.5986
  370 200.554 -4.83873 -31.7906
  371 114.902 2.69759 -44.1347
  372 116.055 2.25390 43.9423
  373 394.483 1.41507 20.7123
  374 737.634 217.177 86.8503
  375 465.492 -3.06364 -10.9883
  376 364.086 -30.5749 -25.9127
  377 363.807 -30.5039 25.8793
  378 448.383 -10.4192 -28.7994
  379 508.703 -24.5860 1.38865
  380 394.967 -31.9376 12.3248
  381 556.720 4.75428 -48.1967
  382 319.916 -2.49627 -1.60754
  383 319.967 -2.47535 1.59735
  384 441.521 -2.60695 -18.5135
  385 241.194 -3.39747 -20.5904
  386 241.337 -3.50865 20.3479
  387 525.968 67.2628 -36.9314
  388 285.206 20.0441 136.002
  389 412.777 -21.6555 1.01178
  390 413.177 -21.6200 -1.02900
  391 485.357 81.9236 -24.0251
  392 458.764 -13.6563 -41.7925
  393 458.762 -46.9644 39.9297
  394 384.580 -10.2019 -2.80153
  395 384.539 -10.1558 2.77750
  396 442.419 -34.1751 13.4853
  397 475.225 -2.38186 6.32911
  398 300.070 -10.7689 -24.2748
  399 300.192 -10.7717 24.0781
  400 450.329 15.1384 -45.8900
  401 424.288 -9.34432 1.86858
  402 424.267 -9.36790 -1.81599
  403 439.720 -5.21578 34.9144
  404 411.497 30.0950 9.40605
  405 455.029 -19.2963 36.3016
  406 655.025 136.715 25.5510
  407 222.333 -11.9367 -63.3776
  408 222.938 -11.9384 62.9123
  409 99.7784 53.0339 -76.5049
  410 485.217 -1.57752 1.68316
  411 251.492 -2.04842 -13.0431
  412 251.817 -2.00508 12.9365
  413 448.700 -11.7862 28.1597
  414 407.161 -44.1446 22.8240
  415 458.477 -5.89195 5.57240
  416 468.601 23.7657 47.6722
  417 104.438 56.4691 79.6318
  418 407.752 -43.8863 -21.0901
  419 421.206 -39.1166 -5.26846
  420 140.576 -2.80957 -39.8912
  421 141.580 -2.91091 39.6252
  422 324.101 -26.1073 -95.3240
  423 482.857 -7.28553 39.6709
  424 322.938 -26.4779 94.5100
  425 446.468 -25.1449 -23.0484
  426 417.043 28.2484 -20.5542
  427 446.522 -19.3952 21.9730
  428 478.794 -2.29153 -4.20328
  429 15.1052 16.4450 7.82468
  430 98.4771 114.638 112.647
  431 431.112 -1.57483 17.9193
  432 364.617 5.12724 9.01171
  433 370.658 6.21661 -12.2075
  434 316.244 -5.09699 -8.48224
  435 316.282 -5.03288 8.43098
  436 440.197 -34.1501 -12.2428
  437 445.418 -8.77096 -39.0007
  438 366.475 7.02703 -3.31471
  439 654.521 156.157 34.4432
  440 92.8148 30.3257 -57.4155
  441 102.132 27.8238 61.2310
  442 412.395 -14.7399 1.12125
  443 412.243 -14.7092 -1.01604
  444 549.275 120.747 -1.38089
  445 340.171 144.435 215.199
  446 526.404 -7.17229 -4.93976
  447 306.149 -15.7783 -32.9274
  448 306.297 -15.6735 32.6614
  449 308.697 -6.74517 13.1216
  450 308.635 -6.79317 -13.2330
  451 414.504 9.31261 -33.2932
  452 487.578 -0.832230 -1.10188
  453 403.498 18.6565 18.7514
  454 506.515 62.4863 40.5301
  455 422.083 -31.3153 -2.68702
  456 458.275 -5.62149 -5.42122
  457 480.691 -2.08928 3.86958
  458 486.147 -0.896528 0.627984
  459 486.511 -0.994638 -0.449866
  460 273.748 -0.450642 3.22643
  461 273.610 -0.457574 -3.25773
  462 461.107 -29.4006 27.8736
  463 418.405 16.6089 32.2506
  464 436.401 1.79887 -41.9370
  465 454.116 -9.72202 16.5996
  466 648.058 113.195 -130.533
  467 455.473 -25.3620 -31.5033
  468 5.31144 8.77546 4.11260
  469 5.23453 8.95335 -1.85523
  470 362.585 -20.3664 14.8403
  471 361.408 -20.0858 -14.6485
  472 562.315 11.7555 71.1954
  473 158.448 146.793 -164.139
  474 449.947 -1.42851 13.8253
  475 507.234 -29.3918 -41.2929
  476 274.257 -15.6248 45.9149
  477 545.427 96.8120 -26.1234
  478 448.963 -24.3929 26.2806
  479 378.328 -17.9648 -7.68672
  480 378.659 -17.6720 7.66868
  481 394.391 2.15929 -18.2793
  482 273.414 -15.5596 -46.1826
  483 403.969 0.245827 18.3455
  484 384.937 -44.0754 -59.6462
  485 383.986 -44.1425 59.8839
  486 463.001 -3.16943 12.1474
  487 423.313 39.9874 3.88515
  488 425.717 7.86023 147.798
  489 627.348 127.070 -0.793233
  490 434.225 -7.49746 2.35101
  491 434.245 -7.47137 -2.44839
  492 336.824 -5.86240 -5.46472
  493 336.852 -5.81525 5.44641
  494 178.556 7.96137 83.1645
  495 451.045 -21.8150 -30.9434
  496 409.517 -8.99929 -0.0213850
  497 409.476 -8.97016 0.0286633
  498 357.329 -37.7334 48.7910
  499 181.944 10.5555 -85.2457
  500 451.352 -36.8604 -14.0690
  501 8.16360 2.45026 2.86657
  502 397.689 20.6988 1.38071
  503 435.697 -5.24411 -0.756142
  504 435.691 -5.31167 0.735323
  505 357.515 -37.6625 -49.1597
  506 507.697 -25.8876 52.1047
  507 504.878 18.3391 40.9684
  508 465.222 -3.36580 -2.63450
  509 449.978 -37.3722 14.3027
  510 286.678 -0.230162 -0.594643
  511 286.749 -0.227724 0.590233
  512 449.790 -17.3509 -33.2026
  513 437.096 32.3774 35.1997
  514 498.777 12.3317 -40.4999
  515 284.932 -0.407151 -1.81947
  516 285.013 -0.401240 1.80798
  517 860.727 124.410 -110.901
  518 454.507 54.0666 30.9155
  519 465.604 -3.12482 2.33827
  520 422.118 -39.9848 6.29371
  521 356.755 -11.6748 8.27634
  522 356.747 -11.7608 -8.25947
  523 489.881 -29.9312 10.8464
  524 471.797 -9.50971 -42.0686
  525 527.779 103.690 22.3095
  526 440.154 7.60750 43.5091
  527 442.216 -8.68420 4.84798
  528 429.438 -45.9546 -57.7568
  529 446.637 -11.1324 32.8943
  530 849.981 39.0939 -15.4977
  531 486.187 -36.7363 1.34161
  532 462.339 -3.27924 -0.582168
  533 462.452 -3.47412 0.496474
  534 858.845 57.5973 54.1629
  535 429.502 -0.104448 37.0076
  536 596.889 101.238 -6.79132
  537 450.180 -12.3901 -16.0315
  538 207.807 -1.89464 -14.0718
  539 208.421 -1.80290 13.9337
  540 306.703 -28.6658 -66.2890
  541 306.962 -28.1870 65.8107
  542 441.969 -8.33649 -4.81122
  543 481.508 17.6498 -46.2169
  544 423.313 -28.7969 4.31423
  545 456.462 52.3048 -32.0413
  546 458.205 -5.45801 16.3398
  547 571.464 29.4523 -9.49145
  548 393.281 -13.4571 -2.63974
  549 393.168 -13.4147 2.61343
  550 426.234 -20.1631 6.22654
  551 624.754 124.972 -12.6381
  552 449.912 19.6925 45.1691
  553 193.277 49.6116 122.685
  554 432.229 -25.8912 99.4245
  555 567.712 29.2614 -109.985
  556 459.907 38.0257 -41.9580
  557 406.417 -35.2523 -86.3087
  558 440.402 -48.3374 -18.4737
  559 459.370 -46.6283 -26.4287
  560 61.3238 80.4283 -76.1437
  561 461.892 -6.02875 -9.82764
  562 692.245 134.408 -40.2556
  563 428.454 -19.3629 -7.09667
  564 431.840 -14.1628 5.86842
  565 431.444 -13.8481 -5.60650
  566 301.866 -1.65467 -4.03802
  567 301.935 -1.63337 4.01338
  568 44.6951 4.40384 -24.5322
  569 46.9993 4.62230 25.0873
  570 224.998 -10.3484 -48.2930
  571 226.666 -10.4066 48.2320
  572 437.806 -23.7958 -14.1611
  573 445.435 -48.5375 19.8854
  574 457.829 -43.5638 0.947241
  575 377.483 -6.67186 -1.53288
  576 377.464 -6.62681 1.52550
  577 357.240 -37.5454 -73.8340
  578 398.766 -32.8220 91.2179
  579 348.774 -35.3226 74.2256
  580 450.860 -10.0605 -41.8610
  581 286.060 -4.63810 14.6605
  582 285.919 -4.68555 -14.7748
  583 431.210 23.9132 -35.3828
  584 431.391 -0.760817 -16.2599
  585 537.332 116.154 -9.90481
  586 353.207 -5.27981 -1.46763
  587 353.220 -5.24647 1.46123
  588 458.344 -1.39919 -9.06553
  589 319.476 -10.6215 -16.3746
  590 319.491 -10.5869 16.2405
  591 259.848 11.7590 117.168
  592 446.095 -20.6144 -22.1957
  593 250.934 -13.3933 84.2649
  594 438.399 -22.7869 14.5069
  595 460.743 -6.67305 10.8857
  596 454.696 -4.37734 -2.30004
  597 323.463 -3.90364 -3.80054
  598 323.508 -3.87257 3.78269
  599 515.597 102.632 -20.2228
  600 250.750 -12.9071 -84.5641
  601 436.921 -19.0093 -11.4932
  602 395.115 -7.39214 -0.819795
  603 395.076 -7.34058 0.816653
  604 734.392 98.6289 -17.6231
  605 265.788 -1.64950 8.06091
  606 265.563 -1.66532 -8.13206
  607 409.776 9.49570 30.4056
  608 579.302 49.4175 -3.69363
  609 276.657 1.66272 -116.242
  610 143.597 3.44150 -63.7206
  611 144.747 2.64864 63.3858
  612 347.695 -20.1122 20.4441
  613 351.218 -20.7053 -19.8994
  614 587.102 118.513 7.98539
  615 452.901 -4.52925 2.05649
  616 392.709 11.1933 -18.3981
  617 486.641 87.2125 19.0113
  618 484.987 90.4869 -12.6476
  619 398.516 -22.0290 -4.21971
  620 401.481 -21.5443 2.81310
  621 285.138 62.4570 -166.580
  622 344.147 -11.6327 -11.4543
  623 344.180 -11.5028 11.4189
  624 856.728 175.550 132.302
  625 450.105 -14.8166 35.9429
  626 260.391 -9.06715 -30.9282
  627 690.699 164.975 112.316
  628 260.982 -9.01898 30.8192
  629 428.574 -16.2538 -115.799
  630 307.253 -1.43788 -1.48657
  631 307.314 -1.42553 1.47965
  632 379.245 3.48870 16.0582
  633 174.561 -2.54784 -27.7377
  634 175.482 -2.55465 27.5293
  635 393.463 -27.7573 9.37110
  636 412.136 -32.9560 -3.58648
  637 483.390 -1.13289 -3.58104
  638 278.189 -0.417158 2.40046
  639 278.080 -0.424799 -2.42339
  640 372.006 -8.35799 -2.43055
  641 371.995 -8.31375 2.41459
  642 424.427 -47.1951 58.3097
  643 488.583 54.5220 -41.8852
  644 327.385 -15.0950 -21.0829
  645 327.165 -14.8431 20.9376
  646 386.356 -27.6779 -12.6007
  647 605.603 131.493 5.07849
  648 455.179 -44.1209 1.51768
  649 396.570 -9.53816 -1.37646
  650 396.513 -9.49440 1.37586
  651 542.896 59.6566 30.3667
  652 456.374 -6.71266 -17.7538
  653 406.212 -0.452421 -14.9295
  654 189.743 -6.49314 -60.8253
  655 190.301 -6.66787 60.3468
  656 385.242 -33.1231 -19.7717
  657 575.949 126.261 0.110250
  658 448.564 60.6812 -13.9263
  659 300.225 -2.64742 -7.38170
  660 300.299 -2.61098 7.32683
  661 417.274 -11.8839 -1.30914
  662 417.354 -11.8936 1.39359
  663 769.951 100.361 44.3284
  664 490.010 -1.42360 0.928205
  665 474.818 -1.96789 6.22306
  666 473.094 -1.98914 -7.34438
  667 449.793 -41.9370 5.07152
  668 334.172 -3.81363 -1.89810
  669 334.208 -3.78750 1.89034
  670 481.810 77.0502 29.3511
  671 615.486 136.529 -9.65793
  672 339.603 -25.0530 -29.8621
  673 339.521 -24.8128 29.7209
  674 422.523 -43.5174 -10.3634
  675 446.776 26.5826 -42.5514
  676 527.202 1.51164 16.1562
  677 353.352 -6.50778 -3.86278
  678 353.367 -6.46795 3.84851
  679 305.635 -26.7145 -59.8423
  680 445.591 -43.1467 -1.00891
  681 371.287 -41.1587 53.7800
  682 178.685 56.1701 -118.449
  683 347.522 -32.0668 41.4954
  684 419.336 0.118279 13.7512
  685 305.926 -26.4150 59.4557
  686 436.673 -19.3690 11.6350
  687 347.616 -31.9279 -41.8574
  688 358.748 4.78461 3.37674
  689 277.725 -7.32647 22.0518
  690 277.482 -7.33225 -22.1976
  691 371.454 -42.2234 -54.3681
  692 458.110 -30.2620 -26.9251
  693 420.498 -6.05358 -0.363070
  694 420.565 -6.11300 0.364964
  695 467.960 -29.9116 26.5001
  696 425.691 -44.4838 12.0925
  697 516.557 47.4379 39.8152
  698 466.667 -8.81821 43.5046
  699 449.071 -16.2165 26.2247
  700 430.851 35.4892 -26.8414
  701 516.057 86.6555 31.5840
  702 445.924 -6.21784 -25.7964
  703 443.722 -14.8324 13.0601
  704 460.387 71.9455 7.51499
  705 451.712 -7.75085 22.3064
  706 143.402 97.8261 124.328
  707 420.155 -48.3687 -34.2932
  708 486.422 8.79725 44.0489
  709 490.559 -15.2246 -30.5488
  710 487.993 -0.745789 1.93685
  711 448.600 -15.5305 -20.4655
  712 420.803 -48.7459 31.2882
  713 805.884 71.4229 -11.9194
  714 255.165 -1.05014 8.43001
  715 254.870 -1.06140 -8.50516
  716 454.462 -8.42472 -9.31806
  717 490.795 -0.576408 -1.90050
  718 384.572 -33.6632 19.8724
  719 460.690 -17.2214 39.3621
  720 694.010 168.156 -55.3078
  721 436.678 -31.6830 11.5618
  722 483.135 -31.8932 -14.6259
  723 443.876 -14.4433 -12.8470
  724 490.364 -0.954435 -0.573877
  725 450.377 -0.0672687 45.6806
  726 21.2088 21.2318 27.3986
  727 504.592 -18.9968 -76.4513
  728 550.030 33.0359 17.7965
  729 458.962 -46.9779 23.8112
  730 330.622 -7.81747 9.35691
  731 330.617 -7.92410 -9.39820
  732 422.927 221.289 -225.872
  733 468.135 -31.0549 -24.3364
  734 357.392 2.00547 -6.45792
  735 413.863 2.35284 29.5746
  736 452.099 -22.7018 31.4283
  737 433.331 -36.5181 4.92897
  738 449.297 -41.0706 -62.6795
  739 430.751 -34.0835 -5.79399
  740 507.096 -24.2582 -3.14334
  741 467.269 -3.99278 5.39930
  742 418.569 -25.1380 2.61863
  743 753.903 150.641 -80.9639
  744 445.717 -12.0686 10.2795
  745 442.421 7.27835 -44.6565
  746 376.162 -4.10371 129.997
  747 473.328 38.0723 45.3400
  748 407.254 -32.0030 5.64704
  749 316.140 -24.7343 -43.8220
  750 316.183 -24.6706 43.4817
  751 434.287 48.8568 -6.23918
  752 440.744 -5.12419 39.7049
  753 445.158 -10.6403 -33.6593
  754 419.036 -25.6599 -2.74142
  755 405.332 -36.2532 11.7714
  756 463.859 76.3574 -8.44397
  757 432.808 -37.4628 -3.22659
  758 433.925 -27.5007 11.3322
  759 439.159 -5.82443 1.65607
  760 439.416 -5.67408 -1.64142
  761 590.549 129.164 1.70461
  762 482.235 -41.0865 -16.6136
  763 449.946 -13.8866 20.4136
  764 467.380 -3.98690 -4.88842
  765 473.648 3.10847 -45.8053
  766 537.570 28.5775 -25.2326
  767 268.830 -0.223676 -3.96055
  768 269.004 -0.220044 3.92334
  769 4.03553 -7.66212 -5.35320
  770 459.430 -0.587259 8.38303
  771 422.876 -0.624283 -32.6329
  772 436.137 -4.09198 28.6117
  773 394.933 50.2432 189.772
  774 496.191 101.611 -1.02033
  775 353.846 -25.1422 23.5146
  776 64.4975 1.34957 -24.0915
  777 66.2314 0.985269 24.3435
  778 432.446 -3.06821 -32.3480
  779 354.763 -25.3865 -23.5158
  780 464.658 -4.37798 4.03835
  781 241.406 -10.1854 41.1895
  782 239.391 -10.1476 -41.1943
  783 445.678 -11.7247 -10.0065
  784 288.238 -7.12633 -19.2251
  785 288.382 -7.08138 19.0646
  786 463.831 -4.51049 -12.1940
  787 356.668 -9.43575 -6.62462
  788 356.684 -9.37699 6.62761
  789 506.096 -3.17358 -30.4378
  790 456.842 -4.81659 -45.6877
  791 236.361 -1.46617 -10.7108
  792 236.799 -1.45243 10.5920
  793 13.1685 5.85888 -14.8788
  794 15.1771 6.18637 15.6359
  795 373.669 1.83657 -11.6565
  796 416.909 -46.8366 -25.8918
  797 -4.71036 -3.22773 8.21245
  798 -4.16031 -3.86942 -8.20406
  799 433.709 -8.84935 3.61592
  800 469.806 -36.7536 -12.8742
  801 486.470 71.9707 -34.1878
  802 466.565 -3.94907 -3.84500
  803 982.336 199.865 -184.467
  804 433.617 -8.82393 -3.56640
  805 650.563 123.492 10.6724
  806 464.731 13.5166 -47.7112
  807 512.212 38.7302 -40.8657
  808 89.4117 -1.04170 -22.1646
  809 90.9460 -1.16800 22.1274
  810 293.217 -4.12617 11.4504
  811 293.110 -4.15956 -11.5455
  812 280.959 -0.621421 2.15518
  813 280.868 -0.628057 -2.17111
  814 518.597 87.2183 -31.2367
  815 310.171 -1.85571 -3.21497
  816 310.230 -1.83472 3.19865
  817 442.081 -4.44976 -41.4702
  818 631.172 67.1170 58.0328
  819 399.776 9.06653 -25.5925
  820 141.184 -1.24041 23.6431
  821 140.063 -1.25212 -23.8212
  822 509.391 14.9776 136.889
  823 454.040 -8.49290 9.61666
  824 409.056 27.2711 -10.6546
  825 191.984 -0.275675 16.0528
  826 191.056 -0.188131 -16.1654
  827 286.417 -1.39469 -5.63422
  828 286.524 -1.37466 5.58607
  829 51.7698 45.8967 40.3947
  830 425.655 10.2274 37.9063
  831 472.753 69.3450 -29.4516
  832 507.437 58.9357 -40.8966
  833 335.953 -12.5329 -14.8924
  834 335.770 -12.4440 14.8776
  835 526.115 111.522 14.0264
  836 452.790 -3.97193 -0.474607
  837 452.821 -3.94282 0.548611
  838 449.205 -13.5677 -26.5459
  839 377.451 -25.0128 14.1128
  840 414.431 -46.5569 25.9764
  841 485.139 -39.7429 40.2235
  842 374.404 -10.8104 -4.14247
  843 374.403 -10.7732 4.11825
  844 428.480 39.7703 17.2643
  845 403.294 5.61488 -27.6112
  846 111.939 135.985 129.369
  847 406.569 -35.9529 -10.7828
  848 408.026 -18.2265 -0.0770969
  849 408.241 -18.2694 0.0523067
  850 448.816 -6.64553 43.4838
  851 444.405 -29.2594 -18.9684
  852 397.744 -26.2425 -6.29410
  853 891.533 28.8519 -43.6809
  854 378.341 -35.6584 26.8647
  855 378.026 -36.1138 -27.2801
  856 448.131 -5.40750 21.9166
  857 670.275 173.963 -41.6461
  858 355.508 -32.1208 -33.1611
  859 391.738 -44.0320 31.8908
  860 355.433 -31.7409 32.8808
  861 385.058 -15.4358 -4.86901
  862 385.053 -15.3881 4.83843
  863 58.4811 24.4046 35.0380
  864 481.474 35.9635 -45.7205
  865 369.975 -14.3403 -7.34039
  866 370.046 -14.1999 7.36490
  867 365.659 -6.02425 -0.896290
  868 365.656 -5.98502 0.891009
  869 400.904 -8.04436 -0.394391
  870 400.857 -7.99459 0.390838
  871 328.128 -6.30575 -8.07114
  872 328.158 -6.23693 8.04048
  873 371.253 -19.3900 -10.9140
  874 371.305 -19.2642 10.9622
  875 9.30441 -1.93608 -5.20172
  876 556.560 104.469 22.1655
  877 479.051 -16.8775 -35.8596
  878 391.390 -43.3892 -32.2071
  879 422.387 -13.6882 3.08081
  880 422.204 -13.5529 -2.97045
  881 460.724 0.534820 46.6932
  882 498.475 -35.5380 -23.3718
  883 440.198 32.4682 -164.954
  884 203.767 -3.50721 82.0466
  885 -6.33731 4.74962 -6.01652
  886 -5.38228 5.36714 6.60712
  887 58.1458 25.9511 -35.7901
  888 449.604 -13.0509 15.9120
  889 471.989 -3.23242 -6.65913
  890 424.905 -40.9886 71.5902
  891 203.292 -3.30821 -82.3602
  892 473.488 -38.8726 8.29551
  893 525.059 -14.9399 63.1878
  894 386.704 1.59245 12.3442
  895 441.144 41.9774 29.3240
  896 240.611 -13.4948 60.1585
  897 239.698 -13.6029 -60.5394
  898 288.373 -13.5449 -33.7943
  899 300.710 -14.9511 -104.387
  900 474.352 -11.1766 40.7036
  901 648.371 153.583 27.0001
  902 476.693 18.2879 46.6251
  903 450.534 -9.70117 -24.2897
  904 306.917 -13.3928 106.966
  905 572.740 105.883 -15.2846
  906 58.3234 49.2670 -49.6150
  907 418.213 -0.808929 -13.1169
  908 288.673 -13.4361 33.5088
  909 350.639 -7.64344 5.80984
  910 350.623 -7.69325 -5.82105
  911 445.036 -29.1014 19.6366
  912 460.822 -3.13839 1.47953
  913 339.898 3.00441 -129.464
  914 485.257 -1.14397 3.14307
  915 481.966 -0.949215 -4.06373
  916 365.525 3.23830 -10.7414
  917 466.871 -1.93268 -7.40681
  918 351.536 -16.2798 -13.9094
  919 351.770 -16.0415 13.9543
  920 -11.1086 4.39640 -6.33099
  921 -15.5327 2.65330 6.78499
  922 460.800 -2.92706 -1.51686
  923 155.892 -3.58306 55.4144
  924 155.003 -3.26171 -55.7178
  925 494.197 71.9626 35.9838
  926 871.040 15.7796 13.4350
  927 465.748 51.7353 38.2427
  928 524.010 -18.1791 19.7208
  929 457.454 -25.5472 31.5401
  930 568.947 119.069 -11.6794
  931 358.065 1.61854 8.10277
  932 439.930 -10.5001 -5.98404
  933 458.250 24.6509 -46.3159
  934 550.236 16.7973 -6.09218
  935 429.311 -26.5330 -8.63165
  936 223.557 -1.20285 -11.9682
  937 223.770 -1.15996 11.8044
  938 452.588 -10.7521 -18.7832
  939 15.7830 19.7880 4.86939
  940 434.522 -45.0615 -6.21763
  941 380.159 11.4187 -1.10621
  942 565.422 123.836 -7.73999
  943 90.9763 67.5480 -81.4098
  944 436.156 -3.25522 -25.6363
  945 305.033 -4.97076 -10.7409
  946 305.097 -4.91356 10.6566
  947 2.83753 -12.1451 9.15902
  948 297.914 -22.0068 -48.4832
  949 442.768 -25.6578 -18.4692
  950 280.181 0.605608 -0.901983
  951 280.257 0.608204 0.896458
  952 448.743 54.4274 -23.4262
  953 477.380 -1.58069 -0.631793
  954 477.405 -1.59838 0.838002
  955 298.056 -21.9507 48.1704
  956 448.698 -0.663549 -10.0778
  957 514.290 3.76084 29.1380
  958 456.563 -6.60845 7.36911
  959 75.1320 18.6037 -43.8697
  960 472.881 -3.00560 6.01520
  961 431.762 3.54067 40.4908
  962 455.281 62.9702 20.8308
  963 454.711 5.27123 -47.3092
  964 315.372 -16.7099 -29.1597
  965 489.157 -17.4228 29.3997
  966 315.580 -16.6495 28.8799
  967 15.1304 16.2352 -2.25974
  968 55.7271 9.24140 32.1874
  969 259.061 -4.47480 19.8785
  970 258.754 -4.47651 -19.9835
  971 440.243 -10.6902 6.33509
  972 474.947 82.3729 11.4477
  973 242.355 21.9342 -122.869
  974 397.031 -24.7034 5.58106
  975 372.749 -38.8712 -39.9183
  976 541.713 103.642 23.6626
  977 417.281 -7.48051 0.284781
  978 417.263 -7.44194 -0.288483
  979 456.326 -8.58047 -13.3478
  980 424.591 36.7395 -15.9207
  981 939.338 282.092 189.934
  982 90.7452 4.90272 -41.9666
  983 92.0807 4.06912 42.0516
  984 6.75741 -7.13283 2.95377
  985 425.673 23.6824 32.6806
  986 372.675 -39.1124 39.6362
  987 460.654 -21.8350 -36.1417
  988 500.988 40.9239 44.6981
  989 479.998 -38.7651 -48.8955
  990 699.786 147.080 49.9794
  991 409.891 -6.73394 -0.296184
  992 409.838 -6.68109 0.296129
  993 478.578 -19.6091 33.8923
  994 33.5869 58.5778 59.0773
  995 219.413 -4.51697 28.4128
  996 218.757 -4.45861 -28.7016
  997 260.634 -12.5880 38.9326
  998 259.758 -12.3913 -39.0682
  999 293.067 -11.9175 28.0816
  1000 320.405 -2.45926 -1.43967
  1001 320.455 -2.44152 1.43422
  1002 780.014 253.230 -162.812
  1003 712.222 178.694 75.2563
  1004 292.830 -11.9753 -28.3051
  1005 492.834 -2.32802 37.4827
  1006 443.206 45.9943 -28.1993
  1007 313.205 -27.0500 86.6157
  1008 400.876 -47.3873 -47.4237
  1009 457.898 -3.83198 -14.6470
  1010 208.422 13.9920 100.249
  1011 267.332 -20.3879 69.1869
  1012 407.550 21.0235 -20.5170
  1013 463.306 -9.23481 -44.0591
  1014 579.737 245.822 256.759
  1015 385.825 11.9441 14.6504
  1016 521.206 111.776 -1.70389
  1017 381.354 15.2482 -146.947
  1018 389.749 -40.9060 -27.6191
  1019 491.079 -0.625373 -1.54176
  1020 474.432 43.5486 -44.1445
  1021 281.813 -1.74540 7.20805
  1022 281.680 -1.76295 -7.27139
  1023 10.5213 7.47983 -15.8814
  1024 315.748 -14.2303 -24.3467
  1025 267.001 -20.6487 -69.6881
  1026 315.524 -14.2021 24.0931
  1027 453.097 -13.8514 40.7579
  1028 406.860 -25.0930 -2.02065
  1029 428.342 7.94152 -39.2705
  1030 440.872 55.0389 8.23636
  1031 591.236 37.1345 24.7376
  1032 448.377 -34.1177 18.4871
  1033 285.983 -22.7111 -53.0458
  1034 424.935 15.1264 -36.8202
  1035 315.828 -26.6995 -87.0449
  1036 603.261 130.298 -2.96954
  1037 413.646 27.2667 18.6659
  1038 517.976 -2.92748 -21.6727
  1039 392.156 -40.9320 25.5522
  1040 448.817 -14.3001 31.3520
  1041 445.639 -23.5907 22.0010
  1042 443.187 -22.3558 18.9346
  1043 546.029 69.6184 -31.3236
  1044 443.332 -7.19002 32.1252
  1045 400.274 -47.5189 46.6682
  1046 427.225 -17.5285 5.65085
  1047 286.166 -22.7579 52.7681
  1048 401.752 -29.5000 -6.73235
  1049 235.492 -11.5013 -73.9768
  1050 334.020 -34.6042 58.9315
  1051 451.094 -3.12515 -17.0873
  1052 440.016 -4.98079 -36.6461
  1053 381.501 -30.0292 -17.1449
  1054 235.891 -11.8214 73.4206
  1055 411.771 1.05416 -25.7004
  1056 307.203 -20.1826 -37.6620
  1057 551.653 117.037 14.6761
  1058 125.276 20.3472 -70.8864
  1059 928.338 65.5260 88.6335
  1060 222.908 16.2680 -104.849
  1061 442.991 -36.7334 -10.6543
  1062 307.294 -20.0148 37.3692
  1063 407.610 4.41151 28.8031
  1064 231.162 -4.59384 23.5311
  1065 231.052 -4.70648 -23.7612
  1066 449.005 -12.5379 -37.8249
  1067 475.246 -2.54882 2.35341
  1068 467.225 -1.10782 7.46799
  1069 463.202 15.3405 47.6452
  1070 434.059 -3.26425 34.4967
  1071 335.217 35.9935 158.822
  1072 494.064 -0.440897 0.718400
  1073 466.931 63.1710 30.4248
  1074 397.144 5.86079 24.8593
  1075 472.751 -1.86303 7.14289
  1076 308.006 -3.19916 -6.04640
  1077 308.066 -3.16322 6.01031
  1078 197.277 -5.51213 -39.2821
  1079 198.018 -5.71136 39.0297
  1080 398.438 20.0144 10.4482
  1081 592.721 33.1464 -46.5652
  1082 544.739 0.313663 -85.0410
  1083 438.416 -0.411092 -10.4923
  1084 334.120 -34.8597 -59.3654
  1085 382.306 -28.5635 15.4321
  1086 440.846 -1.02816 10.9439
  1087 460.242 -33.4750 -21.9603
  1088 291.537 -0.613447 3.57768
  1089 291.458 -0.624701 -3.59834
  1090 442.155 -37.7847 10.6436
  1091 420.555 -8.71480 0.825730
  1092 420.484 -8.72451 -0.800822
  1093 409.397 -41.1663 16.7422
  1094 524.954 -16.7928 -8.23613
  1095 242.737 -0.413805 -6.67816
  1096 243.117 -0.399375 6.61107
  1097 359.214 -22.8921 -99.7402
  1098 383.215 -9.13492 2.35376
  1099 383.248 -9.18252 -2.37171
  1100 231.094 125.558 174.561
  1101 528.384 43.5179 -35.8585
  1102 79.6308 38.3442 -54.1608
  1103 456.787 -6.96227 -7.11340
  1104 124.073 42.0747 -81.3429
  1105 257.113 -16.0297 -50.2978
  1106 494.037 -0.621115 0.473180
  1107 494.210 -0.587632 -0.343661
  1108 450.125 -25.7648 -26.8825
  1109 398.497 -44.8172 -64.6838
  1110 125.370 17.3224 67.5463
  1111 489.921 48.4500 42.7032
  1112 443.846 -4.66485 -0.591525
  1113 443.900 -4.66728 0.631668
  1114 483.382 -30.8971 78.5857
  1115 502.280 100.229 16.3135
  1116 300.913 -7.10444 -15.3162
  1117 300.993 -7.07277 15.2146
  1118 227.437 25.7602 124.074
  1119 427.255 2.22134 -37.9715
  1120 135.260 43.2080 87.3325
  1121 544.103 -8.89299 -28.2884
  1122 537.620 118.270 4.80313
  1123 370.761 -29.1666 20.5938
  1124 345.267 1.92082 -1.58087
  1125 468.093 -4.22025 9.02781
  1126 483.974 -0.679169 3.50827
  1127 109.765 0.174721 -19.8304
  1128 111.171 0.124441 19.7009
  1129 385.245 6.56418 -18.4393
  1130 394.936 -11.6102 -1.95428
  1131 394.851 -11.5598 1.94484
  1132 41.9936 69.5439 -62.9479
  1133 66.2368 148.624 -124.163
  1134 399.832 -15.5995 1.80937
  1135 399.979 -15.5937 -1.83395
  1136 412.750 -10.0174 0.806781
  1137 412.692 -9.99898 -0.774665
  1138 109.548 69.7980 88.1077
  1139 328.157 -3.96757 -2.95121
  1140 328.199 -3.93992 2.93843
  1141 411.582 31.2111 -0.426069
  1142 517.445 67.9576 -183.055
  1143 499.839 86.0158 -27.9791
  1144 455.685 -17.5518 -38.3822
  1145 448.786 -22.4532 -27.4074
  1146 370.955 -29.4336 -20.9276
  1147 375.318 1.27381 11.3820
  1148 420.448 26.3023 -27.3319
  1149 414.764 22.4017 26.1352
  1150 426.950 -17.0263 -5.53800
  1151 407.881 -24.5952 1.71005
  1152 371.596 -23.8597 -15.5978
  1153 441.640 -2.62372 20.3760
  1154 772.522 77.8709 10.8156
  1155 444.482 -9.51069 37.0957
  1156 446.541 29.3254 40.8973
  1157 411.293 -40.4086 -12.8965
  1158 52.9182 8.48245 -31.0649
  1159 418.997 -19.4078 -3.60454
  1160 282.160 -0.403369 -0.187502
  1161 282.230 -0.401603 0.185701
  1162 508.782 -13.4987 18.2269
  1163 484.758 -40.8568 19.5711
  1164 694.877 124.083 31.0021
  1165 170.419 -0.318749 -16.4602
  1166 171.386 -0.282579 16.3420
  1167 375.229 -7.57921 -1.87285
  1168 375.213 -7.53424 1.86058
  1169 420.228 -37.0346 -2.53191
  1170 348.258 1.63244 5.18200
  1171 430.246 -30.6414 8.04238
  1172 25.0228 29.7232 -15.1428
  1173 78.7642 38.8924 52.9365
  1174 288.979 -15.8695 96.3682
  1175 498.113 94.6298 -19.9929
  1176 474.424 -1.35432 -5.64770
  1177 496.072 -0.835825 0.299825
  1178 496.524 -1.12241 -0.179648
  1179 293.115 -0.642857 -0.600692
  1180 293.184 -0.637642 0.596600
  1181 459.151 29.3365 46.3041
  1182 675.422 114.943 -2.45184
  1183 473.314 78.0964 -20.5406
  1184 353.501 -26.1329 99.1088
  1185 287.448 -15.2765 -96.1789
  1186 320.210 -21.2479 -33.8481
  1187 440.540 -12.4268 8.18437
  1188 613.300 135.480 7.56154
  1189 320.247 -21.1255 33.5943
  1190 449.810 -8.00778 6.19089
  1191 404.232 15.1272 24.9625
  1192 444.081 13.7828 44.5811
  1193 629.474 140.447 16.8092
  1194 375.911 -9.77802 3.47243
  1195 375.927 -9.82251 -3.49453
  1196 455.781 -8.68603 13.8730
  1197 273.806 -2.85300 11.2609
  1198 273.615 -2.88144 -11.3575
  1199 445.703 -6.22052 -2.65488
  1200 184.364 110.256 -169.125
  1201 386.033 -21.8310 -106.150
  1202 365.855 -11.3909 -6.25087
  1203 365.895 -11.3418 6.25329
  1204 477.081 -2.37226 2.15611
  1205 452.361 -6.08076 4.93686
  1206 25.3446 32.3170 24.0269
  1207 490.923 -0.599671 1.80790
  1208 59.4416 76.0570 75.4473
  1209 442.059 -6.75504 -3.43763
  1210 -0.470313 -10.7245 -9.41530
  1211 313.998 -30.6608 -74.6752
  1212 313.161 -29.9214 73.9431
  1213 490.902 -0.908694 -2.00891
  1214 421.612 -22.2549 -4.38862
  1215 476.777 -2.17762 -2.18659
  1216 383.926 -12.3903 -3.46820
  1217 383.892 -12.3480 3.43421
  1218 445.422 -6.17910 2.48437
  1219 418.699 -19.0248 3.56705
  1220 403.190 -12.9953 0.615855
  1221 403.328 -13.0274 -0.569851
  1222 476.338 -2.24330 -1.77823
  1223 412.079 -43.4764 -72.8442
  1224 466.378 -3.03888 -1.79294
  1225 443.906 -6.93731 3.72431
  1226 312.849 -3.33738 -4.50886
  1227 312.904 -3.30526 4.48446
  1228 348.269 -5.06565 -2.37029
  1229 348.289 -5.03218 2.35947
  1230 559.926 87.5324 25.8291
  1231 470.844 -36.2708 15.7416
  1232 323.645 -1.61461 122.320
  1233 262.746 -0.412083 4.32631
  1234 262.529 -0.416662 -4.36721
  1235 447.037 -8.30497 27.7826
  1236 427.509 -6.60546 0.605175
  1237 427.524 -6.58432 -0.604856
  1238 490.324 95.1618 9.37408
  1239 447.416 -46.9065 58.1339
  1240 262.747 -3.63337 15.7520
  1241 262.493 -3.65993 -15.8619
  1242 426.959 -10.5181 2.77629
  1243 426.863 -10.5921 -2.68284
  1244 440.299 -12.2807 -7.86978
  1245 406.857 0.0966091 13.2964
  1246 696.453 173.203 -59.0353
  1247 448.667 -16.4954 -24.2484
  1248 78.5341 18.3744 45.0715
  1249 463.320 -24.7657 33.5087
  1250 375.210 8.32999 -10.0933
  1251 29.4562 21.1812 16.7545
  1252 607.612 68.7890 -8.48504
  1253 452.726 -20.6457 -34.0896
  1254 376.947 5.46492 15.4682
  1255 258.888 -16.0595 50.2260
  1256 459.524 -35.6390 19.4141
  1257 663.538 129.023 43.5751
  1258 156.103 22.7698 85.8161
  1259 461.550 -5.60985 -11.9699
  1260 877.945 9.87455 -8.76438
  1261 906.448 13.5678 38.9552
  1262 966.847 32.6257 -92.7806
  1263 448.284 -14.0601 -30.4439
  1264 448.103 -20.5215 25.6401
  1265 455.083 -32.4562 23.5100
  1266 -13.3424 1.59680 8.41344
  1267 -12.1225 1.29536 -9.18166
  1268 442.641 -48.9862 -27.8740
  1269 453.143 -45.8892 -41.1731
  1270 350.672 2.28723 -6.39296
  1271 440.730 -49.8495 41.0135
  1272 471.170 -22.4133 -33.9527
  1273 9.84852 14.3150 2.15038
  1274 384.299 -7.04054 1.24666
  1275 384.325 -7.08857 -1.24994
  1276 467.706 -3.86971 8.09114
  1277 449.766 -7.86897 -5.80017
  1278 424.049 -46.2858 -15.2949
  1279 388.209 -20.9265 6.99661
  1280 386.287 -20.6285 -7.53354
  1281 454.357 -9.69977 19.2586
  1282 465.706 -17.1697 -39.4084
  1283 30.5529 22.0829 -16.3019
</Section>

newXOutput 62

<Section columns = "stress_xx | stress_yy | stress_xy">
  1 506.755 -0.161498 0.954528
  2 506.761 -0.152108 -0.957054
  3 282.420 -0.0809299 -0.344683
  4 -3.55021 -3.50715 -5.10538
  5 899.910 365.611 290.346
  6 891.661 378.570 -289.165
  7 -4.12482 -3.32871 5.43769
  8 282.349 -0.0819177 0.343813
  9 510.184 -0.873405 0.281022
  10 509.183 -1.37048 -0.275938
  11 508.147 -0.937659 1.07561
  12 507.093 -1.27057 0.258453
  13 504.814 -1.07808 1.69252
  14 502.732 -1.08492 1.20861
  15 497.720 -0.956803 2.44343
  16 490.447 -0.699343 3.61145
  17 483.987 -0.724913 4.04568
  18 474.309 -0.979559 4.91858
  19 460.773 -0.106014 7.30803
  20 448.273 -0.720740 6.97787
  21 433.899 -0.916336 9.87237
  22 413.155 0.644296 8.62065
  23 398.031 1.00277 10.2181
  24 378.290 1.67154 8.01980
  25 364.584 1.79784 8.09706
  26 344.735 2.47794 4.13560
  27 340.530 3.89487 4.44169
  28 337.991 3.21546 -1.31491
  29 341.439 1.90172 -2.87662
  30 347.798 1.82019 -3.53165
  31 362.673 2.27517 -7.04101
  32 377.123 1.79823 -8.88488
  33 398.232 0.427721 -10.5206
  34 415.104 -0.204920 -9.54450
  35 433.010 -0.726230 -9.34231
  36 449.180 -0.565312 -6.57482
  37 462.998 -0.601968 -5.59816
  38 474.331 -0.961075 -4.67449
  39 484.427 -0.700175 -3.22436
  40 490.662 -0.845589 -3.40663
  41 496.689 -1.01742 -2.48300
  42 502.330 -1.19751 -1.04670
  43 505.203 -0.971017 -1.25967
  44 506.650 -0.620225 -0.769030
  45 505.396 -0.377848 -0.703127
  46 509.668 -1.37375 0.193850
  47 510.324 -0.906304 -0.289591
  48 494.323 -0.500353 -0.591349
  49 483.692 -2.21451 -1.09452
  50 470.640 -3.21800 -0.672599
  51 454.682 -4.68606 -0.932964
  52 439.497 -5.10108 -1.13676
  53 423.248 -6.29702 -1.08856
  54 408.830 -6.95261 -0.571091
  55 396.181 -7.70766 -0.171329
  56 381.572 -6.37763 -0.158563
  57 364.730 -5.92418 -0.321534
  58 348.507 -4.64278 -0.0496291
  59 333.149 -2.92708 0.0100974
  60 318.568 -2.06150 0.0676055
  61 305.802 -1.02531 0.169562
  62 292.781 -0.251050 -0.391377
  63 282.551 0.401443 0.535750
  64 277.929 1.07714 0.375397
  65 280.959 0.0236156 0.861920
  66 277.341 -0.127550 1.04587
  67 273.935 -0.198613 1.30195
  68 269.340 -0.00747581 1.68298
  69 263.551 -0.00254157 2.11012
  70 259.174 -0.309150 4.02451
  71 247.028 0.359851 4.38619
  72 238.417 -0.0132385 4.99819
  73 225.597 -0.208212 5.67631
  74 210.857 -0.358976 6.90199
  75 192.423 -0.0724553 8.38125
  76 169.953 0.111357 9.25476
  77 150.415 -0.180244 13.2329
  78 112.047 1.21418 12.5181
  79 85.7514 1.04567 13.2631
  80 54.0960 -0.256145 14.7534
  81 27.6647 2.40021 15.4003
  82 -2.49869 3.61986 9.36381
  83 -24.6068 3.68525 3.46343
  84 -24.3608 3.58906 -1.08998
  85 -23.6441 2.99795 -7.04772
  86 -13.9506 -0.904752 -6.75758
  87 -1.66918 -13.3914 -7.47236
  88 1.38420 -24.5777 -9.27023
  89 3.75104 -38.3990 -4.91531
  90 8.27365 -38.4156 0.944102
  91 17.4225 -6.32580 23.6255
  92 51.5029 83.9496 78.4596
  93 297.137 286.743 260.516
  94 1090.92 163.787 181.637
  95 984.817 23.3914 58.8938
  96 917.252 9.75584 18.0226
  97 892.336 8.31446 1.37545
  98 905.641 11.0274 -15.6509
  99 982.824 21.8520 -46.6297
  100 1153.87 78.9928 -155.885
  101 176.981 294.337 -218.416
  102 38.5459 61.6440 -65.2578
  103 19.0491 -4.41286 -25.1424
  104 7.75226 -38.2781 -4.73088
  105 2.25427 -29.0903 5.61806
  106 2.79166 -31.0124 8.01548
  107 0.154607 -11.5478 8.27944
  108 -14.5696 -0.562372 6.39811
  109 -24.3922 2.25083 6.13590
  110 -25.6643 4.35816 1.22483
  111 -25.3892 3.62302 -3.22710
  112 -4.28737 3.70963 -8.78576
  113 26.0971 2.42078 -14.6907
  114 52.4982 0.000876426 -14.5118
  115 84.0996 1.13013 -13.2893
  116 110.547 1.24549 -12.6112
  117 149.252 -0.185717 -13.3411
  118 168.957 0.123267 -9.34201
  119 191.553 -0.0693080 -8.48414
  120 210.413 -0.398890 -6.95124
  121 224.994 -0.196903 -5.68995
  122 237.958 0.00234673 -5.04846
  123 246.651 0.355629 -4.43265
  124 258.902 -0.312292 -4.06386
  125 263.331 -0.00457930 -2.13423
  126 269.171 -0.00942496 -1.70278
  127 273.804 -0.201846 -1.31762
  128 277.239 -0.130320 -1.05679
  129 280.872 0.0212554 -0.868875
  130 277.852 1.07598 -0.378610
  131 282.479 0.400855 -0.537771
  132 292.710 -0.253733 0.390350
  133 305.736 -1.03204 -0.172024
  134 318.510 -2.07625 -0.0704776
  135 333.105 -2.94757 -0.0128562
  136 348.481 -4.67232 0.0468890
  137 364.724 -5.96158 0.319370
  138 381.587 -6.42098 0.156323
  139 396.214 -7.75640 0.170301
  140 408.876 -7.00127 0.572695
  141 423.315 -6.34130 1.09356
  142 439.555 -5.13152 1.15471
  143 454.726 -4.71331 1.01952
  144 470.726 -3.05127 0.687483
  145 484.029 -2.15952 1.07018
  146 494.412 -0.577275 0.582177
  147 444.337 -41.7612 -1.43337
  148 443.954 -41.1962 1.59005
  149 467.683 67.1028 -22.1272
  150 496.970 29.2650 46.4119
  151 376.621 -36.3661 -83.9031
  152 379.700 -36.3091 81.2515
  153 367.545 -15.4682 10.4870
  154 367.570 -15.6794 -10.4930
  155 525.956 19.0226 -34.5479
  156 443.169 -16.0367 8.85854
  157 442.978 -15.6567 -8.75069
  158 572.778 127.270 5.13025
  159 454.475 -0.722834 -45.7663
  160 337.591 -26.3743 -37.7310
  161 337.612 -26.1589 37.4123
  162 455.047 -10.3412 41.1265
  163 433.635 31.7073 27.4942
  164 180.056 28.5769 -100.200
  165 199.346 27.1021 105.534
  166 554.066 6.67519 1.89764
  167 455.801 -17.5572 -28.2004
  168 602.235 132.229 -0.468305
  169 411.073 -11.6401 -0.499463
  170 410.989 -11.6071 0.532975
  171 460.181 -5.74531 -3.83330
  172 461.576 -5.18274 3.30002
  173 325.353 -4.56585 -6.09771
  174 325.398 -4.51945 6.06854
  175 492.557 -12.5431 106.704
  176 420.123 17.5354 -29.6379
  177 275.500 -20.5490 -60.1576
  178 276.315 -20.4008 59.7814
  179 309.888 -10.0060 -19.7794
  180 309.921 -9.89317 19.6405
  181 457.934 -12.1159 23.9826
  182 416.688 -28.5530 -2.07816
  183 415.256 -28.3408 2.72047
  184 472.330 -45.7936 -9.76720
  185 474.835 -43.6282 3.92077
  186 651.522 153.527 -24.6543
  187 476.738 76.3907 20.6597
  188 476.878 29.2823 -46.9588
  189 490.583 -3.55236 -123.673
  190 472.451 -26.7658 -32.0225
  191 476.550 -19.1381 38.0232
  192 397.861 -45.1414 41.6760
  193 397.931 -44.8168 -41.5561
  194 426.919 5.49609 35.5436
  195 196.823 -4.92457 -73.6920
  196 197.290 -5.32952 73.2561
  197 732.986 109.506 15.9783
  198 447.718 -26.7222 16.9784
  199 463.954 -8.64387 -15.4756
  200 369.823 -8.98355 -4.86523
  201 369.833 -8.94008 4.85120
  202 446.592 -5.82420 -31.7658
  203 507.883 74.4813 -37.2275
  204 426.765 38.4112 -5.50270
  205 279.473 -9.74660 27.6655
  206 279.054 -9.77547 -27.8620
  207 470.383 -5.37082 8.31780
  208 459.705 8.64841 47.1052
  209 374.417 -27.1069 -18.6622
  210 371.972 -25.6617 19.0556
  211 540.535 80.2101 33.4126
  212 632.602 88.2496 17.6634
  213 44.3555 34.2772 -28.9547
  214 41.0580 31.6851 24.6555
  215 262.311 75.5135 175.444
  216 443.272 -29.4865 -12.6851
  217 471.995 -5.15620 -7.50767
  218 422.244 3.78294 -32.7431
  219 298.377 -2.87977 -8.79520
  220 298.475 -2.84768 8.72267
  221 399.786 -18.7029 -4.43106
  222 399.973 -18.8222 4.20666
  223 450.258 -6.09933 26.9672
  224 515.948 -29.8094 13.7832
  225 514.920 104.878 -10.7026
  226 403.808 -38.9121 -20.2221
  227 509.007 -8.88452 28.7268
  228 434.501 -7.43557 1.25453
  229 434.503 -7.37682 -1.25294
  230 400.919 -38.7292 20.9460
  231 458.529 -29.1608 25.8993
  232 640.159 84.7133 -43.9749
  233 144.249 85.8066 -128.048
  234 391.401 13.8795 7.10707
  235 461.700 40.6909 39.7403
  236 490.440 -3.47861 -41.2289
  237 458.761 -16.5668 -38.2728
  238 247.614 -7.85154 -34.5454
  239 248.448 -7.73473 34.4449
  240 459.372 -5.62042 -20.7180
  241 437.626 -11.1932 4.47710
  242 437.422 -11.1813 -4.31118
  243 94.2984 8.44511 -47.4139
  244 95.7322 7.39993 47.2479
  245 486.147 -42.5939 -39.4512
  246 480.718 -1.88306 1.07231
  247 481.201 -1.91725 -1.18829
  248 451.193 37.4261 -36.4493
  249 398.869 7.79420 21.5014
  250 820.134 131.306 88.3177
  251 813.076 92.5685 -55.0616
  252 594.259 127.608 -0.128790
  253 371.196 -18.0025 111.296
  254 341.049 -11.8260 -116.317
  255 392.070 -8.05757 -1.81911
  256 392.036 -8.00845 1.80732
  257 327.275 -8.62241 12.2307
  258 327.268 -8.73919 -12.3326
  259 470.103 -5.18999 12.6039
  260 456.647 -32.5760 -20.9925
  261 300.200 -0.510154 -2.07833
  262 300.272 -0.500997 2.06637
  263 450.939 -18.3513 -16.8220
  264 194.440 -6.30231 -47.9982
  265 195.249 -6.32188 47.6660
  266 456.721 -19.8717 30.4157
  267 349.613 -37.1053 67.5342
  268 350.466 -37.7679 -67.3257
  269 396.923 15.3393 -10.0086
  270 342.579 -5.16392 -4.11667
  271 342.612 -5.13001 4.10193
  272 429.803 -1.03724 26.1642
  273 512.137 93.5160 25.7530
  274 277.863 -3.29755 14.7856
  275 277.653 -3.32450 -14.9054
  276 468.587 -39.2214 13.9820
  277 433.766 -48.7552 -46.0023
  278 482.630 -2.48539 3.80841
  279 338.556 -19.8612 -25.8835
  280 337.995 -19.6429 25.7915
  281 590.101 64.9980 156.104
  282 283.195 -22.9033 80.3607
  283 455.659 63.9160 -2.34364
  284 572.221 63.8222 -20.3825
  285 433.193 -33.4932 4.13098
  286 434.154 -50.0792 41.6006
  287 284.020 -22.5377 -81.2377
  288 53.3382 65.8934 60.4369
  289 451.017 -18.4114 17.1392
  290 589.139 77.7099 15.1180
  291 486.270 -2.22147 -3.30294
  292 443.548 15.5805 -41.9652
  293 436.487 -24.7154 8.64277
  294 427.492 -36.0525 2.45800
  295 442.027 20.3366 40.4651
  296 466.390 -39.2235 -12.3257
  297 658.912 127.646 -11.8453
  298 436.371 -23.7616 -8.25584
  299 358.476 104.774 -213.884
  300 445.731 -47.2884 -10.2868
  301 442.623 -48.5839 15.3217
  302 327.153 -29.4668 -53.0203
  303 297.436 -1.07640 -4.50330
  304 297.522 -1.05756 4.47009
  305 327.305 -29.4939 52.7432
  306 472.081 -0.817720 -47.0571
  307 508.051 -21.0507 -18.2794
  308 389.053 -23.3108 -10.2573
  309 388.820 -23.3653 10.4383
  310 462.429 -39.8095 72.8932
  311 463.045 -3.78681 15.6762
  312 559.608 3.36430 27.7434
  313 381.481 -13.3880 -5.72414
  314 381.509 -13.3463 5.69508
  315 348.489 -8.95049 -8.16913
  316 348.496 -8.86895 8.15849
  317 394.896 5.40604 -20.7886
  318 502.893 36.8680 -44.9015
  319 771.573 208.898 -100.773
  320 457.410 -4.22811 -1.25040
  321 457.163 -4.17327 1.28827
  322 247.200 -0.712629 100.290
  323 346.520 -15.5413 -17.2862
  324 345.891 -15.4933 17.3319
  325 247.151 -1.30110 -99.9065
  326 480.322 56.6278 -38.5349
  327 535.336 26.6613 32.5997
  328 462.280 -32.9730 -80.7627
  329 426.856 -16.5305 3.41551
  330 426.432 -16.4152 -3.23600
  331 454.754 -9.59420 -7.96345
  332 430.085 -0.788514 -24.4612
  333 480.574 2.00206 45.9393
  334 478.291 -3.47654 -8.64914
  335 291.052 -17.4753 40.3754
  336 290.733 -17.5697 -40.6726
  337 448.036 -0.996047 43.5141
  338 279.739 -2.20022 -8.80625
  339 279.917 -2.17985 8.73052
  340 458.201 -10.6809 12.7316
  341 549.979 112.062 -18.3199
  342 454.552 -9.66093 8.27598
  343 485.611 60.8743 38.6224
  344 464.365 -8.68847 44.8194
  345 369.422 -6.87208 1.82111
  346 369.422 -6.91242 -1.83201
  347 440.425 -1.54776 -38.6422
  348 580.492 121.842 10.8060
  349 484.566 88.5500 0.802600
  350 296.483 34.3547 -148.621
  351 31.9783 13.4761 -21.0561
  352 34.9236 14.5905 22.5909
  353 -1.12525 3.63858 8.59433
  354 0.620117 2.17711 -9.00820
  355 838.580 58.2090 19.8078
  356 401.265 -32.4630 -12.2475
  357 458.527 -10.3313 -12.4158
  358 414.725 -7.40306 0.353435
  359 414.678 -7.34656 -0.356479
  360 444.981 49.1578 -19.7516
  361 379.209 -38.5085 34.3229
  362 34.0116 50.8245 -37.8976
  363 379.538 -38.4919 -34.9186
  364 450.656 51.2490 21.0146
  365 457.871 -12.3235 -22.8019
  366 485.082 -27.1565 -26.8160
  367 518.369 108.980 7.35898
  368 486.085 -30.4592 21.7416
  369 205.135 -5.01123 32.1148
  370 203.957 -4.91351 -32.3091
  371 116.907 2.73663 -44.8756
  372 118.074 2.28638 44.6803
  373 400.892 1.44604 21.0004
  374 748.897 220.609 88.3813
  375 472.797 -3.11846 -11.1211
  376 369.919 -31.0503 -26.3774
  377 369.637 -30.9787 26.3435
  378 455.475 -10.5890 -29.1632
  379 516.618 -24.9676 1.25837
  380 401.251 -32.4369 12.5905
  381 565.279 4.87778 -49.1160
  382 325.174 -2.53052 -1.64007
  383 325.226 -2.50937 1.62978
  384 448.539 -2.65074 -18.7558
  385 245.252 -3.44789 -20.9246
  386 245.397 -3.56091 20.6787
  387 534.228 68.3261 -37.3547
  388 289.744 20.3564 138.232
  389 419.322 -21.9972 0.960093
  390 419.728 -21.9614 -0.977425
  391 493.074 83.2127 -24.3311
  392 466.013 -13.8754 -42.3242
  393 465.930 -47.7038 40.6706
  394 390.730 -10.3629 -2.87524
  395 390.689 -10.3163 2.85082
  396 449.394 -34.7161 13.5884
  397 482.637 -2.42604 6.39901
  398 304.999 -10.9316 -24.6798
  399 305.123 -10.9346 24.4805
  400 457.494 15.3814 -46.5061
  401 430.989 -9.50018 1.86228
  402 430.968 -9.52427 -1.80911
  403 446.714 -5.30060 35.3760
  404 418.147 30.5894 9.53795
  405 462.215 -19.6059 36.7512
  406 665.202 138.813 26.0191
  407 226.012 -12.1319 -64.4219
  408 226.627 -12.1335 63.9503
  409 101.461 53.8975 -77.8288
  410 492.728 -1.61111 1.69713
  411 255.726 -2.07671 -13.2557
  412 256.054 -2.03278 13.1477
  413 455.794 -11.9776 28.5121
  414 413.607 -44.8396 23.2690
  415 465.649 -5.99645 5.62126
  416 476.026 24.1413 48.3005
  417 106.187 57.3887 81.0003
  418 414.206 -44.5765 -21.5078
  419 427.864 -39.7320 -5.44490
  420 143.007 -2.85730 -40.5531
  421 144.023 -2.96008 40.2835
  422 329.266 -26.5351 -96.8980
  423 490.448 -7.40407 40.1497
  424 328.088 -26.9103 96.0723
  425 453.512 -25.5459 -23.3037
  426 423.766 28.7122 -20.8388
  427 453.565 -19.7074 22.2224
  428 486.237 -2.33633 -4.24510
  429 15.3772 16.7643 8.01509
  430 100.101 116.601 114.562
  431 438.001 -1.59937 18.1580
  432 370.623 5.22057 9.13975
  433 376.745 6.32761 -12.3797
  434 321.439 -5.17067 -8.63235
  435 321.478 -5.10572 8.58047
  436 447.140 -34.6904 -12.3284
  437 452.485 -8.91265 -39.5109
  438 372.505 7.15315 -3.36140
  439 664.670 158.597 35.1247
  440 94.4019 30.8110 -58.4158
  441 103.866 28.2685 62.2899
  442 418.933 -14.9755 1.08786
  443 418.779 -14.9447 -0.981304
  444 557.949 122.612 -1.39071
  445 345.342 146.901 218.637
  446 534.586 -7.26855 -4.85337
  447 311.147 -16.0215 -33.4765
  448 311.298 -15.9153 33.2070
  449 313.774 -6.84476 13.3475
  450 313.711 -6.89333 -13.4603
  451 421.180 9.47031 -33.7534
  452 495.117 -0.852936 -1.10989
  453 410.032 18.9686 19.0140
  454 514.500 63.4695 41.0287
  455 428.761 -31.8091 -2.64220
  456 465.442 -5.72205 -5.46926
  457 488.159 -2.13092 3.90794
  458 493.661 -0.919165 0.632420
  459 494.030 -1.01894 -0.452212
  460 278.355 -0.455359 3.28197
  461 278.214 -0.462381 -3.31365
  462 468.364 -29.8690 28.1830
  463 425.139 16.8834 32.6968
  464 443.364 1.82986 -42.5025
  465 461.260 -9.88411 16.7906
  466 657.820 115.166 -132.755
  467 462.656 -25.7667 -31.8758
  468 5.45409 8.92339 4.21496
  469 5.37350 9.10656 -1.92179
  470 368.414 -20.6810 15.1213
  471 367.219 -20.3955 -14.9251
  472 570.934 12.0216 72.4690
  473 160.951 149.274 -166.824
  474 457.071 -1.45463 14.0030
  475 515.089 -29.8369 -42.0809
  476 278.760 -15.8691 46.6697
  477 553.992 98.3355 -26.3850
  478 456.045 -24.7827 26.5832
  479 384.385 -18.2435 -7.85373
  480 384.721 -17.9466 7.83555
  481 400.799 2.19783 -18.5328
  482 277.905 -15.8026 -46.9406
  483 410.505 0.254033 18.5980
  484 391.028 -44.7763 -60.6640
  485 390.064 -44.8444 60.9074
  486 470.277 -3.22509 12.2953
  487 430.130 40.6364 3.93942
  488 432.308 8.01748 150.202
  489 637.142 129.014 -0.805164
  490 441.061 -7.62620 2.35810
  491 441.081 -7.59974 -2.45695
  492 342.310 -5.94930 -5.56713
  493 342.339 -5.90158 5.54863
  494 181.509 8.07507 84.5582
  495 458.165 -22.1643 -31.3166
  496 416.013 -9.14698 -0.0471637
  497 415.971 -9.11756 0.0544536
  498 363.037 -38.3291 49.6216
  499 184.949 10.7089 -86.6722
  500 458.456 -37.4448 -14.1710
  501 8.31644 2.53943 2.86853
  502 404.146 21.0455 1.40091
  503 442.550 -5.33875 -0.757074
  504 442.543 -5.40724 0.735934
  505 363.225 -38.2567 -49.9958
  506 515.555 -26.2718 53.0574
  507 512.797 18.6282 41.4549
  508 472.473 -3.43093 -2.65406
  509 457.061 -37.9643 14.4088
  510 291.488 -0.230998 -0.606001
  511 291.561 -0.228530 0.601544
  512 456.898 -17.6294 -33.6160
  513 444.094 32.8983 35.6809
  514 506.606 12.5270 -40.9832
  515 289.712 -0.410928 -1.85110
  516 289.795 -0.404943 1.83947
  517 873.652 126.285 -112.543
  518 461.762 54.9259 31.3324
  519 472.860 -3.18668 2.35507
  520 428.789 -40.6143 6.48683
  521 362.512 -11.8537 8.43868
  522 362.504 -11.9408 -8.42147
  523 497.535 -30.4038 10.8719
  524 479.231 -9.66374 -42.5924
  525 536.114 105.308 22.5594
  526 447.174 7.73138 44.0972
  527 449.167 -8.83170 4.88095
  528 436.169 -46.6827 -58.7631
  529 453.711 -11.3130 33.3151
  530 862.703 39.6864 -15.7253
  531 493.778 -37.3139 1.50069
  532 469.546 -3.34362 -0.583496
  533 469.661 -3.54144 0.496436
  534 871.700 58.4579 54.9481
  535 436.371 -0.103519 37.5082
  536 606.148 102.869 -6.69280
  537 457.265 -12.5939 -16.2094
  538 211.357 -1.92292 -14.2995
  539 211.979 -1.82976 14.1595
  540 311.650 -29.1245 -67.3861
  541 311.914 -28.6381 66.9008
  542 448.915 -8.47882 -4.84449
  543 489.105 17.9280 -46.8064
  544 430.009 -29.2514 4.29570
  545 463.745 53.1375 -32.4709
  546 465.416 -5.55194 16.5380
  547 580.287 29.9613 -9.82835
  548 399.551 -13.6694 -2.72222
  549 399.437 -13.6267 2.69542
  550 432.971 -20.4843 6.25130
  551 634.412 126.978 -13.0450
  552 457.075 20.0071 45.7782
  553 196.407 50.4078 124.723
  554 438.963 -26.2914 101.082
  555 576.358 29.8189 -111.842
  556 467.224 38.6312 -42.5187
  557 412.790 -35.8129 -87.7544
  558 447.323 -49.1014 -18.8728
  559 466.553 -47.3645 -26.9603
  560 62.3492 81.8337 -77.4673
  561 469.125 -6.13449 -9.93254
  562 702.931 136.469 -40.9394
  563 435.223 -19.6728 -7.13575
  564 438.653 -14.3929 5.90182
  565 438.251 -14.0737 -5.63667
  566 306.873 -1.67579 -4.10979
  567 306.943 -1.65422 4.08487
  568 45.5509 4.47160 -24.9599
  569 47.8882 4.69380 25.5238
  570 228.748 -10.5125 -49.0847
  571 230.441 -10.5717 49.0236
  572 444.715 -24.1757 -14.2922
  573 452.428 -49.3049 20.3089
  574 465.013 -44.2533 0.839460
  575 383.536 -6.77789 -1.56543
  576 383.517 -6.73231 1.55793
  577 362.916 -38.1472 -75.0677
  578 405.028 -33.3448 92.7395
  579 354.326 -35.8897 75.4641
  580 458.003 -10.2223 -42.4048
  581 290.808 -4.70552 14.9063
  582 290.665 -4.75359 -15.0219
  583 438.122 24.3024 -35.8685
  584 438.282 -0.773300 -16.4764
  585 545.825 117.956 -10.0060
  586 358.924 -5.35976 -1.49600
  587 358.938 -5.32603 1.48952
  588 465.573 -1.42374 -9.18037
  589 324.698 -10.7813 -16.6581
  590 324.714 -10.7463 16.5221
  591 264.024 11.9309 119.098
  592 453.133 -20.9452 -22.4463
  593 255.015 -13.6198 85.6587
  594 445.317 -23.1507 14.6441
  595 467.964 -6.78836 11.0041
  596 461.807 -4.45919 -2.31492
  597 328.767 -3.95958 -3.87096
  598 328.813 -3.92813 3.85292
  599 523.760 104.235 -20.4580
  600 254.828 -13.1267 -85.9617
  601 443.814 -19.3151 -11.5943
  602 401.412 -7.51249 -0.841299
  603 401.372 -7.46030 0.838088
  604 745.636 100.124 -17.9014
  605 270.252 -1.67257 8.19410
  606 270.024 -1.68858 -8.26613
  607 416.390 9.65617 30.8278
  608 588.256 50.2427 -3.54982
  609 281.089 1.67194 -118.154
  610 146.024 3.48585 -64.7919
  611 147.190 2.68150 64.4518
  612 353.307 -20.4218 20.8081
  613 356.880 -21.0241 -20.2564
  614 596.265 120.378 7.94591
  615 459.987 -4.61346 2.06810
  616 399.094 11.3857 -18.6557
  617 494.381 88.5822 19.2538
  618 492.707 91.9068 -12.8094
  619 404.857 -22.3741 -4.34671
  620 407.866 -21.8826 2.91882
  621 289.631 63.4633 -169.287
  622 349.725 -11.8091 -11.6641
  623 349.759 -11.6775 11.6284
  624 869.640 178.209 134.311
  625 457.225 -15.0551 36.3974
  626 264.717 -9.20570 -31.4341
  627 701.130 167.763 114.338
  628 265.318 -9.15697 31.3240
  629 435.241 -16.4991 -117.709
  630 312.339 -1.45542 -1.51286
  631 312.401 -1.44293 1.50586
  632 385.450 3.55182 16.2837
  633 177.559 -2.58728 -28.1897
  634 178.493 -2.59422 27.9787
  635 399.728 -28.1908 9.58515
  636 418.668 -33.4732 -3.72505
  637 490.902 -1.15577 -3.61931
  638 282.867 -0.421597 2.44298
  639 282.755 -0.429337 -2.46619
  640 377.982 -8.48874 -2.48832
  641 377.971 -8.44401 2.47212
  642 431.090 -47.9429 59.3219
  643 496.313 55.3829 -42.4215
  644 332.710 -15.3252 -21.4464
  645 332.487 -15.0697 21.2991
  646 392.519 -28.1087 -12.8614
  647 615.077 133.526 5.24848
  648 462.326 -44.8187 1.66122
  649 402.887 -9.69187 -1.42542
  650 402.829 -9.64765 1.42473
  651 551.378 60.6064 30.6671
  652 463.559 -6.82666 -17.9688
  653 412.777 -0.456512 -15.1341
  654 192.921 -6.60280 -61.8295
  655 193.487 -6.77994 61.3444
  656 391.381 -33.6402 -20.1497
  657 585.011 128.202 0.102996
  658 455.744 61.6486 -14.1142
  659 305.198 -2.68383 -7.50964
  660 305.274 -2.64692 7.45412
  661 423.880 -12.0772 -1.28749
  662 423.961 -12.0868 1.37296
  663 781.673 101.878 45.0053
  664 497.576 -1.45197 0.935618
  665 482.233 -2.00465 6.29368
  666 480.491 -2.02527 -7.43106
  667 456.867 -42.6006 5.03393
  668 339.626 -3.86908 -1.93320
  669 339.663 -3.84266 1.92535
  670 489.467 78.2622 29.7309
  671 625.093 138.643 -9.91394
  672 345.084 -25.4409 -30.3766
  673 345.001 -25.1974 30.2337
  674 429.197 -44.2026 -10.6223
  675 453.902 27.0089 -43.1275
  676 535.405 1.54547 16.2417
  677 359.069 -6.60669 -3.93982
  678 359.084 -6.56641 3.92537
  679 310.579 -27.1390 -60.8317
  680 452.602 -43.8288 -0.911155
  681 377.190 -41.8116 54.6974
  682 181.593 57.0667 -120.421
  683 353.099 -32.5701 42.2038
  684 426.075 0.120501 13.9371
  685 310.875 -26.8351 60.4398
  686 443.563 -19.6799 11.7374
  687 353.193 -32.4286 -42.5708
  688 364.673 4.87125 3.42463
  689 282.331 -7.43621 22.4164
  690 282.084 -7.44191 -22.5640
  691 377.356 -42.8931 -55.2948
  692 465.324 -30.7436 -27.2226
  693 427.144 -6.15891 -0.359085
  694 427.212 -6.21913 0.360975
  695 475.315 -30.3880 26.7819
  696 432.408 -45.1852 12.3808
  697 524.665 48.1871 40.2814
  698 474.032 -8.96169 44.0566
  699 456.159 -16.4790 26.5409
  700 437.767 36.0636 -27.2099
  701 524.203 88.0139 31.9590
  702 452.991 -6.31950 -26.1288
  703 450.711 -15.0740 13.1908
  704 467.743 73.0852 7.61556
  705 458.844 -7.87911 22.5842
  706 145.736 99.4388 126.408
  707 426.772 -49.1334 -34.9276
  708 494.079 8.93354 44.5967
  709 498.248 -15.4656 -30.8798
  710 495.546 -0.763656 1.95478
  711 455.670 -15.7830 -20.7009
  712 427.433 -49.5163 31.8752
  713 818.056 72.5059 -12.0976
  714 259.466 -1.06436 8.56890
  715 259.166 -1.07576 -8.64499
  716 461.590 -8.56787 -9.41127
  717 498.385 -0.590707 -1.91891
  718 390.702 -34.1890 20.2521
  719 467.959 -17.4980 39.8527
  720 704.600 170.878 -56.4096
  721 443.570 -32.1846 11.6424
  722 490.697 -32.3974 -14.7142
  723 450.867 -14.6792 -12.9753
  724 497.934 -0.975945 -0.576640
  725 457.527 -0.0695859 46.2862
  726 21.5732 21.7036 27.9153
  727 512.379 -19.2637 -77.7811
  728 558.579 33.5780 17.8921
  729 466.144 -47.7186 24.3038
  730 336.015 -7.93424 9.52670
  731 336.009 -8.04228 -9.56846
  732 429.236 225.030 -229.468
  733 475.491 -31.5486 -24.5853
  734 363.297 2.04750 -6.54970
  735 420.528 2.39507 29.9808
  736 459.234 -23.0652 31.8056
  737 440.170 -37.0944 4.90506
  738 456.306 -41.7185 -63.7688
  739 437.554 -34.6217 -5.78787
  740 514.991 -24.6337 -3.04146
  741 474.561 -4.06660 5.45048
  742 425.197 -25.5346 2.58326
  743 765.443 152.943 -82.2412
  744 452.728 -12.2680 10.3772
  745 449.471 7.39719 -45.2587
  746 382.056 -4.16063 132.127
  747 480.831 38.6736 45.9360
  748 413.716 -32.5051 5.81485
  749 321.263 -25.1210 -44.5523
  750 321.307 -25.0567 44.2075
  751 441.261 49.6432 -6.32394
  752 447.756 -5.20706 40.2311
  753 452.215 -10.8119 -34.0931
  754 425.671 -26.0652 -2.70727
  755 411.762 -36.8217 12.0373
  756 471.267 77.5643 -8.55432
  757 439.638 -38.0543 -3.17608
  758 440.776 -27.9371 11.4170
  759 446.060 -5.92817 1.66191
  760 446.320 -5.77561 -1.64697
  761 599.810 131.157 1.65411
  762 489.754 -41.7318 -17.0069
  763 457.036 -14.1130 20.6506
  764 474.670 -4.06099 -4.93308
  765 481.122 3.15565 -46.3898
  766 545.949 29.0442 -25.4526
  767 273.357 -0.224831 -4.02729
  768 273.535 -0.221154 3.98963
  769 4.11327 -7.74955 -5.41000
  770 466.675 -0.599859 8.48851
  771 429.657 -0.629782 -33.0762
  772 443.086 -4.15770 28.9909
  773 401.029 51.1032 192.824
  774 504.081 103.199 -1.03354
  775 359.538 -25.5314 23.9339
  776 65.7010 1.36851 -24.5024
  777 67.4587 0.998557 24.7584
  778 439.348 -3.11633 -32.7810
  779 360.467 -25.7790 -23.9354
  780 471.907 -4.45882 4.07247
  781 245.422 -10.3451 41.8629
  782 243.377 -10.3065 -41.8668
  783 452.688 -11.9189 -10.1012
  784 293.005 -7.23208 -19.5449
  785 293.151 -7.18661 19.3823
  786 471.106 -4.59038 -12.3367
  787 362.427 -9.57969 -6.75522
  788 362.443 -9.52023 6.75831
  789 514.011 -3.22015 -30.7574
  790 464.076 -4.89449 -46.2844
  791 240.365 -1.48740 -10.8851
  792 240.809 -1.47345 10.7647
  793 13.4876 5.95356 -15.1493
  794 15.5247 6.28667 15.9190
  795 379.799 1.86964 -11.8196
  796 423.489 -47.5754 -26.3917
  797 -4.77928 -3.27302 8.33794
  798 -4.22309 -3.92745 -8.33207
  799 440.541 -8.99883 3.63340
  800 477.174 -37.3359 -12.9439
  801 494.188 73.1046 -34.6263
  802 473.839 -4.02282 -3.87798
  803 996.781 202.922 -187.175
  804 440.447 -8.97318 -3.58348
  805 660.677 125.377 10.8752
  806 472.092 13.7306 -48.3383
  807 520.253 39.3445 -41.3510
  808 91.0389 -1.05994 -22.5365
  809 92.5938 -1.18815 22.4988
  810 298.077 -4.18604 11.6446
  811 297.969 -4.21983 -11.7409
  812 285.682 -0.628624 2.19247
  813 285.589 -0.635348 -2.20859
  814 526.779 88.5882 -31.6030
  815 315.294 -1.87993 -3.27261
  816 315.355 -1.85869 3.25611
  817 449.112 -4.52024 -42.0214
  818 640.791 68.2978 59.1516
  819 406.256 9.22265 -25.9493
  820 143.654 -1.26015 24.0329
  821 142.517 -1.27206 -24.2134
  822 517.189 15.2807 139.135
  823 461.164 -8.63715 9.71280
  824 415.671 27.7208 -10.8027
  825 195.278 -0.278136 16.3133
  826 194.338 -0.189206 -16.4273
  827 291.200 -1.41270 -5.73119
  828 291.309 -1.39242 5.68245
  829 52.6623 46.6752 41.1311
  830 432.482 10.3970 38.4266
  831 480.278 70.4407 -29.8383
  832 515.435 59.8669 -41.3991
  833 341.411 -12.7230 -15.1571
  834 341.225 -12.6331 15.1424
  835 534.440 113.256 14.1808
  836 459.870 -4.04776 -0.476540
  837 459.902 -4.01814 0.551561
  838 456.299 -13.7888 -26.8719
  839 383.488 -25.4016 14.3917
  840 420.977 -47.2913 26.4752
  841 492.683 -40.3602 40.9829
  842 380.411 -10.9787 -4.23861
  843 380.411 -10.9411 4.21406
  844 435.368 40.4139 17.5029
  845 409.819 5.71293 -27.9943
  846 113.738 138.401 131.529
  847 413.016 -36.5163 -11.0338
  848 414.503 -18.5148 -0.136625
  849 414.722 -18.5587 0.111283
  850 455.936 -6.75301 44.0549
  851 451.414 -29.7247 -19.1583
  852 404.072 -26.6525 -6.45961
  853 904.798 29.2805 -44.3033
  854 384.375 -36.2162 27.3532
  855 384.054 -36.6782 -27.7750
  856 455.227 -5.49666 22.1975
  857 680.631 176.703 -42.4719
  858 361.210 -32.6220 -33.7384
  859 397.956 -44.7250 32.4703
  860 361.135 -32.2366 33.4540
  861 391.211 -15.6768 -4.98852
  862 391.207 -15.6287 4.95745
  863 59.5063 24.8027 35.6723
  864 489.088 36.5321 -46.3110
  865 375.917 -14.5623 -7.49455
  866 375.989 -14.4199 7.51947
  867 371.548 -6.11803 -0.915610
  868 371.545 -6.07834 0.910256
  869 407.281 -8.17645 -0.419792
  870 407.233 -8.12608 0.416132
  871 333.490 -6.39873 -8.21612
  872 333.521 -6.32902 8.18512
  873 377.207 -19.6895 -11.1325
  874 377.260 -19.5622 11.1816
  875 9.47414 -1.88626 -5.34131
  876 565.287 106.111 22.3593
  877 486.578 -17.1471 -36.2799
  878 397.601 -44.0718 -32.7910
  879 429.065 -13.9098 3.07703
  880 428.880 -13.7727 -2.96535
  881 468.018 0.541100 47.3039
  882 506.222 -36.0883 -23.8797
  883 446.981 33.0420 -167.626
  884 207.122 -3.57751 83.4108
  885 -6.36559 4.82771 -6.14210
  886 -5.39770 5.45577 6.74177
  887 59.1682 26.3742 -36.4392
  888 456.680 -13.2652 16.0870
  889 479.352 -3.29285 -6.72982
  890 431.561 -41.6381 72.8094
  891 206.641 -3.37626 -83.7287
  892 480.903 -39.4887 8.29189
  893 533.153 -15.1349 64.3181
  894 393.012 1.62047 12.5162
  895 448.207 42.6508 29.7246
  896 244.579 -13.7123 61.1462
  897 243.652 -13.8220 -61.5321
  898 293.111 -13.7533 -34.3525
  899 305.516 -15.2042 -106.108
  900 481.821 -11.3574 41.2051
  901 658.387 156.033 27.6277
  902 484.226 18.5747 47.2273
  903 457.650 -9.86059 -24.5923
  904 311.815 -13.6194 108.728
  905 581.691 107.558 -15.3548
  906 59.3270 50.0932 -50.5087
  907 424.937 -0.819923 -13.2943
  908 293.415 -13.6430 34.0632
  909 356.315 -7.75972 5.92261
  910 356.300 -7.81010 -5.93393
  911 452.055 -29.5641 19.8361
  912 468.012 -3.20111 1.48815
  913 345.259 3.04397 -131.581
  914 492.792 -1.16672 3.17592
  915 489.469 -0.968699 -4.10915
  916 371.544 3.29622 -10.8930
  917 474.203 -1.96528 -7.49863
  918 357.212 -16.5293 -14.1665
  919 357.450 -16.2877 14.2124
  920 -11.2606 4.47375 -6.41372
  921 -15.7583 2.70010 6.87901
  922 467.989 -2.98632 -1.52671
  923 158.535 -3.64713 56.3387
  924 157.634 -3.32116 -56.6463
  925 502.022 73.0939 36.4387
  926 884.024 16.0177 13.6215
  927 473.157 52.5546 38.7515
  928 532.131 -18.4431 20.1845
  929 464.665 -25.9552 31.9110
  930 577.877 120.929 -11.7359
  931 363.983 1.65159 8.21747
  932 446.853 -10.6758 -6.02703
  933 465.532 25.0438 -46.9346
  934 558.768 17.0919 -6.00733
  935 436.096 -26.9535 -8.67902
  936 227.358 -1.21992 -12.1615
  937 227.573 -1.17640 11.9955
  938 459.714 -10.9300 -19.0030
  939 16.0747 20.1395 5.00361
  940 441.369 -45.7726 -6.42064
  941 386.375 11.6171 -1.12174
  942 574.319 125.757 -7.77646
  943 92.5040 68.6748 -82.8212
  944 443.104 -3.30758 -25.9760
  945 310.066 -5.04282 -10.9256
  946 310.131 -4.98488 10.8402
  947 2.89632 -12.3213 9.28652
  948 302.763 -22.3518 -49.2835
  949 449.752 -26.0671 -18.6579
  950 284.903 0.616071 -0.918108
  951 284.980 0.618693 0.912522
  952 455.920 55.2963 -23.7426
  953 484.781 -1.61634 -0.638174
  954 484.806 -1.63419 0.847065
  955 302.909 -22.2951 48.9665
  956 455.810 -0.677286 -10.2082
  957 522.325 3.82364 29.4316
  958 463.715 -6.72356 7.43900
  959 76.4457 18.8993 -44.6405
  960 480.254 -3.06221 6.07786
  961 438.665 3.60164 41.0413
  962 462.556 63.9705 21.1117
  963 461.926 5.35539 -47.9373
  964 320.510 -16.9667 -29.6506
  965 496.822 -17.7012 29.7132
  966 320.722 -16.9057 29.3669
  967 15.4149 16.5256 -2.34916
  968 56.7357 9.38693 32.7554
  969 263.389 -4.54120 20.2042
  970 263.078 -4.54280 -20.3103
  971 447.171 -10.8684 6.38254
  972 482.518 83.6706 11.5973
  973 246.256 22.2700 -124.895
  974 403.350 -25.0899 5.73286
  975 378.687 -39.4827 -40.6143
  976 550.239 105.263 23.9066
  977 423.883 -7.60626 0.270154
  978 423.865 -7.56722 -0.273968
  979 463.491 -8.72524 -13.4958
  980 431.423 37.3366 -16.1405
  981 953.183 286.458 192.848
  982 92.3464 4.97593 -42.6833
  983 93.6999 4.12953 42.7692
  984 6.87729 -7.17208 3.04670
  985 432.511 24.0695 33.1317
  986 378.614 -39.7280 40.3281
  987 467.918 -22.1839 -36.5818
  988 508.875 41.5678 45.2529
  989 487.459 -39.3678 -49.7877
  990 710.582 149.339 50.8209
  991 416.391 -6.84726 -0.307325
  992 416.338 -6.79374 0.307245
  993 486.095 -19.9229 34.2829
  994 34.1446 59.7257 60.1223
  995 223.117 -4.58605 28.8749
  996 222.452 -4.52676 -29.1673
  997 264.946 -12.7832 39.5712
  998 264.058 -12.5831 -39.7083
  999 297.883 -12.0999 28.5492
  1000 325.671 -2.49273 -1.46453
  1001 325.722 -2.47479 1.45902
  1002 791.671 257.300 -165.503
  1003 723.188 181.460 76.5290
  1004 297.643 -12.1583 -28.7755
  1005 500.568 -2.36747 37.9202
  1006 450.299 46.7311 -28.5824
  1007 318.222 -27.4908 88.0472
  1008 407.208 -48.1377 -48.2547
  1009 465.114 -3.89752 -14.8299
  1010 211.824 14.1990 101.917
  1011 271.688 -20.7177 70.3286
  1012 414.140 21.3725 -20.8031
  1013 470.624 -9.38404 -44.6217
  1014 588.263 250.005 260.784
  1015 392.118 12.1483 14.8572
  1016 529.468 113.513 -1.72355
  1017 387.302 15.5037 -149.340
  1018 395.943 -41.5477 -28.1276
  1019 498.666 -0.641681 -1.55614
  1020 481.954 44.2379 -44.7237
  1021 286.523 -1.76874 7.32992
  1022 286.387 -1.78652 -7.39402
  1023 10.7092 7.73009 -16.2081
  1024 320.902 -14.4476 -24.7587
  1025 271.351 -20.9825 -70.8367
  1026 320.675 -14.4193 24.5017
  1027 460.266 -14.0743 41.2792
  1028 413.320 -25.4871 -2.12187
  1029 435.202 8.07332 -39.8069
  1030 447.941 55.9198 8.34845
  1031 600.319 37.7927 25.3253
  1032 455.442 -34.6590 18.6613
  1033 290.646 -23.0697 -53.9211
  1034 431.755 15.3755 -37.3269
  1035 320.880 -27.1354 -88.4816
  1036 612.713 132.299 -3.04969
  1037 420.323 27.7144 18.9262
  1038 526.053 -2.96467 -21.8494
  1039 398.387 -41.5747 26.0307
  1040 455.913 -14.5315 31.7439
  1041 452.669 -23.9675 22.2436
  1042 450.178 -22.7133 19.1357
  1043 554.567 70.7250 -31.6409
  1044 450.368 -7.30703 32.5441
  1045 406.599 -48.2714 47.4870
  1046 433.974 -17.8099 5.67405
  1047 290.832 -23.1175 53.6401
  1048 408.136 -29.9609 -6.91084
  1049 239.355 -11.6941 -75.1967
  1050 339.380 -35.1540 59.9168
  1051 458.228 -3.17919 -17.3054
  1052 447.015 -5.06102 -37.1317
  1053 387.590 -30.4971 -17.4772
  1054 239.760 -12.0188 74.6329
  1055 418.407 1.07492 -26.0531
  1056 312.207 -20.4958 -38.2900
  1057 560.344 118.854 14.8119
  1058 127.390 20.6634 -72.0926
  1059 942.092 66.4925 89.9000
  1060 226.531 16.5089 -106.587
  1061 449.972 -37.3148 -10.7105
  1062 312.300 -20.3257 37.9934
  1063 414.193 4.48950 29.2020
  1064 235.057 -4.66414 23.9143
  1065 234.945 -4.77845 -24.1475
  1066 456.115 -12.7395 -38.3117
  1067 482.631 -2.59956 2.37161
  1068 474.562 -1.12938 7.55954
  1069 470.542 15.5820 48.2740
  1070 440.983 -3.31605 34.9579
  1071 340.479 36.5763 161.400
  1072 501.687 -0.452180 0.723390
  1073 474.369 64.1705 30.8285
  1074 403.588 5.96329 25.2064
  1075 480.149 -1.89670 7.22867
  1076 313.092 -3.24347 -6.15270
  1077 313.153 -3.20707 6.11619
  1078 200.614 -5.59920 -39.9244
  1079 201.365 -5.80163 39.6690
  1080 404.905 20.3492 10.5949
  1081 601.797 33.7412 -47.4772
  1082 553.088 0.378839 -86.5120
  1083 445.400 -0.419189 -10.6305
  1084 339.479 -35.4133 -60.3571
  1085 388.409 -29.0087 15.7375
  1086 447.862 -1.04584 11.0876
  1087 467.483 -34.0072 -22.1778
  1088 296.405 -0.619394 3.63877
  1089 296.325 -0.630789 -3.65967
  1090 449.124 -38.3827 10.6994
  1091 427.204 -8.86033 0.811411
  1092 427.131 -8.87028 -0.786263
  1093 415.880 -41.8131 17.0913
  1094 533.093 -17.0416 -8.52483
  1095 246.850 -0.419416 -6.78718
  1096 247.235 -0.404790 6.71925
  1097 364.890 -23.2662 -101.387
  1098 389.346 -9.27965 2.41466
  1099 389.379 -9.32778 -2.43291
  1100 234.738 127.630 177.397
  1101 536.653 44.2122 -36.2534
  1102 80.9947 38.9705 -55.1188
  1103 463.941 -7.08284 -7.18039
  1104 126.150 42.7452 -82.7301
  1105 261.350 -16.2827 -51.1234
  1106 501.650 -0.636578 0.478197
  1107 501.823 -0.602578 -0.346978
  1108 457.226 -26.1761 -27.1907
  1109 404.776 -45.5301 -65.7877
  1110 127.487 17.5917 68.6956
  1111 497.665 49.2136 43.2478
  1112 450.807 -4.75131 -0.594514
  1113 450.863 -4.75370 0.635163
  1114 490.866 -31.3603 79.9377
  1115 510.253 101.795 16.5138
  1116 305.875 -7.20988 -15.5761
  1117 305.956 -7.17787 15.4733
  1118 231.110 26.1589 126.124
  1119 434.096 2.26062 -38.4881
  1120 137.509 43.8995 88.8137
  1121 552.501 -9.00092 -28.8944
  1122 546.123 120.099 4.85307
  1123 376.695 -29.6200 20.9761
  1124 351.009 1.95908 -1.60333
  1125 475.417 -4.29453 9.12886
  1126 491.503 -0.694818 3.54676
  1127 111.738 0.176204 -20.1586
  1128 113.162 0.125218 20.0273
  1129 391.529 6.68050 -18.6984
  1130 401.230 -11.7944 -2.02037
  1131 401.144 -11.7435 2.01071
  1132 42.6926 70.9351 -64.0666
  1133 67.3039 151.368 -126.251
  1134 406.194 -15.8460 1.88589
  1135 406.342 -15.8397 -1.91101
  1136 419.292 -10.1810 0.786347
  1137 419.232 -10.1624 -0.753911
  1138 111.370 70.9466 89.6173
  1139 333.527 -4.02488 -3.00577
  1140 333.570 -3.99691 2.99284
  1141 418.232 31.7233 -0.431512
  1142 525.303 69.1734 -186.006
  1143 507.762 87.3668 -28.3243
  1144 462.883 -17.8329 -38.8636
  1145 455.869 -22.8129 -27.7302
  1146 376.891 -29.8908 -21.3154
  1147 381.472 1.29829 11.5418
  1148 427.216 26.7328 -27.7101
  1149 421.452 22.7706 26.4987
  1150 433.696 -17.3002 -5.56009
  1151 414.356 -24.9820 1.80584
  1152 377.550 -24.2290 -15.8956
  1153 448.659 -2.66745 20.6426
  1154 784.268 79.0470 10.9756
  1155 451.536 -9.66405 37.5793
  1156 453.666 29.7944 41.4515
  1157 417.805 -41.0429 -13.1867
  1158 53.8854 8.61523 -31.6146
  1159 425.630 -19.7167 -3.59499
  1160 286.913 -0.406960 -0.191407
  1161 286.985 -0.405172 0.189588
  1162 516.718 -13.7087 18.3553
  1163 492.314 -41.4965 20.0124
  1164 705.607 125.972 31.5166
  1165 173.375 -0.321665 -16.7282
  1166 174.355 -0.284921 16.6084
  1167 381.250 -7.69852 -1.91676
  1168 381.234 -7.65303 1.90430
  1169 426.875 -37.6171 -2.66202
  1170 354.042 1.66404 5.25604
  1171 437.043 -31.1259 8.07429
  1172 25.4685 30.2516 -15.4616
  1173 80.1099 39.5292 53.8709
  1174 293.621 -16.1372 97.9568
  1175 506.022 96.1117 -20.2409
  1176 481.845 -1.37858 -5.71598
  1177 503.711 -0.851837 0.301621
  1178 504.168 -1.14266 -0.179918
  1179 298.012 -0.648823 -0.611883
  1180 298.082 -0.643547 0.607747
  1181 466.448 29.8020 46.9236
  1182 685.878 116.686 -2.48983
  1183 480.856 79.3279 -20.8090
  1184 359.098 -26.5581 100.746
  1185 292.066 -15.5358 -97.7640
  1186 325.409 -21.5765 -34.4182
  1187 447.476 -12.6315 8.25282
  1188 622.847 137.619 7.84897
  1189 325.446 -21.4526 34.1610
  1190 456.866 -8.14538 6.24249
  1191 410.774 15.3809 25.3114
  1192 451.160 14.0051 45.1841
  1193 639.279 142.624 17.1936
  1194 381.940 -9.93092 3.55237
  1195 381.957 -9.97588 -3.57480
  1196 462.941 -8.83295 14.0275
  1197 278.381 -2.89381 11.4490
  1198 278.188 -2.92261 -11.5469
  1199 452.695 -6.33050 -2.66865
  1200 187.319 112.057 -171.897
  1201 392.093 -22.1798 -107.905
  1202 371.742 -11.5664 -6.38080
  1203 371.782 -11.5168 6.38329
  1204 484.486 -2.41933 2.17505
  1205 459.448 -6.18875 4.97704
  1206 25.7879 32.9189 24.4956
  1207 498.522 -0.612919 1.82540
  1208 60.4404 77.3939 76.7717
  1209 449.004 -6.87323 -3.45736
  1210 -0.471288 -10.8844 -9.55719
  1211 319.038 -31.1548 -75.9112
  1212 318.191 -30.4039 75.1683
  1213 498.501 -0.926320 -2.02915
  1214 428.284 -22.6079 -4.38461
  1215 484.180 -2.22192 -2.20395
  1216 390.066 -12.5846 -3.55901
  1217 390.031 -12.5419 3.52450
  1218 452.410 -6.28857 2.49642
  1219 425.328 -19.3273 3.55762
  1220 409.599 -13.2031 0.667869
  1221 409.739 -13.2355 -0.621353
  1222 483.731 -2.28882 -1.79178
  1223 418.547 -44.1668 -74.0802
  1224 473.641 -3.09923 -1.80457
  1225 450.876 -7.05817 3.74806
  1226 318.005 -3.38378 -4.59034
  1227 318.062 -3.35125 4.56566
  1228 353.917 -5.14194 -2.41792
  1229 353.938 -5.10810 2.40698
  1230 568.676 88.9183 26.0591
  1231 478.226 -36.8466 15.8555
  1232 328.774 -1.64890 124.328
  1233 267.179 -0.416145 4.39881
  1234 266.958 -0.420783 -4.44022
  1235 454.116 -8.44050 28.1381
  1236 434.251 -6.71999 0.598888
  1237 434.266 -6.69859 -0.598578
  1238 498.124 96.6524 9.49270
  1239 454.407 -47.6448 59.1535
  1240 267.144 -3.68667 16.0112
  1241 266.886 -3.71354 -16.1223
  1242 433.698 -10.6919 2.77846
  1243 433.601 -10.7672 -2.68387
  1244 447.230 -12.4836 -7.93430
  1245 413.434 0.0993933 13.4782
  1246 707.198 175.886 -60.0563
  1247 455.747 -16.7621 -24.5364
  1248 79.8999 18.6672 45.8605
  1249 470.617 -25.1614 33.9037
  1250 381.359 8.47670 -10.2356
  1251 29.9994 21.5340 17.0830
  1252 616.965 69.9359 -8.83304
  1253 459.874 -20.9761 -34.5077
  1254 383.119 5.56284 15.6869
  1255 263.151 -16.3133 51.0516
  1256 466.750 -36.2048 19.5932
  1257 673.699 131.173 44.5086
  1258 158.692 23.1240 87.2634
  1259 468.788 -5.70831 -12.1049
  1260 891.015 10.0269 -8.88922
  1261 919.886 13.7645 39.5002
  1262 981.092 33.0832 -94.0952
  1263 455.372 -14.2879 -30.8241
  1264 455.174 -20.8510 25.9400
  1265 462.248 -32.9725 23.7562
  1266 -13.5490 1.62722 8.53926
  1267 -12.3083 1.32169 -9.32111
  1268 449.587 -49.7608 -28.4207
  1269 460.228 -46.6132 -41.9339
  1270 356.488 2.32965 -6.48382
  1271 447.640 -50.6363 41.7644
  1272 478.581 -22.7707 -34.3489
  1273 10.0521 14.5622 2.22992
  1274 390.446 -7.15371 1.26992
  1275 390.473 -7.20232 -1.27326
  1276 475.017 -3.94063 8.17806
  1277 456.821 -8.00451 -5.84717
  1278 430.739 -47.0152 -15.6334
  1279 394.405 -21.2526 7.16132
  1280 392.455 -20.9496 -7.70471
  1281 461.512 -9.86073 19.4889
  1282 473.047 -17.4449 -39.8951
  1283 31.1151 22.4506 -16.6275
</Section>

newXOutput 63

<Section columns = "stress_xx | stress_yy | stress_xy">
  1 514.411 -0.168408 0.966512
  2 514.416 -0.158780 -0.969043
  3 287.116 -0.0806096 -0.348947
  4 -3.60743 -3.56314 -5.18779
  5 912.604 371.403 294.676
  6 904.249 384.539 -293.407
  7 -4.19148 -3.38134 5.52617
  8 287.044 -0.0816086 0.348072
  9 517.881 -0.888634 0.283791
  10 516.871 -1.39353 -0.281778
  11 515.828 -0.955332 1.08724
  12 514.766 -1.29285 0.257977
  13 512.469 -1.09767 1.71067
  14 510.369 -1.10426 1.21956
  15 505.308 -0.973668 2.47063
  16 497.955 -0.714427 3.65245
  17 491.425 -0.739117 4.09340
  18 481.637 -0.996082 4.97849
  19 467.938 -0.110317 7.39955
  20 455.287 -0.732758 7.06740
  21 440.732 -0.929986 10.0018
  22 419.725 0.653554 8.73578
  23 404.402 1.01953 10.3564
  24 384.402 1.69809 8.12996
  25 370.512 1.82986 8.20907
  26 350.397 2.51893 4.19329
  27 346.135 3.95877 4.50427
  28 343.559 3.27007 -1.33369
  29 347.054 1.93717 -2.91660
  30 353.500 1.85191 -3.58104
  31 368.574 2.31308 -7.13885
  32 383.218 1.82830 -9.00670
  33 404.604 0.437281 -10.6638
  34 421.697 -0.206598 -9.67189
  35 439.830 -0.736826 -9.46468
  36 456.204 -0.574961 -6.65956
  37 470.191 -0.613015 -5.66866
  38 481.657 -0.977528 -4.73178
  39 491.869 -0.713149 -3.26165
  40 498.171 -0.862212 -3.44499
  41 504.263 -1.03571 -2.51048
  42 509.961 -1.21839 -1.05562
  43 512.862 -0.988452 -1.27234
  44 514.319 -0.633038 -0.775628
  45 513.043 -0.388147 -0.709274
  46 517.361 -1.39629 0.198541
  47 518.022 -0.921878 -0.292426
  48 501.825 -0.516224 -0.598820
  49 491.062 -2.25913 -1.11002
  50 477.844 -3.28040 -0.679738
  51 461.680 -4.77151 -0.943561
  52 446.295 -5.19222 -1.14846
  53 429.830 -6.40366 -1.10025
  54 415.218 -7.06687 -0.575354
  55 402.398 -7.82950 -0.170116
  56 387.590 -6.47710 -0.156749
  57 370.520 -6.01404 -0.322771
  58 354.078 -4.71082 -0.0469369
  59 338.513 -2.96753 0.0127851
  60 323.737 -2.08823 0.0706231
  61 310.802 -1.03629 0.173508
  62 297.610 -0.251909 -0.395990
  63 287.248 0.408516 0.544845
  64 282.564 1.09282 0.382661
  65 285.626 0.0249711 0.877085
  66 281.953 -0.128062 1.06470
  67 278.491 -0.200113 1.32524
  68 273.823 -0.00620928 1.71217
  69 267.942 -0.00169092 2.14607
  70 263.489 -0.311803 4.09031
  71 251.157 0.365728 4.45735
  72 242.410 -0.0126227 5.07770
  73 229.387 -0.210337 5.76707
  74 214.417 -0.363229 7.01185
  75 195.693 -0.0726198 8.51473
  76 172.870 0.113630 9.40332
  77 153.017 -0.181471 13.4461
  78 114.044 1.23261 12.7224
  79 87.3221 1.06144 13.4799
  80 55.1426 -0.262019 14.9983
  81 28.2626 2.43616 15.6611
  82 -2.41846 3.67665 9.53227
  83 -24.9196 3.74369 3.53749
  84 -24.7042 3.64883 -1.08824
  85 -24.0095 3.04914 -7.15123
  86 -14.1697 -0.915639 -6.86173
  87 -1.69221 -13.6016 -7.58881
  88 1.41120 -24.9563 -9.40883
  89 3.81672 -38.9595 -4.97199
  90 8.41392 -38.9167 0.996948
  91 17.7109 -6.20096 24.0629
  92 52.3180 85.6270 79.7784
  93 301.445 291.575 264.472
  94 1106.44 166.185 184.140
  95 998.994 23.7286 59.6848
  96 930.596 9.90170 18.2647
  97 905.376 8.44155 1.39210
  98 918.854 11.1924 -15.8653
  99 996.994 22.1736 -47.2586
  100 1170.11 80.1483 -157.984
  101 179.590 299.387 -221.776
  102 39.1541 63.0468 -66.3801
  103 19.3669 -4.25614 -25.6261
  104 7.88486 -38.7632 -4.85378
  105 2.29847 -29.5033 5.68016
  106 2.84215 -31.4930 8.13322
  107 0.159260 -11.7267 8.40884
  108 -14.7991 -0.567014 6.49565
  109 -24.7688 2.28932 6.22483
  110 -26.0270 4.43034 1.22468
  111 -25.7108 3.68001 -3.29769
  112 -4.23130 3.76781 -8.94505
  113 26.6749 2.45701 -14.9402
  114 53.5244 -0.000962592 -14.7528
  115 85.6490 1.14714 -13.5064
  116 112.524 1.26434 -12.8167
  117 151.838 -0.187032 -13.5556
  118 171.863 0.125718 -9.49170
  119 194.812 -0.0694594 -8.61900
  120 213.968 -0.403733 -7.06165
  121 228.777 -0.198826 -5.78079
  122 241.945 0.00319123 -5.12860
  123 250.775 0.361455 -4.50438
  124 263.213 -0.314982 -4.13014
  125 267.718 -0.00375314 -2.17047
  126 273.651 -0.00818294 -1.73220
  127 278.358 -0.203388 -1.34109
  128 281.849 -0.130868 -1.07574
  129 285.538 0.0225826 -0.884116
  130 282.485 1.09166 -0.385908
  131 287.174 0.407924 -0.546888
  132 297.538 -0.254623 0.394957
  133 310.734 -1.04310 -0.175994
  134 323.678 -2.10314 -0.0735217
  135 338.468 -2.98824 -0.0155684
  136 354.051 -4.74069 0.0441701
  137 370.513 -6.05186 0.320584
  138 387.606 -6.52095 0.154478
  139 402.431 -7.87882 0.169069
  140 415.264 -7.11613 0.576973
  141 429.898 -6.44849 1.10531
  142 446.354 -5.22302 1.16664
  143 461.726 -4.79908 1.03125
  144 477.932 -3.11110 0.694762
  145 491.405 -2.20330 1.08533
  146 501.917 -0.594338 0.589510
  147 451.221 -42.4094 -1.34746
  148 450.831 -41.8355 1.50644
  149 475.021 68.1491 -22.4159
  150 504.671 29.7170 46.9872
  151 382.470 -36.9405 -85.2797
  152 385.600 -36.8816 82.5881
  153 373.361 -15.7021 10.6889
  154 373.387 -15.9162 -10.6947
  155 534.038 19.3244 -34.9142
  156 450.036 -16.2922 8.92577
  157 449.842 -15.9067 -8.81731
  158 581.644 129.201 5.15648
  159 461.572 -0.733500 -46.3628
  160 342.950 -26.7773 -38.3596
  161 342.973 -26.5589 38.0367
  162 462.136 -10.5053 41.6499
  163 440.484 32.2138 27.8664
  164 182.968 29.0120 -101.849
  165 202.547 27.5170 107.267
  166 562.500 6.80331 1.74919
  167 462.874 -17.8352 -28.5340
  168 611.491 134.259 -0.335056
  169 417.492 -11.8243 -0.543698
  170 417.407 -11.7910 0.577548
  171 467.261 -5.84677 -3.85984
  172 468.673 -5.27582 3.32195
  173 330.603 -4.63031 -6.20629
  174 330.649 -4.58334 6.17681
  175 500.021 -12.6995 108.460
  176 426.783 17.8215 -30.0409
  177 279.926 -20.8712 -61.1306
  178 280.753 -20.7208 60.7496
  179 314.892 -10.1540 -20.1080
  180 314.926 -10.0397 19.9674
  181 465.033 -12.3105 24.2675
  182 423.183 -28.9935 -2.18715
  183 421.732 -28.7780 2.83764
  184 479.595 -46.5047 -10.0445
  185 482.141 -44.3057 4.11037
  186 661.461 155.885 -25.1771
  187 484.209 77.5754 20.9267
  188 484.306 29.7385 -47.5632
  189 498.000 -3.56226 -125.683
  190 479.758 -27.1850 -32.3836
  191 483.924 -19.4399 38.4729
  192 404.059 -45.8420 42.3996
  193 404.128 -45.5119 -42.2782
  194 433.660 5.58765 36.0217
  195 200.039 -5.01356 -74.8940
  196 200.512 -5.42406 74.4522
  197 744.042 111.137 16.2281
  198 454.660 -27.1401 17.1396
  199 471.120 -8.78657 -15.6499
  200 375.679 -9.11967 -4.96496
  201 375.689 -9.07576 4.95077
  202 453.572 -5.91681 -32.1754
  203 515.776 75.6337 -37.6821
  204 433.526 39.0253 -5.57661
  205 284.022 -9.89226 28.1142
  206 283.598 -9.92138 -28.3130
  207 477.613 -5.46479 8.40136
  208 466.883 8.78409 47.7220
  209 380.315 -27.5199 -19.0068
  210 377.838 -26.0523 19.4036
  211 548.880 81.4523 33.7729
  212 642.159 89.6976 18.1597
  213 45.1263 34.8440 -29.4929
  214 41.7743 32.2088 25.1175
  215 266.395 76.7207 178.248
  216 450.148 -29.9460 -12.7811
  217 479.244 -5.24620 -7.58263
  218 428.923 3.84827 -33.1844
  219 303.250 -2.91897 -8.94264
  220 303.350 -2.88648 8.86925
  221 406.048 -18.9906 -4.55231
  222 406.238 -19.1121 4.32461
  223 457.282 -6.19682 27.3106
  224 523.825 -30.2590 14.1451
  225 522.953 106.486 -10.8268
  226 410.108 -39.5111 -20.6125
  227 516.831 -9.02226 29.0129
  228 441.235 -7.56067 1.25127
  229 441.237 -7.50113 -1.24971
  230 407.180 -39.3257 21.3457
  231 465.633 -29.6176 26.1798
  232 649.772 86.1303 -44.8750
  233 146.572 87.1858 -130.158
  234 397.680 14.1127 7.20616
  235 468.933 41.3276 40.2646
  236 498.021 -3.53477 -41.7202
  237 465.890 -16.8282 -38.7475
  238 251.679 -7.97042 -35.0984
  239 252.524 -7.85201 34.9970
  240 466.502 -5.71346 -20.9728
  241 444.409 -11.3749 4.49776
  242 444.202 -11.3631 -4.32981
  243 95.9134 8.57201 -48.2171
  244 97.3663 7.51088 48.0478
  245 493.582 -43.2496 -40.1842
  246 488.054 -1.92390 1.07803
  247 488.543 -1.95871 -1.19630
  248 458.282 38.0164 -36.9348
  249 405.245 7.92823 21.7968
  250 832.342 133.258 89.6430
  251 825.159 93.9448 -55.8738
  252 603.431 129.539 -0.0904438
  253 376.944 -18.2896 113.099
  254 346.355 -12.0242 -118.195
  255 398.231 -8.18413 -1.86480
  256 398.197 -8.13445 1.85281
  257 332.538 -8.74913 12.4434
  258 332.530 -8.86744 -12.5465
  259 477.349 -5.27901 12.7471
  260 463.719 -33.0846 -21.1983
  261 305.122 -0.514164 -2.11469
  262 305.195 -0.504900 2.10259
  263 457.925 -18.6426 -16.9952
  264 197.667 -6.40230 -48.7731
  265 198.486 -6.42213 48.4366
  266 463.809 -20.1853 30.7769
  267 355.100 -37.6878 68.6452
  268 355.964 -38.3607 -68.4330
  269 403.275 15.5954 -10.1462
  270 348.067 -5.23888 -4.19058
  271 348.101 -5.20460 4.17567
  272 436.577 -1.05090 26.5114
  273 520.114 94.9547 26.0624
  274 282.421 -3.34400 15.0260
  275 282.209 -3.37128 -15.1472
  276 475.820 -39.8331 14.0684
  277 440.461 -49.5142 -46.8121
  278 490.005 -2.53456 3.84290
  279 343.949 -20.1611 -26.3218
  280 343.381 -19.9398 26.2288
  281 598.856 66.1673 158.621
  282 287.700 -23.2713 81.6663
  283 462.831 64.9171 -2.37391
  284 580.967 64.8370 -20.5038
  285 439.922 -34.0122 4.10002
  286 440.859 -50.8580 42.3430
  287 288.536 -22.9006 -82.5552
  288 54.2318 67.0050 61.4945
  289 458.004 -18.7033 17.3162
  290 598.123 78.9399 15.1509
  291 493.689 -2.26560 -3.33292
  292 450.517 15.8299 -42.5250
  293 443.265 -25.1011 8.69141
  294 434.137 -36.6102 2.58696
  295 448.979 20.6601 41.0072
  296 473.593 -39.8345 -12.3896
  297 668.977 129.562 -12.0675
  298 443.147 -24.1329 -8.30140
  299 363.895 106.472 -217.243
  300 452.621 -48.0221 -10.5551
  301 449.469 -49.3383 15.6651
  302 332.341 -29.9234 -53.8884
  303 302.310 -1.08923 -4.58073
  304 302.398 -1.07016 4.54714
  305 332.497 -29.9512 53.6076
  306 479.416 -0.831593 -47.6543
  307 515.846 -21.3743 -18.4078
  308 395.162 -23.6668 -10.4723
  309 394.927 -23.7222 10.6564
  310 469.505 -40.4191 74.1276
  311 470.224 -3.85085 15.8684
  312 568.093 3.46263 28.3428
  313 387.493 -13.5922 -5.84929
  314 387.522 -13.5502 5.81984
  315 354.050 -9.08334 -8.31920
  316 354.057 -9.00078 8.30850
  317 401.219 5.49947 -21.0739
  318 510.682 37.4411 -45.4512
  319 783.161 212.088 -102.403
  320 464.445 -4.30679 -1.25679
  321 464.195 -4.25106 1.29519
  322 251.142 -0.740934 101.921
  323 352.037 -15.7746 -17.5900
  324 351.400 -15.7263 17.6367
  325 251.092 -1.33973 -101.531
  326 487.821 57.5088 -39.0307
  327 543.552 27.0820 32.9296
  328 469.344 -33.4758 -82.1182
  329 433.494 -16.7909 3.40837
  330 433.064 -16.6742 -3.22653
  331 461.773 -9.75354 -8.03243
  332 436.862 -0.799072 -24.7852
  333 488.026 2.02965 46.5124
  334 485.635 -3.53852 -8.74479
  335 295.742 -17.7420 41.0320
  336 295.418 -17.8376 -41.3330
  337 455.048 -1.01013 44.0854
  338 284.342 -2.23003 -8.95168
  339 284.523 -2.20940 8.87504
  340 465.279 -10.8558 12.8627
  341 558.498 113.781 -18.4957
  342 461.569 -9.82098 8.34868
  343 493.187 61.8177 39.1157
  344 471.586 -8.82656 45.3875
  345 375.276 -6.97669 1.86131
  346 375.275 -7.01748 -1.87235
  347 447.334 -1.57009 -39.1517
  348 589.442 123.709 10.8471
  349 492.159 89.9189 0.812544
  350 301.103 34.8829 -151.004
  351 32.5740 13.6909 -21.4428
  352 35.5639 14.8238 23.0012
  353 -1.11745 3.71025 8.70558
  354 0.650400 2.22836 -9.12714
  355 850.965 59.0718 20.0888
  356 407.539 -32.9615 -12.5093
  357 465.608 -10.5013 -12.5433
  358 421.193 -7.52456 0.344808
  359 421.145 -7.46734 -0.347935
  360 451.995 49.9334 -20.0156
  361 385.154 -39.1021 34.9208
  362 34.5966 51.7138 -38.5912
  363 385.486 -39.0848 -35.5248
  364 457.749 52.0557 21.2952
  365 464.968 -12.5217 -23.0702
  366 492.561 -27.5806 -27.0872
  367 526.455 110.648 7.44283
  368 493.572 -30.9349 21.9345
  369 208.555 -5.08738 32.6307
  370 207.360 -4.98809 -32.8272
  371 118.913 2.77549 -45.6166
  372 120.096 2.31872 45.4184
  373 407.295 1.47722 21.2867
  374 760.129 224.035 89.9140
  375 480.088 -3.17337 -11.2524
  376 375.744 -31.5246 -26.8429
  377 375.459 -31.4525 26.8086
  378 462.555 -10.7587 -29.5238
  379 524.516 -25.3483 1.12372
  380 407.525 -32.9352 12.8578
  381 573.815 5.00268 -50.0384
  382 330.429 -2.56455 -1.67276
  383 330.482 -2.54316 1.66236
  384 455.546 -2.69454 -18.9962
  385 249.310 -3.49813 -21.2584
  386 249.457 -3.61297 21.0092
  387 542.473 69.3878 -37.7724
  388 294.276 20.6681 140.461
  389 425.856 -22.3384 0.906516
  390 426.268 -22.3021 -0.923956
  391 500.778 84.4995 -24.6344
  392 473.251 -14.0943 -42.8511
  393 473.082 -48.4418 41.4136
  394 396.871 -10.5236 -2.94966
  395 396.830 -10.4765 2.92487
  396 456.357 -35.2563 13.6881
  397 490.034 -2.47034 6.46792
  398 309.925 -11.0938 -25.0846
  399 310.051 -11.0971 24.8829
  400 464.648 15.6242 -47.1177
  401 437.679 -9.65599 1.85495
  402 437.657 -9.68060 -1.80122
  403 453.698 -5.38533 35.8341
  404 424.789 31.0836 9.66911
  405 469.388 -19.9151 37.1963
  406 675.355 140.906 26.4881
  407 229.690 -12.3269 -65.4657
  408 230.313 -12.3284 64.9877
  409 103.143 54.7605 -79.1541
  410 500.221 -1.64490 1.71071
  411 259.960 -2.10483 -13.4680
  412 260.293 -2.06030 13.3587
  413 462.876 -12.1688 28.8612
  414 420.043 -45.5332 23.7157
  415 472.807 -6.10111 5.66891
  416 483.439 24.5163 48.9240
  417 107.937 58.3076 82.3698
  418 420.649 -45.2653 -21.9272
  419 434.512 -40.3463 -5.62381
  420 145.440 -2.90504 -41.2149
  421 146.470 -3.00925 40.9416
  422 334.423 -26.9627 -98.4714
  423 498.025 -7.52244 40.6232
  424 333.231 -27.3425 97.6341
  425 460.543 -25.9464 -23.5553
  426 430.482 29.1757 -21.1217
  427 460.596 -20.0193 22.4684
  428 493.663 -2.38131 -4.28613
  429 15.6498 17.0849 8.20733
  430 101.723 118.565 116.478
  431 444.880 -1.62385 18.3949
  432 376.626 5.31413 9.26711
  433 382.829 6.43883 -12.5510
  434 326.631 -5.24400 -8.78264
  435 326.670 -5.17823 8.73017
  436 454.071 -35.2298 -12.4107
  437 459.541 -9.05419 -40.0170
  438 378.532 7.27954 -3.40783
  439 674.795 161.031 35.8090
  440 95.9900 31.2957 -59.4174
  441 105.601 28.7127 63.3499
  442 425.461 -15.2108 1.05304
  443 425.305 -15.1798 -0.945149
  444 566.608 124.473 -1.40016
  445 350.497 149.368 222.069
  446 542.750 -7.36403 -4.76216
  447 316.142 -16.2640 -34.0254
  448 316.295 -16.1565 33.7525
  449 318.848 -6.94396 13.5736
  450 318.783 -6.99310 -13.6877
  451 427.849 9.62809 -34.2108
  452 502.638 -0.873823 -1.11762
  453 416.560 19.2807 19.2751
  454 522.471 64.4509 41.5221
  455 435.427 -32.3019 -2.59488
  456 472.596 -5.82276 -5.51614
  457 495.609 -2.17273 3.94559
  458 501.158 -0.942002 0.636694
  459 501.530 -1.04344 -0.454420
  460 282.962 -0.459994 3.33753
  461 282.819 -0.467104 -3.36959
  462 475.608 -30.3367 28.4879
  463 431.866 17.1578 33.1403
  464 450.317 1.86090 -43.0642
  465 468.390 -10.0462 16.9791
  466 667.552 117.140 -134.978
  467 469.825 -26.1709 -32.2439
  468 5.59842 9.07137 4.31836
  469 5.51406 9.25989 -1.98944
  470 374.235 -20.9948 15.4032
  471 373.024 -20.7044 -15.2026
  472 579.529 12.2899 73.7448
  473 163.450 151.756 -169.507
  474 464.184 -1.48082 14.1793
  475 522.926 -30.2807 -42.8717
  476 283.260 -16.1128 47.4239
  477 562.541 99.8564 -26.6416
  478 463.114 -25.1720 26.8820
  479 390.434 -18.5216 -8.02179
  480 390.774 -18.2205 8.00346
  481 407.200 2.23646 -18.7848
  482 282.393 -16.0450 -47.6981
  483 417.033 0.262360 18.8488
  484 397.109 -45.4760 -61.6824
  485 396.131 -45.5452 61.9315
  486 477.539 -3.28082 12.4416
  487 436.939 41.2848 3.99338
  488 438.884 8.17556 152.605
  489 646.914 130.952 -0.817057
  490 447.885 -7.75501 2.36431
  491 447.905 -7.72818 -2.46464
  492 347.792 -6.03587 -5.66983
  493 347.821 -5.98759 5.65114
  494 184.461 8.18819 85.9519
  495 465.272 -22.5131 -31.6858
  496 422.499 -9.29456 -0.0736331
  497 422.456 -9.26485 0.0809315
  498 368.738 -38.9239 50.4526
  499 187.953 10.8616 -88.0987
  500 465.548 -38.0284 -14.2692
  501 8.46979 2.63010 2.86908
  502 410.598 21.3922 1.42103
  503 449.389 -5.43355 -0.757687
  504 449.383 -5.50297 0.736229
  505 368.927 -38.8499 -50.8323
  506 523.394 -26.6545 54.0125
  507 520.701 18.9168 41.9357
  508 479.709 -3.49629 -2.67295
  509 464.131 -38.5554 14.5111
  510 296.299 -0.231746 -0.617394
  511 296.374 -0.229249 0.612892
  512 463.994 -17.9075 -34.0253
  513 451.082 33.4185 36.1589
  514 514.421 12.7221 -41.4608
  515 294.493 -0.414616 -1.88274
  516 294.578 -0.408558 1.87099
  517 886.535 128.153 -114.180
  518 469.006 55.7839 31.7463
  519 480.100 -3.24879 2.37125
  520 435.449 -41.2426 6.68240
  521 368.263 -12.0322 8.60164
  522 368.254 -12.1203 -8.58411
  523 505.173 -30.8755 10.8929
  524 486.651 -9.81757 -43.1111
  525 544.435 106.923 22.8058
  526 454.183 7.85520 44.6813
  527 456.104 -8.97924 4.91261
  528 442.886 -47.4097 -59.7706
  529 460.774 -11.4935 33.7321
  530 875.381 40.2771 -15.9521
  531 501.352 -37.8903 1.66367
  532 476.738 -3.40825 -0.584597
  533 476.854 -3.60898 0.496173
  534 884.511 59.3155 55.7299
  535 443.231 -0.102498 38.0053
  536 615.386 104.498 -6.58831
  537 464.337 -12.7976 -16.3848
  538 214.908 -1.95108 -14.5269
  539 215.539 -1.85652 14.3850
  540 316.592 -29.5826 -68.4827
  541 316.862 -29.0887 67.9905
  542 455.849 -8.62121 -4.87648
  543 496.689 18.2057 -47.3906
  544 436.694 -29.7051 4.27464
  545 471.017 53.9690 -32.8974
  546 472.613 -5.64594 16.7342
  547 589.087 30.4710 -10.1703
  548 405.812 -13.8813 -2.80574
  549 405.696 -13.8382 2.77845
  550 439.697 -20.8051 6.27386
  551 644.046 128.982 -13.4573
  552 464.227 20.3214 46.3830
  553 199.534 51.2030 126.761
  554 445.682 -26.6907 102.739
  555 584.980 30.3785 -113.701
  556 474.530 39.2359 -43.0752
  557 419.150 -36.3726 -89.2002
  558 454.230 -49.8641 -19.2744
  559 473.722 -48.0994 -27.4944
  560 63.3744 83.2410 -78.7923
  561 476.343 -6.24036 -10.0358
  562 713.590 138.525 -41.6233
  563 441.980 -19.9823 -7.17262
  564 445.454 -14.6228 5.93345
  565 445.046 -14.2991 -5.66510
  566 311.878 -1.69671 -4.18166
  567 311.950 -1.67488 4.15646
  568 46.4102 4.53918 -25.3882
  569 48.7802 4.76513 25.9609
  570 232.498 -10.6762 -49.8758
  571 234.215 -10.7365 49.8148
  572 451.612 -24.5551 -14.4204
  573 459.407 -50.0710 20.7349
  574 472.183 -44.9417 0.728174
  575 389.581 -6.88374 -1.59816
  576 389.562 -6.83763 1.59054
  577 368.582 -38.7481 -76.3014
  578 411.278 -33.8669 94.2609
  579 359.870 -36.4561 76.7025
  580 465.134 -10.3840 -42.9443
  581 295.555 -4.77264 15.1520
  582 295.410 -4.82133 -15.2690
  583 445.025 24.6914 -36.3511
  584 445.163 -0.785778 -16.6912
  585 554.303 119.753 -10.1054
  586 364.636 -5.43944 -1.52447
  587 364.650 -5.40535 1.51790
  588 472.790 -1.44832 -9.29419
  589 329.916 -10.9404 -16.9418
  590 329.933 -10.9052 16.8041
  591 268.195 12.1021 121.028
  592 460.158 -21.2755 -22.6936
  593 259.092 -13.8463 87.0520
  594 452.222 -23.5140 14.7784
  595 475.172 -6.90376 11.1207
  596 468.902 -4.54125 -2.32916
  597 334.067 -4.01523 -3.94156
  598 334.114 -3.98342 3.92332
  599 531.909 105.834 -20.6903
  600 258.902 -13.3464 -87.3587
  601 450.694 -19.6205 -11.6929
  602 407.700 -7.63272 -0.863012
  603 407.659 -7.57990 0.859731
  604 756.850 101.615 -18.1793
  605 274.716 -1.69550 8.32721
  606 274.485 -1.71171 -8.40012
  607 422.997 9.81669 31.2474
  608 597.188 51.0681 -3.40019
  609 285.514 1.68061 -120.064
  610 148.451 3.52980 -65.8635
  611 149.634 2.71402 65.5179
  612 358.913 -20.7306 21.1727
  613 362.536 -21.3420 -20.6140
  614 605.410 122.240 7.90156
  615 467.059 -4.69788 2.07909
  616 405.473 11.5782 -18.9118
  617 502.110 89.9494 19.4942
  618 500.415 93.3240 -12.9698
  619 411.189 -22.7185 -4.47525
  620 414.240 -22.2203 3.02614
  621 294.115 64.4686 -171.991
  622 355.297 -11.9850 -11.8744
  623 355.332 -11.8517 11.8383
  624 882.510 180.859 136.314
  625 464.332 -15.2934 36.8478
  626 269.043 -9.34386 -31.9397
  627 711.528 170.551 116.363
  628 269.652 -9.29458 31.8285
  629 441.894 -16.7436 -119.619
  630 317.424 -1.47277 -1.53917
  631 317.488 -1.46014 1.53210
  632 391.650 3.61509 16.5079
  633 180.560 -2.62662 -28.6414
  634 181.505 -2.63369 28.4277
  635 405.985 -28.6234 9.80077
  636 425.189 -33.9895 -3.86581
  637 498.397 -1.17876 -3.65699
  638 287.544 -0.425962 2.48557
  639 287.431 -0.433799 -2.50904
  640 383.950 -8.61921 -2.54654
  641 383.939 -8.57399 2.53012
  642 437.740 -48.6895 60.3351
  643 504.029 56.2424 -42.9531
  644 338.031 -15.5548 -21.8101
  645 337.805 -15.2957 21.6609
  646 398.673 -28.5384 -13.1234
  647 624.531 135.554 5.42080
  648 469.458 -45.5153 1.80811
  649 409.194 -9.84540 -1.47508
  650 409.136 -9.80072 1.47430
  651 559.842 61.5549 30.9616
  652 470.731 -6.94070 -18.1814
  653 419.336 -0.460501 -15.3375
  654 196.099 -6.71248 -62.8333
  655 196.672 -6.89202 62.3415
  656 397.511 -34.1562 -20.5290
  657 594.056 130.139 0.0954813
  658 462.914 62.6146 -14.3008
  659 310.170 -2.72000 -7.63768
  660 310.247 -2.68263 7.58151
  661 430.474 -12.2704 -1.26465
  662 430.557 -12.2799 1.35113
  663 793.361 103.390 45.6802
  664 505.125 -1.48047 0.942812
  665 489.633 -2.04152 6.36339
  666 487.872 -2.06148 -7.51675
  667 463.927 -43.2631 4.99288
  668 345.077 -3.92427 -1.96839
  669 345.114 -3.89756 1.96045
  670 497.113 79.4721 30.1074
  671 634.680 140.752 -10.1725
  672 350.559 -25.8278 -30.8916
  673 350.476 -25.5811 30.7468
  674 435.858 -44.8866 -10.8835
  675 461.017 27.4347 -43.6997
  676 543.590 1.57966 16.3219
  677 364.780 -6.70529 -4.01717
  678 364.796 -6.66458 4.00255
  679 315.518 -27.5629 -61.8208
  680 459.600 -44.5098 -0.810165
  681 383.083 -42.4635 55.6152
  682 184.498 57.9620 -122.394
  683 358.669 -33.0723 42.9125
  684 432.806 0.122729 14.1218
  685 315.820 -27.2545 61.4236
  686 450.440 -19.9905 11.8372
  687 358.764 -32.9284 -43.2845
  688 370.596 4.95810 3.47226
  689 286.937 -7.54556 22.7809
  690 286.686 -7.55119 -22.9302
  691 383.250 -43.5617 -56.2220
  692 472.524 -31.2246 -27.5157
  693 433.778 -6.26433 -0.354826
  694 433.847 -6.32534 0.356712
  695 482.655 -30.8638 27.0591
  696 439.114 -45.8853 12.6717
  697 532.758 48.9352 40.7418
  698 481.383 -9.10502 44.6036
  699 463.234 -16.7413 26.8536
  700 444.674 36.6375 -27.5761
  701 532.336 89.3698 32.3297
  702 460.046 -6.42109 -26.4585
  703 457.687 -15.3155 13.3191
  704 475.090 74.2232 7.71540
  705 465.964 -8.00732 22.8593
  706 148.067 101.051 128.488
  707 433.378 -49.8967 -35.5638
  708 501.723 9.06958 45.1390
  709 505.921 -15.7062 -31.2057
  710 503.082 -0.781667 1.97231
  711 462.728 -16.0353 -20.9333
  712 434.051 -50.2854 32.4640
  713 830.190 73.5858 -12.2750
  714 263.767 -1.07849 8.70770
  715 263.463 -1.09002 -8.78472
  716 468.704 -8.71107 -9.50276
  717 505.957 -0.605132 -1.93696
  718 396.824 -34.7137 20.6331
  719 475.216 -17.7743 40.3385
  720 715.161 173.598 -57.5161
  721 450.449 -32.6854 11.7199
  722 498.243 -32.9007 -14.7980
  723 457.844 -14.9149 -13.1012
  724 505.485 -0.997599 -0.579221
  725 464.666 -0.0719041 46.8872
  726 21.9378 22.1790 28.4337
  727 520.147 -19.5290 -79.1124
  728 567.110 34.1200 17.9818
  729 473.311 -48.4579 24.7991
  730 341.404 -8.05059 9.69682
  731 341.397 -8.16004 -9.73906
  732 435.523 228.772 -233.057
  733 482.832 -32.0414 -24.8298
  734 369.200 2.08979 -6.64100
  735 427.185 2.43740 30.3844
  736 466.356 -23.4282 32.1788
  737 446.996 -37.6697 4.87817
  738 463.300 -42.3653 -64.8593
  739 444.345 -35.1590 -5.77885
  740 522.870 -25.0082 -2.93518
  741 481.838 -4.14062 5.50060
  742 431.813 -25.9305 2.54570
  743 776.951 155.239 -83.5161
  744 459.726 -12.4674 10.4729
  745 456.511 7.51597 -45.8568
  746 387.937 -4.21718 134.256
  747 488.321 39.2740 46.5272
  748 420.168 -33.0063 5.98470
  749 326.380 -25.5069 -45.2825
  750 326.426 -25.4419 44.9332
  751 448.227 50.4288 -6.40814
  752 454.756 -5.28984 40.7533
  753 459.262 -10.9833 -34.5232
  754 432.294 -26.4698 -2.67090
  755 418.181 -37.3891 12.3051
  756 478.663 78.7692 -8.66379
  757 446.457 -38.6448 -3.12264
  758 447.615 -28.3727 11.4990
  759 452.948 -6.03207 1.66715
  760 453.211 -5.87730 -1.65192
  761 609.053 133.144 1.60141
  762 497.256 -42.3759 -17.4035
  763 464.114 -14.3392 20.8846
  764 481.945 -4.13529 -4.97672
  765 488.584 3.20276 -46.9692
  766 554.310 29.5107 -25.6668
  767 277.885 -0.225911 -4.09403
  768 278.066 -0.222188 4.05592
  769 4.19133 -7.83573 -5.46579
  770 473.907 -0.612541 8.59302
  771 436.429 -0.635128 -33.5167
  772 450.025 -4.22333 29.3673
  773 407.109 51.9640 195.873
  774 511.959 104.784 -1.04664
  775 365.224 -25.9197 24.3538
  776 66.9083 1.38736 -24.9135
  777 68.6898 1.01175 25.1734
  778 446.240 -3.16435 -33.2109
  779 366.165 -26.1706 -24.3558
  780 479.142 -4.53985 4.10568
  781 249.438 -10.5044 42.5358
  782 247.363 -10.4651 -42.5388
  783 459.684 -12.1130 -10.1940
  784 297.770 -7.33744 -19.8646
  785 297.919 -7.29144 19.7001
  786 478.366 -4.67039 -12.4777
  787 368.180 -9.72321 -6.88634
  788 368.197 -9.66307 6.88954
  789 521.911 -3.26645 -31.0715
  790 471.297 -4.97227 -46.8762
  791 244.371 -1.50853 -11.0591
  792 244.820 -1.49438 10.9372
  793 13.8097 6.04814 -15.4206
  794 15.8752 6.38687 16.2029
  795 385.926 1.90278 -11.9817
  796 430.058 -48.3128 -26.8935
  797 -4.84791 -3.31803 8.46307
  798 -4.28565 -3.98527 -8.45981
  799 447.360 -9.14832 3.64971
  800 484.528 -37.9173 -13.0096
  801 501.893 74.2365 -35.0609
  802 481.097 -4.09676 -3.91011
  803 1011.17 205.971 -189.872
  804 447.265 -9.12246 -3.59940
  805 670.770 127.258 11.0785
  806 479.441 13.9442 -48.9605
  807 528.279 39.9579 -41.8306
  808 92.6703 -1.07820 -22.9084
  809 94.2456 -1.20832 22.8703
  810 302.937 -4.24563 11.8388
  811 302.827 -4.27984 -11.9362
  812 290.405 -0.635735 2.22979
  813 290.311 -0.642544 -2.24609
  814 534.947 89.9556 -31.9647
  815 320.415 -1.90394 -3.33034
  816 320.477 -1.88246 3.31366
  817 456.133 -4.59059 -42.5685
  818 650.381 69.4806 60.2744
  819 412.729 9.37893 -26.3041
  820 146.126 -1.27986 24.4225
  821 144.976 -1.29197 -24.6054
  822 524.965 15.5855 141.379
  823 468.274 -8.78144 9.80716
  824 422.278 28.1703 -10.9500
  825 198.575 -0.280529 16.5735
  826 197.622 -0.190215 -16.6889
  827 295.982 -1.43056 -5.82821
  828 296.092 -1.41002 5.77890
  829 53.5557 47.4541 41.8694
  830 439.300 10.5666 38.9436
  831 487.791 71.5345 -30.2220
  832 523.417 60.7965 -41.8963
  833 346.863 -12.9125 -15.4222
  834 346.676 -12.8216 15.4075
  835 542.750 114.986 14.3329
  836 466.936 -4.12382 -0.478310
  837 466.969 -4.09369 0.554343
  838 463.381 -14.0096 -27.1946
  839 389.518 -25.7896 14.6718
  840 427.512 -48.0244 26.9759
  841 500.211 -40.9761 41.7447
  842 386.410 -11.1466 -4.33548
  843 386.410 -11.1087 4.31058
  844 442.247 41.0568 17.7400
  845 416.338 5.81111 -28.3752
  846 115.535 140.821 133.688
  847 419.453 -37.0787 -11.2867
  848 420.970 -18.8026 -0.197753
  849 421.192 -18.8476 0.171856
  850 463.045 -6.86036 44.6214
  851 458.411 -30.1892 -19.3446
  852 410.391 -27.0616 -6.62678
  853 918.016 29.7075 -44.9227
  854 390.401 -36.7729 27.8429
  855 390.074 -37.2415 -28.2710
  856 462.311 -5.58578 22.4759
  857 690.962 179.440 -43.3011
  858 366.905 -33.1221 -34.3163
  859 404.164 -45.4168 33.0510
  860 366.830 -32.7313 34.0278
  861 397.356 -15.9173 -5.10906
  862 397.352 -15.8687 5.07751
  863 60.5329 25.2005 36.3081
  864 496.689 37.0999 -46.8965
  865 381.851 -14.7837 -7.64956
  866 381.925 -14.6395 7.67487
  867 377.431 -6.21158 -0.935045
  868 377.428 -6.17145 0.929619
  869 413.648 -8.30845 -0.445703
  870 413.600 -8.25747 0.441935
  871 338.848 -6.49133 -8.36134
  872 338.880 -6.42075 8.33001
  873 383.154 -19.9882 -11.3519
  874 383.208 -19.8595 11.4021
  875 9.64432 -1.83391 -5.48251
  876 573.997 107.751 22.5480
  877 494.090 -17.4164 -36.6951
  878 403.802 -44.7532 -33.3761
  879 435.732 -14.1312 3.07173
  880 435.545 -13.9923 -2.95875
  881 475.300 0.547347 47.9098
  882 513.952 -36.6373 -24.3909
  883 453.746 33.6168 -170.296
  884 210.475 -3.64816 84.7747
  885 -6.39148 4.90576 -6.26846
  886 -5.41082 5.54438 6.87716
  887 60.1922 26.7970 -37.0899
  888 463.743 -13.4794 16.2595
  889 486.700 -3.35344 -6.79939
  890 438.202 -42.2865 74.0293
  891 209.987 -3.44470 -85.0970
  892 488.303 -40.1039 8.28421
  893 541.227 -15.3283 65.4505
  894 399.315 1.64854 12.6872
  895 455.259 43.3235 30.1226
  896 248.544 -13.9296 62.1333
  897 247.604 -14.0409 -62.5243
  898 297.846 -13.9610 -34.9103
  899 310.316 -15.4575 -107.828
  900 489.277 -11.5379 41.7015
  901 668.380 158.479 28.2601
  902 491.745 18.8611 47.8245
  903 464.753 -10.0199 -24.8920
  904 316.706 -13.8462 110.490
  905 590.623 109.230 -15.4197
  906 60.3315 50.9194 -51.4043
  907 431.652 -0.830844 -13.4704
  908 298.155 -13.8493 34.6173
  909 361.987 -7.87565 6.03579
  910 361.971 -7.92660 -6.04722
  911 459.061 -30.0260 20.0320
  912 475.187 -3.26409 1.49634
  913 350.609 3.08322 -133.696
  914 500.310 -1.18957 3.20824
  915 496.957 -0.988281 -4.15395
  916 377.559 3.35425 -11.0438
  917 481.520 -1.99790 -7.58956
  918 362.882 -16.7781 -14.4243
  919 363.124 -16.5333 14.4711
  920 -11.4115 4.55124 -6.49574
  921 -15.9829 2.74698 6.97243
  922 475.163 -3.04585 -1.53614
  923 161.180 -3.71132 57.2629
  924 160.267 -3.38076 -57.5748
  925 509.834 74.2230 36.8895
  926 896.963 16.2551 13.8070
  927 480.556 53.3726 39.2564
  928 540.233 -18.7058 20.6520
  929 471.864 -26.3626 32.2774
  930 586.789 122.784 -11.7885
  931 369.899 1.68482 8.33156
  932 453.762 -10.8515 -6.06845
  933 472.802 25.4362 -47.5488
  934 567.280 17.3870 -5.91718
  935 442.868 -27.3733 -8.72369
  936 231.161 -1.23691 -12.3547
  937 231.378 -1.19275 12.1864
  938 466.827 -11.1079 -19.2201
  939 16.3673 20.4917 5.13945
  940 448.203 -46.4824 -6.62645
  941 392.587 11.8158 -1.13720
  942 583.199 127.674 -7.81032
  943 94.0318 69.8016 -84.2342
  944 450.042 -3.35988 -26.3132
  945 315.097 -5.11455 -11.1104
  946 315.163 -5.05588 11.0240
  947 2.95547 -12.4967 9.41324
  948 307.609 -22.6962 -50.0833
  949 456.724 -26.4757 -18.8432
  950 289.626 0.626544 -0.934258
  951 289.705 0.629192 0.928611
  952 463.087 56.1641 -24.0569
  953 492.165 -1.65223 -0.644441
  954 492.192 -1.67024 0.855992
  955 307.757 -22.6389 49.7622
  956 462.911 -0.691100 -10.3376
  957 530.342 3.88653 29.7196
  958 470.853 -6.83878 7.50741
  959 77.7611 19.1946 -45.4125
  960 487.612 -3.11899 6.13948
  961 445.558 3.66269 41.5880
  962 469.821 64.9693 21.3905
  963 469.130 5.43946 -48.5606
  964 325.645 -17.2228 -30.1414
  965 504.472 -17.9791 30.0217
  966 325.860 -17.1612 29.8540
  967 15.7004 16.8166 -2.44017
  968 57.7466 9.53219 33.3244
  969 267.717 -4.60735 20.5295
  970 267.401 -4.60882 -20.6369
  971 454.085 -11.0466 6.42838
  972 490.079 84.9661 11.7457
  973 250.151 22.6048 -126.921
  974 409.660 -25.4755 5.88626
  975 384.616 -40.0930 -41.3110
  976 558.750 106.881 24.1462
  977 430.475 -7.73199 0.255000
  978 430.456 -7.69248 -0.258927
  979 470.643 -8.87004 -13.6416
  980 438.247 37.9333 -16.3589
  981 966.974 290.814 195.754
  982 93.9501 5.04888 -43.4004
  983 95.3215 4.18971 43.4872
  984 6.99739 -7.20888 3.14096
  985 439.339 24.4563 33.5801
  986 384.544 -40.3425 41.0208
  987 475.169 -22.5323 -37.0172
  988 516.747 42.2106 45.8022
  989 494.904 -39.9691 -50.6820
  990 721.351 151.591 51.6624
  991 422.881 -6.96057 -0.318633
  992 422.827 -6.90638 0.318527
  993 493.597 -20.2362 34.6685
  994 34.7021 60.8787 61.1690
  995 226.823 -4.65493 29.3365
  996 226.148 -4.59471 -29.6326
  997 269.258 -12.9780 40.2094
  998 268.357 -12.7745 -40.3479
  999 302.697 -12.2818 29.0166
  1000 330.934 -2.52597 -1.48941
  1001 330.986 -2.50783 1.48383
  1002 803.287 261.365 -168.191
  1003 734.126 184.220 77.8017
  1004 302.453 -12.3409 -29.2458
  1005 508.287 -2.40686 38.3522
  1006 457.383 47.4670 -28.9629
  1007 323.232 -27.9313 89.4781
  1008 413.528 -48.8869 -49.0867
  1009 472.316 -3.96310 -15.0110
  1010 215.224 14.4053 103.584
  1011 276.040 -21.0471 71.4698
  1012 420.723 21.7214 -21.0875
  1013 477.929 -9.53308 -45.1794
  1014 596.755 254.190 264.801
  1015 398.406 12.3526 15.0629
  1016 537.718 115.247 -1.74295
  1017 393.236 15.7592 -151.730
  1018 402.127 -42.1882 -28.6373
  1019 506.235 -0.658146 -1.57020
  1020 489.463 44.9261 -45.2984
  1021 291.232 -1.79192 7.45179
  1022 291.094 -1.80991 -7.51666
  1023 10.8975 7.98421 -16.5366
  1024 326.051 -14.6644 -25.1707
  1025 275.697 -21.3160 -71.9847
  1026 325.822 -14.6359 24.9104
  1027 467.422 -14.2969 41.7960
  1028 419.770 -25.8805 -2.22495
  1029 442.054 8.20511 -40.3399
  1030 455.001 56.7995 8.45979
  1031 609.378 38.4522 25.9178
  1032 462.494 -35.1995 18.8316
  1033 295.305 -23.4277 -54.7961
  1034 438.567 15.6246 -37.8305
  1035 325.926 -27.5709 -89.9178
  1036 622.146 134.295 -3.13067
  1037 426.992 28.1619 19.1850
  1038 534.113 -3.00143 -22.0207
  1039 404.608 -42.2161 26.5106
  1040 462.997 -14.7626 32.1321
  1041 459.687 -24.3437 22.4827
  1042 457.156 -23.0703 19.3335
  1043 563.088 71.8301 -31.9524
  1044 457.393 -7.42394 32.9596
  1045 412.913 -49.0226 48.3068
  1046 440.712 -18.0909 5.69528
  1047 295.494 -23.4765 54.5117
  1048 414.510 -30.4208 -7.09115
  1049 243.216 -11.8869 -76.4160
  1050 344.732 -35.7029 60.9020
  1051 465.350 -3.23327 -17.5216
  1052 454.003 -5.14116 -37.6136
  1053 393.671 -30.9639 -17.8108
  1054 243.627 -12.2161 75.8447
  1055 425.035 1.09577 -26.4036
  1056 317.207 -20.8082 -38.9179
  1057 569.020 120.668 14.9446
  1058 129.505 20.9788 -73.2994
  1059 955.795 67.4553 91.1603
  1060 230.150 16.7488 -108.324
  1061 456.941 -37.8952 -10.7632
  1062 317.302 -20.6359 38.6174
  1063 420.768 4.56762 29.5986
  1064 238.952 -4.73425 24.2971
  1065 238.839 -4.85021 -24.5335
  1066 463.213 -12.9409 -38.7942
  1067 489.999 -2.65051 2.38923
  1068 481.884 -1.15103 7.65016
  1069 477.871 15.8230 48.8980
  1070 447.897 -3.36777 35.4159
  1071 345.732 37.1587 163.976
  1072 509.292 -0.463567 0.728192
  1073 481.796 65.1683 31.2292
  1074 410.026 6.06594 25.5514
  1075 487.534 -1.93044 7.31352
  1076 318.176 -3.28752 -6.25912
  1077 318.238 -3.25066 6.22219
  1078 203.951 -5.68611 -40.5663
  1079 204.712 -5.89174 40.3078
  1080 411.366 20.6840 10.7408
  1081 610.849 34.3374 -48.3930
  1082 561.415 0.445880 -87.9844
  1083 452.373 -0.427324 -10.7676
  1084 344.832 -35.9660 -61.3487
  1085 394.503 -29.4529 16.0442
  1086 454.867 -1.06353 11.2303
  1087 474.709 -34.5385 -22.3910
  1088 301.273 -0.625215 3.69987
  1089 301.191 -0.636749 -3.72101
  1090 456.081 -38.9796 10.7518
  1091 433.840 -9.00582 0.796326
  1092 433.767 -9.01602 -0.770943
  1093 422.353 -42.4587 17.4423
  1094 541.214 -17.2893 -8.81783
  1095 250.964 -0.424987 -6.89611
  1096 251.355 -0.410166 6.82734
  1097 370.555 -23.6401 -103.034
  1098 395.469 -9.42413 2.47614
  1099 395.503 -9.47277 -2.49468
  1100 238.375 129.701 180.231
  1101 544.905 44.9056 -36.6425
  1102 82.3597 39.5963 -56.0783
  1103 471.080 -7.20351 -7.24594
  1104 128.227 43.4147 -84.1182
  1105 265.586 -16.5353 -51.9484
  1106 509.243 -0.652173 0.483134
  1107 509.418 -0.617659 -0.350229
  1108 464.314 -26.5868 -27.4950
  1109 411.045 -46.2419 -66.8922
  1110 129.605 17.8604 69.8454
  1111 505.396 49.9759 43.7876
  1112 457.754 -4.83797 -0.597315
  1113 457.811 -4.84033 0.638466
  1114 498.333 -31.8220 81.2907
  1115 518.214 103.358 16.7119
  1116 310.834 -7.31493 -15.8361
  1117 310.916 -7.28259 15.7321
  1118 234.779 26.5568 128.173
  1119 440.927 2.29998 -39.0014
  1120 139.757 44.5902 90.2956
  1121 560.879 -9.10756 -29.5041
  1122 554.612 121.925 4.90214
  1123 382.622 -30.0724 21.3594
  1124 356.749 1.99752 -1.62567
  1125 482.725 -4.36890 9.22853
  1126 499.014 -0.710587 3.58470
  1127 113.715 0.177649 -20.4867
  1128 115.157 0.125961 20.3536
  1129 397.807 6.79702 -18.9560
  1130 407.515 -11.9783 -2.08737
  1131 407.428 -11.9269 2.07747
  1132 43.3914 72.3331 -65.1871
  1133 68.3696 154.120 -128.339
  1134 412.546 -16.0920 1.96367
  1135 412.696 -16.0853 -1.98935
  1136 425.822 -10.3444 0.764989
  1137 425.762 -10.3258 -0.732237
  1138 113.191 72.0947 91.1280
  1139 338.894 -4.08191 -3.06046
  1140 338.938 -4.05363 3.04738
  1141 424.876 32.2353 -0.436910
  1142 533.137 70.3918 -188.953
  1143 515.671 88.7154 -28.6660
  1144 470.069 -18.1137 -39.3405
  1145 462.940 -23.1720 -28.0492
  1146 382.818 -30.3470 -21.7042
  1147 387.623 1.32287 11.7008
  1148 433.975 27.1630 -28.0861
  1149 428.133 23.1392 26.8601
  1150 440.430 -17.5737 -5.58024
  1151 420.820 -25.3680 1.90349
  1152 383.496 -24.5975 -16.1943
  1153 455.668 -2.71118 20.9071
  1154 795.979 80.2195 11.1351
  1155 458.579 -9.81724 38.0590
  1156 460.781 30.2629 42.0020
  1157 424.306 -41.6759 -13.4791
  1158 54.8551 8.74775 -32.1653
  1159 432.252 -20.0251 -3.58352
  1160 291.666 -0.410461 -0.195332
  1161 291.739 -0.408649 0.193495
  1162 524.638 -13.9182 18.4787
  1163 499.853 -42.1349 20.4570
  1164 716.312 127.857 32.0307
  1165 176.335 -0.324504 -16.9958
  1166 177.327 -0.287188 16.8746
  1167 387.264 -7.81759 -1.96100
  1168 387.248 -7.77159 1.94836
  1169 433.511 -38.1985 -2.79458
  1170 359.825 1.69577 5.32970
  1171 443.829 -31.6096 8.10333
  1172 25.9152 30.7810 -15.7824
  1173 81.4565 40.1655 54.8068
  1174 298.258 -16.4050 99.5448
  1175 513.919 97.5906 -20.4863
  1176 489.251 -1.40288 -5.78353
  1177 511.331 -0.867899 0.303332
  1178 511.793 -1.16295 -0.180116
  1179 302.908 -0.654649 -0.623103
  1180 302.980 -0.649313 0.618924
  1181 473.734 30.2668 47.5386
  1182 696.308 118.424 -2.52774
  1183 488.387 80.5572 -21.0753
  1184 364.686 -26.9829 102.383
  1185 296.679 -15.7954 -99.3483
  1186 330.602 -21.9043 -34.9882
  1187 454.399 -12.8362 8.31937
  1188 632.372 139.753 8.14085
  1189 330.642 -21.7789 34.7277
  1190 463.909 -8.28306 6.29267
  1191 417.310 15.6347 25.6582
  1192 458.229 14.2272 45.7830
  1193 649.062 144.796 17.5808
  1194 387.962 -10.0835 3.63291
  1195 387.978 -10.1289 -3.65566
  1196 470.086 -8.97991 14.1799
  1197 282.957 -2.93440 11.6371
  1198 282.760 -2.96357 -11.7362
  1199 459.673 -6.44062 -2.68158
  1200 190.271 113.856 -174.667
  1201 398.142 -22.5282 -109.661
  1202 377.621 -11.7414 -6.51140
  1203 377.663 -11.6913 6.51396
  1204 491.874 -2.46658 2.19354
  1205 466.521 -6.29689 5.01605
  1206 26.2317 33.5227 24.9663
  1207 506.103 -0.626255 1.84257
  1208 61.4393 78.7328 78.0978
  1209 455.936 -6.99155 -3.47606
  1210 -0.472049 -11.0437 -9.69861
  1211 324.073 -31.6482 -77.1469
  1212 323.214 -30.8859 76.3931
  1213 506.081 -0.944009 -2.04903
  1214 434.944 -22.9602 -4.37845
  1215 491.566 -2.26642 -2.22080
  1216 396.197 -12.7785 -3.65070
  1217 396.162 -12.7354 3.61567
  1218 459.384 -6.39819 2.50768
  1219 431.945 -19.6294 3.54629
  1220 415.999 -13.4106 0.721020
  1221 416.140 -13.4432 -0.674001
  1222 491.108 -2.33455 -1.80488
  1223 425.003 -44.8562 -75.3166
  1224 480.888 -3.15982 -1.81570
  1225 457.833 -7.17915 3.77076
  1226 323.159 -3.42990 -4.67197
  1227 323.217 -3.39697 4.64702
  1228 359.560 -5.21797 -2.46577
  1229 359.581 -5.18376 2.45469
  1230 577.408 90.3022 26.2833
  1231 485.594 -37.4215 15.9651
  1232 333.895 -1.68341 126.334
  1233 271.613 -0.420125 4.47131
  1234 271.389 -0.424822 -4.51321
  1235 461.183 -8.57592 28.4904
  1236 440.980 -6.83461 0.592156
  1237 440.996 -6.81295 -0.591854
  1238 505.913 98.1401 9.61020
  1239 461.384 -48.3818 60.1745
  1240 271.540 -3.73976 16.2701
  1241 271.279 -3.76693 -16.3826
  1242 440.426 -10.8657 2.77941
  1243 440.328 -10.9423 -2.68370
  1244 454.149 -12.6863 -7.99696
  1245 420.003 0.102212 13.6588
  1246 717.917 178.564 -61.0780
  1247 462.813 -17.0286 -24.8210
  1248 81.2673 18.9597 46.6505
  1249 477.901 -25.5566 34.2940
  1250 387.503 8.62365 -10.3771
  1251 30.5441 21.8867 17.4130
  1252 626.295 71.0829 -9.18682
  1253 467.010 -21.3060 -34.9216
  1254 389.287 5.66097 15.9044
  1255 267.413 -16.5665 51.8766
  1256 473.962 -36.7696 19.7682
  1257 683.833 133.323 45.4477
  1258 161.280 23.4774 88.7110
  1259 476.011 -5.80689 -12.2381
  1260 904.039 10.1789 -9.01346
  1261 933.274 13.9603 40.0422
  1262 995.281 33.5382 -95.4032
  1263 462.448 -14.5155 -31.2007
  1264 462.231 -21.1801 26.2363
  1265 469.401 -33.4880 23.9981
  1266 -13.7550 1.65775 8.66463
  1267 -12.4936 1.34817 -9.46014
  1268 456.519 -50.5341 -28.9697
  1269 467.298 -47.3358 -42.6967
  1270 362.303 2.37220 -6.57420
  1271 454.536 -51.4217 42.5172
  1272 485.978 -23.1276 -34.7401
  1273 10.2569 14.8096 2.31080
  1274 396.585 -7.26672 1.29324
  1275 396.612 -7.31590 -1.29665
  1276 482.313 -4.01172 8.26364
  1277 463.862 -8.14014 -5.89280
  1278 437.418 -47.7433 -15.9742
  1279 400.591 -21.5780 7.32733
  1280 398.614 -21.2700 -7.87710
  1281 468.655 -10.0216 19.7167
  1282 480.376 -17.7196 -40.3768
  1283 31.6788 22.8183 -16.9547
</Section>

newXOutput 64

<Section columns = "stress_xx | stress_yy | stress_xy">
  1 522.047 -0.175429 0.978397
  2 522.051 -0.165560 -0.980931
  3 291.814 -0.0802422 -0.353173
  4 -3.66462 -3.61908 -5.27016
  5 925.240 377.187 298.991
  6 916.779 390.499 -297.634
  7 -4.25811 -3.43391 5.61463
  8 291.740 -0.0812522 0.352293
  9 525.559 -0.903880 0.286511
  10 524.539 -1.41659 -0.287650
  11 523.489 -0.973062 1.09871
  12 522.420 -1.31517 0.257378
  13 520.106 -1.11732 1.72857
  14 517.989 -1.12364 1.23028
  15 512.878 -0.990563 2.49748
  16 505.446 -0.729609 3.69296
  17 498.848 -0.753385 4.14061
  18 488.950 -1.01262 5.03784
  19 475.091 -0.114695 7.49028
  20 462.291 -0.744779 7.15623
  21 447.555 -0.943596 10.1304
  22 426.288 0.662774 8.85015
  23 410.768 1.03630 10.4938
  24 390.509 1.72461 8.23949
  25 376.437 1.86194 8.32047
  26 356.059 2.55993 4.25067
  27 351.738 4.02268 4.56655
  28 349.128 3.32473 -1.35238
  29 352.669 1.97276 -2.95638
  30 359.201 1.88368 -3.63017
  31 374.473 2.35102 -7.23616
  32 389.310 1.85840 -9.12781
  33 410.971 0.446915 -10.8062
  34 428.282 -0.208228 -9.79844
  35 446.642 -0.747385 -9.58618
  36 463.217 -0.584621 -6.74364
  37 477.370 -0.624097 -5.73856
  38 488.970 -0.994001 -4.78853
  39 499.297 -0.726164 -3.29851
  40 505.664 -0.878910 -3.48288
  41 511.821 -1.05405 -2.53759
  42 517.575 -1.23930 -1.06431
  43 520.503 -1.00592 -1.28479
  44 521.969 -0.645918 -0.782067
  45 520.671 -0.398552 -0.715276
  46 525.034 -1.41882 0.203270
  47 525.702 -0.937466 -0.295211
  48 509.310 -0.532294 -0.606230
  49 498.417 -2.30397 -1.12546
  50 485.033 -3.34303 -0.686770
  51 468.664 -4.85717 -0.954029
  52 453.081 -5.28353 -1.15998
  53 436.402 -6.51035 -1.11177
  54 421.596 -7.18109 -0.579478
  55 408.606 -7.95118 -0.168796
  56 393.602 -6.57638 -0.154817
  57 376.304 -6.10366 -0.323898
  58 359.644 -4.77861 -0.0441513
  59 343.873 -3.00775 0.0155393
  60 328.903 -2.11475 0.0736907
  61 315.800 -1.04711 0.177484
  62 302.440 -0.252676 -0.400553
  63 291.946 0.415603 0.553945
  64 287.200 1.10845 0.389953
  65 290.294 0.0263544 0.892272
  66 286.566 -0.128528 1.08356
  67 283.047 -0.201563 1.34858
  68 278.306 -0.00490288 1.74140
  69 272.334 -0.000814189 2.18204
  70 267.806 -0.314385 4.15608
  71 255.287 0.371604 4.52847
  72 246.404 -0.0119819 5.15712
  73 233.180 -0.212424 5.85774
  74 217.980 -0.367432 7.12160
  75 198.967 -0.0727517 8.64807
  76 175.792 0.115918 9.55176
  77 155.622 -0.182643 13.6591
  78 116.046 1.25100 12.9265
  79 88.8976 1.07718 13.6966
  80 56.1939 -0.267936 15.2433
  81 28.8649 2.47201 15.9221
  82 -2.33453 3.73336 9.70118
  83 -25.2296 3.80206 3.61206
  84 -25.0457 3.70864 -1.08591
  85 -24.3742 3.10039 -7.25437
  86 -14.3885 -0.926405 -6.96567
  87 -1.71511 -13.8116 -7.70507
  88 1.43832 -25.3341 -9.54701
  89 3.88253 -39.5179 -5.02793
  90 8.55432 -39.4140 1.05092
  91 17.9993 -6.06924 24.5018
  92 53.1322 87.3131 81.0978
  93 305.736 296.410 268.418
  94 1121.90 168.574 186.630
  95 1013.11 24.0645 60.4710
  96 943.891 10.0472 18.5053
  97 918.369 8.56837 1.40860
  98 932.019 11.3569 -16.0785
  99 1011.11 22.4943 -47.8838
  100 1186.27 81.3000 -160.070
  101 182.190 304.442 -225.128
  102 39.7615 64.4610 -67.5037
  103 19.6847 -4.09253 -26.1119
  104 8.01761 -39.2440 -4.97805
  105 2.34290 -29.9143 5.74133
  106 2.89279 -31.9727 8.25054
  107 0.163977 -11.9053 8.53804
  108 -15.0283 -0.571517 6.59296
  109 -25.1448 2.32784 6.31341
  110 -26.3879 4.50255 1.22392
  111 -26.0296 3.73693 -3.36881
  112 -4.17139 3.82591 -9.10479
  113 27.2571 2.49313 -15.1899
  114 54.5556 -0.00285022 -14.9939
  115 87.2033 1.16410 -13.7234
  116 114.507 1.28314 -13.0221
  117 154.429 -0.188292 -13.7700
  118 174.771 0.128183 -9.64127
  119 198.074 -0.0695794 -8.75371
  120 217.525 -0.408525 -7.17192
  121 232.561 -0.200710 -5.87154
  122 245.933 0.00405995 -5.20865
  123 254.900 0.367281 -4.57606
  124 267.525 -0.317602 -4.19638
  125 272.107 -0.00290066 -2.20672
  126 278.132 -0.00690082 -1.76166
  127 282.912 -0.204879 -1.36461
  128 286.459 -0.131370 -1.09473
  129 290.204 0.0239379 -0.899378
  130 287.119 1.10727 -0.393232
  131 291.870 0.415007 -0.556010
  132 302.366 -0.255418 0.399514
  133 315.731 -1.05399 -0.179993
  134 328.843 -2.12982 -0.0766152
  135 343.828 -3.02868 -0.0183467
  136 359.616 -4.80880 0.0413583
  137 376.297 -6.14191 0.321689
  138 393.618 -6.62073 0.152516
  139 408.640 -8.00108 0.167729
  140 421.642 -7.23094 0.581113
  141 436.470 -6.55572 1.11690
  142 453.141 -5.31468 1.17838
  143 468.711 -4.88506 1.04285
  144 485.122 -3.17117 0.701932
  145 498.764 -2.24729 1.10040
  146 509.403 -0.611597 0.596781
  147 458.092 -43.0566 -1.25851
  148 457.696 -42.4736 1.41980
  149 482.349 69.1939 -22.7024
  150 512.358 30.1682 47.5572
  151 388.310 -37.5142 -86.6561
  152 391.490 -37.4534 83.9247
  153 379.171 -15.9354 10.8915
  154 379.197 -16.1524 -10.8973
  155 542.104 19.6259 -35.2747
  156 456.891 -16.5475 8.99086
  157 456.694 -16.1565 -8.88183
  158 590.495 131.128 5.18110
  159 468.658 -0.744100 -46.9549
  160 348.304 -27.1794 -38.9883
  161 348.327 -26.9581 38.6612
  162 469.215 -10.6691 42.1690
  163 447.324 32.7199 28.2363
  164 185.879 29.4462 -103.499
  165 205.745 27.9310 109.000
  166 570.914 6.93208 1.59571
  167 469.934 -18.1130 -28.8640
  168 620.728 136.285 -0.197950
  169 423.901 -12.0081 -0.588894
  170 423.815 -11.9746 0.623076
  171 474.326 -5.94840 -3.88540
  172 475.755 -5.36910 3.34302
  173 335.851 -4.69447 -6.31508
  174 335.897 -4.64692 6.28528
  175 507.468 -12.8543 110.216
  176 433.436 18.1074 -30.4415
  177 284.348 -21.1929 -62.1031
  178 285.188 -21.0403 61.7173
  179 319.894 -10.3015 -20.4366
  180 319.929 -10.1857 20.2944
  181 472.121 -12.5050 24.5494
  182 429.668 -29.4331 -2.29816
  183 428.197 -29.2144 2.95677
  184 486.845 -47.2146 -10.3250
  185 489.433 -44.9822 4.30346
  186 671.378 158.238 -25.7031
  187 491.670 78.7582 21.1917
  188 491.722 30.1940 -48.1629
  189 505.399 -3.57068 -127.693
  190 487.052 -27.6035 -32.7400
  191 491.284 -19.7412 38.9177
  192 410.247 -46.5414 43.1242
  193 410.314 -46.2058 -43.0013
  194 440.393 5.67925 36.4968
  195 203.254 -5.10278 -76.0956
  196 203.733 -5.51881 75.6480
  197 755.068 112.763 16.4775
  198 461.590 -27.5575 17.2976
  199 478.273 -8.92929 -15.8221
  200 381.528 -9.25545 -5.06521
  201 381.539 -9.21110 5.05085
  202 460.542 -6.00932 -32.5817
  203 523.655 76.7842 -38.1322
  204 440.280 39.6390 -5.65005
  205 288.570 -10.0375 28.5625
  206 288.140 -10.0669 -28.7638
  207 484.829 -5.55889 8.48347
  208 474.049 8.91961 48.3342
  209 386.204 -27.9320 -19.3524
  210 383.696 -26.4421 19.7525
  211 557.208 82.6924 34.1279
  212 651.693 91.1457 18.6616
  213 45.8984 35.4108 -30.0330
  214 42.4918 32.7327 25.5813
  215 270.472 77.9270 181.051
  216 457.012 -30.4048 -12.8740
  217 486.478 -5.33632 -7.65627
  218 435.594 3.91370 -33.6230
  219 308.122 -2.95793 -9.09012
  220 308.223 -2.92505 9.01587
  221 412.301 -19.2778 -4.67486
  222 412.495 -19.4015 4.44385
  223 464.295 -6.29422 27.6512
  224 531.685 -30.7074 14.5108
  225 530.973 108.090 -10.9495
  226 416.399 -40.1090 -21.0044
  227 524.640 -9.15969 29.2937
  228 447.957 -7.68581 1.24737
  229 447.959 -7.62549 -1.24584
  230 413.432 -39.9210 21.7468
  231 472.723 -30.0738 26.4562
  232 659.359 87.5481 -45.7798
  233 148.894 88.5640 -132.269
  234 403.954 14.3460 7.30473
  235 476.156 41.9635 40.7852
  236 505.589 -3.59084 -42.2062
  237 473.008 -17.0892 -39.2179
  238 255.744 -8.08901 -35.6509
  239 256.601 -7.96898 35.5487
  240 473.619 -5.80651 -21.2252
  241 451.180 -11.5565 4.51699
  242 450.970 -11.5447 -4.34703
  243 97.5304 8.69857 -49.0210
  244 99.0022 7.62151 48.8483
  245 501.001 -43.9040 -40.9196
  246 495.374 -1.96498 1.08343
  247 495.868 -2.00041 -1.20401
  248 465.360 38.6060 -37.4171
  249 411.616 8.06245 22.0906
  250 844.512 135.205 90.9646
  251 837.205 95.3171 -56.6834
  252 612.585 131.465 -0.0509988
  253 382.682 -18.5764 114.901
  254 351.653 -12.2225 -120.072
  255 404.383 -8.31049 -1.91091
  256 404.349 -8.26026 1.89872
  257 337.797 -8.87541 12.6564
  258 337.789 -8.99524 -12.7608
  259 484.582 -5.36812 12.8885
  260 470.778 -33.5925 -21.4003
  261 310.043 -0.518047 -2.15109
  262 310.118 -0.508678 2.13886
  263 464.898 -18.9336 -17.1656
  264 200.894 -6.50217 -49.5476
  265 201.724 -6.52227 49.2068
  266 470.884 -20.4985 31.1343
  267 360.580 -38.2695 69.7561
  268 361.455 -38.9527 -69.5403
  269 409.623 15.8517 -10.2831
  270 353.551 -5.31355 -4.26465
  271 353.585 -5.27889 4.24957
  272 443.342 -1.06445 26.8562
  273 528.078 96.3907 26.3686
  274 286.980 -3.39022 15.2661
  275 286.764 -3.41782 -15.3888
  276 483.039 -40.4438 14.1508
  277 447.143 -50.2719 -47.6234
  278 497.364 -2.58395 3.87664
  279 349.337 -20.4602 -26.7604
  280 348.763 -20.2360 26.6663
  281 607.585 67.3397 161.136
  282 292.201 -23.6391 82.9714
  283 469.994 65.9168 -2.40394
  284 589.694 65.8509 -20.6191
  285 446.639 -34.5302 4.06634
  286 447.551 -51.6356 43.0869
  287 293.047 -23.2632 -83.8721
  288 55.1258 68.1175 62.5539
  289 464.979 -18.9949 17.4903
  290 607.088 80.1687 15.1777
  291 501.091 -2.30992 -3.36224
  292 457.476 16.0792 -43.0810
  293 450.030 -25.4863 8.73749
  294 440.772 -37.1668 2.71836
  295 455.921 20.9833 41.5457
  296 480.781 -40.4444 -12.4497
  297 679.019 131.473 -12.2903
  298 449.911 -24.5036 -8.34450
  299 369.300 108.169 -220.597
  300 459.499 -48.7546 -10.8263
  301 456.302 -50.0914 16.0111
  302 337.524 -30.3792 -54.7563
  303 307.183 -1.10191 -4.65823
  304 307.273 -1.08261 4.62427
  305 337.683 -30.4078 54.4718
  306 486.740 -0.845431 -48.2464
  307 523.626 -21.6971 -18.5314
  308 401.263 -24.0219 -10.6884
  309 401.025 -24.0782 10.8758
  310 476.565 -41.0274 75.3631
  311 477.390 -3.91495 16.0589
  312 576.558 3.56231 28.9462
  313 393.498 -13.7960 -5.97525
  314 393.528 -13.7537 5.94541
  315 359.607 -9.21576 -8.46966
  316 359.614 -9.13219 8.45889
  317 407.537 5.59304 -21.3575
  318 518.457 38.0132 -45.9955
  319 794.717 215.270 -104.032
  320 471.467 -4.38570 -1.26280
  321 471.214 -4.32907 1.30173
  322 255.080 -0.769730 103.551
  323 357.549 -16.0072 -17.8944
  324 356.904 -15.9587 17.9420
  325 255.030 -1.37886 -103.155
  326 495.310 58.3884 -39.5225
  327 551.752 27.5024 33.2536
  328 476.393 -33.9774 -83.4745
  329 440.121 -17.0510 3.39953
  330 439.685 -16.9329 -3.21536
  331 468.779 -9.91290 -8.09973
  332 443.630 -0.809559 -25.1070
  333 495.466 2.05716 47.0803
  334 492.964 -3.60064 -8.83918
  335 300.430 -18.0082 41.6883
  336 300.100 -18.1049 -41.9930
  337 462.049 -1.02412 44.6527
  338 288.945 -2.25965 -9.09709
  339 289.129 -2.23877 9.01955
  340 472.343 -11.0308 12.9917
  341 567.002 115.497 -18.6681
  342 468.574 -9.98104 8.41966
  343 500.750 62.7595 39.6050
  344 478.795 -8.96448 45.9508
  345 381.122 -7.08103 1.90177
  346 381.121 -7.12226 -1.91296
  347 454.233 -1.59232 -39.6576
  348 598.374 125.572 10.8844
  349 499.740 91.2853 0.822389
  350 305.716 35.4101 -153.386
  351 33.1718 13.9056 -21.8307
  352 36.2062 15.0569 23.4126
  353 -1.10885 3.78228 8.81593
  354 0.681295 2.28009 -9.24519
  355 863.311 59.9320 20.3686
  356 413.804 -33.4589 -12.7728
  357 472.675 -10.6712 -12.6686
  358 427.650 -7.64601 0.335795
  359 427.601 -7.58808 -0.339005
  360 459.000 50.7082 -20.2778
  361 391.092 -39.6946 35.5195
  362 35.1823 52.6047 -39.2869
  363 391.427 -39.6765 -36.1318
  364 464.833 52.8614 21.5738
  365 472.052 -12.7198 -23.3355
  366 500.026 -28.0040 -27.3537
  367 534.527 112.313 7.52563
  368 501.045 -31.4098 22.1227
  369 211.976 -5.16333 33.1462
  370 210.766 -5.06250 -33.3449
  371 120.923 2.81418 -46.3577
  372 122.120 2.35090 46.1566
  373 413.692 1.50862 21.5714
  374 771.330 227.455 91.4483
  375 487.365 -3.22839 -11.3823
  376 381.562 -31.9978 -27.3093
  377 381.274 -31.9253 27.2744
  378 469.623 -10.9282 -29.8810
  379 532.397 -25.7281 0.984732
  380 413.790 -33.4325 13.1268
  381 582.330 5.12899 -50.9640
  382 335.681 -2.59836 -1.70559
  383 335.735 -2.57673 1.69508
  384 462.542 -2.73834 -19.2347
  385 253.370 -3.54817 -21.5919
  386 253.518 -3.66484 21.3394
  387 550.702 70.4478 -38.1846
  388 298.801 20.9792 142.688
  389 432.379 -22.6789 0.851059
  390 432.797 -22.6423 -0.868602
  391 508.471 85.7840 -24.9349
  392 480.475 -14.3128 -43.3733
  393 480.220 -49.1784 42.1587
  394 403.004 -10.6840 -3.02481
  395 402.962 -10.6364 2.99963
  396 463.307 -35.7955 13.7843
  397 497.416 -2.51476 6.53585
  398 314.848 -11.2554 -25.4894
  399 314.976 -11.2590 25.2852
  400 471.791 15.8668 -47.7250
  401 444.357 -9.81177 1.84661
  402 444.334 -9.83689 -1.79232
  403 460.671 -5.46999 36.2887
  404 431.424 31.5775 9.79952
  405 476.548 -20.2239 37.6370
  406 685.485 142.993 26.9582
  407 233.367 -12.5219 -66.5089
  408 233.999 -12.5232 66.0247
  409 104.827 55.6228 -80.4808
  410 507.697 -1.67887 1.72392
  411 264.194 -2.13277 -13.6802
  412 264.532 -2.08765 13.5695
  413 469.946 -12.3599 29.2070
  414 426.467 -46.2256 24.1643
  415 479.950 -6.20591 5.71535
  416 490.841 24.8908 49.5427
  417 109.686 59.2257 83.7405
  418 427.082 -45.9529 -22.3485
  419 441.147 -40.9594 -5.80517
  420 147.875 -2.95280 -41.8766
  421 148.918 -3.05843 41.5996
  422 339.572 -27.3901 -100.044
  423 505.588 -7.64067 41.0914
  424 338.367 -27.7743 99.1952
  425 467.562 -26.3463 -23.8033
  426 437.191 29.6389 -21.4029
  427 467.614 -20.3308 22.7111
  428 501.073 -2.42645 -4.32640
  429 15.9230 17.4070 8.40139
  430 103.345 120.531 118.395
  431 451.749 -1.64828 18.6302
  432 382.627 5.40792 9.39381
  433 388.908 6.55027 -12.7214
  434 331.819 -5.31699 -8.93314
  435 331.860 -5.25040 8.88007
  436 460.990 -35.7684 -12.4897
  437 466.586 -9.19556 -40.5190
  438 384.556 7.40619 -3.45401
  439 684.897 163.461 36.4961
  440 97.5791 31.7798 -60.4202
  441 107.336 29.1562 64.4110
  442 431.978 -15.4457 1.01679
  443 431.820 -15.4147 -0.907587
  444 575.252 126.329 -1.40924
  445 355.637 151.838 225.497
  446 550.895 -7.45873 -4.66618
  447 321.132 -16.5059 -34.5742
  448 321.289 -16.3971 34.2978
  449 323.920 -7.04277 13.7998
  450 323.853 -7.09247 -13.9153
  451 434.510 9.78595 -34.6654
  452 510.142 -0.894888 -1.12507
  453 423.081 19.5928 19.5347
  454 530.427 65.4306 42.0104
  455 442.083 -32.7939 -2.54507
  456 479.734 -5.92364 -5.56185
  457 503.044 -2.21472 3.98252
  458 508.637 -0.965039 0.640806
  459 509.013 -1.06814 -0.456489
  460 287.570 -0.464546 3.39313
  461 287.425 -0.471744 -3.42555
  462 482.838 -30.8037 28.7884
  463 438.584 17.4322 33.5811
  464 457.260 1.89200 -43.6219
  465 475.508 -10.2082 17.1653
  466 677.252 119.116 -137.201
  467 476.982 -26.5744 -32.6076
  468 5.74440 9.21940 4.42279
  469 5.65621 9.41334 -2.05819
  470 380.049 -21.3079 15.6860
  471 378.822 -21.0126 -15.4808
  472 588.102 12.5603 75.0228
  473 165.944 154.239 -172.188
  474 471.285 -1.50708 14.3541
  475 530.744 -30.7230 -43.6652
  476 287.758 -16.3561 48.1778
  477 571.074 101.375 -26.8932
  478 470.171 -25.5607 27.1769
  479 396.475 -18.7991 -8.19087
  480 396.820 -18.4938 8.17241
  481 413.596 2.27516 -19.0354
  482 286.878 -16.2870 -48.4550
  483 423.555 0.270808 19.0981
  484 403.180 -46.1747 -62.7013
  485 402.187 -46.2450 62.9561
  486 484.788 -3.33663 12.5864
  487 443.740 41.9327 4.04702
  488 445.444 8.33445 155.006
  489 656.666 132.886 -0.828914
  490 454.696 -7.88388 2.36965
  491 454.716 -7.85668 -2.47144
  492 353.269 -6.12210 -5.77281
  493 353.299 -6.07326 5.75392
  494 187.412 8.30072 87.3458
  495 472.368 -22.8614 -32.0509
  496 428.974 -9.44203 -0.100787
  497 428.931 -9.41204 0.108091
  498 374.431 -39.5176 51.2839
  499 190.955 11.0136 -89.5253
  500 472.626 -38.6110 -14.3636
  501 8.62366 2.72225 2.86822
  502 417.043 21.7390 1.44105
  503 456.216 -5.52851 -0.757986
  504 456.210 -5.59886 0.736208
  505 374.621 -39.4421 -51.6691
  506 531.216 -27.0358 54.9698
  507 528.589 19.2050 42.4108
  508 486.930 -3.56187 -2.69118
  509 471.189 -39.1456 14.6096
  510 301.110 -0.232408 -0.628823
  511 301.186 -0.229881 0.624276
  512 471.078 -18.1852 -34.4306
  513 458.062 33.9382 36.6338
  514 522.220 12.9170 -41.9330
  515 299.274 -0.418216 -1.91441
  516 299.360 -0.412086 1.90253
  517 899.374 130.015 -115.810
  518 476.241 56.6407 32.1574
  519 487.325 -3.31114 2.38684
  520 442.097 -41.8698 6.88041
  521 374.008 -12.2101 8.76523
  522 373.999 -12.2993 -8.74737
  523 512.796 -31.3463 10.9095
  524 494.058 -9.97121 -43.6247
  525 552.741 108.534 23.0486
  526 461.182 7.97895 45.2614
  527 463.028 -9.12682 4.94296
  528 449.590 -48.1355 -60.7791
  529 467.825 -11.6738 34.1456
  530 888.016 40.8661 -16.1780
  531 508.911 -38.4657 1.83051
  532 483.914 -3.47311 -0.585475
  533 484.033 -3.67676 0.495688
  534 897.279 60.1703 56.5082
  535 450.081 -0.101384 38.4990
  536 624.603 106.125 -6.47791
  537 471.396 -13.0012 -16.5576
  538 218.462 -1.97915 -14.7541
  539 219.101 -1.88318 14.6103
  540 321.528 -30.0401 -69.5790
  541 321.803 -29.5387 69.0798
  542 462.769 -8.76365 -4.90718
  543 504.260 18.4830 -47.9696
  544 443.367 -30.1580 4.25106
  545 478.279 54.7994 -33.3208
  546 479.798 -5.74001 16.9282
  547 597.867 30.9814 -10.5172
  548 412.064 -14.0928 -2.89029
  549 411.947 -14.0494 2.86251
  550 446.411 -21.1253 6.29423
  551 653.657 130.983 -13.8750
  552 471.368 20.6353 46.9836
  553 202.658 51.9973 128.799
  554 452.387 -27.0889 104.396
  555 593.576 30.9403 -115.559
  556 481.825 39.8397 -43.6277
  557 425.497 -36.9315 -90.6460
  558 461.125 -50.6255 -19.6785
  559 480.876 -48.8330 -28.0310
  560 64.3996 84.6501 -80.1189
  561 483.548 -6.34636 -10.1374
  562 724.223 140.575 -42.3073
  563 448.726 -20.2914 -7.20730
  564 452.242 -14.8525 5.96330
  565 451.828 -14.5242 -5.69178
  566 316.882 -1.71744 -4.25363
  567 316.955 -1.69535 4.22815
  568 47.2728 4.60660 -25.8171
  569 49.6755 4.83629 26.3985
  570 236.248 -10.8397 -50.6664
  571 237.989 -10.9011 50.6054
  572 458.497 -24.9340 -14.5456
  573 466.372 -50.8357 21.1634
  574 479.340 -45.6290 0.613406
  575 395.619 -6.98940 -1.63107
  576 395.599 -6.94278 1.62334
  577 374.240 -39.3484 -77.5350
  578 417.516 -34.3883 95.7821
  579 365.406 -37.0219 77.9407
  580 472.254 -10.5455 -43.4792
  581 300.301 -4.83946 15.3977
  582 300.154 -4.88876 -15.5161
  583 451.920 25.0801 -36.8306
  584 452.035 -0.798251 -16.9045
  585 562.767 121.547 -10.2030
  586 370.341 -5.51887 -1.55304
  587 370.356 -5.48441 1.54639
  588 479.995 -1.47294 -9.40698
  589 335.131 -11.0991 -17.2257
  590 335.148 -11.0635 17.0862
  591 272.361 12.2726 122.957
  592 467.170 -21.6055 -22.9375
  593 263.166 -14.0728 88.4448
  594 459.114 -23.8767 14.9097
  595 482.365 -7.01926 11.2356
  596 475.984 -4.62353 -2.34277
  597 339.365 -4.07060 -4.01233
  598 339.413 -4.03843 3.99390
  599 540.045 107.429 -20.9196
  600 262.972 -13.5662 -88.7552
  601 457.563 -19.9255 -11.7890
  602 413.978 -7.75283 -0.884932
  603 413.937 -7.69939 0.881580
  604 768.033 103.101 -18.4566
  605 279.181 -1.71829 8.46025
  606 278.946 -1.73470 -8.53403
  607 429.596 9.97728 31.6646
  608 606.098 51.8936 -3.24479
  609 289.934 1.68873 -121.974
  610 150.880 3.57336 -66.9353
  611 152.079 2.74620 66.5842
  612 364.513 -21.0386 21.5378
  613 368.185 -21.6591 -20.9723
  614 614.535 124.099 7.85237
  615 474.117 -4.78252 2.08946
  616 411.847 11.7709 -19.1665
  617 509.826 91.3140 19.7324
  618 508.112 94.7385 -13.1288
  619 417.512 -23.0622 -4.60532
  620 420.604 -22.5574 3.13506
  621 298.592 65.4729 -174.693
  622 360.864 -12.1603 -12.0851
  623 360.900 -12.0253 12.0487
  624 895.339 183.502 138.310
  625 471.428 -15.5314 37.2940
  626 273.368 -9.48164 -32.4449
  627 721.893 173.340 118.391
  628 273.985 -9.43181 32.3325
  629 448.531 -16.9872 -121.527
  630 322.507 -1.48992 -1.56552
  631 322.572 -1.47716 1.55837
  632 397.845 3.67850 16.7308
  633 183.563 -2.66586 -29.0927
  634 184.520 -2.67307 28.8763
  635 412.232 -29.0552 10.0180
  636 431.699 -34.5047 -4.00873
  637 505.875 -1.20186 -3.69408
  638 292.222 -0.430252 2.52821
  639 292.107 -0.438187 -2.55194
  640 389.911 -8.74939 -2.60522
  641 389.900 -8.70370 2.58857
  642 444.378 -49.4350 61.3493
  643 511.732 57.1005 -43.4800
  644 343.347 -15.7837 -22.1741
  645 343.119 -15.5210 22.0229
  646 404.818 -28.9673 -13.3868
  647 633.965 137.577 5.59544
  648 476.577 -46.2107 1.95833
  649 415.492 -9.99873 -1.52544
  650 415.434 -9.95360 1.52456
  651 568.289 62.5021 31.2502
  652 477.890 -7.05479 -18.3918
  653 425.887 -0.464389 -15.5395
  654 199.278 -6.82220 -63.8366
  655 199.858 -7.00412 63.3384
  656 403.632 -34.6711 -20.9096
  657 603.084 132.071 0.0877088
  658 470.075 63.5793 -14.4861
  659 315.140 -2.75595 -7.76582
  660 315.218 -2.71811 7.70900
  661 437.057 -12.4633 -1.24064
  662 437.141 -12.4727 1.32811
  663 805.016 104.898 46.3532
  664 512.656 -1.50908 0.949791
  665 497.017 -2.07849 6.43217
  666 495.239 -2.09776 -7.60144
  667 470.973 -43.9245 4.94839
  668 350.523 -3.97922 -2.00366
  669 350.561 -3.95222 1.99563
  670 504.747 80.6798 30.4807
  671 644.246 142.856 -10.4337
  672 356.028 -26.2138 -31.4068
  673 355.945 -25.9638 31.2603
  674 442.509 -45.5693 -11.1471
  675 468.121 27.8600 -44.2680
  676 551.757 1.61420 16.3969
  677 370.485 -6.80359 -4.09486
  678 370.501 -6.76245 4.08006
  679 320.452 -27.9861 -62.8094
  680 466.584 -45.1895 -0.705958
  681 388.967 -43.1144 56.5335
  682 187.401 58.8561 -124.366
  683 364.233 -33.5737 43.6215
  684 439.528 0.124964 14.3052
  685 320.759 -27.6732 62.4070
  686 457.304 -20.3006 11.9344
  687 364.327 -33.4272 -43.9985
  688 376.515 5.04515 3.51964
  689 291.541 -7.65454 23.1452
  690 291.287 -7.66009 -23.2962
  691 389.134 -44.2293 -57.1496
  692 479.712 -31.7048 -27.8046
  693 440.401 -6.36983 -0.350296
  694 440.471 -6.43163 0.352177
  695 489.982 -31.3389 27.3317
  696 445.809 -46.5842 12.9649
  697 540.835 49.6820 41.1965
  698 488.722 -9.24819 45.1455
  699 470.298 -17.0033 27.1629
  700 451.572 37.2108 -27.9399
  701 540.454 90.7231 32.6960
  702 467.089 -6.52261 -26.7853
  703 464.650 -15.5567 13.4450
  704 482.425 75.3593 7.81450
  705 473.071 -8.13548 23.1318
  706 150.396 102.662 130.567
  707 439.971 -50.6588 -36.2017
  708 509.352 9.20538 45.6760
  709 513.579 -15.9463 -31.5264
  710 510.600 -0.799820 1.98946
  711 469.773 -16.2875 -21.1627
  712 440.657 -51.0532 33.0546
  713 842.286 74.6624 -12.4519
  714 268.069 -1.09252 8.84642
  715 267.761 -1.10418 -8.92435
  716 475.804 -8.85430 -9.59253
  717 513.512 -0.619681 -1.95465
  718 402.936 -35.2373 21.0153
  719 482.459 -18.0502 40.8196
  720 725.693 176.315 -58.6271
  721 457.317 -33.1853 11.7942
  722 505.774 -33.4031 -14.8774
  723 464.809 -15.1505 -13.2247
  724 513.018 -1.01940 -0.581621
  725 471.793 -0.0742218 47.4837
  726 22.3028 22.6579 28.9538
  727 527.895 -19.7927 -80.4450
  728 575.621 34.6618 18.0658
  729 480.465 -49.1960 25.2970
  730 346.788 -8.16652 9.86727
  731 346.781 -8.27738 -9.90997
  732 441.788 232.515 -236.640
  733 490.159 -32.5335 -25.0697
  734 375.100 2.13233 -6.73183
  735 433.833 2.47981 30.7855
  736 473.466 -23.7907 32.5478
  737 453.811 -38.2440 4.84831
  738 470.280 -43.0109 -65.9509
  739 451.125 -35.6953 -5.76698
  740 530.731 -25.3818 -2.82453
  741 489.100 -4.21481 5.54965
  742 438.419 -26.3256 2.50596
  743 788.428 157.529 -84.7885
  744 466.711 -12.6667 10.5666
  745 463.540 7.63471 -46.4507
  746 393.807 -4.27337 136.384
  747 495.799 39.8734 47.1138
  748 426.610 -33.5064 6.15656
  749 331.493 -25.8920 -46.0126
  750 331.540 -25.8264 45.6587
  751 455.184 51.2134 -6.49177
  752 461.746 -5.37252 41.2717
  753 466.296 -11.1545 -34.9497
  754 438.907 -26.8737 -2.63232
  755 424.590 -37.9553 12.5748
  756 486.050 79.9721 -8.77237
  757 453.264 -39.2342 -3.06628
  758 454.443 -28.8076 11.5780
  759 459.823 -6.13611 1.67180
  760 460.089 -5.97915 -1.65627
  761 618.278 135.127 1.54651
  762 504.744 -43.0187 -17.8034
  763 471.179 -14.5653 21.1157
  764 489.204 -4.20977 -5.01935
  765 496.032 3.24978 -47.5434
  766 562.652 29.9769 -25.8752
  767 282.414 -0.226916 -4.16077
  768 282.597 -0.223147 4.12222
  769 4.26971 -7.92067 -5.52057
  770 481.127 -0.625303 8.69656
  771 443.193 -0.640322 -33.9541
  772 456.953 -4.28888 29.7409
  773 413.175 52.8254 198.917
  774 519.826 106.365 -1.05964
  775 370.904 -26.3071 24.7744
  776 68.1195 1.40610 -25.3249
  777 69.9245 1.02486 25.5887
  778 453.123 -3.21227 -33.6378
  779 371.856 -26.5613 -24.7768
  780 486.361 -4.62108 4.13799
  781 253.453 -10.6634 43.2082
  782 251.348 -10.6233 -43.2103
  783 466.668 -12.3071 -10.2848
  784 302.534 -7.44240 -20.1842
  785 302.685 -7.39588 20.0177
  786 485.613 -4.75053 -12.6170
  787 373.927 -9.86631 -7.01798
  788 373.944 -9.80550 7.02128
  789 529.794 -3.31249 -31.3802
  790 478.507 -5.04994 -47.4632
  791 248.377 -1.52957 -11.2330
  792 248.833 -1.51521 11.1095
  793 14.1348 6.14264 -15.6924
  794 16.2286 6.48699 16.4874
  795 392.048 1.93600 -12.1430
  796 436.615 -49.0490 -27.3972
  797 -4.91623 -3.36278 8.58784
  798 -4.34801 -4.04290 -8.58727
  799 454.167 -9.29783 3.66486
  800 491.867 -38.4977 -13.0711
  801 509.586 75.3664 -35.4917
  802 488.340 -4.17089 -3.94139
  803 1025.50 209.011 -192.557
  804 454.071 -9.27175 -3.61415
  805 680.839 129.133 11.2825
  806 486.777 14.1576 -49.5779
  807 536.289 40.5705 -42.3046
  808 94.3057 -1.09648 -23.2804
  809 95.9012 -1.22850 23.2419
  810 307.795 -4.30496 12.0330
  811 307.683 -4.33956 -12.1316
  812 295.129 -0.642754 2.26713
  813 295.033 -0.649648 -2.28361
  814 543.100 91.3205 -32.3221
  815 325.534 -1.92776 -3.38817
  816 325.597 -1.90603 3.37131
  817 463.142 -4.66081 -43.1115
  818 659.945 70.6653 61.4012
  819 419.196 9.53535 -26.6568
  820 148.602 -1.29953 24.8119
  821 147.437 -1.31184 -24.9971
  822 532.721 15.8920 143.623
  823 475.371 -8.92578 9.89975
  824 428.878 28.6196 -11.0963
  825 201.874 -0.282854 16.8334
  826 200.909 -0.191159 -16.9502
  827 300.763 -1.44826 -5.92528
  828 300.876 -1.42747 5.87540
  829 54.4498 48.2333 42.6095
  830 446.109 10.7362 39.4573
  831 495.292 72.6265 -30.6026
  832 531.386 61.7247 -42.3884
  833 352.311 -13.1015 -15.6876
  834 352.121 -13.0096 15.6731
  835 551.047 116.713 14.4828
  836 473.987 -4.20012 -0.479920
  837 474.022 -4.16948 0.556957
  838 470.450 -14.2303 -27.5139
  839 395.539 -26.1767 14.9529
  840 434.035 -48.7563 27.4783
  841 507.722 -41.5905 42.5090
  842 392.402 -11.3141 -4.43306
  843 392.402 -11.2759 4.40783
  844 449.118 41.6991 17.9757
  845 422.850 5.90943 -28.7538
  846 117.329 143.245 135.847
  847 425.880 -37.6399 -11.5415
  848 427.426 -19.0898 -0.260469
  849 427.652 -19.1359 0.234012
  850 470.142 -6.96757 45.1835
  851 465.395 -30.6531 -19.5273
  852 416.701 -27.4698 -6.79559
  853 931.186 30.1330 -45.5391
  854 396.418 -37.3285 28.3335
  855 396.086 -37.8036 -28.7680
  856 469.383 -5.67487 22.7520
  857 701.267 182.171 -44.1337
  858 372.592 -33.6212 -34.8947
  859 410.363 -46.1073 33.6330
  860 372.518 -33.2249 34.6022
  861 403.493 -16.1573 -5.23063
  862 403.489 -16.1083 5.19858
  863 61.5610 25.5981 36.9454
  864 504.277 37.6668 -47.4770
  865 387.778 -15.0045 -7.80539
  866 387.853 -14.8585 7.83110
  867 383.306 -6.30491 -0.954594
  868 383.304 -6.26434 0.949095
  869 420.005 -8.44034 -0.472119
  870 419.956 -8.38878 0.468242
  871 344.202 -6.58357 -8.50681
  872 344.235 -6.51211 8.47514
  873 389.094 -20.2862 -11.5723
  874 389.148 -20.1561 11.6235
  875 9.81493 -1.77903 -5.62533
  876 582.690 109.387 22.7318
  877 501.589 -17.6853 -37.1051
  878 409.993 -45.4333 -33.9624
  879 442.388 -14.3523 3.06493
  880 442.198 -14.2116 -2.95065
  881 482.570 0.553561 48.5107
  882 521.664 -37.1850 -24.9053
  883 460.495 34.1926 -172.963
  884 213.828 -3.71916 86.1384
  885 -6.41497 4.98378 -6.39560
  886 -5.42164 5.63296 7.01331
  887 61.2177 27.2195 -37.7421
  888 470.793 -13.6934 16.4294
  889 494.033 -3.41421 -6.86785
  890 444.831 -42.9339 75.2497
  891 213.332 -3.51352 -86.4650
  892 495.689 -40.7179 8.27251
  893 549.281 -15.5200 66.5849
  894 405.613 1.67665 12.8572
  895 462.303 43.9953 30.5179
  896 252.508 -14.1465 63.1199
  897 251.554 -14.2596 -63.5158
  898 302.579 -14.1683 -35.4679
  899 315.110 -15.7109 -109.547
  900 496.719 -11.7181 42.1928
  901 678.347 160.922 28.8973
  902 499.251 19.1470 48.4166
  903 471.844 -10.1792 -25.1888
  904 321.590 -14.0730 112.250
  905 599.537 110.900 -15.4795
  906 61.3368 51.7458 -52.3018
  907 438.359 -0.841694 -13.6454
  908 302.892 -14.0551 35.1712
  909 367.652 -7.99123 6.14937
  910 367.636 -8.04273 -6.16090
  911 466.054 -30.4872 20.2242
  912 482.347 -3.32733 1.50410
  913 355.950 3.12218 -135.810
  914 507.811 -1.21251 3.24002
  915 504.428 -1.00796 -4.19814
  916 383.571 3.41239 -11.1938
  917 488.824 -2.03052 -7.67960
  918 368.546 -17.0263 -14.6827
  919 368.792 -16.7782 14.7305
  920 -11.5614 4.62885 -6.57705
  921 -16.2065 2.79394 7.06526
  922 482.322 -3.10564 -1.54516
  923 163.825 -3.77563 58.1870
  924 162.900 -3.44049 -58.5031
  925 517.633 75.3502 37.3360
  926 909.856 16.4918 13.9914
  927 487.943 54.1893 39.7576
  928 548.316 -18.9673 21.1233
  929 479.049 -26.7694 32.6394
  930 595.685 124.636 -11.8372
  931 375.812 1.71823 8.44503
  932 460.659 -11.0272 -6.10831
  933 480.061 25.8281 -48.1586
  934 575.773 17.6826 -5.82175
  935 449.629 -27.7925 -8.76566
  936 234.965 -1.25380 -12.5476
  937 235.184 -1.20902 12.3771
  938 473.927 -11.2856 -19.4346
  939 16.6607 20.8446 5.27690
  940 455.024 -47.1909 -6.83502
  941 398.795 12.0147 -1.15256
  942 592.062 129.586 -7.84157
  943 95.5598 70.9283 -85.6486
  944 456.970 -3.41212 -26.6478
  945 320.125 -5.18595 -11.2954
  946 320.192 -5.12656 11.2079
  947 3.01497 -12.6713 9.53918
  948 312.450 -23.0398 -50.8828
  949 463.684 -26.8837 -19.0251
  950 294.350 0.637027 -0.950432
  951 294.430 0.639701 0.944725
  952 470.244 57.0308 -24.3691
  953 499.533 -1.68836 -0.650593
  954 499.560 -1.70652 0.864784
  955 312.602 -22.9820 50.5576
  956 470.000 -0.704992 -10.4659
  957 538.343 3.94951 30.0021
  958 477.977 -6.95411 7.57438
  959 79.0782 19.4894 -46.1856
  960 494.954 -3.17594 6.20006
  961 452.443 3.72381 42.1312
  962 477.076 65.9665 21.6675
  963 476.323 5.52347 -49.1793
  964 330.775 -17.4782 -30.6322
  965 512.107 -18.2567 30.3250
  966 330.994 -17.4160 30.3411
  967 15.9869 17.1082 -2.53276
  968 58.7598 9.67720 33.8943
  969 272.045 -4.67325 20.8547
  970 271.725 -4.67460 -20.9632
  971 460.987 -11.2248 6.47263
  972 497.628 86.2592 11.8928
  973 254.042 22.9388 -128.945
  974 415.961 -25.8604 6.04125
  975 390.536 -40.7022 -42.0085
  976 567.245 108.495 24.3816
  977 437.055 -7.85771 0.239325
  978 437.036 -7.81773 -0.243366
  979 477.780 -9.01486 -13.7854
  980 445.063 38.5294 -16.5759
  981 980.711 295.160 198.652
  982 95.5564 5.12158 -44.1180
  983 96.9455 4.24967 44.2056
  984 7.11770 -7.24321 3.23656
  985 446.159 24.8429 34.0256
  986 390.465 -40.9558 41.7142
  987 482.407 -22.8802 -37.4479
  988 524.605 42.8523 46.3459
  989 502.332 -40.5691 -51.5784
  990 732.093 153.838 52.5039
  991 429.361 -7.07387 -0.330105
  992 429.306 -7.01901 0.329973
  993 501.085 -20.5491 35.0491
  994 35.2595 62.0368 62.2172
  995 230.529 -4.72362 29.7977
  996 229.845 -4.66247 -30.0973
  997 273.568 -13.1723 40.8472
  998 272.654 -12.9654 -40.9872
  999 307.508 -12.4632 29.4839
  1000 336.194 -2.55898 -1.51430
  1001 336.247 -2.54064 1.50866
  1002 814.864 265.425 -170.878
  1003 745.035 186.973 79.0745
  1004 307.261 -12.5229 -29.7159
  1005 515.991 -2.44619 38.7789
  1006 464.456 48.2020 -29.3409
  1007 328.236 -28.3715 90.9085
  1008 419.838 -49.6348 -49.9197
  1009 479.506 -4.02873 -15.1904
  1010 218.621 14.6108 105.251
  1011 280.388 -21.3763 72.6105
  1012 427.300 22.0703 -21.3703
  1013 485.221 -9.68193 -45.7320
  1014 605.214 258.377 268.809
  1015 404.690 12.5570 15.2675
  1016 545.953 116.977 -1.76211
  1017 399.158 16.0148 -154.119
  1018 408.302 -42.8274 -29.1483
  1019 513.786 -0.674766 -1.58396
  1020 496.960 45.6132 -45.8684
  1021 295.941 -1.81492 7.57368
  1022 295.801 -1.83313 -7.63930
  1023 11.0862 8.24218 -16.8670
  1024 331.197 -14.8806 -25.5828
  1025 280.040 -21.6492 -73.1322
  1026 330.965 -14.8519 25.3192
  1027 474.567 -14.5192 42.3082
  1028 426.209 -26.2731 -2.32988
  1029 448.896 8.33689 -40.8695
  1030 462.052 57.6781 8.57038
  1031 618.413 39.1129 26.5152
  1032 469.533 -35.7391 18.9981
  1033 299.961 -23.7850 -55.6706
  1034 445.370 15.8735 -38.3309
  1035 330.966 -28.0061 -91.3533
  1036 631.560 136.286 -3.21249
  1037 433.653 28.6092 19.4423
  1038 542.155 -3.03776 -22.1868
  1039 410.819 -42.8564 26.9918
  1040 470.068 -14.9935 32.5165
  1041 466.692 -24.7195 22.7183
  1042 464.122 -23.4268 19.5281
  1043 571.592 72.9336 -32.2580
  1044 464.407 -7.54074 33.3718
  1045 419.217 -49.7725 49.1276
  1046 447.438 -18.3716 5.71455
  1047 300.153 -23.8348 55.3830
  1048 420.874 -30.8797 -7.27325
  1049 247.075 -12.0797 -77.6348
  1050 350.078 -36.2510 61.8871
  1051 472.460 -3.28742 -17.7359
  1052 460.980 -5.22119 -38.0919
  1053 399.743 -31.4298 -18.1456
  1054 247.492 -12.4135 77.0560
  1055 431.656 1.11672 -26.7519
  1056 322.203 -21.1199 -39.5457
  1057 577.679 122.477 15.0742
  1058 131.621 21.2936 -74.5069
  1059 969.448 68.4144 92.4146
  1060 233.765 16.9878 -110.060
  1061 463.898 -38.4746 -10.8125
  1062 322.300 -20.9454 39.2414
  1063 427.337 4.64588 29.9927
  1064 242.847 -4.80416 24.6796
  1065 242.734 -4.92176 -24.9191
  1066 470.300 -13.1420 -39.2726
  1067 497.351 -2.70167 2.40628
  1068 489.193 -1.17277 7.73986
  1069 485.188 16.0637 49.5171
  1070 454.801 -3.41939 35.8705
  1071 350.974 37.7405 166.550
  1072 516.878 -0.475057 0.732808
  1073 489.212 66.1646 31.6268
  1074 416.458 6.16872 25.8944
  1075 494.903 -1.96425 7.39745
  1076 323.258 -3.33129 -6.36565
  1077 323.321 -3.29397 6.32832
  1078 207.290 -5.77286 -41.2077
  1079 208.061 -5.98169 40.9462
  1080 417.821 21.0188 10.8859
  1081 619.876 34.9349 -49.3124
  1082 569.719 0.514780 -89.4580
  1083 459.336 -0.435496 -10.9037
  1084 350.178 -36.5179 -62.3402
  1085 400.588 -29.8962 16.3521
  1086 461.861 -1.08124 11.3718
  1087 481.923 -35.0691 -22.6000
  1088 306.140 -0.630909 3.76100
  1089 306.056 -0.642582 -3.78238
  1090 463.025 -39.5756 10.8007
  1091 440.466 -9.15127 0.780482
  1092 440.391 -9.16172 -0.754869
  1093 428.815 -43.1030 17.7951
  1094 549.315 -17.5361 -9.11509
  1095 255.080 -0.430520 -7.00495
  1096 255.476 -0.415505 6.93535
  1097 376.211 -24.0137 -104.680
  1098 401.584 -9.56835 2.53820
  1099 401.618 -9.61749 -2.55703
  1100 242.006 131.772 183.063
  1101 553.141 45.5981 -37.0257
  1102 83.7256 40.2218 -57.0394
  1103 478.205 -7.32427 -7.31009
  1104 130.303 44.0832 -85.5071
  1105 269.819 -16.7874 -52.7729
  1106 516.818 -0.667900 0.487994
  1107 516.995 -0.632872 -0.353415
  1108 471.390 -26.9970 -27.7952
  1109 417.302 -46.9526 -67.9972
  1110 131.724 18.1285 70.9959
  1111 513.113 50.7369 44.3225
  1112 464.689 -4.92485 -0.599931
  1113 464.747 -4.92717 0.641578
  1114 505.782 -32.2820 82.6448
  1115 526.162 104.917 16.9080
  1116 315.791 -7.41959 -16.0962
  1117 315.875 -7.38692 15.9910
  1118 238.444 26.9537 130.221
  1119 447.750 2.33942 -39.5113
  1120 142.005 45.2799 91.7781
  1121 569.236 -9.21291 -30.1176
  1122 563.085 123.746 4.95034
  1123 388.541 -30.5239 21.7437
  1124 362.488 2.03614 -1.64789
  1125 490.018 -4.44337 9.32684
  1126 506.510 -0.726475 3.62208
  1127 115.696 0.179055 -20.8146
  1128 117.156 0.126669 20.6798
  1129 404.081 6.91375 -19.2122
  1130 413.790 -12.1619 -2.15527
  1131 413.702 -12.1100 2.14514
  1132 44.0901 73.7380 -66.3094
  1133 69.4339 156.879 -130.427
  1134 418.889 -16.3376 2.04271
  1135 419.041 -16.3304 -2.06894
  1136 432.343 -10.5077 0.742712
  1137 432.282 -10.4890 -0.709653
  1138 115.012 73.2422 92.6398
  1139 344.257 -4.13867 -3.11528
  1140 344.302 -4.11008 3.10206
  1141 431.512 32.7470 -0.442262
  1142 540.948 71.6127 -191.898
  1143 523.568 90.0614 -29.0041
  1144 477.242 -18.3941 -39.8128
  1145 469.998 -23.5307 -28.3643
  1146 388.738 -30.8022 -22.0941
  1147 393.770 1.34754 11.8588
  1148 440.726 27.5930 -28.4598
  1149 434.806 23.5078 27.2193
  1150 447.152 -17.8469 -5.59845
  1151 427.275 -25.7534 2.00297
  1152 389.434 -24.9650 -16.4940
  1153 462.665 -2.75491 21.1695
  1154 807.656 81.3884 11.2939
  1155 465.610 -9.97025 38.5349
  1156 467.886 30.7307 42.5488
  1157 430.796 -42.3078 -13.7735
  1158 55.8274 8.88000 -32.7169
  1159 438.863 -20.3331 -3.57013
  1160 296.420 -0.413870 -0.199276
  1161 296.495 -0.412037 0.197422
  1162 532.540 -14.1271 18.5970
  1163 507.377 -42.7720 20.9048
  1164 726.989 129.736 32.5446
  1165 179.297 -0.327267 -17.2632
  1166 180.301 -0.289380 17.1406
  1167 393.270 -7.93642 -2.00558
  1168 393.254 -7.88991 1.99275
  1169 440.136 -38.7788 -2.92957
  1170 365.606 1.72762 5.40299
  1171 450.603 -32.0924 8.12951
  1172 26.3626 31.3114 -16.1052
  1173 82.8039 40.8015 55.7442
  1174 302.890 -16.6729 101.132
  1175 521.803 99.0667 -20.7294
  1176 496.642 -1.42724 -5.85036
  1177 518.933 -0.884011 0.304958
  1178 519.399 -1.18328 -0.180242
  1179 307.803 -0.660337 -0.634350
  1180 307.877 -0.654941 0.630129
  1181 481.008 30.7309 48.1492
  1182 706.714 120.156 -2.56557
  1183 495.906 81.7845 -21.3394
  1184 370.264 -27.4074 104.019
  1185 301.287 -16.0550 -100.932
  1186 335.792 -22.2314 -35.5583
  1187 461.309 -13.0407 8.38404
  1188 641.877 141.885 8.43716
  1189 335.832 -22.1044 35.2945
  1190 470.938 -8.42083 6.34144
  1191 423.839 15.8885 26.0030
  1192 465.287 14.4491 46.3777
  1193 658.824 146.962 17.9707
  1194 393.977 -10.2357 3.71402
  1195 393.993 -10.2816 -3.73710
  1196 477.219 -9.12690 14.3301
  1197 287.531 -2.97479 11.8252
  1198 287.332 -3.00432 -11.9254
  1199 466.637 -6.55089 -2.69369
  1200 193.218 115.655 -177.436
  1201 404.179 -22.8761 -111.415
  1202 383.494 -11.9160 -6.64267
  1203 383.536 -11.8654 6.64531
  1204 499.245 -2.51403 2.21156
  1205 473.581 -6.40518 5.05392
  1206 26.6762 34.1284 25.4391
  1207 513.667 -0.639675 1.85939
  1208 62.4382 80.0737 79.4258
  1209 462.854 -7.10998 -3.49375
  1210 -0.472597 -11.2024 -9.83955
  1211 329.100 -32.1411 -78.3821
  1212 328.231 -31.3674 77.6175
  1213 513.644 -0.961762 -2.06856
  1214 441.593 -23.3120 -4.37017
  1215 498.936 -2.31113 -2.23712
  1216 402.319 -12.9721 -3.74327
  1217 402.284 -12.9286 3.70772
  1218 466.345 -6.50795 2.51814
  1219 438.552 -19.9310 3.53307
  1220 422.388 -13.6178 0.775300
  1221 422.531 -13.6506 -0.727784
  1222 498.468 -2.38049 -1.81755
  1223 431.446 -45.5445 -76.5535
  1224 488.121 -3.22066 -1.82634
  1225 464.777 -7.30023 3.79241
  1226 328.310 -3.47574 -4.75374
  1227 328.369 -3.44242 4.72852
  1228 365.197 -5.29375 -2.51382
  1229 365.219 -5.25916 2.50261
  1230 586.123 91.6839 26.5019
  1231 492.948 -37.9955 16.0705
  1232 339.008 -1.71812 128.340
  1233 276.048 -0.424022 4.54379
  1234 275.821 -0.428777 -4.58618
  1235 468.238 -8.71124 28.8397
  1236 447.698 -6.94930 0.584982
  1237 447.713 -6.92740 -0.584690
  1238 513.689 99.6248 9.72661
  1239 468.347 -49.1174 61.1967
  1240 275.936 -3.79262 16.5289
  1241 275.671 -3.82009 -16.6427
  1242 447.142 -11.0393 2.77917
  1243 447.042 -11.1173 -2.68234
  1244 461.055 -12.8889 -8.05779
  1245 426.566 0.105065 13.8383
  1246 728.609 181.235 -62.1003
  1247 469.868 -17.2948 -25.1023
  1248 82.6363 19.2517 47.4416
  1249 485.171 -25.9512 34.6797
  1250 393.644 8.77083 -10.5178
  1251 31.0904 22.2394 17.7444
  1252 635.601 72.2300 -9.54634
  1253 474.133 -21.6355 -35.3311
  1254 395.451 5.75930 16.1207
  1255 271.673 -16.8194 52.7012
  1256 481.160 -37.3336 19.9391
  1257 693.939 135.472 46.3923
  1258 163.868 23.8300 90.1590
  1259 483.220 -5.90560 -12.3695
  1260 917.017 10.3306 -9.13710
  1261 946.614 14.1552 40.5813
  1262 1009.42 33.9907 -96.7045
  1263 469.511 -14.7429 -31.5737
  1264 469.277 -21.5089 26.5290
  1265 476.540 -34.0027 24.2359
  1266 -13.9605 1.68840 8.78954
  1267 -12.6784 1.37480 -9.59874
  1268 463.438 -51.3061 -29.5209
  1269 474.353 -48.0572 -43.4616
  1270 368.116 2.41488 -6.66411
  1271 461.418 -52.2057 43.2719
  1272 493.362 -23.4840 -35.1265
  1273 10.4629 15.0573 2.39302
  1274 402.716 -7.37956 1.31663
  1275 402.743 -7.42931 -1.32009
  1276 489.594 -4.08297 8.34791
  1277 470.890 -8.27585 -5.93706
  1278 444.085 -48.4702 -16.3173
  1279 406.769 -21.9027 7.49462
  1280 404.764 -21.5897 -8.05071
  1281 475.785 -10.1825 19.9418
  1282 487.690 -17.9940 -40.8537
  1283 32.2441 23.1860 -17.2836
</Section>

newXOutput 65

<Section columns = "stress_xx | stress_yy | stress_xy">
  1 529.664 -0.182559 0.990182
  2 529.668 -0.172448 -0.992719
  3 296.513 -0.0798279 -0.357360
  4 -3.72177 -3.67497 -5.35249
  5 937.817 382.964 303.293
  6 929.251 396.452 -301.845
  7 -4.32471 -3.48642 5.70307
  8 296.438 -0.0808488 0.356475
  9 533.218 -0.919146 0.289182
  10 532.188 -1.43965 -0.293552
  11 531.132 -0.990847 1.11002
  12 530.056 -1.33752 0.256658
  13 527.724 -1.13701 1.74621
  14 525.591 -1.14305 1.24076
  15 520.432 -1.00749 2.52399
  16 512.922 -0.744888 3.73298
  17 506.256 -0.767716 4.18731
  18 496.250 -1.02917 5.09661
  19 482.231 -0.119145 7.58023
  20 469.285 -0.756804 7.24435
  21 454.368 -0.957167 10.2580
  22 432.844 0.671956 8.96377
  23 417.129 1.05308 10.6304
  24 396.613 1.75111 8.34839
  25 382.359 1.89411 8.43126
  26 361.719 2.60095 4.30775
  27 357.342 4.08659 4.62852
  28 354.696 3.37946 -1.37100
  29 358.283 2.00847 -2.99594
  30 364.900 1.91551 -3.67904
  31 380.370 2.38897 -7.33295
  32 395.398 1.88851 -9.24823
  33 417.332 0.456623 -10.9477
  34 434.860 -0.209810 -9.92417
  35 453.444 -0.757907 -9.70680
  36 470.219 -0.594292 -6.82708
  37 484.538 -0.635211 -5.80786
  38 496.269 -1.01049 -4.84474
  39 506.709 -0.739220 -3.33494
  40 513.141 -0.895682 -3.52029
  41 519.361 -1.07243 -2.56435
  42 525.170 -1.26024 -1.07279
  43 528.126 -1.02343 -1.29703
  44 529.601 -0.658866 -0.788348
  45 528.281 -0.409062 -0.721137
  46 532.688 -1.44135 0.208035
  47 533.361 -0.953067 -0.297944
  48 516.777 -0.548559 -0.613577
  49 505.754 -2.34901 -1.14082
  50 492.207 -3.40589 -0.693697
  51 475.635 -4.94302 -0.964368
  52 459.855 -5.37500 -1.17130
  53 442.962 -6.61710 -1.12312
  54 427.964 -7.29528 -0.583466
  55 414.806 -8.07268 -0.167370
  56 399.605 -6.67549 -0.152768
  57 382.082 -6.19305 -0.324918
  58 365.205 -4.84616 -0.0412732
  59 349.230 -3.04774 0.0183594
  60 334.067 -2.14105 0.0768078
  61 320.797 -1.05776 0.181489
  62 307.270 -0.253349 -0.405066
  63 296.645 0.422704 0.563050
  64 291.837 1.12401 0.397272
  65 294.963 0.0277654 0.907480
  66 291.179 -0.128950 1.10246
  67 287.605 -0.202962 1.37195
  68 282.791 -0.00355681 1.77066
  69 276.727 8.84942e-05 2.21804
  70 272.123 -0.316898 4.22183
  71 259.419 0.377480 4.59954
  72 250.401 -0.0113162 5.23645
  73 236.975 -0.214471 5.94832
  74 221.544 -0.371586 7.23122
  75 202.243 -0.0728510 8.78127
  76 178.717 0.118221 9.70008
  77 158.231 -0.183761 13.8720
  78 118.052 1.26935 13.1306
  79 90.4779 1.09287 13.9133
  80 57.2500 -0.273897 15.4884
  81 29.4714 2.50776 16.1834
  82 -2.24693 3.79000 9.87053
  83 -25.5368 3.86038 3.68716
  84 -25.3856 3.76847 -1.08298
  85 -24.7381 3.15170 -7.35713
  86 -14.6069 -0.937051 -7.06941
  87 -1.73788 -14.0212 -7.82114
  88 1.46557 -25.7112 -9.68478
  89 3.94846 -40.0742 -5.08314
  90 8.69485 -39.9073 1.10603
  91 18.2878 -5.93066 24.9421
  92 53.9452 89.0078 82.4178
  93 310.010 301.247 272.354
  94 1137.29 170.955 189.106
  95 1027.18 24.3991 61.2524
  96 957.138 10.1922 18.7444
  97 931.317 8.69492 1.42495
  98 945.137 11.5209 -16.2905
  99 1025.17 22.8138 -48.5053
  100 1202.35 82.4477 -162.144
  101 184.781 309.502 -228.473
  102 40.3681 65.8865 -68.6284
  103 20.0027 -3.92203 -26.5996
  104 8.15053 -39.7205 -5.10367
  105 2.38754 -30.3234 5.80159
  106 2.94356 -32.4516 8.36743
  107 0.168758 -12.0836 8.66704
  108 -15.2571 -0.575881 6.69004
  109 -25.5199 2.36642 6.40162
  110 -26.7470 4.57477 1.22254
  111 -26.3454 3.79378 -3.44047
  112 -4.10765 3.88393 -9.26498
  113 27.8439 2.52916 -15.4399
  114 55.5917 -0.00478598 -15.2350
  115 88.7626 1.18102 -13.9403
  116 116.494 1.30190 -13.2275
  117 157.023 -0.189496 -13.9843
  118 177.684 0.130664 -9.79071
  119 201.340 -0.0696680 -8.88827
  120 221.084 -0.413264 -7.28207
  121 236.348 -0.202554 -5.96220
  122 249.924 0.00495281 -5.28860
  123 259.027 0.373108 -4.64769
  124 271.838 -0.320151 -4.26260
  125 276.497 -0.00202198 -2.24300
  126 282.614 -0.00557882 -1.79115
  127 287.468 -0.206319 -1.38816
  128 291.071 -0.131827 -1.11375
  129 294.871 0.0253212 -0.914661
  130 291.755 1.12284 -0.400583
  131 296.567 0.422103 -0.565136
  132 307.195 -0.256121 0.404022
  133 320.727 -1.06472 -0.184021
  134 334.006 -2.15628 -0.0797578
  135 349.184 -3.06889 -0.0211904
  136 365.177 -4.87666 0.0384543
  137 382.075 -6.23171 0.322687
  138 399.622 -6.72032 0.150437
  139 414.840 -8.12316 0.166284
  140 428.011 -7.34572 0.585115
  141 443.031 -6.66299 1.12831
  142 459.916 -5.40651 1.18992
  143 475.682 -4.97123 1.05431
  144 492.298 -3.23147 0.708994
  145 506.106 -2.29148 1.11540
  146 516.872 -0.629050 0.603991
  147 464.952 -43.7027 -1.16657
  148 464.548 -43.1107 1.33015
  149 489.666 70.2370 -22.9868
  150 520.032 30.6187 48.1219
  151 394.139 -38.0872 -88.0324
  152 397.369 -38.0245 85.2613
  153 384.975 -16.1682 11.0949
  154 385.000 -16.3879 -11.1006
  155 550.153 19.9272 -35.6296
  156 463.733 -16.8025 9.05383
  157 463.533 -16.4060 -8.94427
  158 599.329 133.050 5.20412
  159 475.733 -0.754634 -47.5427
  160 353.652 -27.5806 -39.6172
  161 353.677 -27.3564 39.2859
  162 476.281 -10.8328 42.6839
  163 454.157 33.2256 28.6039
  164 188.788 29.8793 -105.148
  165 208.941 28.3440 110.733
  166 579.309 7.06150 1.43726
  167 476.983 -18.3904 -29.1904
  168 629.946 138.307 -0.0570159
  169 430.300 -12.1918 -0.635044
  170 430.213 -12.1581 0.669552
  171 481.378 -6.05019 -3.90999
  172 482.823 -5.46257 3.36323
  173 341.094 -4.75831 -6.42406
  174 341.142 -4.71020 6.39395
  175 514.896 -13.0077 111.972
  176 440.080 18.3934 -30.8397
  177 288.768 -21.5141 -63.0750
  178 289.620 -21.3593 62.6846
  179 324.893 -10.4485 -20.7652
  180 324.928 -10.3312 20.6214
  181 479.195 -12.6993 24.8283
  182 436.143 -29.8719 -2.41119
  183 434.653 -29.6500 3.07785
  184 494.081 -47.9233 -10.6087
  185 496.711 -45.6574 4.50001
  186 681.272 160.586 -26.2320
  187 499.119 79.9389 21.4546
  188 499.126 30.6489 -48.7578
  189 512.779 -3.57763 -129.701
  190 494.332 -28.0215 -33.0917
  191 498.630 -20.0421 39.3576
  192 416.425 -47.2396 43.8497
  193 416.491 -46.8985 -43.7255
  194 447.117 5.77090 36.9689
  195 206.469 -5.19223 -77.2969
  196 206.954 -5.61375 76.8435
  197 766.065 114.384 16.7265
  198 468.507 -27.9742 17.4524
  199 485.412 -9.07200 -15.9921
  200 387.370 -9.39087 -5.16597
  201 387.381 -9.34609 5.15143
  202 467.500 -6.10174 -32.9850
  203 531.522 77.9326 -38.5779
  204 447.027 40.2522 -5.72302
  205 293.117 -10.1823 29.0107
  206 292.681 -10.2119 -29.2143
  207 492.031 -5.65314 8.56416
  208 481.205 9.05499 48.9420
  209 392.087 -28.3431 -19.6989
  210 389.547 -26.8309 20.1023
  211 565.520 83.9303 34.4776
  212 661.202 92.5938 19.1691
  213 46.6718 35.9778 -30.5749
  214 43.2106 33.2566 26.0467
  215 274.541 79.1323 183.851
  216 463.864 -30.8628 -12.9638
  217 493.697 -5.42657 -7.72862
  218 442.257 3.97923 -34.0588
  219 312.993 -2.99666 -9.23764
  220 313.095 -2.96338 9.16255
  221 418.546 -19.5643 -4.79868
  222 418.742 -19.6902 4.56439
  223 471.297 -6.39153 27.9890
  224 539.527 -31.1545 14.8802
  225 538.980 109.691 -11.0708
  226 422.680 -40.7057 -21.3979
  227 532.432 -9.29681 29.5693
  228 454.668 -7.81100 1.24284
  229 454.670 -7.74990 -1.24134
  230 419.674 -40.5151 22.1495
  231 479.801 -30.5293 26.7287
  232 668.920 88.9668 -46.6894
  233 151.214 89.9413 -134.381
  234 410.223 14.5795 7.40278
  235 483.367 42.5985 41.3021
  236 513.143 -3.64681 -42.6870
  237 480.113 -17.3498 -39.6839
  238 259.808 -8.20728 -36.2029
  239 260.677 -8.08567 36.0999
  240 480.723 -5.89958 -21.4753
  241 457.939 -11.7380 4.53480
  242 457.726 -11.7263 -4.36286
  243 99.1493 8.82479 -49.8255
  244 100.640 7.73184 49.6495
  245 508.403 -44.5570 -41.6572
  246 502.678 -2.00632 1.08852
  247 503.177 -2.04237 -1.21141
  248 472.429 39.1949 -37.8961
  249 417.982 8.19684 22.3827
  250 856.646 137.145 92.2823
  251 849.214 96.6852 -57.4902
  252 621.722 133.386 -0.0104636
  253 388.409 -18.8630 116.702
  254 356.942 -12.4209 -121.948
  255 410.527 -8.43666 -1.95744
  256 410.492 -8.38589 1.94504
  257 343.053 -9.00124 12.8696
  258 343.044 -9.12259 -12.9753
  259 491.801 -5.45733 13.0282
  260 477.824 -34.0996 -21.5983
  261 314.963 -0.521805 -2.18754
  262 315.039 -0.512331 2.17519
  263 471.859 -19.2243 -17.3331
  264 204.122 -6.60193 -50.3217
  265 204.962 -6.62229 49.9766
  266 477.947 -20.8113 31.4879
  267 366.052 -38.8504 70.8670
  268 366.937 -39.5438 -70.6476
  269 415.965 16.1081 -10.4192
  270 359.031 -5.38793 -4.33886
  271 359.066 -5.35290 4.32362
  272 450.098 -1.07790 27.1987
  273 536.028 97.8239 26.6716
  274 291.537 -3.43622 15.5062
  275 291.319 -3.46413 -15.6302
  276 490.245 -41.0536 14.2292
  277 453.812 -51.0283 -48.4362
  278 504.707 -2.63355 3.90964
  279 354.720 -20.7586 -27.1992
  280 354.139 -20.5314 27.1041
  281 616.286 68.5150 163.650
  282 296.697 -24.0067 84.2760
  283 477.147 66.9151 -2.43375
  284 598.402 66.8640 -20.7285
  285 453.344 -35.0473 4.02997
  286 454.231 -52.4118 43.8325
  287 297.554 -23.6256 -85.1884
  288 56.0203 69.2308 63.6152
  289 471.941 -19.2861 17.6615
  290 616.032 81.3963 15.1986
  291 508.477 -2.35443 -3.39093
  292 464.425 16.3283 -43.6333
  293 456.784 -25.8709 8.78103
  294 447.395 -37.7224 2.85215
  295 462.854 21.3063 42.0807
  296 487.957 -41.0534 -12.5058
  297 689.039 133.379 -12.5139
  298 456.663 -24.8737 -8.38515
  299 374.691 109.866 -223.946
  300 466.365 -49.4859 -11.1001
  301 463.123 -50.8431 16.3595
  302 342.701 -30.8342 -55.6240
  303 312.055 -1.11446 -4.73581
  304 312.147 -1.09493 4.70147
  305 342.863 -30.8635 55.3358
  306 494.050 -0.859231 -48.8336
  307 531.389 -22.0193 -18.6502
  308 407.355 -24.3763 -10.9058
  309 407.115 -24.4335 11.0965
  310 483.611 -41.6344 76.5995
  311 484.544 -3.97909 16.2475
  312 585.001 3.66333 29.5535
  313 399.495 -13.9993 -6.10203
  314 399.526 -13.9566 6.07179
  315 365.158 -9.34776 -8.62051
  316 365.165 -9.26320 8.60969
  317 413.849 5.68675 -21.6394
  318 526.217 38.5846 -46.5345
  319 806.241 218.446 -105.659
  320 478.475 -4.46484 -1.26844
  321 478.219 -4.40730 1.30789
  322 259.015 -0.799016 105.181
  323 363.056 -16.2393 -18.1993
  324 362.403 -16.1904 18.2478
  325 258.963 -1.41851 -104.778
  326 502.786 59.2666 -40.0104
  327 559.934 27.9224 33.5719
  328 483.427 -34.4779 -84.8314
  329 446.737 -17.3107 3.38899
  330 446.296 -17.1912 -3.20251
  331 475.771 -10.0723 -8.16537
  332 450.389 -0.819976 -25.4267
  333 502.892 2.08457 47.6431
  334 500.278 -3.66287 -8.93232
  335 305.114 -18.2737 42.3442
  336 304.779 -18.3717 -42.6527
  337 469.039 -1.03802 45.2160
  338 293.548 -2.28909 -9.24248
  339 293.734 -2.26796 9.16405
  340 479.394 -11.2057 13.1185
  341 575.491 117.209 -18.8369
  342 475.565 -10.1411 8.48895
  343 508.301 63.6997 40.0902
  344 485.992 -9.10223 46.5094
  345 386.962 -7.18512 1.94250
  346 386.961 -7.22678 -1.95384
  347 461.123 -1.61445 -40.1600
  348 607.289 127.431 10.9179
  349 507.310 92.6492 0.832137
  350 310.321 35.9363 -155.766
  351 33.7718 14.1200 -22.2198
  352 36.8506 15.2898 23.8252
  353 -1.09945 3.85467 8.92538
  354 0.712801 2.33228 -9.36237
  355 875.616 60.7895 20.6471
  356 420.060 -33.9552 -13.0379
  357 479.729 -10.8411 -12.7919
  358 434.097 -7.76742 0.326401
  359 434.048 -7.70879 -0.329695
  360 465.995 51.4820 -20.5383
  361 397.020 -40.2859 36.1191
  362 35.7688 53.4972 -39.9847
  363 397.358 -40.2670 -36.7396
  364 471.908 53.6661 21.8506
  365 479.124 -12.9178 -23.5978
  366 507.476 -28.4266 -27.6154
  367 542.587 113.975 7.60737
  368 508.503 -31.8839 22.3063
  369 215.399 -5.23909 33.6612
  370 214.172 -5.13671 -33.8621
  371 122.935 2.85270 -47.0988
  372 124.147 2.38294 46.8949
  373 420.083 1.54023 21.8544
  374 782.499 230.870 92.9843
  375 494.627 -3.28351 -11.5108
  376 387.372 -32.4700 -27.7764
  377 387.082 -32.3970 27.7411
  378 476.679 -11.0976 -30.2349
  379 540.261 -26.1070 0.841426
  380 420.046 -33.9287 13.3973
  381 590.823 5.25670 -51.8927
  382 340.930 -2.63194 -1.73857
  383 340.985 -2.61008 1.72796
  384 469.527 -2.78215 -19.4713
  385 257.430 -3.59802 -21.9250
  386 257.580 -3.71651 21.6693
  387 558.915 71.5062 -38.5913
  388 303.318 21.2896 144.913
  389 438.892 -23.0188 0.793738
  390 439.316 -22.9819 -0.811380
  391 516.151 87.0663 -25.2326
  392 487.688 -14.5310 -43.8907
  393 487.344 -49.9137 42.9058
  394 409.129 -10.8440 -3.10066
  395 409.086 -10.7961 3.07511
  396 470.245 -36.3338 13.8771
  397 504.781 -2.55929 6.60280
  398 319.769 -11.4165 -25.8940
  399 319.899 -11.4204 25.6874
  400 478.924 16.1091 -48.3279
  401 451.023 -9.96749 1.83726
  402 451.000 -9.99314 -1.78242
  403 467.634 -5.55457 36.7399
  404 438.053 32.0712 9.92920
  405 483.696 -20.5323 38.0733
  406 695.591 145.075 27.4292
  407 237.043 -12.7167 -67.5517
  408 237.684 -12.7179 67.0613
  409 106.510 56.4844 -81.8087
  410 515.156 -1.71304 1.73675
  411 268.430 -2.16053 -13.8921
  412 268.772 -2.11483 13.7802
  413 477.003 -12.5507 29.5495
  414 432.881 -46.9167 24.6145
  415 487.079 -6.31086 5.76060
  416 498.230 25.2647 50.1565
  417 111.436 60.1431 85.1122
  418 433.504 -46.6392 -22.7715
  419 447.772 -41.5714 -5.98896
  420 150.313 -3.00058 -42.5380
  421 151.369 -3.10762 42.2574
  422 344.714 -27.8172 -101.616
  423 513.136 -7.75873 41.5544
  424 343.495 -28.2058 100.756
  425 474.569 -26.7456 -24.0476
  426 443.891 30.1020 -21.6823
  427 474.620 -20.6420 22.9506
  428 508.467 -2.47177 -4.36591
  429 16.1969 17.7303 8.59726
  430 104.966 122.499 120.312
  431 458.609 -1.67266 18.8637
  432 388.623 5.50195 9.51984
  433 394.985 6.66192 -12.8909
  434 337.005 -5.38965 -9.08381
  435 337.046 -5.32224 9.03016
  436 467.896 -36.3060 -12.5654
  437 473.619 -9.33677 -41.0170
  438 390.576 7.53310 -3.49993
  439 694.975 165.886 37.1858
  440 99.1694 32.2632 -61.4242
  441 109.072 29.5991 65.4731
  442 438.485 -15.6803 0.979146
  443 438.325 -15.6492 -0.868630
  444 583.881 128.180 -1.41795
  445 360.762 154.309 228.919
  446 559.023 -7.55265 -4.56544
  447 326.119 -16.7472 -35.1229
  448 326.278 -16.6371 34.8431
  449 328.988 -7.14119 14.0261
  450 328.921 -7.19144 -14.1429
  451 441.164 9.94388 -35.1172
  452 517.627 -0.916130 -1.13224
  453 429.596 19.9049 19.7928
  454 538.369 66.4087 42.4936
  455 448.727 -33.2850 -2.49280
  456 486.859 -6.02467 -5.60642
  457 510.461 -2.25689 4.01875
  458 516.099 -0.988273 0.644758
  459 516.478 -1.09304 -0.458422
  460 292.179 -0.469018 3.44875
  461 292.031 -0.476302 -3.48154
  462 490.055 -31.2700 29.0845
  463 445.295 17.7065 34.0192
  464 464.192 1.92314 -44.1757
  465 482.612 -10.3702 17.3490
  466 686.921 121.095 -139.425
  467 484.126 -26.9774 -32.9670
  468 5.89204 9.36748 4.52825
  469 5.79993 9.56691 -2.12802
  470 385.857 -21.6202 15.9696
  471 384.613 -21.3199 -15.7599
  472 596.652 12.8328 76.3031
  473 168.434 156.723 -174.867
  474 478.374 -1.53340 14.5274
  475 538.544 -31.1640 -44.4613
  476 292.254 -16.5988 48.9311
  477 579.590 102.890 -27.1398
  478 477.216 -25.9489 27.4680
  479 402.508 -19.0759 -8.36097
  480 402.858 -18.7665 8.34238
  481 419.986 2.31393 -19.2844
  482 291.361 -16.5284 -49.2115
  483 430.070 0.279376 19.3458
  484 409.241 -46.8724 -63.7207
  485 408.234 -46.9437 63.9813
  486 492.022 -3.39251 12.7298
  487 450.534 42.5800 4.10034
  488 451.989 8.49417 157.404
  489 666.397 134.814 -0.840735
  490 461.494 -8.01281 2.37413
  491 461.515 -7.98524 -2.47738
  492 358.741 -6.20800 -5.87606
  493 358.772 -6.15861 5.85698
  494 190.362 8.41268 88.7397
  495 479.450 -23.2093 -32.4120
  496 435.439 -9.58939 -0.128619
  497 435.395 -9.55912 0.135926
  498 380.116 -40.1103 52.1155
  499 193.957 11.1649 -90.9519
  500 479.692 -39.1926 -14.4543
  501 8.77804 2.81588 2.86595
  502 423.483 22.0858 1.46099
  503 463.031 -5.62363 -0.757971
  504 463.025 -5.69491 0.735876
  505 380.307 -40.0332 -52.5063
  506 539.019 -27.4155 55.9294
  507 536.462 19.4928 42.8803
  508 494.136 -3.62768 -2.70875
  509 478.233 -39.7348 14.7044
  510 305.921 -0.232983 -0.640287
  511 305.998 -0.230427 0.635695
  512 478.149 -18.4627 -34.8320
  513 465.032 34.4574 37.1056
  514 530.004 13.1117 -42.3997
  515 304.055 -0.421729 -1.94610
  516 304.143 -0.415527 1.93410
  517 912.172 131.871 -117.435
  518 483.464 57.4962 32.5656
  519 494.535 -3.37374 2.40183
  520 448.735 -42.4959 7.08084
  521 379.747 -12.3876 8.92944
  522 379.737 -12.4779 -8.91124
  523 520.403 -31.8163 10.9217
  524 501.452 -10.1247 -44.1332
  525 561.033 110.142 23.2880
  526 468.170 8.10264 45.8375
  527 469.940 -9.27443 4.97201
  528 456.281 -48.8601 -61.7888
  529 474.864 -11.8540 34.5554
  530 900.609 41.4534 -16.4029
  531 516.453 -39.0399 2.00118
  532 491.076 -3.53821 -0.586129
  533 491.196 -3.74477 0.494982
  534 910.004 61.0221 57.2830
  535 456.922 -0.100179 38.9894
  536 633.798 107.750 -6.36162
  537 478.441 -13.2046 -16.7281
  538 222.019 -2.00711 -14.9810
  539 222.665 -1.90973 14.8354
  540 326.460 -30.4970 -70.6748
  541 326.740 -29.9881 70.1688
  542 469.677 -8.90614 -4.93660
  543 511.817 18.7599 -48.5433
  544 450.029 -30.6102 4.22500
  545 485.530 55.6285 -33.7411
  546 486.969 -5.83415 17.1203
  547 606.625 31.4923 -10.8691
  548 418.306 -14.3039 -2.97586
  549 418.188 -14.2602 2.94759
  550 453.114 -21.4451 6.31244
  551 663.245 132.982 -14.2980
  552 478.499 20.9488 47.5800
  553 205.780 52.7906 130.836
  554 459.077 -27.4863 106.052
  555 602.149 31.5042 -117.418
  556 489.109 40.4427 -44.1762
  557 431.833 -37.4896 -92.0918
  558 468.006 -51.3856 -20.0852
  559 488.016 -49.5654 -28.5701
  560 65.4247 86.0611 -81.4468
  561 490.738 -6.45247 -10.2375
  562 734.829 142.620 -42.9914
  563 455.460 -20.6000 -7.23981
  564 459.019 -15.0820 5.99139
  565 458.599 -14.7492 -5.71674
  566 321.885 -1.73798 -4.32569
  567 321.959 -1.71564 4.29994
  568 48.1387 4.67385 -26.2464
  569 50.5739 4.90729 26.8366
  570 239.997 -11.0030 -51.4564
  571 241.763 -11.0653 51.3955
  572 465.370 -25.3123 -14.6679
  573 473.324 -51.5992 21.5945
  574 486.483 -46.3151 0.495179
  575 401.648 -7.09487 -1.66417
  576 401.629 -7.04775 1.65631
  577 379.888 -39.9479 -78.7684
  578 423.742 -34.9089 97.3032
  579 370.934 -37.5870 79.1788
  580 479.362 -10.7067 -44.0098
  581 305.046 -4.90598 15.6433
  582 304.896 -4.95588 -15.7631
  583 458.805 25.4685 -37.3070
  584 458.897 -0.810719 -17.1163
  585 571.216 123.337 -10.2988
  586 376.041 -5.59804 -1.58170
  587 376.056 -5.56322 1.57497
  588 487.186 -1.49760 -9.51875
  589 340.341 -11.2572 -17.5098
  590 340.359 -11.2214 17.3686
  591 276.521 12.4423 124.884
  592 474.170 -21.9350 -23.1780
  593 267.236 -14.2995 89.8372
  594 465.995 -24.2390 15.0380
  595 489.544 -7.13485 11.3488
  596 483.051 -4.70602 -2.35575
  597 344.659 -4.12570 -4.08327
  598 344.708 -4.09317 4.06464
  599 548.167 109.022 -21.1460
  600 267.039 -13.7861 -90.1511
  601 464.419 -20.2301 -11.8826
  602 420.247 -7.87281 -0.907057
  603 420.206 -7.81875 0.903634
  604 779.186 104.583 -18.7334
  605 283.646 -1.74095 8.59322
  606 283.408 -1.75756 -8.66785
  607 436.189 10.1379 32.0793
  608 614.988 52.7193 -3.08366
  609 294.347 1.69630 -123.883
  610 153.309 3.61653 -68.0072
  611 154.525 2.77805 67.6507
  612 370.107 -21.3458 21.9034
  613 373.828 -21.9754 -21.3311
  614 623.640 125.954 7.79837
  615 481.161 -4.86735 2.09923
  616 418.215 11.9638 -19.4198
  617 517.531 92.6761 19.9684
  618 515.797 96.1504 -13.2863
  619 423.825 -23.4052 -4.73692
  620 426.959 -22.8937 3.24557
  621 303.060 66.4761 -177.392
  622 366.426 -12.3351 -12.2963
  623 366.462 -12.1984 12.2596
  624 908.127 186.137 140.301
  625 478.511 -15.7691 37.7361
  626 277.691 -9.61902 -32.9497
  627 732.226 176.131 120.423
  628 278.318 -9.56866 32.8362
  629 455.155 -17.2301 -123.435
  630 327.588 -1.50689 -1.59190
  631 327.654 -1.49399 1.58468
  632 404.036 3.74206 16.9526
  633 186.568 -2.70500 -29.5437
  634 187.537 -2.71234 29.3246
  635 418.470 -29.4860 10.2367
  636 438.199 -35.0189 -4.15380
  637 513.337 -1.22506 -3.73059
  638 296.901 -0.434469 2.57090
  639 296.783 -0.442500 -2.59490
  640 395.865 -8.87929 -2.66435
  641 395.854 -8.83313 2.64748
  642 451.002 -50.1792 62.3645
  643 519.422 57.9572 -44.0022
  644 348.658 -16.0120 -22.5383
  645 348.428 -15.7457 22.3851
  646 410.955 -29.3951 -13.6515
  647 643.380 139.596 5.77238
  648 483.682 -46.9050 2.11184
  649 421.781 -10.1519 -1.57649
  650 421.722 -10.1063 1.57551
  651 576.718 63.4482 31.5329
  652 485.036 -7.16891 -18.5999
  653 432.432 -0.468175 -15.7403
  654 202.456 -6.93194 -64.8396
  655 203.043 -7.11623 64.3348
  656 409.744 -35.1850 -21.2914
  657 612.095 133.998 0.0796799
  658 477.227 64.5426 -14.6701
  659 320.108 -2.79166 -7.89404
  660 320.188 -2.75336 7.83658
  661 443.630 -12.6561 -1.21545
  662 443.715 -12.6654 1.30391
  663 816.636 106.401 47.0242
  664 520.168 -1.53780 0.956554
  665 504.386 -2.11557 6.50005
  666 502.591 -2.13412 -7.68515
  667 478.007 -44.5848 4.90048
  668 355.965 -4.03391 -2.03901
  669 356.004 -4.00663 2.03089
  670 512.369 81.8854 30.8509
  671 653.793 144.956 -10.6974
  672 361.491 -26.5990 -31.9225
  673 361.407 -26.3458 31.7742
  674 449.147 -46.2508 -11.4131
  675 475.215 28.2848 -44.8324
  676 559.907 1.64909 16.4666
  677 376.185 -6.90159 -4.17285
  678 376.201 -6.86002 4.15789
  679 325.382 -28.4087 -63.7977
  680 473.556 -45.8682 -0.598556
  681 394.842 -43.7643 57.4523
  682 190.301 59.7490 -126.338
  683 369.789 -34.0740 44.3309
  684 446.243 0.127205 14.4873
  685 325.694 -28.0913 63.3900
  686 464.157 -20.6104 12.0292
  687 369.884 -33.9250 -44.7128
  688 382.432 5.13241 3.56677
  689 296.143 -7.76314 23.5093
  690 295.886 -7.76861 -23.6620
  691 395.009 -44.8958 -58.0776
  692 486.887 -32.1842 -28.0891
  693 447.013 -6.47541 -0.345498
  694 447.084 -6.53799 0.347372
  695 497.295 -31.8132 27.5998
  696 452.491 -47.2818 13.2605
  697 548.896 50.4278 41.6455
  698 496.047 -9.39119 45.6825
  699 477.349 -17.2650 27.4687
  700 458.462 37.7836 -28.3014
  701 548.557 92.0739 33.0579
  702 474.121 -6.62406 -27.1094
  703 471.601 -15.7978 13.5685
  704 489.751 76.4936 7.91288
  705 480.165 -8.26360 23.4017
  706 152.723 104.273 132.647
  707 446.553 -51.4196 -36.8412
  708 516.967 9.34095 46.2076
  709 521.222 -16.1860 -31.8421
  710 518.101 -0.818116 2.00622
  711 476.806 -16.5394 -21.3891
  712 447.252 -51.8197 33.6469
  713 854.344 75.7359 -12.6282
  714 272.371 -1.10645 8.98505
  715 272.059 -1.11824 -9.06389
  716 482.891 -8.99759 -9.68060
  717 521.049 -0.634354 -1.97199
  718 409.040 -35.7599 21.3989
  719 489.690 -18.3258 41.2959
  720 736.195 179.030 -59.7428
  721 464.172 -33.6845 11.8653
  722 513.290 -33.9047 -14.9524
  723 471.762 -15.3858 -13.3459
  724 520.533 -1.04134 -0.583843
  725 478.909 -0.0765377 48.0757
  726 22.6680 23.1404 29.4757
  727 535.625 -20.0549 -81.7790
  728 584.114 35.2034 18.1442
  729 487.604 -49.9327 25.7975
  730 352.168 -8.28205 10.0380
  731 352.160 -8.39429 -10.0812
  732 448.031 236.259 -240.217
  733 497.473 -33.0248 -25.3052
  734 380.998 2.17513 -6.82219
  735 440.475 2.52232 31.1841
  736 480.564 -24.1528 32.9126
  737 460.613 -38.8173 4.81550
  738 477.245 -43.6555 -67.0436
  739 457.892 -36.2307 -5.75225
  740 538.575 -25.7544 -2.70953
  741 496.347 -4.28919 5.59766
  742 445.014 -26.7201 2.46405
  743 799.874 159.813 -86.0584
  744 473.684 -12.8659 10.6582
  745 470.559 7.75339 -47.0405
  746 399.665 -4.32918 138.511
  747 503.265 40.4719 47.6958
  748 433.041 -34.0056 6.33043
  749 336.600 -26.2763 -46.7424
  750 336.649 -26.2101 46.3841
  751 462.132 51.9972 -6.57484
  752 468.726 -5.45509 41.7861
  753 473.320 -11.3256 -35.3725
  754 445.508 -27.2769 -2.59156
  755 430.989 -38.5205 12.8463
  756 493.426 81.1730 -8.88006
  757 460.059 -39.8226 -3.00703
  758 461.258 -29.2418 11.6541
  759 466.685 -6.24029 1.67587
  760 466.954 -6.08114 -1.66005
  761 627.484 137.106 1.48944
  762 512.215 -43.6603 -18.2064
  763 478.231 -14.7911 21.3440
  764 496.449 -4.28445 -5.06099
  765 503.468 3.29673 -48.1124
  766 570.977 30.4430 -26.0780
  767 286.944 -0.227846 -4.22751
  768 287.129 -0.224033 4.18851
  769 4.34842 -8.00436 -5.57435
  770 488.333 -0.638145 8.79915
  771 449.948 -0.645364 -34.3887
  772 463.871 -4.35435 30.1116
  773 419.226 53.6875 201.958
  774 527.680 107.943 -1.07254
  775 376.576 -26.6935 25.1956
  776 69.3345 1.42474 -25.7365
  777 71.1628 1.03788 26.0042
  778 459.996 -3.26010 -34.0615
  779 377.541 -26.9510 -25.1985
  780 493.566 -4.70249 4.16941
  781 257.468 -10.8221 43.8800
  782 255.333 -10.7812 -43.8812
  783 473.639 -12.5011 -10.3736
  784 307.296 -7.54697 -20.5037
  785 307.449 -7.49994 20.3352
  786 492.845 -4.83078 -12.7546
  787 379.667 -10.0090 -7.15013
  788 379.685 -9.94752 7.15353
  789 537.661 -3.35825 -31.6836
  790 485.704 -5.12750 -48.0455
  791 252.386 -1.55050 -11.4068
  792 252.847 -1.53594 11.2817
  793 14.4630 6.23704 -15.9650
  794 16.5849 6.58702 16.7726
  795 398.166 1.96929 -12.3033
  796 443.160 -49.7840 -27.9026
  797 -4.98425 -3.40727 8.71226
  798 -4.41016 -4.10032 -8.71445
  799 460.962 -9.44735 3.67884
  800 499.193 -39.0771 -13.1285
  801 517.266 76.4944 -35.9188
  802 495.568 -4.24522 -3.97183
  803 1039.77 212.043 -195.232
  804 460.864 -9.42106 -3.62776
  805 690.886 131.003 11.4871
  806 494.101 14.3707 -50.1903
  807 544.284 41.1822 -42.7729
  808 95.9450 -1.11478 -23.6524
  809 97.5607 -1.24870 23.6134
  810 312.651 -4.36401 12.2273
  811 312.537 -4.39902 -12.3270
  812 299.854 -0.649680 2.30450
  813 299.755 -0.656659 -2.32116
  814 551.239 92.6830 -32.6749
  815 330.651 -1.95137 -3.44608
  816 330.715 -1.92940 3.42905
  817 470.142 -4.73088 -43.6505
  818 669.482 71.8518 62.5320
  819 425.656 9.69192 -27.0074
  820 151.082 -1.31917 25.2011
  821 149.902 -1.33167 -25.3887
  822 540.456 16.2001 145.864
  823 482.453 -9.07016 9.99058
  824 435.472 29.0688 -11.2418
  825 205.175 -0.285113 17.0931
  826 204.199 -0.192038 -17.2113
  827 305.544 -1.46581 -6.02239
  828 305.658 -1.44477 5.97196
  829 55.3448 49.0129 43.3514
  830 452.910 10.9057 39.9677
  831 502.783 73.7167 -30.9802
  832 539.340 62.6514 -42.8753
  833 357.753 -13.2899 -15.9534
  834 357.561 -13.1970 15.9390
  835 559.330 118.436 14.6303
  836 481.025 -4.27665 -0.481369
  837 481.060 -4.24549 0.559405
  838 477.507 -14.4508 -27.8299
  839 401.552 -26.5630 15.2353
  840 440.546 -49.4869 27.9824
  841 515.217 -42.2036 43.2756
  842 398.386 -11.4813 -4.53135
  843 398.387 -11.4428 4.50578
  844 455.981 42.3409 18.2099
  845 429.355 6.00787 -29.1301
  846 119.121 145.673 138.006
  847 432.296 -38.2001 -11.7983
  848 433.873 -19.3766 -0.324759
  849 434.102 -19.4238 0.297739
  850 477.228 -7.07465 45.7412
  851 472.368 -31.1163 -19.7065
  852 423.001 -27.8772 -6.96603
  853 944.309 30.5570 -46.1525
  854 402.427 -37.8829 28.8252
  855 402.088 -38.3646 -29.2660
  856 476.444 -5.76391 23.0256
  857 711.548 184.897 -44.9696
  858 378.273 -34.1192 -35.4737
  859 416.551 -46.7965 34.2163
  860 378.198 -33.7176 35.1771
  861 409.621 -16.3967 -5.35320
  862 409.618 -16.3474 5.32067
  863 62.5905 25.9954 37.5841
  864 511.852 38.2328 -48.0525
  865 393.698 -15.2248 -7.96205
  866 393.774 -15.0769 7.98816
  867 389.175 -6.39802 -0.974255
  868 389.173 -6.35701 0.968684
  869 426.353 -8.57213 -0.499037
  870 426.303 -8.51998 0.495048
  871 349.552 -6.67543 -8.65251
  872 349.587 -6.60311 8.62052
  873 395.025 -20.5835 -11.7937
  874 395.081 -20.4519 11.8459
  875 9.98599 -1.72164 -5.76975
  876 591.365 111.021 22.9106
  877 509.073 -17.9537 -37.5102
  878 416.175 -46.1121 -34.5499
  879 449.032 -14.5732 3.05663
  880 448.840 -14.4308 -2.94108
  881 489.827 0.559746 49.1069
  882 529.359 -37.7314 -25.4231
  883 467.227 34.7695 -175.628
  884 217.178 -3.79051 87.5019
  885 -6.43609 5.06176 -6.52350
  886 -5.43017 5.72151 7.15021
  887 62.2447 27.6417 -38.3958
  888 477.830 -13.9073 16.5969
  889 501.350 -3.47514 -6.93522
  890 451.447 -43.5803 76.4707
  891 216.676 -3.58272 -87.8327
  892 503.059 -41.3310 8.25681
  893 557.315 -15.7100 67.7214
  894 411.906 1.70481 13.0262
  895 469.337 44.6663 30.9107
  896 256.471 -14.3633 64.1058
  897 255.503 -14.4780 -64.5067
  898 307.308 -14.3750 -36.0251
  899 319.896 -15.9643 -111.265
  900 504.147 -11.8982 42.6790
  901 688.291 163.361 29.5391
  902 506.745 19.4324 49.0036
  903 478.923 -10.3383 -25.4827
  904 326.467 -14.2998 114.010
  905 608.432 112.567 -15.5341
  906 62.3429 52.5722 -53.2013
  907 445.058 -0.852471 -13.8191
  908 307.627 -14.2603 35.7248
  909 373.312 -8.10646 6.26334
  910 373.295 -8.15851 -6.27499
  911 473.035 -30.9478 20.4129
  912 489.492 -3.39083 1.51143
  913 361.281 3.16083 -137.923
  914 515.296 -1.23555 3.27127
  915 511.883 -1.02774 -4.24171
  916 389.580 3.47065 -11.3429
  917 496.114 -2.06314 -7.76876
  918 374.205 -17.2737 -14.9417
  919 374.453 -17.0225 14.9905
  920 -11.7102 4.70658 -6.65766
  921 -16.4290 2.84099 7.15750
  922 489.466 -3.16568 -1.55376
  923 166.472 -3.84006 59.1110
  924 165.535 -3.50037 -59.4313
  925 525.419 76.4754 37.7783
  926 922.704 16.7278 14.1748
  927 495.319 55.0047 40.2550
  928 556.381 -19.2276 21.5983
  929 486.222 -27.1756 32.9969
  930 604.563 126.484 -11.8820
  931 381.722 1.75182 8.55790
  932 467.543 -11.2028 -6.14663
  933 487.308 26.2195 -48.7639
  934 584.246 17.9788 -5.72109
  935 456.379 -28.2109 -8.80497
  936 238.771 -1.27060 -12.7403
  937 238.992 -1.22520 12.5675
  938 481.014 -11.4633 -19.6465
  939 16.9550 21.1981 5.41597
  940 461.834 -47.8982 -7.04633
  941 404.998 12.2139 -1.16785
  942 600.909 131.494 -7.87025
  943 97.0880 72.0549 -87.0645
  944 463.888 -3.46430 -26.9800
  945 325.151 -5.25703 -11.4804
  946 325.220 -5.19692 11.3919
  947 3.07482 -12.8451 9.66434
  948 317.288 -23.3828 -51.6819
  949 470.632 -27.2912 -19.2037
  950 299.074 0.647521 -0.966629
  951 299.156 0.650220 0.960864
  952 477.392 57.8962 -24.6790
  953 506.883 -1.72472 -0.656633
  954 506.911 -1.74304 0.873442
  955 317.442 -23.3244 51.3527
  956 477.077 -0.718961 -10.5931
  957 546.327 4.01259 30.2792
  958 485.086 -7.06955 7.63990
  959 80.3972 19.7837 -46.9599
  960 502.280 -3.23305 6.25963
  961 459.318 3.78500 42.6707
  962 484.320 66.9623 21.9424
  963 483.503 5.60740 -49.7933
  964 335.902 -17.7330 -31.1231
  965 519.727 -18.5338 30.6234
  966 336.124 -17.6701 30.8283
  967 16.2743 17.4004 -2.62692
  968 59.7754 9.82194 34.4651
  969 276.372 -4.73890 21.1796
  970 276.048 -4.74011 -21.2892
  971 467.876 -11.4029 6.51529
  972 505.166 87.5500 12.0387
  973 257.929 23.2718 -130.969
  974 422.252 -26.2445 6.19782
  975 396.448 -41.3103 -42.7067
  976 575.724 110.107 24.6126
  977 443.624 -7.98342 0.223133
  978 443.605 -7.94298 -0.227289
  979 484.904 -9.15970 -13.9271
  980 451.871 39.1251 -16.7916
  981 994.395 299.495 201.542
  982 97.1652 5.19402 -44.8361
  983 98.5720 4.30941 44.9245
  984 7.23824 -7.27511 3.33348
  985 452.971 25.2293 34.4685
  986 396.377 -41.5681 42.4084
  987 489.632 -23.2276 -37.8740
  988 532.448 43.4929 46.8842
  989 509.743 -41.1677 -52.4769
  990 742.809 156.079 53.3452
  991 435.830 -7.18715 -0.341741
  992 435.774 -7.13163 0.341583
  993 508.559 -20.8615 35.4247
  994 35.8166 63.1999 63.2671
  995 234.236 -4.79211 30.2585
  996 233.543 -4.73004 -30.5616
  997 277.876 -13.3661 41.4845
  998 276.949 -13.1558 -41.6259
  999 312.317 -12.6441 29.9511
  1000 341.451 -2.59176 -1.53921
  1001 341.505 -2.57324 1.53350
  1002 826.400 269.480 -173.563
  1003 755.917 189.720 80.3472
  1004 312.066 -12.7045 -30.1858
  1005 523.680 -2.48546 39.2001
  1006 471.521 48.9361 -29.7163
  1007 333.233 -28.8113 92.3384
  1008 426.137 -50.3816 -50.7537
  1009 486.682 -4.09439 -15.3681
  1010 222.016 14.8155 106.918
  1011 284.733 -21.7051 73.7507
  1012 433.869 22.4191 -21.6515
  1013 492.501 -9.83058 -46.2797
  1014 613.641 262.565 272.808
  1015 410.968 12.7616 15.4710
  1016 554.175 118.703 -1.78102
  1017 405.067 16.2704 -156.506
  1018 414.467 -43.4654 -29.6605
  1019 521.319 -0.691539 -1.59741
  1020 504.446 46.2993 -46.4339
  1021 300.650 -1.83775 7.69556
  1022 300.507 -1.85618 -7.76193
  1023 11.2752 8.50398 -17.1993
  1024 336.339 -15.0961 -25.9949
  1025 284.379 -21.9821 -74.2791
  1026 336.104 -15.0673 25.7281
  1027 481.700 -14.7413 42.8159
  1028 432.639 -26.6650 -2.43664
  1029 455.730 8.46867 -41.3956
  1030 469.093 58.5556 8.68023
  1031 627.425 39.7749 27.1174
  1032 476.560 -36.2778 19.1608
  1033 304.613 -24.1417 -56.5447
  1034 452.164 16.1224 -38.8282
  1035 335.998 -28.4411 -92.7883
  1036 640.954 138.272 -3.29513
  1037 440.308 29.0562 19.6980
  1038 550.181 -3.07365 -22.3476
  1039 417.021 -43.4954 27.4745
  1040 477.128 -15.2242 32.8972
  1041 473.684 -25.0947 22.9504
  1042 471.076 -23.7828 19.7195
  1043 580.078 74.0356 -32.5578
  1044 471.410 -7.65745 33.7807
  1045 425.509 -50.5213 49.9495
  1046 454.153 -18.6519 5.73187
  1047 304.808 -24.1926 56.2539
  1048 427.227 -31.3377 -7.45715
  1049 250.932 -12.2726 -78.8530
  1050 355.417 -36.7983 62.8721
  1051 479.558 -3.34161 -17.9484
  1052 467.947 -5.30112 -38.5666
  1053 405.807 -31.8946 -18.4816
  1054 251.355 -12.6108 78.2667
  1055 438.269 1.13777 -27.0980
  1056 327.195 -21.4309 -40.1733
  1057 586.323 124.282 15.2007
  1058 133.737 21.6077 -75.7150
  1059 983.050 69.3698 93.6627
  1060 237.378 17.2258 -111.796
  1061 470.842 -39.0530 -10.8584
  1062 327.293 -21.2542 39.8652
  1063 433.898 4.72427 30.3845
  1064 246.744 -4.87388 25.0618
  1065 246.630 -4.99312 -25.3043
  1066 477.374 -13.3429 -39.7470
  1067 504.687 -2.75304 2.42277
  1068 496.488 -1.19459 7.82865
  1069 492.493 16.3040 50.1315
  1070 461.695 -3.47092 36.3219
  1071 356.206 38.3218 169.122
  1072 524.446 -0.486648 0.737240
  1073 496.616 67.1592 32.0214
  1074 422.884 6.27165 26.2354
  1075 502.257 -1.99812 7.48045
  1076 328.338 -3.37479 -6.47230
  1077 328.402 -3.33703 6.43456
  1078 210.630 -5.85944 -41.8486
  1079 211.410 -6.07148 41.5842
  1080 424.270 21.3536 11.0302
  1081 628.880 35.5337 -50.2355
  1082 578.002 0.585535 -90.9329
  1083 466.289 -0.443705 -11.0387
  1084 355.517 -37.0689 -63.3316
  1085 406.665 -30.3385 16.6613
  1086 468.845 -1.09896 11.5122
  1087 489.122 -35.5988 -22.8049
  1088 311.006 -0.636479 3.82215
  1089 310.921 -0.648289 -3.84375
  1090 469.957 -40.1705 10.8462
  1091 447.080 -9.29669 0.763886
  1092 447.004 -9.30738 -0.738047
  1093 435.266 -43.7461 18.1499
  1094 557.399 -17.7818 -9.41658
  1095 259.197 -0.436014 -7.11368
  1096 259.598 -0.420807 7.04326
  1097 381.857 -24.3871 -106.325
  1098 407.691 -9.71231 2.60083
  1099 407.725 -9.76195 -2.61994
  1100 245.629 133.843 185.892
  1101 561.360 46.2898 -37.4031
  1102 85.0925 40.8468 -58.0021
  1103 485.315 -7.44513 -7.37283
  1104 132.380 44.7508 -86.8968
  1105 274.051 -17.0391 -53.5968
  1106 524.375 -0.683757 0.492776
  1107 524.552 -0.648217 -0.356536
  1108 478.453 -27.4065 -28.0915
  1109 423.548 -47.6623 -69.1029
  1110 133.843 18.3960 72.1470
  1111 520.817 51.4967 44.8526
  1112 471.610 -5.01192 -0.602362
  1113 471.669 -5.01420 0.644502
  1114 513.214 -32.7405 83.9999
  1115 534.098 106.473 17.1020
  1116 320.745 -7.52385 -16.3563
  1117 320.831 -7.49087 16.2499
  1118 242.105 27.3497 132.268
  1119 454.563 2.37894 -40.0178
  1120 144.253 45.9687 93.2612
  1121 577.573 -9.31698 -30.7348
  1122 571.545 125.563 4.99768
  1123 394.452 -30.9743 22.1290
  1124 368.226 2.07495 -1.66999
  1125 497.297 -4.51794 9.42378
  1126 513.989 -0.742479 3.65893
  1127 117.681 0.180424 -21.1425
  1128 119.159 0.127343 21.0058
  1129 410.349 7.03068 -19.4669
  1130 420.056 -12.3452 -2.22405
  1131 419.968 -12.2929 2.21369
  1132 44.7886 75.1498 -67.4336
  1133 70.4968 159.646 -132.514
  1134 425.222 -16.5828 2.12298
  1135 425.376 -16.5751 -2.14977
  1136 438.852 -10.6708 0.719527
  1137 438.791 -10.6520 -0.686164
  1138 116.832 74.3892 94.1526
  1139 349.616 -4.19516 -3.17022
  1140 349.662 -4.16627 3.15687
  1141 438.142 33.2584 -0.447569
  1142 548.736 72.8360 -194.838
  1143 531.451 91.4050 -29.3388
  1144 484.403 -18.6742 -40.2805
  1145 477.044 -23.8889 -28.6757
  1146 394.650 -31.2563 -22.4849
  1147 399.913 1.37231 12.0160
  1148 447.470 28.0228 -28.8311
  1149 441.472 23.8761 27.5764
  1150 453.863 -18.1197 -5.61474
  1151 433.718 -26.1380 2.10427
  1152 395.364 -25.3317 -16.7947
  1153 469.652 -2.79863 21.4298
  1154 819.299 82.5537 11.4521
  1155 472.631 -10.1231 39.0068
  1156 474.980 31.1980 43.0918
  1157 437.275 -42.9384 -14.0699
  1158 56.8022 9.01200 -33.2694
  1159 445.464 -20.6406 -3.55485
  1160 301.174 -0.417189 -0.203240
  1161 301.251 -0.415334 0.201368
  1162 540.426 -14.3355 18.7104
  1163 514.884 -43.4079 21.3557
  1164 737.641 131.609 33.0582
  1165 182.262 -0.329955 -17.5304
  1166 183.279 -0.291497 17.4063
  1167 399.268 -8.05501 -2.05049
  1168 399.252 -8.00801 2.03748
  1169 446.749 -39.3581 -3.06697
  1170 371.385 1.75961 5.47591
  1171 457.365 -32.5745 8.15287
  1172 26.8110 31.8427 -16.4300
  1173 84.1523 41.4370 56.6831
  1174 307.515 -16.9408 102.718
  1175 529.675 100.540 -20.9699
  1176 504.019 -1.45163 -5.91647
  1177 526.516 -0.900172 0.306500
  1178 526.987 -1.20364 -0.180297
  1179 312.699 -0.665886 -0.645626
  1180 312.774 -0.660432 0.641363
  1181 488.271 31.1944 48.7553
  1182 717.095 121.884 -2.60331
  1183 503.415 83.0095 -21.6013
  1184 375.833 -27.8316 105.654
  1185 305.888 -16.3148 -102.515
  1186 340.976 -22.5576 -36.1285
  1187 468.206 -13.2451 8.44686
  1188 651.360 144.012 8.73785
  1189 341.018 -22.4292 35.8614
  1190 477.954 -8.55866 6.38881
  1191 430.361 16.1424 26.3458
  1192 472.335 14.6708 46.9684
  1193 668.565 149.124 18.3634
  1194 399.983 -10.3876 3.79571
  1195 399.999 -10.4339 -3.81911
  1196 484.337 -9.27393 14.4782
  1197 292.106 -3.01498 12.0132
  1198 291.903 -3.04486 -12.1146
  1199 473.589 -6.66128 -2.70497
  1200 196.162 117.452 -180.202
  1201 410.205 -23.2235 -113.169
  1202 389.359 -12.0902 -6.77460
  1203 389.403 -12.0390 6.77732
  1204 506.600 -2.56166 2.22913
  1205 480.626 -6.51363 5.09064
  1206 27.1213 34.7360 25.9138
  1207 521.213 -0.653181 1.87588
  1208 63.4372 81.4165 80.7555
  1209 469.760 -7.22852 -3.51041
  1210 -0.472932 -11.3605 -9.98003
  1211 334.122 -32.6335 -79.6169
  1212 333.242 -31.8484 78.8415
  1213 521.190 -0.979578 -2.08772
  1214 448.231 -23.6632 -4.35977
  1215 506.290 -2.35604 -2.25294
  1216 408.433 -13.1652 -3.83672
  1217 408.398 -13.1214 3.80065
  1218 473.292 -6.61785 2.52781
  1219 445.148 -20.2322 3.51796
  1220 428.768 -13.8247 0.830698
  1221 428.913 -13.8577 -0.782692
  1222 505.812 -2.42663 -1.82979
  1223 437.877 -46.2317 -77.7908
  1224 495.337 -3.28173 -1.83649
  1225 471.707 -7.42142 3.81303
  1226 333.459 -3.52130 -4.83566
  1227 333.520 -3.48759 4.81017
  1228 370.829 -5.36926 -2.56208
  1229 370.851 -5.33432 2.55074
  1230 594.819 93.0635 26.7147
  1231 500.287 -38.5686 16.1718
  1232 344.113 -1.75304 130.344
  1233 280.484 -0.427837 4.61625
  1234 280.253 -0.432649 -4.65913
  1235 475.282 -8.84645 29.1860
  1236 454.404 -7.06408 0.577371
  1237 454.419 -7.04192 -0.577088
  1238 521.453 101.107 9.84191
  1239 475.295 -49.8516 62.2202
  1240 280.332 -3.84526 16.7875
  1241 280.063 -3.87303 -16.9026
  1242 453.847 -11.2128 2.77773
  1243 453.745 -11.2922 -2.67980
  1244 467.948 -13.0915 -8.11680
  1245 433.122 0.107952 14.0165
  1246 739.275 183.900 -63.1233
  1247 476.910 -17.5607 -25.3804
  1248 84.0069 19.5433 48.2338
  1249 492.429 -26.3452 35.0606
  1250 399.780 8.91824 -10.6578
  1251 31.6383 22.5921 18.0773
  1252 644.884 73.3772 -9.91156
  1253 481.245 -21.9646 -35.7364
  1254 401.611 5.85783 16.3358
  1255 275.931 -17.0718 53.5253
  1256 488.345 -37.8967 20.1059
  1257 704.018 137.622 47.3423
  1258 166.455 24.1818 91.6074
  1259 490.416 -6.00442 -12.4991
  1260 929.949 10.4819 -9.26015
  1261 959.904 14.3493 41.1174
  1262 1023.50 34.4407 -97.9993
  1263 476.563 -14.9700 -31.9431
  1264 476.310 -21.8372 26.8180
  1265 483.667 -34.5166 24.4695
  1266 -14.1656 1.71917 8.91401
  1267 -12.8627 1.40158 -9.73691
  1268 470.343 -52.0768 -30.0744
  1269 481.395 -48.7773 -44.2285
  1270 373.927 2.45768 -6.75355
  1271 468.287 -52.9884 44.0283
  1272 500.732 -23.8398 -35.5080
  1273 10.6701 15.3053 2.47658
  1274 408.839 -7.49225 1.34007
  1275 408.866 -7.54256 -1.34359
  1276 496.861 -4.15438 8.43086
  1277 477.903 -8.41165 -5.97998
  1278 450.740 -49.1957 -16.6627
  1279 412.939 -22.2267 7.66318
  1280 410.906 -21.9086 -8.22552
  1281 482.901 -10.3433 20.1645
  1282 494.992 -18.2679 -41.3256
  1283 32.8111 23.5536 -17.6140
</Section>

newXOutput 66

<Section columns = "stress_xx | stress_yy | stress_xy">
  1 537.262 -0.189797 1.00187
  2 537.265 -0.179442 -1.00441
  3 301.213 -0.0793670 -0.361508
  4 -3.77889 -3.73081 -5.43477
  5 950.336 388.733 307.582
  6 941.666 402.396 -306.041
  7 -4.39128 -3.53887 5.79148
  8 301.136 -0.0803987 0.360620
  9 540.857 -0.934429 0.291805
  10 539.818 -1.46273 -0.299485
  11 538.756 -1.00869 1.12117
  12 537.672 -1.35991 0.255818
  13 535.324 -1.15674 1.76359
  14 533.174 -1.16251 1.25101
  15 527.969 -1.02444 2.55015
  16 520.381 -0.760264 3.77250
  17 513.650 -0.782110 4.23351
  18 503.537 -1.04573 5.15481
  19 489.360 -0.123670 7.66939
  20 476.267 -0.768831 7.33179
  21 461.173 -0.970698 10.3847
  22 439.393 0.681100 9.07664
  23 423.484 1.06986 10.7661
  24 402.714 1.77759 8.45668
  25 388.280 1.92634 8.54144
  26 367.379 2.64197 4.36454
  27 362.945 4.15050 4.69019
  28 360.264 3.43424 -1.38953
  29 363.896 2.04430 -3.03529
  30 370.599 1.94739 -3.72766
  31 386.264 2.42694 -7.42923
  32 401.482 1.91863 -9.36795
  33 423.688 0.466405 -11.0884
  34 441.430 -0.211343 -10.0491
  35 460.237 -0.768394 -9.82656
  36 477.210 -0.603975 -6.90987
  37 491.693 -0.646358 -5.87658
  38 503.554 -1.02700 -4.90043
  39 514.106 -0.752317 -3.37096
  40 520.602 -0.912528 -3.55724
  41 526.885 -1.09085 -2.59076
  42 532.748 -1.28122 -1.08106
  43 535.730 -1.04098 -1.30906
  44 537.213 -0.671879 -0.794472
  45 535.872 -0.419677 -0.726856
  46 540.322 -1.46386 0.212836
  47 541.001 -0.968681 -0.300628
  48 524.227 -0.565019 -0.620864
  49 513.075 -2.39425 -1.15611
  50 499.366 -3.46899 -0.700519
  51 482.592 -5.02907 -0.974581
  52 466.616 -5.46664 -1.18244
  53 449.511 -6.72389 -1.13431
  54 434.322 -7.40944 -0.587317
  55 420.996 -8.19402 -0.165838
  56 405.602 -6.77441 -0.150603
  57 387.853 -6.28221 -0.325831
  58 370.761 -4.91345 -0.0383032
  59 354.583 -3.08751 0.0212447
  60 339.228 -2.16716 0.0799740
  61 325.793 -1.06825 0.185524
  62 312.100 -0.253930 -0.409530
  63 301.345 0.429818 0.572160
  64 296.475 1.13952 0.404618
  65 299.633 0.0292039 0.922711
  66 295.794 -0.129326 1.12140
  67 292.165 -0.204312 1.39538
  68 287.277 -0.00217132 1.79995
  69 281.122 0.00101700 2.25406
  70 276.441 -0.319342 4.28754
  71 263.553 0.383356 4.67057
  72 254.399 -0.0106256 5.31569
  73 240.772 -0.216480 6.03881
  74 225.112 -0.375689 7.34072
  75 205.522 -0.0729179 8.91432
  76 181.645 0.120541 9.84828
  77 160.843 -0.184823 14.0847
  78 120.062 1.28765 13.3347
  79 92.0630 1.10854 14.1300
  80 58.3107 -0.279899 15.7335
  81 30.0823 2.54342 16.4448
  82 -2.15565 3.84656 10.0403
  83 -25.8412 3.91864 3.76278
  84 -25.7237 3.82833 -1.07946
  85 -25.1014 3.20307 -7.45953
  86 -14.8251 -0.947576 -7.17294
  87 -1.76051 -14.2305 -7.93702
  88 1.49295 -26.0876 -9.82213
  89 4.01452 -40.6283 -5.13762
  90 8.83551 -40.3966 1.16226
  91 18.5763 -5.78523 25.3837
  92 54.7573 90.7110 83.7383
  93 314.269 306.087 276.280
  94 1152.61 173.327 191.568
  95 1041.19 24.7324 62.0290
  96 970.336 10.3369 18.9822
  97 944.219 8.82120 1.44113
  98 958.207 11.6845 -16.5015
  99 1039.17 23.1324 -49.1232
  100 1218.37 83.5916 -164.206
  101 187.364 314.566 -231.810
  102 40.9738 67.3233 -69.7544
  103 20.3209 -3.74468 -27.0895
  104 8.28361 -40.1926 -5.23066
  105 2.43241 -30.7305 5.86094
  106 2.99448 -32.9296 8.48391
  107 0.173604 -12.2615 8.79584
  108 -15.4857 -0.580106 6.78689
  109 -25.8944 2.40504 6.48948
  110 -27.1043 4.64701 1.22055
  111 -26.6584 3.85055 -3.51266
  112 -4.04008 3.94187 -9.42562
  113 28.4352 2.56509 -15.6901
  114 56.6327 -0.00676940 -15.4762
  115 90.3269 1.19791 -14.1572
  116 118.486 1.32061 -13.4327
  117 159.621 -0.190646 -14.1984
  118 180.600 0.133160 -9.94002
  119 204.608 -0.0697251 -9.02268
  120 224.646 -0.417952 -7.39209
  121 240.138 -0.204359 -6.05276
  122 253.916 0.00586971 -5.36845
  123 263.156 0.378934 -4.71927
  124 276.153 -0.322631 -4.32878
  125 280.888 -0.00111723 -2.27930
  126 287.098 -0.00421718 -1.82067
  127 292.025 -0.207709 -1.41176
  128 295.684 -0.132239 -1.13281
  129 299.539 0.0267323 -0.929965
  130 296.392 1.13834 -0.407961
  131 301.266 0.429214 -0.574267
  132 312.023 -0.256731 0.408480
  133 325.722 -1.07528 -0.188077
  134 339.166 -2.18254 -0.0829490
  135 354.536 -3.10886 -0.0240988
  136 370.732 -4.94426 0.0354589
  137 387.846 -6.32127 0.323577
  138 405.618 -6.81973 0.148242
  139 421.031 -8.24506 0.164733
  140 434.370 -7.46045 0.588981
  141 449.581 -6.77031 1.13956
  142 466.678 -5.49849 1.20128
  143 482.640 -5.05759 1.06563
  144 499.457 -3.29201 0.715949
  145 513.431 -2.33588 1.13033
  146 524.324 -0.646694 0.611140
  147 471.799 -44.3476 -1.07163
  148 471.388 -43.7467 1.23750
  149 496.974 71.2785 -23.2690
  150 527.692 31.0684 48.6813
  151 399.959 -38.6596 -89.4085
  152 403.239 -38.5949 86.5978
  153 390.771 -16.4003 11.2990
  154 390.797 -16.6229 -11.3046
  155 558.186 20.2283 -35.9789
  156 470.563 -17.0573 9.11470
  157 470.360 -16.6553 -9.00464
  158 608.147 134.968 5.22553
  159 482.796 -0.765100 -48.1260
  160 358.994 -27.9808 -40.2463
  161 359.020 -27.7539 39.9107
  162 483.337 -10.9963 43.1945
  163 460.980 33.7308 28.9693
  164 191.696 30.3114 -106.797
  165 212.135 28.7562 112.466
  166 587.684 7.19157 1.27386
  167 484.019 -18.6675 -29.5133
  168 639.145 140.325 0.0877163
  169 436.690 -12.3752 -0.682139
  170 436.601 -12.3413 0.716968
  171 488.415 -6.15215 -3.93362
  172 489.877 -5.55622 3.38260
  173 346.335 -4.82184 -6.53324
  174 346.384 -4.77318 6.50281
  175 522.306 -13.1596 113.727
  176 446.718 18.6793 -31.2354
  177 293.184 -21.8348 -64.0464
  178 294.048 -21.6779 63.6513
  179 329.888 -10.5950 -21.0938
  180 329.925 -10.4763 20.9484
  181 486.257 -12.8935 25.1041
  182 442.608 -30.3099 -2.52622
  183 441.098 -30.0847 3.20086
  184 501.302 -48.6308 -10.8957
  185 503.974 -46.3315 4.70000
  186 691.144 162.930 -26.7640
  187 506.558 81.1176 21.7154
  188 506.518 31.1031 -49.3479
  189 520.140 -3.58311 -131.709
  190 501.599 -28.4388 -33.4389
  191 505.963 -20.3426 39.7925
  192 422.592 -47.9366 44.5763
  193 422.657 -47.5900 -44.4506
  194 453.833 5.86260 37.4380
  195 209.683 -5.28192 -78.4979
  196 210.174 -5.70890 78.0387
  197 777.034 116.001 16.9751
  198 475.412 -28.3902 17.6039
  199 492.538 -9.21472 -16.1599
  200 393.206 -9.52595 -5.26723
  201 393.217 -9.48074 5.25252
  202 474.448 -6.19405 -33.3851
  203 539.374 79.0791 -39.0192
  204 453.765 40.8649 -5.79552
  205 297.662 -10.3267 29.4586
  206 297.220 -10.3565 -29.6645
  207 499.218 -5.74753 8.64344
  208 488.349 9.19022 49.5454
  209 397.961 -28.7533 -20.0464
  210 395.390 -27.2188 20.4529
  211 573.816 85.1662 34.8220
  212 670.687 94.0421 19.6821
  213 47.4464 36.5449 -31.1187
  214 43.9306 33.7807 26.5139
  215 278.604 80.3367 186.648
  216 470.704 -31.3202 -13.0505
  217 500.902 -5.51695 -7.79968
  218 448.912 4.04486 -34.4919
  219 317.862 -3.03516 -9.38519
  220 317.966 -3.00148 9.30926
  221 424.781 -19.8503 -4.92378
  222 424.980 -19.9784 4.68621
  223 478.287 -6.48877 28.3241
  224 547.352 -31.6005 15.2533
  225 546.975 111.289 -11.1906
  226 428.951 -41.3013 -21.7929
  227 540.209 -9.43361 29.8398
  228 461.367 -7.93624 1.23768
  229 461.368 -7.87436 -1.23621
  230 425.906 -41.1080 22.5536
  231 486.867 -30.9842 26.9971
  232 678.454 90.3863 -47.6036
  233 153.532 91.3177 -136.492
  234 416.487 14.8132 7.50033
  235 490.569 43.2326 41.8153
  236 520.682 -3.70269 -43.1626
  237 487.206 -17.6102 -40.1457
  238 263.872 -8.32526 -36.7544
  239 264.752 -8.20205 36.6507
  240 487.816 -5.99266 -21.7230
  241 464.687 -11.9194 4.55121
  242 464.470 -11.9078 -4.37730
  243 100.770 8.95065 -50.6308
  244 102.279 7.84185 50.4513
  245 515.790 -45.2088 -42.3972
  246 509.966 -2.04790 1.09330
  247 510.470 -2.08457 -1.21852
  248 479.488 39.7831 -38.3719
  249 424.341 8.33141 22.6732
  250 868.743 139.080 93.5963
  251 861.186 98.0492 -58.2943
  252 630.840 135.302 0.0311528
  253 394.126 -19.1493 118.502
  254 362.222 -12.6194 -123.823
  255 416.662 -8.56263 -2.00436
  256 416.627 -8.51132 1.99177
  257 348.305 -9.12664 13.0831
  258 348.296 -9.24949 -13.1900
  259 499.006 -5.54663 13.1661
  260 484.858 -34.6059 -21.7925
  261 319.882 -0.525437 -2.22404
  262 319.960 -0.515861 2.21156
  263 478.807 -19.5146 -17.4979
  264 207.351 -6.70157 -51.0952
  265 208.202 -6.72219 50.7460
  266 484.998 -21.1237 31.8376
  267 371.516 -39.4306 71.9777
  268 372.412 -40.1342 -71.7547
  269 422.301 16.3647 -10.5545
  270 364.505 -5.46201 -4.41321
  271 364.541 -5.42661 4.39781
  272 456.845 -1.09125 27.5388
  273 543.966 99.2544 26.9713
  274 296.094 -3.48200 15.7461
  275 295.873 -3.51022 -15.8716
  276 497.437 -41.6623 14.3037
  277 460.469 -51.7836 -49.2504
  278 512.034 -2.68336 3.94189
  279 360.098 -21.0562 -27.6383
  280 359.510 -20.8261 27.5422
  281 624.961 69.6934 166.162
  282 301.189 -24.3740 85.5800
  283 484.291 67.9119 -2.46333
  284 607.091 67.8762 -20.8320
  285 460.038 -35.5635 3.99092
  286 460.898 -53.1868 44.5796
  287 302.056 -23.9878 -86.5041
  288 56.9153 70.3450 64.6783
  289 478.891 -19.5771 17.8299
  290 624.956 82.6226 15.2136
  291 515.847 -2.39914 -3.41897
  292 471.364 16.5772 -44.1820
  293 463.526 -26.2548 8.82205
  294 454.007 -38.2770 2.98834
  295 469.777 21.6289 42.6123
  296 495.119 -41.6614 -12.5582
  297 699.036 135.279 -12.7381
  298 463.403 -25.2432 -8.42338
  299 380.068 111.563 -227.291
  300 473.217 -50.2159 -11.3766
  301 469.931 -51.5936 16.7105
  302 347.872 -31.2884 -56.4915
  303 316.927 -1.12687 -4.81345
  304 317.020 -1.10711 4.77874
  305 348.037 -31.3184 56.1997
  306 501.348 -0.872993 -49.4159
  307 539.136 -22.3407 -18.7642
  308 413.438 -24.7299 -11.1244
  309 413.196 -24.7880 11.3183
  310 490.641 -42.2400 77.8368
  311 491.685 -4.04329 16.4344
  312 593.425 3.76570 30.1647
  313 405.485 -14.2022 -6.22960
  314 405.516 -14.1591 6.19898
  315 370.703 -9.47934 -8.77174
  316 370.712 -9.39378 8.76086
  317 420.156 5.78060 -21.9198
  318 533.964 39.1550 -47.0682
  319 817.733 221.615 -107.286
  320 485.468 -4.54419 -1.27371
  321 485.210 -4.48576 1.31368
  322 262.946 -0.828790 106.810
  323 368.557 -16.4706 -18.5046
  324 367.896 -16.4215 18.5540
  325 262.893 -1.45866 -106.401
  326 510.251 60.1435 -40.4944
  327 568.100 28.3421 33.8845
  328 490.445 -34.9773 -86.1891
  329 453.342 -17.5700 3.37676
  330 452.895 -17.4492 -3.18800
  331 482.750 -10.2317 -8.22935
  332 457.139 -0.830323 -25.7441
  333 510.306 2.11189 48.2008
  334 507.577 -3.72523 -9.02421
  335 309.795 -18.5387 42.9999
  336 309.456 -18.6378 -43.3121
  337 476.020 -1.05183 45.7751
  338 298.151 -2.31835 -9.38785
  339 298.340 -2.29697 9.30855
  340 486.432 -11.3805 13.2433
  341 583.964 118.917 -19.0022
  342 482.543 -10.3012 8.55654
  343 515.840 64.6384 40.5714
  344 493.177 -9.23980 47.0633
  345 392.796 -7.28894 1.98349
  346 392.795 -7.33103 -1.99497
  347 468.003 -1.63647 -40.6589
  348 616.187 129.286 10.9477
  349 514.869 94.0107 0.841788
  350 314.918 36.4614 -158.144
  351 34.3739 14.3343 -22.6102
  352 37.4969 15.5226 24.2390
  353 -1.08926 3.92743 9.03392
  354 0.744918 2.38495 -9.47867
  355 887.881 61.6444 20.9243
  356 426.306 -34.4506 -13.3046
  357 486.770 -11.0109 -12.9131
  358 440.534 -7.88878 0.316627
  359 440.484 -7.82946 -0.320006
  360 472.982 52.2549 -20.7971
  361 402.941 -40.8761 36.7195
  362 36.3560 54.3914 -40.6846
  363 403.281 -40.8564 -37.3482
  364 478.973 54.4697 22.1256
  365 486.183 -13.1156 -23.8573
  366 514.912 -28.8486 -27.8725
  367 550.634 115.633 7.68807
  368 515.947 -32.3573 22.4853
  369 218.823 -5.31467 34.1759
  370 217.580 -5.21073 -34.3789
  371 124.949 2.89105 -47.8400
  372 126.176 2.41484 47.6333
  373 426.468 1.57206 22.1357
  374 793.637 234.278 94.5220
  375 501.876 -3.33872 -11.6380
  376 393.174 -32.9412 -28.2444
  377 392.881 -32.8677 28.2086
  378 483.723 -11.2668 -30.5855
  379 548.107 -26.4849 0.693833
  380 426.292 -34.4239 13.6694
  381 599.294 5.38581 -52.8244
  382 346.176 -2.66530 -1.77169
  383 346.232 -2.64322 1.76098
  384 476.501 -2.82596 -19.7061
  385 261.490 -3.64768 -22.2578
  386 261.642 -3.76800 21.9989
  387 567.113 72.5629 -38.9925
  388 307.829 21.5993 147.138
  389 445.394 -23.3581 0.734568
  390 445.824 -23.3208 -0.752305
  391 523.820 88.3462 -25.5277
  392 494.888 -14.7490 -44.4034
  393 494.452 -50.6477 43.6549
  394 415.245 -11.0038 -3.17722
  395 415.202 -10.9554 3.15129
  396 477.170 -36.8713 13.9666
  397 512.132 -2.60393 6.66879
  398 324.686 -11.5772 -26.2986
  399 324.818 -11.5813 26.0895
  400 486.045 16.3511 -48.9266
  401 457.678 -10.1232 1.82691
  402 457.655 -10.1493 -1.77152
  403 474.586 -5.63907 37.1876
  404 444.674 32.5646 10.0581
  405 490.832 -20.8403 38.5052
  406 705.675 147.152 27.9012
  407 240.718 -12.9113 -68.5940
  408 241.367 -12.9125 68.0973
  409 108.194 57.3454 -83.1380
  410 522.597 -1.74738 1.74921
  411 272.666 -2.18812 -14.1039
  412 273.013 -2.14184 13.9906
  413 484.049 -12.7414 29.8887
  414 439.285 -47.6066 25.0665
  415 494.194 -6.41595 5.80467
  416 505.606 25.6380 50.7655
  417 113.185 61.0599 86.4851
  418 439.915 -47.3243 -23.1962
  419 454.385 -42.1823 -6.17517
  420 152.753 -3.04837 -43.1993
  421 153.822 -3.15681 42.9151
  422 349.848 -28.2441 -103.188
  423 520.671 -7.87663 42.0122
  424 348.616 -28.6371 102.316
  425 481.563 -27.1443 -24.2883
  426 450.585 30.5648 -21.9601
  427 481.613 -20.9528 23.1867
  428 515.845 -2.51725 -4.40465
  429 16.4713 18.0551 8.79495
  430 106.586 124.467 122.230
  431 465.459 -1.69699 19.0955
  432 394.617 5.59620 9.64520
  433 401.057 6.77379 -13.0594
  434 342.187 -5.46196 -9.23468
  435 342.230 -5.39374 9.18044
  436 474.790 -36.8427 -12.6377
  437 480.641 -9.47781 -41.5111
  438 396.593 7.66028 -3.54559
  439 705.030 168.306 37.8782
  440 100.761 32.7460 -62.4294
  441 110.809 30.0414 66.5363
  442 444.982 -15.9146 0.940104
  443 444.819 -15.8833 -0.828290
  444 592.495 130.028 -1.42631
  445 365.872 156.781 232.337
  446 567.132 -7.64579 -4.45997
  447 331.103 -16.9879 -35.6714
  448 331.264 -16.8765 35.3883
  449 334.054 -7.23923 14.2525
  450 333.985 -7.29002 -14.3707
  451 447.810 10.1019 -35.5662
  452 525.096 -0.937547 -1.13914
  453 436.104 20.2171 20.0494
  454 546.297 67.3850 42.9717
  455 455.360 -33.7752 -2.43808
  456 493.969 -6.12586 -5.64985
  457 517.863 -2.29923 4.05427
  458 523.543 -1.01170 0.648551
  459 523.926 -1.11813 -0.460221
  460 296.787 -0.473408 3.50440
  461 296.638 -0.480779 -3.53755
  462 497.259 -31.7356 29.3762
  463 451.997 17.9807 34.4546
  464 471.115 1.95434 -44.7257
  465 489.702 -10.5322 17.5304
  466 696.560 123.076 -141.649
  467 491.257 -27.3798 -33.3221
  468 6.04132 9.51560 4.63475
  469 5.94523 9.72060 -2.19894
  470 391.657 -21.9317 16.2540
  471 390.397 -21.6265 -16.0398
  472 605.180 13.1075 77.5856
  473 170.919 159.207 -177.544
  474 485.451 -1.55978 14.6992
  475 546.326 -31.6036 -45.2602
  476 296.746 -16.8411 49.6840
  477 588.090 104.403 -27.3816
  478 484.248 -26.3366 27.7552
  479 408.533 -19.3520 -8.53208
  480 408.888 -19.0385 8.51335
  481 426.370 2.35279 -19.5319
  482 295.841 -16.7693 -49.9675
  483 436.578 0.288062 19.5919
  484 415.291 -47.5690 -64.7405
  485 414.271 -47.6414 65.0071
  486 499.244 -3.44845 12.8716
  487 457.319 43.2267 4.15335
  488 458.519 8.65470 159.801
  489 676.108 136.737 -0.852519
  490 468.281 -8.14180 2.37775
  491 468.301 -8.11386 -2.48246
  492 364.209 -6.29357 -5.97958
  493 364.240 -6.24363 5.96032
  494 193.311 8.52407 90.1337
  495 486.521 -23.5567 -32.7690
  496 441.893 -9.73664 -0.157124
  497 441.849 -9.70609 0.164431
  498 385.794 -40.7019 52.9475
  499 196.957 11.3155 -92.3785
  500 486.744 -39.7733 -14.5413
  501 8.93293 2.91099 2.86227
  502 429.916 22.4326 1.48085
  503 469.833 -5.71891 -0.757647
  504 469.827 -5.79110 0.735235
  505 385.985 -40.6233 -53.3437
  506 546.803 -27.7939 56.8912
  507 544.320 19.7802 43.3441
  508 501.326 -3.69371 -2.72568
  509 485.265 -40.3230 14.7956
  510 310.732 -0.233472 -0.651785
  511 310.811 -0.230888 0.647150
  512 485.209 -18.7397 -35.2294
  513 471.992 34.9760 37.5743
  514 537.773 13.3061 -42.8608
  515 308.836 -0.425154 -1.97782
  516 308.925 -0.418881 1.96569
  517 924.927 133.722 -119.053
  518 490.678 58.3504 32.9710
  519 501.729 -3.43658 2.41623
  520 455.360 -43.1209 7.28367
  521 385.479 -12.5646 9.09425
  522 385.469 -12.6559 -9.07572
  523 527.994 -32.2855 10.9295
  524 508.832 -10.2779 -44.6367
  525 569.310 111.747 23.5239
  526 475.149 8.22626 46.4096
  527 476.839 -9.42207 4.99978
  528 462.958 -49.5836 -62.7995
  529 481.891 -12.0339 34.9616
  530 913.159 42.0389 -16.6270
  531 523.980 -39.6131 2.17567
  532 498.222 -3.60355 -0.586564
  533 498.344 -3.81300 0.494058
  534 922.686 61.8710 58.0545
  535 463.754 -0.0988812 39.4764
  536 642.973 109.374 -6.23949
  537 485.474 -13.4080 -16.8960
  538 225.577 -2.03497 -15.2077
  539 226.231 -1.93619 15.0603
  540 331.385 -30.9532 -71.7702
  541 331.670 -30.4369 71.2574
  542 476.571 -9.04869 -4.96477
  543 519.361 19.0364 -49.1119
  544 456.680 -31.0615 4.19646
  545 492.771 56.4565 -34.1584
  546 494.127 -5.92837 17.3102
  547 615.362 32.0039 -11.2260
  548 424.540 -14.5146 -3.06245
  549 424.421 -14.4707 3.03368
  550 459.806 -21.7644 6.32849
  551 672.810 134.979 -14.7263
  552 485.619 21.2620 48.1722
  553 208.898 53.5830 132.872
  554 465.753 -27.8826 107.708
  555 610.697 32.0703 -119.277
  556 496.381 41.0449 -44.7206
  557 438.155 -38.0468 -93.5376
  558 474.875 -52.1445 -20.4943
  559 495.141 -50.2965 -29.1117
  560 66.4498 87.4739 -82.7761
  561 497.913 -6.55871 -10.3359
  562 745.409 144.659 -43.6756
  563 462.183 -20.9082 -7.27015
  564 465.783 -15.3113 6.01775
  565 465.358 -14.9740 -5.73999
  566 326.886 -1.75833 -4.39784
  567 326.961 -1.73573 4.37183
  568 49.0079 4.74093 -26.6763
  569 51.4754 4.97811 27.2752
  570 243.746 -11.1659 -52.2459
  571 245.536 -11.2294 52.1851
  572 472.231 -25.6901 -14.7873
  573 480.263 -52.3614 22.0281
  574 493.612 -47.0000 0.373517
  575 407.670 -7.20016 -1.69744
  576 407.651 -7.15253 1.68947
  577 385.528 -40.5466 -80.0018
  578 429.956 -35.4288 98.8242
  579 376.453 -38.1514 80.4168
  580 486.458 -10.8678 -44.5359
  581 309.789 -4.97221 15.8889
  582 309.638 -5.02271 -16.0101
  583 465.681 25.8566 -37.7805
  584 465.750 -0.823182 -17.3264
  585 579.650 125.122 -10.3928
  586 381.736 -5.67695 -1.61046
  587 381.751 -5.64178 1.60365
  588 494.365 -1.52228 -9.62952
  589 345.548 -11.4148 -17.7941
  590 345.567 -11.3787 17.6511
  591 280.676 12.6113 126.811
  592 481.158 -22.2641 -23.4152
  593 271.303 -14.5263 91.2290
  594 472.864 -24.6008 15.1635
  595 496.709 -7.25053 11.4602
  596 490.104 -4.78872 -2.36810
  597 349.949 -4.18052 -4.15437
  598 349.999 -4.14763 4.13556
  599 556.275 110.611 -21.3695
  600 271.103 -14.0062 -91.5466
  601 471.263 -20.5344 -11.9737
  602 426.507 -7.99267 -0.929385
  603 426.466 -7.93800 0.925891
  604 790.308 106.061 -19.0097
  605 288.111 -1.76348 8.72611
  606 287.870 -1.78029 -8.80158
  607 442.774 10.2987 32.4915
  608 623.856 53.5450 -2.91683
  609 298.755 1.70332 -125.791
  610 155.739 3.65931 -69.0792
  611 156.971 2.80956 68.7174
  612 375.694 -21.6522 22.2696
  613 379.464 -22.2910 -21.6905
  614 632.727 127.807 7.73960
  615 488.191 -4.95240 2.10840
  616 424.578 12.1569 -19.6716
  617 525.224 94.0356 20.2023
  618 523.471 97.5596 -13.4424
  619 430.128 -23.7475 -4.87002
  620 433.305 -23.2295 3.35764
  621 307.520 67.4782 -180.089
  622 371.982 -12.5094 -12.5080
  623 372.020 -12.3710 12.4709
  624 920.874 188.763 142.285
  625 485.583 -16.0065 38.1740
  626 282.014 -9.75601 -33.4541
  627 742.527 178.922 122.458
  628 282.649 -9.70513 33.3395
  629 461.763 -17.4722 -125.342
  630 332.667 -1.52367 -1.61831
  631 332.735 -1.51064 1.61101
  632 410.223 3.80577 17.1730
  633 189.575 -2.74403 -29.9942
  634 190.557 -2.75151 29.7725
  635 424.699 -29.9159 10.4569
  636 444.688 -35.5322 -4.30100
  637 520.783 -1.24836 -3.76653
  638 301.579 -0.438613 2.61364
  639 301.460 -0.446740 -2.63790
  640 401.811 -9.00891 -2.72393
  641 401.800 -8.96229 2.70683
  642 457.614 -50.9222 63.3807
  643 527.099 58.8125 -44.5197
  644 353.965 -16.2396 -22.9028
  645 353.732 -15.9698 22.7476
  646 417.083 -29.8221 -13.9175
  647 652.776 141.610 5.95159
  648 490.774 -47.5981 2.26864
  649 428.060 -10.3048 -1.62822
  650 428.000 -10.2588 1.62715
  651 585.129 64.3930 31.8098
  652 492.168 -7.28308 -18.8058
  653 438.969 -0.471861 -15.9397
  654 205.634 -7.04170 -65.8421
  655 206.229 -7.22835 65.3308
  656 415.847 -35.6977 -21.6745
  657 621.089 135.920 0.0713964
  658 484.368 65.5045 -14.8528
  659 325.075 -2.82714 -8.02235
  660 325.156 -2.78839 7.96426
  661 450.191 -12.8487 -1.18910
  662 450.277 -12.8579 1.27854
  663 828.223 107.899 47.6933
  664 527.663 -1.56664 0.963105
  665 511.740 -2.15275 6.56703
  666 509.928 -2.17056 -7.76788
  667 485.028 -45.2439 4.84917
  668 361.402 -4.08836 -2.07445
  669 361.442 -4.06080 2.06624
  670 519.979 83.0887 31.2178
  671 663.319 147.050 -10.9637
  672 366.948 -26.9832 -32.4384
  673 366.864 -26.7268 32.2884
  674 455.775 -46.9310 -11.6814
  675 482.299 28.7091 -45.3929
  676 568.038 1.68434 16.5313
  677 381.879 -6.99929 -4.25117
  678 381.896 -6.95730 4.23603
  679 330.306 -28.8306 -64.7855
  680 480.515 -46.5456 -0.487981
  681 400.709 -44.4131 58.3714
  682 193.199 60.6407 -128.309
  683 375.339 -34.5734 45.0406
  684 452.948 0.129453 14.6682
  685 330.624 -28.5088 64.3726
  686 470.998 -20.9197 12.1214
  687 375.433 -34.4218 -45.4274
  688 388.347 5.21986 3.61364
  689 300.745 -7.87137 23.8732
  690 300.484 -7.87674 -24.0276
  691 400.875 -45.5612 -59.0061
  692 494.048 -32.6629 -28.3693
  693 453.613 -6.58107 -0.340434
  694 453.685 -6.64442 0.342301
  695 504.594 -32.2868 27.8634
  696 459.162 -47.9783 13.5584
  697 556.942 51.1724 42.0889
  698 503.360 -9.53404 46.2146
  699 484.387 -17.5265 27.7712
  700 465.343 38.3558 -28.6606
  701 556.647 93.4222 33.4155
  702 481.142 -6.72544 -27.4308
  703 478.539 -16.0387 13.6896
  704 497.066 77.6261 8.01053
  705 487.248 -8.39167 23.6689
  706 155.048 105.883 134.727
  707 453.122 -52.1791 -37.4824
  708 524.568 9.47628 46.7339
  709 528.850 -16.4252 -32.1527
  710 525.585 -0.836551 2.02260
  711 483.826 -16.7910 -21.6126
  712 453.834 -52.5849 34.2409
  713 866.365 76.8063 -12.8038
  714 276.675 -1.12029 9.12358
  715 276.358 -1.13220 -9.20332
  716 489.964 -9.14091 -9.76698
  717 528.568 -0.649148 -1.98898
  718 415.135 -36.2814 21.7836
  719 496.908 -18.6010 41.7675
  720 746.667 181.742 -60.8629
  721 471.016 -34.1828 11.9334
  722 520.791 -34.4053 -15.0230
  723 478.701 -15.6210 -13.4647
  724 528.031 -1.06342 -0.585887
  725 486.014 -0.0788503 48.6632
  726 23.0336 23.6265 29.9994
  727 543.335 -20.3155 -83.1144
  728 592.588 35.7449 18.2169
  729 494.728 -50.6682 26.3007
  730 357.544 -8.39716 10.2091
  731 357.535 -8.51078 -10.2528
  732 454.253 240.003 -243.788
  733 504.773 -33.5154 -25.5363
  734 386.894 2.21818 -6.91207
  735 447.108 2.56492 31.5801
  736 487.649 -24.5143 33.2733
  737 467.404 -39.3896 4.77977
  738 484.195 -44.2989 -68.1374
  739 464.648 -36.7652 -5.73470
  740 546.403 -26.1261 -2.59022
  741 503.579 -4.36374 5.64462
  742 451.598 -27.1139 2.42000
  743 811.288 162.090 -87.3259
  744 480.643 -13.0650 10.7478
  745 477.568 7.87203 -47.6261
  746 405.512 -4.38464 140.636
  747 510.718 41.0694 48.2731
  748 439.462 -34.5039 6.50627
  749 341.703 -26.6599 -47.4722
  750 341.753 -26.5930 47.1094
  751 469.071 52.7801 -6.65735
  752 475.694 -5.53757 42.2966
  753 480.332 -11.4964 -35.7917
  754 452.099 -27.6794 -2.54862
  755 437.378 -39.0846 13.1197
  756 500.791 82.3719 -8.98688
  757 466.842 -40.4100 -2.94491
  758 468.062 -29.6753 11.7274
  759 473.534 -6.34462 1.67936
  760 473.807 -6.18329 -1.66324
  761 636.673 139.079 1.43020
  762 519.670 -44.3006 -18.6128
  763 485.271 -15.0168 21.5693
  764 503.678 -4.35931 -5.10165
  765 510.890 3.34360 -48.6763
  766 579.285 30.9089 -26.2751
  767 291.474 -0.228702 -4.29424
  768 291.662 -0.224844 4.25481
  769 4.42744 -8.08680 -5.62714
  770 495.527 -0.651068 8.90078
  771 456.694 -0.650254 -34.8203
  772 470.779 -4.41974 30.4796
  773 425.262 54.5503 204.996
  774 535.522 109.518 -1.08533
  775 382.242 -27.0791 25.6175
  776 70.5533 1.44328 -26.1483
  777 72.4048 1.05081 26.4200
  778 466.858 -3.30782 -34.4823
  779 383.218 -27.3398 -25.6208
  780 500.755 -4.78410 4.19994
  781 261.481 -10.9804 44.5513
  782 259.317 -10.9388 -44.5516
  783 480.596 -12.6950 -10.4604
  784 312.056 -7.65114 -20.8230
  785 312.211 -7.60361 20.6526
  786 500.064 -4.91114 -12.8906
  787 385.401 -10.1513 -7.28279
  788 385.419 -10.0891 7.28628
  789 545.512 -3.40373 -31.9817
  790 492.890 -5.20493 -48.6231
  791 256.395 -1.57134 -11.5803
  792 256.862 -1.55657 11.4538
  793 14.7943 6.33134 -16.2382
  794 16.9440 6.68696 17.0585
  795 404.281 2.00265 -12.4627
  796 449.694 -50.5176 -28.4099
  797 -5.05198 -3.45149 8.83632
  798 -4.47211 -4.15754 -8.84136
  799 467.745 -9.59687 3.69168
  800 506.504 -39.6556 -13.1819
  801 524.934 77.6205 -36.3420
  802 502.781 -4.31974 -4.00144
  803 1053.99 215.067 -197.896
  804 467.645 -9.57038 -3.64024
  805 700.910 132.868 11.6922
  806 501.414 14.5835 -50.7980
  807 552.263 41.7930 -43.2357
  808 97.5884 -1.13310 -24.0244
  809 99.2240 -1.26890 23.9850
  810 317.506 -4.42280 12.4216
  811 317.390 -4.45820 -12.5224
  812 304.578 -0.656516 2.34189
  813 304.478 -0.663578 -2.35872
  814 559.363 94.0430 -33.0234
  815 335.766 -1.97478 -3.50409
  816 335.831 -1.95257 3.48688
  817 477.130 -4.80083 -44.1855
  818 678.992 73.0403 63.6668
  819 432.110 9.84863 -27.3560
  820 153.564 -1.33877 25.5901
  821 152.370 -1.35148 -25.7801
  822 548.170 16.5098 148.105
  823 489.523 -9.21458 10.0797
  824 442.058 29.5177 -11.3864
  825 208.479 -0.287304 17.3525
  826 207.490 -0.192852 -17.4721
  827 310.324 -1.48321 -6.11956
  828 310.441 -1.46192 6.06857
  829 56.2405 49.7929 44.0952
  830 459.702 11.0753 40.4749
  831 510.262 74.8051 -31.3548
  832 547.280 63.5766 -43.3570
  833 363.191 -13.4777 -16.2196
  834 362.997 -13.3839 16.2053
  835 567.599 120.155 14.7756
  836 488.048 -4.35341 -0.482660
  837 488.084 -4.32173 0.561688
  838 484.552 -14.6711 -28.1427
  839 407.556 -26.9484 15.5187
  840 447.047 -50.2162 28.4884
  841 522.695 -42.8153 44.0447
  842 404.363 -11.6480 -4.63034
  843 404.364 -11.6092 4.60443
  844 462.835 42.9820 18.4427
  845 435.854 6.10645 -29.5042
  846 120.910 148.106 140.164
  847 438.702 -38.7591 -12.0570
  848 440.309 -19.6629 -0.390610
  849 440.541 -19.7112 0.363022
  850 484.303 -7.18159 46.2945
  851 479.327 -31.5788 -19.8821
  852 429.291 -28.2838 -7.13807
  853 957.386 30.9795 -46.7629
  854 408.426 -38.4363 29.3179
  855 408.082 -38.9244 -29.7650
  856 483.492 -5.85292 23.2969
  857 721.803 187.619 -45.8089
  858 383.946 -34.6161 -36.0532
  859 422.730 -47.4845 34.8007
  860 383.872 -34.2092 35.7527
  861 415.741 -16.6357 -5.47678
  862 415.738 -16.5859 5.44376
  863 63.6215 26.3924 38.2244
  864 519.414 38.7979 -48.6231
  865 399.610 -15.4446 -8.11953
  866 399.687 -15.2949 8.14603
  867 395.038 -6.49091 -0.994027
  868 395.035 -6.44947 0.988384
  869 432.691 -8.70382 -0.526450
  870 432.641 -8.65109 0.522350
  871 354.899 -6.76693 -8.79845
  872 354.934 -6.69375 8.76613
  873 400.949 -20.8800 -12.0159
  874 401.006 -20.7470 12.0691
  875 10.1575 -1.66174 -5.91578
  876 600.024 112.652 23.0844
  877 516.543 -18.2217 -37.9101
  878 422.346 -46.7897 -35.1387
  879 455.666 -14.7939 3.04685
  880 455.471 -14.6497 -2.93003
  881 497.073 0.565903 49.6982
  882 537.038 -38.2765 -25.9441
  883 473.942 35.3473 -178.290
  884 220.527 -3.86220 88.8651
  885 -6.45483 5.13972 -6.65217
  886 -5.43642 5.81003 7.28785
  887 63.2733 28.0636 -39.0511
  888 484.855 -14.1211 16.7618
  889 508.652 -3.53623 -7.00150
  890 458.049 -44.2256 77.6923
  891 220.018 -3.65230 -89.2001
  892 510.415 -41.9431 8.23714
  893 565.329 -15.8984 68.8598
  894 418.194 1.73300 13.1942
  895 476.361 45.3366 31.3009
  896 260.431 -14.5798 65.0912
  897 259.450 -14.6961 -65.4969
  898 312.036 -14.5811 -36.5821
  899 324.676 -16.2179 -112.982
  900 511.562 -12.0780 43.1601
  901 698.211 165.798 30.1856
  902 514.225 19.7174 49.5856
  903 485.989 -10.4974 -25.7738
  904 331.337 -14.5268 115.768
  905 617.309 114.232 -15.5835
  906 63.3499 53.3987 -54.1027
  907 451.748 -0.863178 -13.9917
  908 312.359 -14.4650 36.2782
  909 378.967 -8.22134 6.37772
  910 378.949 -8.27394 -6.38946
  911 480.003 -31.4076 20.5980
  912 496.622 -3.45458 1.51833
  913 366.603 3.19918 -140.034
  914 522.764 -1.25869 3.30200
  915 519.322 -1.04762 -4.28469
  916 395.586 3.52903 -11.4912
  917 503.390 -2.09578 -7.85705
  918 379.857 -17.5205 -15.2014
  919 380.109 -17.2661 15.2512
  920 -11.8580 4.78444 -6.73755
  921 -16.6505 2.88811 7.24914
  922 496.595 -3.22599 -1.56196
  923 169.119 -3.90460 60.0350
  924 168.171 -3.56038 -60.3593
  925 533.191 77.5985 38.2165
  926 935.507 16.9630 14.3571
  927 502.683 55.8189 40.7486
  928 564.427 -19.4866 22.0771
  929 493.382 -27.5813 33.3501
  930 613.424 128.329 -11.9230
  931 387.630 1.78559 8.67016
  932 474.415 -11.3785 -6.18341
  933 494.544 26.6103 -49.3648
  934 592.700 18.2755 -5.61522
  935 463.117 -28.6287 -8.84162
  936 242.578 -1.28730 -12.9328
  937 242.802 -1.24128 12.7578
  938 488.088 -11.6409 -19.8558
  939 17.2502 21.5522 5.55665
  940 468.631 -48.6043 -7.26038
  941 411.197 12.4133 -1.18305
  942 609.739 133.398 -7.89637
  943 98.6163 73.1815 -88.4818
  944 470.795 -3.51642 -27.3096
  945 330.175 -5.32778 -11.6655
  946 330.245 -5.26696 11.5760
  947 3.13502 -13.0181 9.78872
  948 322.122 -23.7251 -52.4806
  949 477.568 -27.6981 -19.3790
  950 303.799 0.658025 -0.982850
  951 303.883 0.660748 0.977027
  952 484.529 58.7605 -24.9868
  953 514.217 -1.76131 -0.662561
  954 514.246 -1.77978 0.881967
  955 322.279 -23.6662 52.1474
  956 484.143 -0.733005 -10.7193
  957 554.295 4.07577 30.5508
  958 492.182 -7.18509 7.70399
  959 81.7178 20.0777 -47.7353
  960 509.592 -3.29033 6.31818
  961 466.183 3.84627 43.2066
  962 491.555 67.9566 22.2155
  963 490.673 5.69126 -50.4027
  964 341.024 -17.9871 -31.6139
  965 527.332 -18.8104 30.9167
  966 341.250 -17.9237 31.3155
  967 16.5628 17.6932 -2.72265
  968 60.7934 9.96643 35.0368
  969 280.699 -4.80430 21.5042
  970 280.371 -4.80538 -21.6150
  971 474.753 -11.5810 6.55638
  972 512.694 88.8386 12.1835
  973 261.811 23.6040 -132.992
  974 428.534 -26.6278 6.35596
  975 402.351 -41.9173 -43.4056
  976 584.187 111.715 24.8394
  977 450.183 -8.10910 0.206427
  978 450.163 -8.06821 -0.210700
  979 492.015 -9.30456 -14.0668
  980 458.671 39.7203 -17.0059
  981 1008.03 303.820 204.423
  982 98.7766 5.26622 -45.5545
  983 100.201 4.36894 45.6438
  984 7.35899 -7.30455 3.43174
  985 459.775 25.6154 34.9085
  986 402.281 -42.1792 43.1032
  987 496.844 -23.5745 -38.2955
  988 540.277 44.1325 47.4170
  989 517.139 -41.7650 -53.3774
  990 753.498 158.315 54.1864
  991 442.289 -7.30041 -0.353539
  992 442.232 -7.24424 0.353353
  993 516.019 -21.1735 35.7953
  994 36.3736 64.3681 64.3185
  995 237.944 -4.86040 30.7188
  996 237.243 -4.79741 -31.0255
  997 282.183 -13.5595 42.1214
  998 281.244 -13.3458 -42.2642
  999 317.123 -12.8245 30.4181
  1000 346.705 -2.62432 -1.56413
  1001 346.761 -2.60560 1.55837
  1002 837.897 273.531 -176.246
  1003 766.772 192.460 81.6199
  1004 316.868 -12.8855 -30.6555
  1005 531.354 -2.52466 39.6161
  1006 478.575 49.6692 -30.0892
  1007 338.224 -29.2509 93.7677
  1008 432.425 -51.1271 -51.5887
  1009 493.845 -4.16009 -15.5441
  1010 225.408 15.0194 108.585
  1011 289.075 -22.0335 74.8904
  1012 440.432 22.7679 -21.9310
  1013 499.768 -9.97904 -46.8225
  1014 622.034 266.754 276.799
  1015 417.241 12.9663 15.6734
  1016 562.384 120.426 -1.79969
  1017 410.964 16.5261 -158.890
  1018 420.622 -44.1021 -30.1739
  1019 528.834 -0.708464 -1.61057
  1020 511.919 46.9843 -46.9949
  1021 305.358 -1.86042 7.81745
  1022 305.213 -1.87906 -7.88456
  1023 11.4646 8.76959 -17.5334
  1024 341.477 -15.3111 -26.4071
  1025 288.715 -22.3146 -75.4255
  1026 341.239 -15.2821 26.1371
  1027 488.821 -14.9631 43.3190
  1028 439.058 -27.0561 -2.54521
  1029 462.554 8.60045 -41.9182
  1030 476.126 59.4319 8.78933
  1031 636.415 40.4381 27.7243
  1032 483.574 -36.8156 19.3198
  1033 309.262 -24.4979 -57.4184
  1034 458.949 16.3712 -39.3223
  1035 341.024 -28.8757 -94.2226
  1036 650.330 140.253 -3.37858
  1037 446.955 29.5031 19.9523
  1038 558.189 -3.10911 -22.5032
  1039 423.213 -44.1332 27.9585
  1040 484.175 -15.4546 33.2742
  1041 480.665 -25.4693 23.1790
  1042 478.018 -24.1384 19.9077
  1043 588.547 75.1360 -32.8517
  1044 478.401 -7.77405 34.1863
  1045 431.791 -51.2688 50.7724
  1046 460.856 -18.9318 5.74728
  1047 309.460 -24.5497 57.1244
  1048 433.572 -31.7948 -7.64282
  1049 254.786 -12.4654 -80.0707
  1050 360.750 -37.3447 63.8570
  1051 486.644 -3.39585 -18.1589
  1052 474.903 -5.38095 -39.0377
  1053 411.862 -32.3585 -18.8188
  1054 255.215 -12.8081 79.4770
  1055 444.874 1.15891 -27.4419
  1056 332.182 -21.7412 -40.8008
  1057 594.950 126.084 15.3241
  1058 135.854 21.9210 -76.9237
  1059 996.602 70.3216 94.9048
  1060 240.988 17.4629 -113.532
  1061 477.774 -39.6305 -10.9009
  1062 332.283 -21.5623 40.4889
  1063 440.452 4.80279 30.7739
  1064 250.641 -4.94340 25.4436
  1065 250.526 -5.06427 -25.6891
  1066 484.437 -13.5435 -40.2172
  1067 512.007 -2.80461 2.43870
  1068 503.769 -1.21650 7.91653
  1069 499.785 16.5439 50.7411
  1070 468.579 -3.52236 36.7700
  1071 361.428 38.9025 171.691
  1072 531.996 -0.498340 0.741489
  1073 504.010 68.1523 32.4130
  1074 429.304 6.37472 26.5744
  1075 509.597 -2.03207 7.56255
  1076 333.415 -3.41802 -6.57906
  1077 333.481 -3.37982 6.54092
  1078 213.970 -5.94587 -42.4890
  1079 214.761 -6.16110 42.2217
  1080 430.713 21.6884 11.1736
  1081 637.859 36.1339 -51.1621
  1082 586.262 0.658140 -92.4091
  1083 473.231 -0.451951 -11.1727
  1084 360.849 -37.6191 -64.3228
  1085 412.733 -30.7799 16.9717
  1086 475.818 -1.11670 11.6515
  1087 496.309 -36.1277 -23.0055
  1088 315.872 -0.641924 3.88331
  1089 315.786 -0.653870 -3.90515
  1090 476.876 -40.7645 10.8884
  1091 453.684 -9.44206 0.746544
  1092 453.606 -9.45300 -0.720485
  1093 441.706 -44.3880 18.5065
  1094 565.464 -18.0265 -9.72228
  1095 263.315 -0.441469 -7.22232
  1096 263.721 -0.426071 7.15108
  1097 387.493 -24.7602 -107.969
  1098 413.789 -9.85602 2.66402
  1099 413.824 -9.90614 -2.68342
  1100 249.246 135.912 188.718
  1101 569.563 46.9806 -37.7748
  1102 86.4604 41.4714 -58.9664
  1103 492.412 -7.56608 -7.43417
  1104 134.457 45.4174 -88.2873
  1105 278.280 -17.2903 -54.4203
  1106 531.913 -0.699742 0.497480
  1107 532.092 -0.663693 -0.359592
  1108 485.504 -27.8155 -28.3839
  1109 429.783 -48.3710 -70.2091
  1110 135.962 18.6629 73.2986
  1111 528.508 52.2552 45.3779
  1112 478.517 -5.09920 -0.604610
  1113 478.577 -5.10143 0.647238
  1114 520.628 -33.1973 85.3560
  1115 542.020 108.026 17.2939
  1116 325.697 -7.62772 -16.6165
  1117 325.784 -7.59442 16.5089
  1118 245.763 27.7447 134.315
  1119 461.368 2.41854 -40.5209
  1120 146.500 46.6566 94.7449
  1121 585.890 -9.41975 -31.3556
  1122 579.990 127.375 5.04416
  1123 400.355 -31.4237 22.5153
  1124 373.962 2.11395 -1.69198
  1125 504.562 -4.59260 9.51939
  1126 521.452 -0.758601 3.69524
  1127 119.670 0.181756 -21.4702
  1128 121.166 0.127984 21.3318
  1129 416.612 7.14781 -19.7202
  1130 426.314 -12.5281 -2.29372
  1131 426.224 -12.4754 2.28313
  1132 45.4869 76.5683 -68.5595
  1133 71.5583 162.421 -134.602
  1134 431.545 -16.8275 2.20449
  1135 431.701 -16.8194 -2.23184
  1136 445.351 -10.8338 0.695439
  1137 445.289 -10.8149 -0.661780
  1138 118.652 75.5357 95.6664
  1139 354.972 -4.25138 -3.22529
  1140 355.018 -4.22219 3.21180
  1141 444.764 33.7696 -0.452832
  1142 556.501 74.0619 -197.776
  1143 539.322 92.7461 -29.6700
  1144 491.551 -18.9538 -40.7438
  1145 484.077 -24.2466 -28.9833
  1146 400.554 -31.7094 -22.8767
  1147 406.051 1.39717 12.1722
  1148 454.205 28.4523 -29.2003
  1149 448.131 24.2444 27.9314
  1150 460.562 -18.3922 -5.62912
  1151 440.152 -26.5219 2.20739
  1152 401.286 -25.6975 -17.0963
  1153 476.628 -2.84235 21.6881
  1154 830.907 83.7155 11.6098
  1155 479.640 -10.2757 39.4750
  1156 482.065 31.6647 43.6311
  1157 443.744 -43.5678 -14.3684
  1158 57.7795 9.14373 -33.8229
  1159 452.053 -20.9476 -3.53768
  1160 305.929 -0.420419 -0.207223
  1161 306.007 -0.418542 0.205335
  1162 548.296 -14.5434 18.8188
  1163 522.375 -44.0424 21.8099
  1164 748.266 133.478 33.5715
  1165 185.231 -0.332567 -17.7974
  1166 186.260 -0.293540 17.6718
  1167 405.259 -8.17336 -2.09573
  1168 405.243 -8.12587 2.08253
  1169 453.352 -39.9362 -3.20677
  1170 377.163 1.79173 5.54845
  1171 464.116 -33.0557 8.17341
  1172 27.2601 32.3750 -16.7568
  1173 85.5014 42.0722 57.6235
  1174 312.135 -17.2088 104.304
  1175 537.535 102.010 -21.2080
  1176 511.380 -1.47607 -5.98188
  1177 534.080 -0.916382 0.307959
  1178 534.556 -1.22403 -0.180281
  1179 317.593 -0.671299 -0.656928
  1180 317.670 -0.665787 0.652625
  1181 495.523 31.6572 49.3570
  1182 727.451 123.606 -2.64098
  1183 510.913 84.2325 -21.8611
  1184 381.392 -28.2554 107.289
  1185 310.485 -16.5747 -104.097
  1186 346.156 -22.8831 -36.6986
  1187 475.091 -13.4494 8.50783
  1188 660.823 146.136 9.04289
  1189 346.199 -22.7532 36.4283
  1190 484.957 -8.69658 6.43478
  1191 436.877 16.3962 26.6866
  1192 479.373 14.8923 47.5550
  1193 678.285 151.281 18.7587
  1194 405.982 -10.5392 3.87797
  1195 405.998 -10.5860 -3.90169
  1196 491.443 -9.42099 14.6241
  1197 296.680 -3.05497 12.2012
  1198 296.475 -3.08520 -12.3037
  1199 480.526 -6.77181 -2.71544
  1200 199.101 119.247 -182.967
  1201 416.219 -23.5705 -114.922
  1202 395.218 -12.2638 -6.90719
  1203 395.262 -12.2122 6.90998
  1204 513.938 -2.60947 2.24624
  1205 487.658 -6.62222 5.12623
  1206 27.5670 35.3454 26.3906
  1207 528.742 -0.666771 1.89203
  1208 64.4363 82.7613 82.0870
  1209 476.652 -7.34718 -3.52607
  1210 -0.473056 -11.5180 -10.1200
  1211 339.137 -33.1253 -80.8513
  1212 338.246 -32.3288 80.0651
  1213 528.718 -0.997457 -2.10654
  1214 454.857 -24.0138 -4.34727
  1215 513.627 -2.40115 -2.26825
  1216 414.539 -13.3579 -3.93102
  1217 414.504 -13.3138 3.89444
  1218 480.226 -6.72789 2.53670
  1219 451.733 -20.5328 3.50099
  1220 435.138 -14.0313 0.887205
  1221 435.284 -14.0644 -0.838717
  1222 513.140 -2.47297 -1.84161
  1223 444.296 -46.9179 -79.0286
  1224 502.538 -3.34304 -1.84615
  1225 478.625 -7.54271 3.83262
  1226 338.606 -3.56659 -4.91771
  1227 338.667 -3.53249 4.89197
  1228 376.455 -5.44452 -2.61053
  1229 376.478 -5.40922 2.59907
  1230 603.498 94.4411 26.9219
  1231 507.612 -39.1407 16.2688
  1232 349.209 -1.78817 132.347
  1233 284.921 -0.431570 4.68870
  1234 284.686 -0.436440 -4.73207
  1235 482.313 -8.98157 29.5292
  1236 461.098 -7.17893 0.569326
  1237 461.113 -7.15653 -0.569053
  1238 529.206 102.586 9.95613
  1239 482.229 -50.5846 63.2450
  1240 284.728 -3.89768 17.0460
  1241 284.456 -3.92575 -17.1623
  1242 460.540 -11.3863 2.77511
  1243 460.437 -11.4670 -2.67609
  1244 474.829 -13.2939 -8.17400
  1245 439.671 0.110873 14.1937
  1246 749.914 186.559 -64.1468
  1247 483.940 -17.8264 -25.6552
  1248 85.3791 19.8345 49.0270
  1249 499.673 -26.7387 35.4370
  1250 405.912 9.06587 -10.7969
  1251 32.1877 22.9447 18.4117
  1252 654.144 74.5245 -10.2824
  1253 488.343 -22.2932 -36.1374
  1254 407.766 5.95656 16.5498
  1255 280.186 -17.3237 54.3489
  1256 495.517 -38.4589 20.2686
  1257 714.071 139.772 48.2977
  1258 169.041 24.5328 93.0561
  1259 497.597 -6.10336 -12.6270
  1260 942.835 10.6328 -9.38260
  1261 973.146 14.5425 41.6506
  1262 1037.52 34.8884 -99.2874
  1263 483.602 -15.1970 -32.3089
  1264 483.330 -22.1651 27.1036
  1265 490.780 -35.0297 24.6991
  1266 -14.3701 1.75005 9.03803
  1267 -13.0465 1.42850 -9.87466
  1268 477.236 -52.8462 -30.6301
  1269 488.421 -49.4961 -44.9974
  1270 379.736 2.50061 -6.84252
  1271 475.143 -53.7698 44.7865
  1272 508.088 -24.1951 -35.8847
  1273 10.8785 15.5535 2.56147
  1274 414.953 -7.60478 1.36357
  1275 414.980 -7.65564 -1.36715
  1276 504.112 -4.22596 8.51252
  1277 484.904 -8.54753 -6.02155
  1278 457.383 -49.9199 -17.0103
  1279 419.099 -22.5501 7.83301
  1280 417.039 -22.2269 -8.40152
  1281 490.005 -10.5041 20.3846
  1282 502.281 -18.5415 -41.7928
  1283 33.3795 23.9212 -17.9461
</Section>

newXOutput 67

<Section columns = "stress_xx | stress_yy | stress_xy">
  1 544.841 -0.197143 1.01346
  2 544.844 -0.186542 -1.01600
  3 305.914 -0.0788598 -0.365619
  4 -3.83598 -3.78661 -5.51701
  5 962.798 394.496 311.857
  6 954.024 408.332 -310.222
  7 -4.45781 -3.59126 5.87987
  8 305.835 -0.0799021 0.364726
  9 548.477 -0.949730 0.294380
  10 547.429 -1.48581 -0.305448
  11 546.360 -1.02658 1.13216
  12 545.270 -1.38232 0.254858
  13 542.906 -1.17653 1.78072
  14 540.741 -1.18200 1.26103
  15 535.488 -1.04142 2.57598
  16 527.825 -0.775737 3.81154
  17 521.028 -0.796566 4.27921
  18 510.810 -1.06230 5.21245
  19 496.476 -0.128267 7.75778
  20 483.239 -0.780862 7.41854
  21 467.969 -0.984189 10.5105
  22 445.935 0.690208 9.18876
  23 429.833 1.08666 10.9010
  24 408.810 1.80404 8.56434
  25 394.197 1.95865 8.65101
  26 373.038 2.68301 4.42102
  27 368.547 4.21441 4.75156
  28 365.831 3.48907 -1.40798
  29 369.509 2.08027 -3.07442
  30 376.296 1.97933 -3.77603
  31 392.156 2.46493 -7.52499
  32 407.563 1.94878 -9.48699
  33 430.037 0.476259 -11.2282
  34 447.994 -0.212829 -10.1731
  35 467.022 -0.778844 -9.94545
  36 484.191 -0.613668 -6.99203
  37 498.836 -0.657538 -5.94472
  38 510.825 -1.04353 -4.95559
  39 521.488 -0.765454 -3.40656
  40 528.048 -0.929446 -3.59371
  41 534.392 -1.10931 -2.61681
  42 540.309 -1.30221 -1.08911
  43 543.316 -1.05856 -1.32088
  44 544.807 -0.684958 -0.800441
  45 543.445 -0.430394 -0.732436
  46 547.938 -1.48637 0.217673
  47 548.622 -0.984307 -0.303262
  48 531.659 -0.581671 -0.628089
  49 520.379 -2.43968 -1.17133
  50 506.509 -3.53231 -0.707238
  51 489.535 -5.11532 -0.984668
  52 473.365 -5.55844 -1.19340
  53 456.049 -6.83073 -1.14533
  54 440.671 -7.52355 -0.591034
  55 427.178 -8.31518 -0.164203
  56 411.590 -6.87316 -0.148323
  57 393.619 -6.37113 -0.326637
  58 376.313 -4.98049 -0.0352424
  59 359.933 -3.12705 0.0241947
  60 344.388 -2.19305 0.0831887
  61 330.788 -1.07857 0.189587
  62 316.929 -0.254420 -0.413944
  63 306.046 0.436946 0.581274
  64 301.115 1.15498 0.411990
  65 304.303 0.0306698 0.937962
  66 300.410 -0.129658 1.14038
  67 296.725 -0.205611 1.41884
  68 291.764 -0.000746608 1.82928
  69 285.518 0.00197120 2.29011
  70 280.761 -0.321716 4.35323
  71 267.689 0.389232 4.74155
  72 258.399 -0.00991025 5.39484
  73 244.571 -0.218450 6.12921
  74 228.682 -0.379743 7.45010
  75 208.804 -0.0729523 9.04724
  76 184.577 0.122876 9.99635
  77 163.459 -0.185831 14.2973
  78 122.078 1.30592 13.5387
  79 93.6528 1.12416 14.3466
  80 59.3762 -0.285944 15.9787
  81 30.6975 2.57897 16.7065
  82 -2.06072 3.90304 10.2105
  83 -26.1429 3.97683 3.83892
  84 -26.0601 3.88821 -1.07534
  85 -25.4640 3.25450 -7.56155
  86 -15.0430 -0.957981 -7.27627
  87 -1.78301 -14.4396 -8.05271
  88 1.52046 -26.4631 -9.95907
  89 4.08071 -41.1803 -5.19136
  90 8.97631 -40.8820 1.21961
  91 18.8649 -5.63298 25.8268
  92 55.5683 92.4227 85.0593
  93 318.511 310.929 280.196
  94 1167.86 175.692 194.018
  95 1055.14 25.0643 62.8009
  96 983.485 10.4811 19.2184
  97 957.075 8.94721 1.45717
  98 971.231 11.8477 -16.7113
  99 1053.12 23.4500 -49.7374
  100 1234.30 84.7316 -166.254
  101 189.938 319.636 -235.140
  102 41.5788 68.7713 -70.8815
  103 20.6391 -3.56049 -27.5813
  104 8.41684 -40.6603 -5.35899
  105 2.47749 -31.1356 5.91937
  106 3.04554 -33.4067 8.59996
  107 0.178514 -12.4392 8.92445
  108 -15.7140 -0.584192 6.88352
  109 -26.2682 2.44371 6.57698
  110 -27.4599 4.71928 1.21794
  111 -26.9684 3.90726 -3.58538
  112 -3.96870 3.99974 -9.58671
  113 29.0309 2.60091 -15.9405
  114 57.6785 -0.00880001 -15.7174
  115 91.8960 1.21475 -14.3740
  116 120.482 1.33928 -13.6379
  117 162.223 -0.191741 -14.4123
  118 183.520 0.135671 -10.0892
  119 207.880 -0.0697508 -9.15694
  120 228.211 -0.422588 -7.50199
  121 243.929 -0.206126 -6.14323
  122 257.910 0.00681056 -5.44821
  123 267.286 0.384761 -4.79080
  124 280.469 -0.325041 -4.39493
  125 285.281 -0.000186549 -2.31562
  126 291.582 -0.00281611 -1.85021
  127 296.583 -0.209049 -1.43539
  128 300.298 -0.132606 -1.15191
  129 304.208 0.0281711 -0.945288
  130 301.030 1.15379 -0.415364
  131 305.965 0.436337 -0.583402
  132 316.851 -0.257249 0.412889
  133 330.715 -1.08567 -0.192162
  134 344.324 -2.20859 -0.0861882
  135 359.884 -3.14862 -0.0270715
  136 376.283 -5.01161 0.0323730
  137 393.611 -6.41059 0.324361
  138 411.606 -6.91895 0.145932
  139 427.213 -8.36679 0.163077
  140 440.719 -7.57513 0.592712
  141 456.120 -6.87767 1.15064
  142 473.428 -5.59063 1.21245
  143 489.585 -5.14414 1.07683
  144 506.602 -3.35278 0.722796
  145 520.741 -2.38047 1.14518
  146 531.757 -0.664529 0.618228
  147 478.633 -44.9915 -0.973738
  148 478.216 -44.3815 1.14188
  149 504.270 72.3184 -23.5492
  150 535.338 31.5174 49.2356
  151 405.768 -39.2313 -90.7844
  152 409.098 -39.1646 87.9343
  153 396.561 -16.6318 11.5038
  154 396.586 -16.8572 -11.5094
  155 566.203 20.5292 -36.3227
  156 477.381 -17.3118 9.17348
  157 477.175 -16.9044 -9.06295
  158 616.948 136.881 5.24537
  159 489.849 -0.775497 -48.7050
  160 364.330 -28.3803 -40.8754
  161 364.358 -28.1504 40.5357
  162 490.380 -11.1595 43.7009
  163 467.796 34.2357 29.3324
  164 194.602 30.7425 -108.446
  165 215.326 29.1675 114.199
  166 596.040 7.32228 1.10554
  167 491.042 -18.9443 -29.8326
  168 648.325 142.339 0.236218
  169 443.069 -12.5584 -0.730171
  170 442.979 -12.5242 0.765314
  171 495.439 -6.25427 -3.95630
  172 496.917 -5.65006 3.40112
  173 351.573 -4.88506 -6.64260
  174 351.622 -4.83585 6.61188
  175 529.697 -13.3100 115.483
  176 453.348 18.9651 -31.6288
  177 297.597 -22.1551 -65.0172
  178 298.474 -21.9961 64.6175
  179 334.881 -10.7410 -21.4225
  180 334.919 -10.6209 21.2754
  181 493.307 -13.0876 25.3770
  182 449.062 -30.7470 -2.64324
  183 447.533 -30.5186 3.32579
  184 508.509 -49.3371 -11.1858
  185 511.223 -47.0044 4.90341
  186 700.993 165.269 -27.2991
  187 513.986 82.2943 21.9742
  188 513.898 31.5566 -49.9335
  189 527.482 -3.58713 -133.717
  190 508.853 -28.8555 -33.7816
  191 513.283 -20.6427 40.2227
  192 428.750 -48.6324 45.3038
  193 428.814 -48.2802 -45.1768
  194 460.541 5.95434 37.9041
  195 212.896 -5.37183 -79.6986
  196 213.394 -5.80424 79.2336
  197 787.974 117.613 17.2232
  198 482.305 -28.8057 17.7523
  199 499.650 -9.35744 -16.3256
  200 399.034 -9.66067 -5.36898
  201 399.046 -9.61505 5.35411
  202 481.386 -6.28627 -33.7821
  203 547.214 80.2235 -39.4560
  204 460.496 41.4772 -5.86755
  205 302.206 -10.4706 29.9062
  206 301.757 -10.5007 -30.1144
  207 506.391 -5.84205 8.72131
  208 495.482 9.32531 50.1443
  209 403.828 -29.1625 -20.3949
  210 401.226 -27.6058 20.8045
  211 582.097 86.4001 35.1612
  212 680.148 95.4904 20.2006
  213 48.2223 37.1121 -31.6643
  214 44.6518 34.3048 26.9827
  215 282.660 81.5401 189.443
  216 477.532 -31.7767 -13.1342
  217 508.092 -5.60745 -7.86946
  218 455.559 4.11059 -34.9223
  219 322.730 -3.07342 -9.53278
  220 322.836 -3.03935 9.45602
  221 431.007 -20.1357 -5.05013
  222 431.209 -20.2660 4.80930
  223 485.267 -6.58592 28.6565
  224 555.159 -32.0452 15.6301
  225 554.957 112.884 -11.3091
  226 435.212 -41.8957 -22.1894
  227 547.970 -9.57009 30.1051
  228 468.053 -8.06151 1.23190
  229 468.055 -7.99886 -1.23046
  230 432.129 -41.6998 22.9591
  231 493.920 -31.4383 27.2615
  232 687.963 91.8067 -48.5225
  233 155.849 92.6933 -138.603
  234 422.746 15.0470 7.59736
  235 497.759 43.8659 42.3250
  236 528.208 -3.75847 -43.6330
  237 494.288 -17.8701 -40.6032
  238 267.935 -8.44293 -37.3055
  239 268.827 -8.31815 37.2009
  240 494.896 -6.08575 -21.9684
  241 471.422 -12.1007 4.56623
  242 471.203 -12.0891 -4.39036
  243 102.393 9.07618 -51.4368
  244 103.921 7.95156 51.2538
  245 523.161 -45.8593 -43.1394
  246 517.238 -2.08973 1.09777
  247 517.747 -2.12702 -1.22533
  248 486.538 40.3707 -38.8445
  249 430.695 8.46615 22.9620
  250 880.803 141.009 94.9064
  251 873.122 99.4092 -59.0958
  252 639.942 137.214 0.0738420
  253 399.833 -19.4354 120.302
  254 367.494 -12.8180 -125.697
  255 422.789 -8.68840 -2.05170
  256 422.754 -8.63657 2.03890
  257 353.553 -9.25160 13.2969
  258 353.543 -9.37595 -13.4050
  259 506.197 -5.63603 13.3024
  260 491.879 -35.1114 -21.9830
  261 324.800 -0.528945 -2.26058
  262 324.880 -0.519267 2.24798
  263 485.743 -19.8047 -17.6598
  264 210.580 -6.80110 -51.8683
  265 211.442 -6.82198 51.5149
  266 492.036 -21.4357 32.1835
  267 376.973 -40.0100 73.0884
  268 377.879 -40.7237 -72.8618
  269 428.632 16.6213 -10.6890
  270 369.976 -5.53579 -4.48771
  271 370.012 -5.50003 4.47215
  272 463.584 -1.10450 27.8767
  273 551.890 100.682 27.2679
  274 300.651 -3.52755 15.9859
  275 300.427 -3.55607 -16.1127
  276 504.615 -42.2701 14.3742
  277 467.113 -52.5376 -50.0660
  278 519.345 -2.73338 3.97341
  279 365.471 -21.3530 -28.0776
  280 364.875 -21.1200 27.9805
  281 633.609 70.8748 168.672
  282 305.677 -24.7411 86.8835
  283 491.425 68.9074 -2.49267
  284 615.761 68.8876 -20.9296
  285 466.721 -36.0788 3.94921
  286 467.552 -53.9604 45.3282
  287 306.553 -24.3497 -87.8192
  288 57.8106 71.4601 65.7432
  289 485.828 -19.8677 17.9955
  290 633.859 83.8478 15.2226
  291 523.200 -2.44403 -3.44639
  292 478.294 16.8260 -44.7270
  293 470.256 -26.6382 8.86057
  294 460.608 -38.8306 3.12689
  295 476.691 21.9513 43.1403
  296 502.267 -42.2684 -12.6068
  297 709.010 137.175 -12.9629
  298 470.132 -25.6122 -8.45919
  299 385.432 113.258 -230.631
  300 480.057 -50.9446 -11.6559
  301 476.726 -52.3429 17.0639
  302 353.037 -31.7418 -57.3588
  303 321.797 -1.13914 -4.89115
  304 321.892 -1.11915 4.85609
  305 353.206 -31.7726 57.0634
  306 508.634 -0.886713 -49.9933
  307 546.867 -22.6615 -18.8735
  308 419.513 -25.0827 -11.3442
  309 419.269 -25.1417 11.5413
  310 497.656 -42.8444 79.0750
  311 498.813 -4.10753 16.6195
  312 601.827 3.86942 30.7798
  313 411.467 -14.4046 -6.35796
  314 411.499 -14.3612 6.32695
  315 376.244 -9.61050 -8.92336
  316 376.253 -9.52396 8.91242
  317 426.458 5.87459 -22.1986
  318 541.697 39.7246 -47.5967
  319 829.194 224.776 -108.911
  320 492.448 -4.62375 -1.27861
  321 492.187 -4.56442 1.31910
  322 266.873 -0.859050 108.438
  323 374.053 -16.7014 -18.8103
  324 373.384 -16.6519 18.8607
  325 266.820 -1.49932 -108.023
  326 517.704 61.0190 -40.9745
  327 576.248 28.7613 34.1914
  328 497.447 -35.4755 -87.5474
  329 459.935 -17.8290 3.36286
  330 459.483 -17.7068 -3.17183
  331 489.716 -10.3911 -8.29171
  332 463.881 -0.840601 -26.0593
  333 517.706 2.13912 48.7534
  334 514.862 -3.78771 -9.11487
  335 314.474 -18.8030 43.6553
  336 314.129 -18.9033 -43.9711
  337 482.989 -1.06555 46.3303
  338 302.754 -2.34742 -9.53320
  339 302.945 -2.32580 9.45303
  340 493.457 -11.5554 13.3660
  341 592.422 120.622 -19.1642
  342 489.507 -10.4613 8.62246
  343 523.367 65.5755 41.0487
  344 500.350 -9.37720 47.6124
  345 398.623 -7.39251 2.02474
  346 398.621 -7.43502 -2.03636
  347 474.873 -1.65838 -41.1542
  348 625.067 131.138 10.9738
  349 522.417 95.3696 0.851342
  350 319.508 36.9855 -160.520
  351 34.9781 14.5484 -23.0017
  352 38.1452 15.7551 24.6539
  353 -1.07827 4.00054 9.14157
  354 0.777642 2.43809 -9.59410
  355 900.107 62.4967 21.2004
  356 432.543 -34.9449 -13.5729
  357 493.797 -11.1808 -13.0323
  358 446.961 -8.01010 0.306478
  359 446.910 -7.95009 -0.309943
  360 479.959 53.0269 -21.0541
  361 408.852 -41.4651 37.3207
  362 36.9440 55.2871 -41.3865
  363 409.196 -41.4446 -37.9576
  364 486.029 55.2724 22.3987
  365 493.229 -13.3133 -24.1139
  366 522.334 -29.2699 -28.1248
  367 558.668 117.288 7.76773
  368 523.376 -32.8299 22.6598
  369 222.248 -5.39005 34.6901
  370 220.989 -5.28456 -34.8953
  371 126.966 2.92923 -48.5813
  372 128.208 2.44659 48.3718
  373 432.848 1.60410 22.4154
  374 804.744 237.682 96.0612
  375 509.111 -3.39403 -11.7637
  376 398.969 -33.4113 -28.7131
  377 398.674 -33.3374 28.6768
  378 490.755 -11.4359 -30.9329
  379 555.936 -26.8619 0.541982
  380 432.528 -34.9182 13.9432
  381 607.744 5.51631 -53.7593
  382 351.420 -2.69844 -1.80495
  383 351.477 -2.67613 1.79414
  384 483.465 -2.86978 -19.9390
  385 265.551 -3.69715 -22.5902
  386 265.705 -3.81929 22.3281
  387 575.295 73.6179 -39.3883
  388 312.333 21.9084 149.361
  389 451.886 -23.6968 0.673564
  390 452.322 -23.6592 -0.691391
  391 531.477 89.6238 -25.8200
  392 502.075 -14.9666 -44.9114
  393 501.546 -51.3803 44.4060
  394 421.353 -11.1633 -3.25448
  395 421.310 -11.1145 3.22816
  396 484.084 -37.4078 14.0527
  397 519.467 -2.64869 6.73383
  398 329.601 -11.7373 -26.7030
  399 329.735 -11.7416 26.4915
  400 493.156 16.5929 -49.5210
  401 464.322 -10.2788 1.81556
  402 464.298 -10.3055 -1.75965
  403 481.527 -5.72349 37.6319
  404 451.288 33.0578 10.1863
  405 497.955 -21.1479 38.9326
  406 715.736 149.223 28.3742
  407 244.391 -13.1058 -69.6357
  408 245.049 -13.1069 69.1329
  409 109.878 58.2057 -84.4685
  410 530.021 -1.78190 1.76130
  411 276.902 -2.21553 -14.3154
  412 277.253 -2.16868 14.2009
  413 491.083 -12.9319 30.2246
  414 445.678 -48.2953 25.5201
  415 501.294 -6.52118 5.84756
  416 512.971 26.0108 51.3698
  417 114.935 61.9759 87.8589
  418 446.316 -48.0080 -23.6227
  419 460.987 -42.7921 -6.36377
  420 155.196 -3.09616 -43.8604
  421 156.277 -3.20601 43.5725
  422 354.974 -28.6707 -104.759
  423 528.191 -7.99437 42.4648
  424 353.729 -29.0681 103.875
  425 488.544 -27.5424 -24.5254
  426 457.270 31.0273 -22.2362
  427 488.594 -21.2632 23.4197
  428 523.206 -2.56290 -4.44265
  429 16.7463 18.3812 8.99444
  430 108.205 126.437 124.149
  431 472.300 -1.72127 19.3256
  432 400.608 5.69069 9.76991
  433 407.126 6.88587 -13.2270
  434 347.367 -5.53394 -9.38572
  435 347.410 -5.46492 9.33091
  436 481.671 -37.3785 -12.7069
  437 487.652 -9.61869 -42.0011
  438 402.607 7.78771 -3.59101
  439 715.062 170.722 38.5733
  440 102.353 33.2281 -63.4358
  441 112.547 30.4831 67.6005
  442 451.467 -16.1486 0.899678
  443 451.303 -16.1172 -0.786578
  444 601.093 131.870 -1.43430
  445 370.966 159.255 235.749
  446 575.224 -7.73815 -4.34982
  447 336.082 -17.2280 -36.2198
  448 336.246 -17.1153 35.9333
  449 339.117 -7.33687 14.4790
  450 339.047 -7.38821 -14.5985
  451 454.448 10.2600 -36.0125
  452 532.546 -0.959136 -1.14577
  453 442.606 20.5293 20.3045
  454 554.210 68.3597 43.4448
  455 461.983 -34.2645 -2.38093
  456 501.065 -6.22721 -5.69215
  457 525.248 -2.34174 4.08911
  458 530.970 -1.03532 0.652187
  459 531.356 -1.14342 -0.461885
  460 301.397 -0.477717 3.56008
  461 301.245 -0.485173 -3.59359
  462 504.449 -32.2005 29.6636
  463 458.692 18.2549 34.8873
  464 478.028 1.98558 -45.2719
  465 496.780 -10.6942 17.7095
  466 706.167 125.059 -143.874
  467 498.376 -27.7816 -33.6729
  468 6.19226 9.66377 4.74227
  469 6.09210 9.87440 -2.27094
  470 397.450 -22.2424 16.5393
  471 396.174 -21.9324 -16.3205
  472 613.685 13.3844 78.8703
  473 173.400 161.692 -180.219
  474 492.517 -1.58623 14.8695
  475 554.090 -32.0417 -46.0618
  476 301.237 -17.0828 50.4365
  477 596.574 105.913 -27.6185
  478 491.267 -26.7237 28.0387
  479 414.550 -19.6275 -8.70419
  480 414.910 -19.3099 8.68533
  481 432.748 2.39171 -19.7780
  482 300.319 -17.0097 -50.7229
  483 443.080 0.296868 19.8365
  484 421.332 -48.2646 -65.7609
  485 420.297 -48.3380 66.0334
  486 506.451 -3.50447 13.0119
  487 464.096 43.8729 4.20605
  488 465.033 8.81605 162.196
  489 685.797 138.655 -0.864267
  490 475.055 -8.27085 2.38052
  491 475.075 -8.24254 -2.48668
  492 369.672 -6.37881 -6.08337
  493 369.704 -6.32833 6.06393
  494 196.259 8.63488 91.5277
  495 493.579 -23.9037 -33.1220
  496 448.337 -9.88376 -0.186296
  497 448.292 -9.85294 0.193599
  498 391.463 -41.2926 53.7798
  499 199.956 11.4655 -93.8051
  500 493.784 -40.3531 -14.6247
  501 9.08832 3.00757 2.85720
  502 436.344 22.7794 1.50062
  503 476.622 -5.81434 -0.757016
  504 476.616 -5.88745 0.734287
  505 391.655 -41.2124 -54.1815
  506 554.569 -28.1707 57.8552
  507 552.162 20.0672 43.8024
  508 508.501 -3.75995 -2.74196
  509 492.284 -40.9102 14.8830
  510 315.543 -0.233876 -0.663317
  511 315.623 -0.231264 0.658639
  512 492.256 -19.0164 -35.6228
  513 478.944 35.4940 38.0400
  514 545.527 13.5003 -43.3166
  515 313.617 -0.428493 -2.00956
  516 313.708 -0.422149 1.99730
  517 937.639 135.566 -120.665
  518 497.882 59.2034 33.3735
  519 508.909 -3.49965 2.43004
  520 461.975 -43.7447 7.48889
  521 391.205 -12.7411 9.25967
  522 391.194 -12.8334 -9.24081
  523 535.570 -32.7537 10.9331
  524 516.199 -10.4310 -45.1351
  525 577.573 113.348 23.7564
  526 482.118 8.34982 46.9778
  527 483.724 -9.56975 5.02627
  528 469.623 -50.3059 -63.8113
  529 488.907 -12.2137 35.3642
  530 925.666 42.6228 -16.8503
  531 531.492 -40.1852 2.35395
  532 505.353 -3.66912 -0.586780
  533 505.477 -3.88146 0.492918
  534 935.325 62.7171 58.8226
  535 470.576 -0.0974910 39.9600
  536 652.126 110.997 -6.11157
  537 492.494 -13.6112 -17.0615
  538 229.137 -2.06273 -15.4341
  539 229.799 -1.96255 15.2849
  540 336.305 -31.4089 -72.8652
  541 336.596 -30.8851 72.3456
  542 483.453 -9.19128 -4.99168
  543 526.891 19.3124 -49.6753
  544 463.320 -31.5120 4.16547
  545 500.001 57.2834 -34.5727
  546 501.271 -6.02265 17.4981
  547 624.078 32.5162 -11.5877
  548 430.765 -14.7249 -3.15004
  549 430.644 -14.6807 3.12078
  550 466.486 -22.0832 6.34241
  551 682.352 136.974 -15.1599
  552 492.728 21.5747 48.7603
  553 212.012 54.3744 134.909
  554 472.415 -28.2780 109.365
  555 619.220 32.6385 -121.136
  556 503.643 41.6463 -45.2611
  557 444.466 -38.6032 -94.9834
  558 481.730 -52.9020 -20.9059
  559 502.251 -51.0263 -29.6558
  560 67.4748 88.8885 -84.1069
  561 505.075 -6.66508 -10.4327
  562 755.964 146.694 -44.3599
  563 468.894 -21.2161 -7.29836
  564 472.536 -15.5403 6.04237
  565 472.105 -15.1986 -5.76154
  566 331.885 -1.77849 -4.47009
  567 331.962 -1.75564 4.44381
  568 49.8804 4.80784 -27.1068
  569 52.3801 5.04878 27.7143
  570 247.494 -11.3286 -53.0349
  571 249.308 -11.3931 52.9742
  572 479.080 -26.0673 -14.9039
  573 487.189 -53.1223 22.4642
  574 500.727 -47.6839 0.248444
  575 413.684 -7.30527 -1.73088
  576 413.665 -7.25714 1.72280
  577 391.160 -41.1446 -81.2351
  578 436.158 -35.9479 100.345
  579 381.964 -38.7151 81.6546
  580 493.542 -11.0286 -45.0577
  581 314.531 -5.03814 16.1345
  582 314.377 -5.08923 -16.2570
  583 472.548 26.2444 -38.2509
  584 472.592 -0.835641 -17.5351
  585 588.070 126.904 -10.4850
  586 387.424 -5.75561 -1.63932
  587 387.440 -5.72008 1.63242
  588 501.531 -1.54700 -9.73928
  589 350.752 -11.5719 -18.0785
  590 350.771 -11.5355 17.9339
  591 284.827 12.7796 128.737
  592 488.133 -22.5928 -23.6491
  593 275.367 -14.7531 92.6203
  594 479.720 -24.9620 15.2862
  595 503.860 -7.36629 11.5699
  596 497.143 -4.87162 -2.37984
  597 355.236 -4.23506 -4.22563
  598 355.287 -4.20183 4.20664
  599 564.370 112.197 -21.5902
  600 275.163 -14.2263 -92.9415
  601 478.095 -20.8383 -12.0623
  602 432.758 -8.11240 -0.951914
  603 432.716 -8.05712 0.948348
  604 801.401 107.534 -19.2855
  605 292.577 -1.78588 8.85892
  606 292.332 -1.80288 -8.93524
  607 449.351 10.4594 32.9012
  608 632.702 54.3710 -2.74435
  609 303.158 1.70980 -127.697
  610 158.170 3.70171 -70.1514
  611 159.418 2.84073 69.7842
  612 381.276 -21.9579 22.6363
  613 385.095 -22.6057 -22.0505
  614 641.794 129.656 7.67609
  615 495.207 -5.03764 2.11696
  616 430.934 12.3501 -19.9219
  617 532.905 95.3926 20.4341
  618 531.133 98.9661 -13.5972
  619 436.422 -24.0892 -5.00462
  620 439.640 -23.5646 3.47127
  621 311.972 68.4793 -182.784
  622 377.533 -12.6831 -12.7200
  623 377.571 -12.5431 12.6827
  624 933.580 191.382 144.263
  625 492.643 -16.2436 38.6079
  626 286.336 -9.89262 -33.9581
  627 752.796 181.714 124.496
  628 286.980 -9.84121 33.8424
  629 468.357 -17.7134 -127.249
  630 337.745 -1.54026 -1.64475
  631 337.813 -1.52709 1.63738
  632 416.405 3.86962 17.3922
  633 192.585 -2.78297 -30.4444
  634 193.578 -2.79058 30.2200
  635 430.918 -30.3449 10.6787
  636 451.167 -36.0444 -4.45032
  637 528.212 -1.27177 -3.80189
  638 306.258 -0.442684 2.65643
  639 306.137 -0.450905 -2.68095
  640 407.750 -9.13825 -2.78395
  641 407.739 -9.09117 2.76662
  642 464.214 -51.6641 64.3979
  643 534.764 59.6665 -45.0326
  644 359.267 -16.4666 -23.2674
  645 359.032 -16.1932 23.1103
  646 423.202 -30.2481 -14.1849
  647 662.153 143.619 6.13306
  648 497.852 -48.2900 2.42870
  649 434.331 -10.4575 -1.68063
  650 434.270 -10.4111 1.67946
  651 593.523 65.3365 32.0809
  652 499.288 -7.39729 -19.0095
  653 445.499 -0.475447 -16.1379
  654 208.813 -7.15149 -66.8442
  655 209.415 -7.34048 66.3265
  656 421.941 -36.2094 -22.0589
  657 630.066 137.838 0.0628599
  658 491.500 66.4652 -15.0343
  659 330.040 -2.86240 -8.15075
  660 330.123 -2.82320 8.09204
  661 456.742 -13.0411 -1.16160
  662 456.829 -13.0502 1.25200
  663 839.777 109.393 48.3605
  664 535.140 -1.59559 0.969445
  665 519.079 -2.19003 6.63312
  666 517.250 -2.20707 -7.84964
  667 492.035 -45.9020 4.79450
  668 366.836 -4.14255 -2.10996
  669 366.877 -4.11472 2.10167
  670 527.577 84.2900 31.5816
  671 672.824 149.140 -11.2324
  672 372.399 -27.3664 -32.9547
  673 372.315 -27.1069 32.8030
  674 462.390 -47.6100 -11.9521
  675 489.373 29.1329 -45.9496
  676 576.152 1.71995 16.5907
  677 387.566 -7.09668 -4.32979
  678 387.584 -7.05428 4.31449
  679 335.225 -29.2519 -65.7729
  680 487.461 -47.2220 -0.374256
  681 406.566 -45.0610 59.2910
  682 196.095 61.5311 -130.281
  683 380.881 -35.0718 45.7506
  684 459.646 0.131706 14.8479
  685 335.548 -28.9257 65.3548
  686 477.827 -21.2287 12.2111
  687 380.976 -34.9177 -46.1423
  688 394.259 5.30752 3.66026
  689 305.345 -7.97922 24.2369
  690 305.080 -7.98449 -24.3930
  691 406.732 -46.2257 -59.9349
  692 501.197 -33.1409 -28.6453
  693 460.202 -6.68680 -0.335106
  694 460.275 -6.75092 0.336965
  695 511.880 -32.7597 28.1225
  696 465.821 -48.6734 13.8587
  697 564.972 51.9158 42.5267
  698 510.660 -9.67671 46.7417
  699 491.413 -17.7877 28.0703
  700 472.215 38.9276 -29.0175
  701 564.722 94.7679 33.7688
  702 488.151 -6.82675 -27.7494
  703 485.465 -16.2793 13.8083
  704 504.371 78.7568 8.10746
  705 494.318 -8.51970 23.9335
  706 157.371 107.493 136.807
  707 459.680 -52.9374 -38.1252
  708 532.155 9.61139 47.2548
  709 536.463 -16.6639 -32.4583
  710 533.051 -0.855124 2.03861
  711 490.833 -17.0425 -21.8332
  712 460.405 -53.3488 34.8366
  713 878.348 77.8736 -12.9788
  714 280.979 -1.13402 9.26203
  715 280.658 -1.14606 -9.34266
  716 497.024 -9.28427 -9.85169
  717 536.070 -0.664063 -2.00561
  718 421.221 -36.8017 22.1696
  719 504.113 -18.8758 42.2344
  720 757.111 184.451 -61.9875
  721 477.847 -34.6802 11.9984
  722 528.277 -34.9051 -15.0893
  723 485.629 -15.8560 -13.5811
  724 535.510 -1.08564 -0.587756
  725 493.107 -0.0811582 49.2462
  726 23.3994 24.1161 30.5248
  727 551.027 -20.5747 -84.4511
  728 601.043 36.2862 18.2840
  729 501.838 -51.4023 26.8064
  730 362.915 -8.51185 10.3805
  731 362.907 -8.62684 -10.4246
  732 460.452 243.749 -247.354
  733 512.059 -34.0051 -25.7630
  734 392.787 2.26148 -7.00148
  735 453.733 2.60761 31.9736
  736 494.722 -24.8753 33.6298
  737 474.183 -39.9608 4.74113
  738 491.131 -44.9411 -69.2323
  739 471.392 -37.2987 -5.71434
  740 554.213 -26.4969 -2.46662
  741 510.795 -4.43847 5.69055
  742 458.171 -27.5069 2.37382
  743 822.671 164.361 -88.5908
  744 487.589 -13.2640 10.8355
  745 484.566 7.99062 -48.2077
  746 411.346 -4.43972 142.760
  747 518.159 41.6660 48.8459
  748 445.873 -35.0011 6.68409
  749 346.801 -27.0426 -48.2017
  750 346.852 -26.9752 47.8345
  751 476.002 53.5621 -6.73931
  752 482.652 -5.61994 42.8032
  753 487.332 -11.6671 -36.2074
  754 458.679 -28.0812 -2.50354
  755 443.756 -39.6476 13.3950
  756 508.146 83.5688 -9.09283
  757 473.613 -40.9963 -2.87993
  758 474.854 -30.1082 11.7978
  759 480.371 -6.44909 1.68227
  760 480.646 -6.28559 -1.66585
  761 645.843 141.048 1.36883
  762 527.109 -44.9397 -19.0222
  763 492.298 -15.2424 21.7918
  764 510.892 -4.43435 -5.14132
  765 518.299 3.39040 -49.2351
  766 587.574 31.3747 -26.4666
  767 296.004 -0.229484 -4.36097
  768 296.195 -0.225581 4.32111
  769 4.50678 -8.16801 -5.67893
  770 502.707 -0.664069 9.00146
  771 463.431 -0.654993 -35.2491
  772 477.676 -4.48504 30.8447
  773 431.283 55.4138 208.030
  774 543.352 111.090 -1.09801
  775 387.902 -27.4637 26.0400
  776 71.7759 1.46172 -26.5604
  777 73.6505 1.06366 26.8360
  778 473.711 -3.35544 -34.9000
  779 388.889 -27.7276 -26.0438
  780 507.930 -4.86588 4.22958
  781 265.494 -11.1385 45.2221
  782 263.301 -11.0961 -45.2214
  783 487.541 -12.8888 -10.5453
  784 316.814 -7.75492 -21.1423
  785 316.971 -7.70689 20.9699
  786 507.268 -4.99163 -13.0249
  787 391.129 -10.2931 -7.41593
  788 391.148 -10.2303 7.41953
  789 553.348 -3.44894 -32.2744
  790 500.064 -5.28225 -49.1960
  791 260.406 -1.59208 -11.7537
  792 260.879 -1.57711 11.6256
  793 15.1285 6.42556 -16.5121
  794 17.3060 6.78681 17.3450
  795 410.391 2.03609 -12.6212
  796 456.217 -51.2499 -28.9190
  797 -5.11941 -3.49544 8.96003
  798 -4.53385 -4.21456 -8.96800
  799 474.515 -9.74641 3.70338
  800 513.801 -40.2331 -13.2312
  801 532.590 78.7446 -36.7615
  802 509.979 -4.39445 -4.03022
  803 1068.15 218.082 -200.549
  804 474.414 -9.71971 -3.65158
  805 710.911 134.728 11.8980
  806 508.714 14.7960 -51.4008
  807 560.227 42.4031 -43.6929
  808 99.2357 -1.15143 -24.3965
  809 100.891 -1.28912 24.3566
  810 322.359 -4.48133 12.6159
  811 322.242 -4.51711 -12.7178
  812 309.303 -0.663260 2.37930
  813 309.201 -0.670405 -2.39631
  814 567.473 95.4005 -33.3675
  815 340.878 -1.99800 -3.56218
  816 340.945 -1.97555 3.54480
  817 484.108 -4.87063 -44.7164
  818 688.475 74.2306 64.8054
  819 438.558 10.0055 -27.7026
  820 156.050 -1.35833 25.9790
  821 154.842 -1.37124 -26.1712
  822 555.864 16.8211 150.344
  823 496.578 -9.35904 10.1670
  824 448.638 29.9665 -11.5302
  825 211.785 -0.289429 17.6117
  826 210.785 -0.193602 -17.7326
  827 315.104 -1.50045 -6.21677
  828 315.222 -1.47891 6.16523
  829 57.1371 50.5732 44.8408
  830 466.485 11.2448 40.9789
  831 517.729 75.8917 -31.7264
  832 555.205 64.5004 -43.8337
  833 368.624 -13.6650 -16.4861
  834 368.428 -13.5702 16.4720
  835 575.853 121.870 14.9186
  836 495.057 -4.43039 -0.483794
  837 495.094 -4.39820 0.563808
  838 491.584 -14.8912 -28.4522
  839 413.553 -27.3329 15.8033
  840 453.536 -50.9442 28.9960
  841 530.156 -43.4255 44.8161
  842 410.332 -11.8144 -4.73002
  843 410.334 -11.7753 4.70378
  844 469.681 43.6225 18.6741
  845 442.345 6.20516 -29.8760
  846 122.697 150.542 142.322
  847 445.098 -39.3170 -12.3176
  848 446.736 -19.9486 -0.458009
  849 446.971 -19.9981 0.429850
  850 491.366 -7.28839 46.8434
  851 486.275 -32.0405 -20.0543
  852 435.572 -28.6895 -7.31172
  853 970.416 31.4006 -47.3704
  854 414.418 -38.9885 29.8116
  855 414.068 -39.4831 -30.2650
  856 490.529 -5.94189 23.5658
  857 732.034 190.335 -46.6514
  858 389.612 -35.1121 -36.6333
  859 428.899 -48.1713 35.3863
  860 389.538 -34.6998 36.3288
  861 421.853 -16.8741 -5.60135
  862 421.849 -16.8240 5.56784
  863 64.6539 26.7891 38.8660
  864 526.963 39.3622 -49.1888
  865 405.515 -15.6639 -8.27781
  866 405.594 -15.5123 8.30471
  867 400.893 -6.58357 -1.01391
  868 400.891 -6.54171 1.00820
  869 439.019 -8.83541 -0.554356
  870 438.969 -8.78210 0.550142
  871 360.241 -6.85805 -8.94462
  872 360.277 -6.78403 8.91198
  873 406.866 -21.1759 -12.2391
  874 406.924 -21.0414 12.2934
  875 10.3294 -1.59933 -6.06341
  876 608.666 114.280 23.2533
  877 523.999 -18.4894 -38.3051
  878 428.508 -47.4661 -35.7286
  879 462.288 -15.0143 3.03560
  880 462.091 -14.8684 -2.91754
  881 504.306 0.572034 50.2847
  882 544.699 -38.8202 -26.4683
  883 480.641 35.9262 -180.949
  884 223.874 -3.93425 90.2280
  885 -6.47121 5.21764 -6.78161
  886 -5.44040 5.89853 7.42623
  887 64.3034 28.4852 -39.7079
  888 491.866 -14.3347 16.9243
  889 515.939 -3.59749 -7.06669
  890 464.638 -44.8699 78.9144
  891 223.358 -3.72226 -90.5672
  892 517.757 -42.5542 8.21353
  893 573.324 -16.0851 70.0002
  894 424.477 1.76124 13.3613
  895 483.376 46.0060 31.6885
  896 264.390 -14.7960 66.0759
  897 263.395 -14.9140 -66.4865
  898 316.760 -14.7868 -37.1388
  899 329.450 -16.4716 -114.699
  900 518.963 -12.2575 43.6362
  901 708.106 168.230 30.8366
  902 521.693 20.0018 50.1626
  903 493.043 -10.6563 -26.0620
  904 336.200 -14.7539 117.526
  905 626.168 115.894 -15.6278
  906 64.3577 54.2253 -55.0059
  907 458.430 -0.873813 -14.1630
  908 317.088 -14.6692 36.8313
  909 384.615 -8.33588 6.49247
  910 384.597 -8.38901 -6.50432
  911 486.960 -31.8667 20.7796
  912 503.738 -3.51858 1.52481
  913 371.915 3.23724 -142.143
  914 530.215 -1.28192 3.33221
  915 526.745 -1.06759 -4.32707
  916 401.588 3.58752 -11.6387
  917 510.652 -2.12842 -7.94446
  918 385.502 -17.7667 -15.4616
  919 385.759 -17.5091 15.5124
  920 -12.0048 4.86242 -6.81674
  921 -16.8710 2.93530 7.34019
  922 503.710 -3.28655 -1.56974
  923 171.768 -3.96927 60.9588
  924 170.808 -3.62053 -61.2873
  925 540.951 78.7196 38.6505
  926 948.266 17.1975 14.5384
  927 510.037 56.6318 41.2386
  928 572.455 -19.7444 22.5595
  929 500.529 -27.9864 33.6990
  930 622.267 130.169 -11.9602
  931 393.536 1.81954 8.78181
  932 481.273 -11.5540 -6.21868
  933 501.769 27.0007 -49.9612
  934 601.135 18.5727 -5.50418
  935 469.843 -29.0457 -8.87565
  936 246.388 -1.30392 -13.1250
  937 246.613 -1.25728 12.9478
  938 495.149 -11.8185 -20.0626
  939 17.5462 21.9070 5.69892
  940 475.416 -49.3091 -7.47713
  941 417.391 12.6129 -1.19817
  942 618.553 135.297 -7.91994
  943 100.145 74.3080 -89.9006
  944 477.692 -3.56847 -27.6367
  945 335.196 -5.39822 -11.8507
  946 335.267 -5.33669 11.7603
  947 3.19558 -13.1903 9.91232
  948 326.951 -24.0667 -53.2788
  949 484.491 -28.1044 -19.5510
  950 308.525 0.668539 -0.999094
  951 308.610 0.671287 0.993214
  952 491.657 59.6237 -25.2925
  953 521.535 -1.79814 -0.668377
  954 521.565 -1.81675 0.890360
  955 327.111 -24.0072 52.9417
  956 491.197 -0.747126 -10.8444
  957 562.247 4.13905 30.8170
  958 499.264 -7.30074 7.76666
  959 83.0402 20.3711 -48.5118
  960 516.888 -3.34777 6.37572
  961 473.039 3.90761 43.7389
  962 498.779 68.9493 22.4866
  963 497.830 5.77505 -51.0075
  964 346.142 -18.2405 -32.1048
  965 534.922 -19.0866 31.2050
  966 346.371 -18.1765 31.8027
  967 16.8521 17.9866 -2.81995
  968 61.8136 10.1107 35.6094
  969 285.026 -4.86946 21.8286
  970 284.693 -4.87039 -21.9405
  971 481.617 -11.7591 6.59591
  972 520.210 90.1248 12.3270
  973 265.688 23.9352 -135.014
  974 434.806 -27.0103 6.51564
  975 408.245 -42.5231 -44.1053
  976 592.635 113.320 25.0620
  977 456.730 -8.23476 0.189214
  978 456.710 -8.19342 -0.193604
  979 499.112 -9.44944 -14.2044
  980 465.463 40.3150 -17.2190
  981 1021.60 308.136 207.297
  982 100.390 5.33816 -46.2734
  983 101.832 4.42824 46.3635
  984 7.47995 -7.33157 3.53131
  985 466.569 26.0013 35.3459
  986 408.176 -42.7892 43.7989
  987 504.044 -23.9209 -38.7125
  988 548.092 44.7710 47.9444
  989 524.518 -42.3610 -54.2799
  990 764.160 160.545 55.0275
  991 448.737 -7.41366 -0.365497
  992 448.680 -7.35683 0.365283
  993 523.465 -21.4850 36.1610
  994 36.9304 65.5413 65.3715
  995 241.653 -4.92850 31.1787
  996 240.943 -4.86458 -31.4888
  997 286.489 -13.7524 42.7579
  998 285.536 -13.5353 -42.9020
  999 321.926 -13.0044 30.8849
  1000 351.956 -2.65665 -1.58906
  1001 352.013 -2.63775 1.58324
  1002 849.354 277.576 -178.928
  1003 777.598 195.194 82.8925
  1004 321.667 -13.0660 -31.1251
  1005 539.014 -2.56380 40.0267
  1006 485.620 50.4015 -30.4595
  1007 343.208 -29.6901 95.1965
  1008 438.702 -51.8714 -52.4247
  1009 500.996 -4.22583 -15.7184
  1010 228.797 15.2225 110.251
  1011 293.413 -22.3617 76.0296
  1012 446.988 23.1166 -22.2089
  1013 507.022 -10.1273 -47.3604
  1014 630.395 270.945 280.781
  1015 423.509 13.1712 15.8746
  1016 570.579 122.144 -1.81812
  1017 416.848 16.7819 -161.273
  1018 426.768 -44.7377 -30.6886
  1019 536.332 -0.725539 -1.62342
  1020 519.380 47.6683 -47.5514
  1021 310.066 -1.88291 7.93935
  1022 309.919 -1.90176 -8.00719
  1023 11.6544 9.03902 -17.8693
  1024 346.610 -15.5254 -26.8193
  1025 293.048 -22.6467 -76.5713
  1026 346.371 -15.4963 26.5461
  1027 495.930 -15.1846 43.8177
  1028 445.467 -27.4465 -2.65558
  1029 469.369 8.73221 -42.4375
  1030 483.149 60.3071 8.89770
  1031 645.380 41.1026 28.3360
  1032 490.575 -37.3526 19.4751
  1033 313.907 -24.8533 -58.2917
  1034 465.726 16.6199 -39.8134
  1035 346.043 -29.3100 -95.6564
  1036 659.687 142.228 -3.46285
  1037 453.595 29.9497 20.2051
  1038 566.181 -3.14413 -22.6536
  1039 429.396 -44.7698 28.4438
  1040 491.210 -15.6848 33.6476
  1041 487.633 -25.8435 23.4042
  1042 484.947 -24.4934 20.0928
  1043 596.999 76.2350 -33.1400
  1044 485.382 -7.89056 34.5886
  1045 438.062 -52.0152 51.5962
  1046 467.547 -19.2114 5.76077
  1047 314.108 -24.9062 57.9944
  1048 439.906 -32.2509 -7.83024
  1049 258.638 -12.6583 -81.2877
  1050 366.076 -37.8902 64.8418
  1051 493.718 -3.45014 -18.3677
  1052 481.848 -5.46068 -39.5052
  1053 417.908 -32.8213 -19.1571
  1054 259.073 -13.0055 80.6867
  1055 451.472 1.18015 -27.7836
  1056 337.166 -22.0508 -41.4282
  1057 603.562 127.881 15.4445
  1058 137.971 22.2337 -78.1330
  1059 1010.10 71.2697 96.1410
  1060 244.594 17.6992 -115.267
  1061 484.693 -40.2070 -10.9401
  1062 337.269 -21.8697 41.1125
  1063 446.999 4.88145 31.1609
  1064 254.539 -5.01272 25.8250
  1065 254.423 -5.13522 -26.0736
  1066 491.489 -13.7438 -40.6833
  1067 519.311 -2.85639 2.45408
  1068 511.037 -1.23849 8.00351
  1069 507.066 16.7835 51.3459
  1070 475.453 -3.57371 37.2148
  1071 366.640 39.4828 174.258
  1072 539.528 -0.510131 0.745557
  1073 511.393 69.1437 32.8017
  1074 435.717 6.47792 26.9115
  1075 516.922 -2.06608 7.64373
  1076 338.490 -3.46099 -6.68592
  1077 338.557 -3.42235 6.64739
  1078 217.312 -6.03215 -43.1289
  1079 218.112 -6.25056 42.8588
  1080 437.149 22.0233 11.3163
  1081 646.814 36.7354 -52.0924
  1082 594.501 0.732589 -93.8865
  1083 480.163 -0.460234 -11.3056
  1084 366.175 -38.1684 -65.3140
  1085 418.792 -31.2203 17.2834
  1086 482.780 -1.13445 11.7898
  1087 503.482 -36.6558 -23.2020
  1088 320.738 -0.647245 3.94449
  1089 320.649 -0.659325 -3.96655
  1090 483.783 -41.3575 10.9272
  1091 460.275 -9.58739 0.728462
  1092 460.197 -9.59857 -0.702187
  1093 448.136 -45.0287 18.8650
  1094 573.510 -18.2702 -10.0321
  1095 267.434 -0.446886 -7.33086
  1096 267.846 -0.431298 7.25882
  1097 393.119 -25.1331 -109.613
  1098 419.880 -9.99947 2.72776
  1099 419.914 -10.0501 -2.74746
  1100 252.857 137.981 191.542
  1101 577.749 47.6707 -38.1408
  1102 87.8292 42.0956 -59.9322
  1103 499.495 -7.68712 -7.49413
  1104 136.534 46.0830 -89.6785
  1105 282.508 -17.5410 -55.2432
  1106 539.433 -0.715855 0.502108
  1107 539.613 -0.679296 -0.362584
  1108 492.543 -28.2239 -28.6724
  1109 436.007 -49.0786 -71.3158
  1110 138.083 18.9292 74.4508
  1111 536.186 53.0124 45.8983
  1112 485.411 -5.18667 -0.606677
  1113 485.473 -5.18885 0.649788
  1114 528.025 -33.6526 86.7130
  1115 549.931 109.577 17.4838
  1116 330.647 -7.73120 -16.8767
  1117 330.736 -7.69759 16.7679
  1118 249.416 28.1388 136.360
  1119 468.163 2.45822 -41.0207
  1120 148.747 47.3437 96.2292
  1121 594.186 -9.52125 -31.9801
  1122 588.420 129.184 5.08979
  1123 406.250 -31.8721 22.9025
  1124 379.697 2.15313 -1.71385
  1125 511.811 -4.66735 9.61365
  1126 528.898 -0.774838 3.73101
  1127 121.663 0.183051 -21.7977
  1128 123.178 0.128592 21.6577
  1129 422.871 7.26514 -19.9721
  1130 432.562 -12.7108 -2.36426
  1131 432.471 -12.6576 2.35343
  1132 46.1850 77.9937 -69.6872
  1133 72.6183 165.202 -136.690
  1134 437.859 -17.0717 2.28722
  1135 438.016 -17.0632 -2.31513
  1136 451.840 -10.9967 0.670458
  1137 451.776 -10.9777 -0.636508
  1138 120.471 76.6817 97.1813
  1139 360.324 -4.30733 -3.28049
  1140 360.371 -4.27784 3.26686
  1141 451.379 34.2805 -0.458051
  1142 564.243 75.2903 -200.710
  1143 547.180 94.0847 -29.9977
  1144 498.687 -19.2331 -41.2026
  1145 491.098 -24.6039 -29.2872
  1146 406.450 -32.1615 -23.2694
  1147 412.186 1.42213 12.3276
  1148 460.933 28.8815 -29.5671
  1149 454.781 24.6125 28.2843
  1150 467.250 -18.6644 -5.64162
  1151 446.576 -26.9050 2.31230
  1152 407.201 -26.0625 -17.3989
  1153 483.592 -2.88607 21.9443
  1154 842.482 84.8737 11.7668
  1155 486.638 -10.4282 39.9393
  1156 489.139 32.1308 44.1668
  1157 450.202 -44.1960 -14.6689
  1158 58.7593 9.27520 -34.3772
  1159 458.632 -21.2541 -3.51864
  1160 310.685 -0.423559 -0.211226
  1161 310.764 -0.421661 0.209320
  1162 556.149 -14.7507 18.9223
  1163 529.850 -44.6757 22.2672
  1164 758.865 135.341 34.0846
  1165 188.202 -0.335103 -18.0641
  1166 189.244 -0.295509 17.9371
  1167 411.242 -8.29147 -2.14128
  1168 411.226 -8.24350 2.12790
  1169 459.943 -40.5133 -3.34895
  1170 382.939 1.82398 5.62063
  1171 470.855 -33.5361 8.19116
  1172 27.7101 32.9083 -17.0855
  1173 86.8514 42.7070 58.5653
  1174 316.749 -17.4769 105.889
  1175 545.381 103.478 -21.4437
  1176 518.727 -1.50055 -6.04658
  1177 541.626 -0.932640 0.309336
  1178 542.106 -1.24446 -0.180196
  1179 322.487 -0.676575 -0.668258
  1180 322.565 -0.671006 0.663914
  1181 502.764 32.1193 49.9543
  1182 737.783 125.323 -2.67856
  1183 518.399 85.4534 -22.1188
  1184 386.943 -28.6789 108.923
  1185 315.075 -16.8347 -105.678
  1186 351.331 -23.2078 -37.2688
  1187 481.964 -13.6536 8.56697
  1188 670.265 148.257 9.35224
  1189 351.376 -23.0765 36.9952
  1190 491.945 -8.83457 6.47938
  1191 443.386 16.6502 27.0255
  1192 486.400 15.1136 48.1376
  1193 687.983 153.433 19.1568
  1194 411.973 -10.6905 3.96079
  1195 411.989 -10.7376 -3.98483
  1196 498.535 -9.56808 14.7680
  1197 301.253 -3.09475 12.3891
  1198 301.045 -3.12534 -12.4927
  1199 487.451 -6.88247 -2.72511
  1200 202.036 121.042 -185.730
  1201 422.221 -23.9170 -116.675
  1202 401.070 -12.4371 -7.04042
  1203 401.115 -12.3850 7.04329
  1204 521.260 -2.65747 2.26291
  1205 494.676 -6.73095 5.16071
  1206 28.0132 35.9568 26.8694
  1207 536.253 -0.680444 1.90785
  1208 65.4355 84.1079 83.4203
  1209 483.532 -7.46595 -3.54074
  1210 -0.472967 -11.6749 -10.2596
  1211 344.147 -33.6166 -82.0852
  1212 343.245 -32.8087 81.2883
  1213 536.229 -1.01540 -2.12500
  1214 461.473 -24.3639 -4.33270
  1215 520.948 -2.44646 -2.28305
  1216 420.637 -13.5503 -4.02618
  1217 420.601 -13.5058 3.98908
  1218 487.147 -6.83807 2.54481
  1219 458.308 -20.8330 3.48218
  1220 441.498 -14.2376 0.944811
  1221 441.646 -14.2709 -0.895848
  1222 520.451 -2.51951 -1.85300
  1223 450.703 -47.6030 -80.2668
  1224 509.724 -3.40459 -1.85534
  1225 485.529 -7.66410 3.85120
  1226 343.750 -3.61160 -4.99991
  1227 343.812 -3.57713 4.97391
  1228 382.076 -5.51952 -2.65919
  1229 382.100 -5.48387 2.64760
  1230 612.158 95.8165 27.1235
  1231 514.922 -39.7119 16.3617
  1232 354.296 -1.82350 134.349
  1233 289.358 -0.435222 4.76113
  1234 289.120 -0.440148 -4.80498
  1235 489.334 -9.11658 29.8694
  1236 467.780 -7.29386 0.560851
  1237 467.795 -7.27121 -0.560588
  1238 536.946 104.062 10.0693
  1239 489.148 -51.3162 64.2711
  1240 289.123 -3.94988 17.3043
  1241 288.848 -3.97824 -17.4218
  1242 467.221 -11.5597 2.77132
  1243 467.116 -11.6417 -2.67122
  1244 481.697 -13.4963 -8.22940
  1245 446.213 0.113827 14.3697
  1246 760.527 189.211 -65.1710
  1247 490.957 -18.0917 -25.9268
  1248 86.7529 20.1252 49.8213
  1249 506.904 -27.1316 35.8087
  1250 412.040 9.21373 -10.9353
  1251 32.7387 23.2973 18.7476
  1252 663.380 75.6719 -10.6589
  1253 495.430 -22.6213 -36.5342
  1254 413.917 6.05548 16.7627
  1255 284.440 -17.5752 55.1719
  1256 502.675 -39.0201 20.4273
  1257 724.096 141.922 49.2584
  1258 171.627 24.8831 94.5052
  1259 504.764 -6.20242 -12.7531
  1260 955.676 10.7834 -9.50446
  1261 986.339 14.7349 42.1809
  1262 1051.49 35.3335 -100.569
  1263 490.630 -15.4237 -32.6711
  1264 490.338 -22.4926 27.3855
  1265 497.881 -35.5420 24.9246
  1266 -14.5741 1.78105 9.16160
  1267 -13.2298 1.45556 -10.0120
  1268 484.115 -53.6143 -31.1879
  1269 495.434 -50.2137 -45.7682
  1270 385.543 2.54366 -6.93102
  1271 481.985 -54.5497 45.5465
  1272 515.431 -24.5498 -36.2567
  1273 11.0881 15.8020 2.64768
  1274 421.059 -7.71714 1.38713
  1275 421.087 -7.76856 -1.39078
  1276 511.349 -4.29769 8.59288
  1277 491.891 -8.68349 -6.06180
  1278 464.015 -50.6429 -17.3602
  1279 425.251 -22.8727 8.00408
  1280 423.163 -22.5444 -8.57870
  1281 497.096 -10.6648 20.6022
  1282 509.557 -18.8147 -42.2551
  1283 33.9496 24.2888 -18.2798
</Section>

newXOutput 68

<Section columns = "stress_xx | stress_yy | stress_xy">
  1 552.402 -0.204595 1.02495
  2 552.403 -0.193745 -1.02749
  3 310.615 -0.0783065 -0.369692
  4 -3.89303 -3.84236 -5.59921
  5 975.203 400.251 316.119
  6 966.326 414.260 -314.388
  7 -4.52431 -3.64359 5.96824
  8 310.535 -0.0793593 0.368795
  9 556.077 -0.965048 0.296908
  10 555.020 -1.50889 -0.311441
  11 553.947 -1.04453 1.14299
  12 552.850 -1.40476 0.253782
  13 550.470 -1.19635 1.79760
  14 548.289 -1.20153 1.27082
  15 542.991 -1.05843 2.60146
  16 535.253 -0.791304 3.85010
  17 528.391 -0.811085 4.32442
  18 518.069 -1.07889 5.26954
  19 503.580 -0.132937 7.84539
  20 490.201 -0.792895 7.50460
  21 474.756 -0.997642 10.6354
  22 452.471 0.699278 9.30014
  23 436.177 1.10346 11.0351
  24 414.903 1.83046 8.67139
  25 400.112 1.99104 8.75999
  26 378.696 2.72406 4.47720
  27 374.149 4.27833 4.81262
  28 371.398 3.54397 -1.42635
  29 375.121 2.11635 -3.11335
  30 381.993 2.01132 -3.82415
  31 398.045 2.50293 -7.62024
  32 413.640 1.97895 -9.60533
  33 436.382 0.486185 -11.3672
  34 454.550 -0.214267 -10.2964
  35 473.797 -0.789260 -10.0635
  36 491.161 -0.623371 -7.07355
  37 505.966 -0.668750 -6.01228
  38 518.083 -1.06007 -5.01023
  39 528.855 -0.778631 -3.44174
  40 535.477 -0.946437 -3.62973
  41 541.882 -1.12781 -2.64252
  42 547.851 -1.32324 -1.09695
  43 550.884 -1.07617 -1.33250
  44 552.383 -0.698101 -0.806257
  45 550.999 -0.441214 -0.737877
  46 555.534 -1.50887 0.222544
  47 556.224 -0.999945 -0.305847
  48 539.073 -0.598512 -0.635253
  49 527.667 -2.48532 -1.18647
  50 513.637 -3.59585 -0.713853
  51 496.465 -5.20175 -0.994629
  52 480.101 -5.65039 -1.20417
  53 462.576 -6.93761 -1.15619
  54 447.009 -7.63762 -0.594616
  55 433.352 -8.43617 -0.162464
  56 417.571 -6.97172 -0.145930
  57 399.378 -6.45982 -0.327338
  58 381.859 -5.04728 -0.0320914
  59 365.278 -3.16636 0.0272088
  60 349.544 -2.21874 0.0864515
  61 335.782 -1.08872 0.193678
  62 321.759 -0.254818 -0.418310
  63 310.747 0.444087 0.590393
  64 305.756 1.17038 0.419388
  65 308.975 0.0321629 0.953234
  66 305.027 -0.129946 1.15940
  67 301.286 -0.206861 1.44234
  68 296.253 0.000717085 1.85863
  69 289.914 0.00295098 2.32617
  70 285.082 -0.324022 4.41889
  71 271.825 0.395107 4.81249
  72 262.401 -0.00917026 5.47390
  73 248.372 -0.220382 6.21952
  74 232.254 -0.383748 7.55936
  75 212.090 -0.0729543 9.18001
  76 187.512 0.125226 10.1443
  77 166.079 -0.186784 14.5097
  78 124.097 1.32414 13.7426
  79 95.2474 1.13975 14.5631
  80 60.4463 -0.292030 16.2239
  81 31.3169 2.61443 16.9684
  82 -1.96213 3.95945 10.3812
  83 -26.4418 4.03497 3.91558
  84 -26.3948 3.94812 -1.07062
  85 -25.8259 3.30600 -7.66321
  86 -15.2606 -0.968266 -7.37939
  87 -1.80538 -14.6484 -8.16822
  88 1.54810 -26.8380 -10.0956
  89 4.14702 -41.7302 -5.24438
  90 9.11724 -41.3635 1.27807
  91 19.1535 -5.47393 26.2713
  92 56.3782 94.1428 86.3809
  93 322.737 315.774 284.102
  94 1183.05 178.048 196.454
  95 1069.04 25.3950 63.5682
  96 996.587 10.6250 19.4533
  97 969.886 9.07295 1.47305
  98 984.208 12.0104 -16.9199
  99 1067.01 23.7665 -50.3480
  100 1250.17 85.8678 -168.291
  101 192.503 324.710 -238.462
  102 42.1829 70.2305 -72.0098
  103 20.9575 -3.36949 -28.0752
  104 8.55024 -41.1237 -5.48867
  105 2.52279 -31.5388 5.97690
  106 3.09674 -33.8830 8.71560
  107 0.183487 -12.6165 9.05286
  108 -15.9420 -0.588140 6.97992
  109 -26.6412 2.48243 6.66412
  110 -27.8137 4.79156 1.21472
  111 -27.2756 3.96389 -3.65863
  112 -3.89352 4.05753 -9.74824
  113 29.6310 2.63664 -16.1912
  114 58.7292 -0.0108773 -15.9588
  115 93.4701 1.23155 -14.5908
  116 122.483 1.35790 -13.8431
  117 164.828 -0.192781 -14.6261
  118 186.443 0.138197 -10.2382
  119 211.154 -0.0697453 -9.29104
  120 231.778 -0.427173 -7.61175
  121 247.722 -0.207853 -6.23360
  122 261.906 0.00777528 -5.52787
  123 271.418 0.390588 -4.86229
  124 284.786 -0.327382 -4.46105
  125 289.675 0.000769947 -2.35196
  126 296.068 -0.00137584 -1.87979
  127 301.142 -0.210340 -1.45907
  128 304.913 -0.132928 -1.17104
  129 308.878 0.0296373 -0.960632
  130 305.669 1.16919 -0.422793
  131 310.665 0.443474 -0.592541
  132 321.679 -0.257675 0.417250
  133 335.707 -1.09589 -0.196275
  134 349.480 -2.23443 -0.0894750
  135 365.229 -3.18814 -0.0301078
  136 381.829 -5.07871 0.0291973
  137 399.370 -6.49967 0.325040
  138 417.588 -7.01799 0.143509
  139 433.387 -8.48834 0.161319
  140 447.059 -7.68977 0.596308
  141 462.648 -6.98507 1.16156
  142 480.165 -5.68293 1.22344
  143 496.515 -5.23088 1.08789
  144 513.732 -3.41378 0.729538
  145 528.033 -2.42527 1.15997
  146 539.174 -0.682551 0.625256
  147 485.456 -45.6342 -0.872901
  148 485.032 -45.0153 1.04332
  149 511.557 73.3567 -23.8272
  150 542.971 31.9656 49.7846
  151 411.568 -39.8023 -92.1602
  152 414.948 -39.7336 89.2707
  153 402.344 -16.8628 11.7094
  154 402.369 -17.0909 -11.7149
  155 574.203 20.8299 -36.6608
  156 484.187 -17.5661 9.23020
  157 483.978 -17.1532 -9.11922
  158 625.734 138.789 5.26363
  159 496.891 -0.785825 -49.2797
  160 369.661 -28.7788 -41.5047
  161 369.690 -28.5461 41.1608
  162 497.413 -11.3226 44.2030
  163 474.603 34.7402 29.6932
  164 197.506 31.1726 -110.095
  165 218.515 29.5779 115.931
  166 604.376 7.45364 0.932346
  167 498.054 -19.2208 -30.1484
  168 657.487 144.349 0.388460
  169 449.439 -12.7414 -0.779131
  170 449.348 -12.7069 0.814582
  171 502.449 -6.35655 -3.97803
  172 503.943 -5.74407 3.41880
  173 356.807 -4.94798 -6.75216
  174 356.858 -4.89822 6.72113
  175 537.071 -13.4589 117.239
  176 459.970 19.2509 -32.0198
  177 302.007 -22.4750 -65.9875
  178 302.896 -22.3138 65.5832
  179 339.871 -10.8866 -21.7511
  180 339.910 -10.7650 21.6025
  181 500.344 -13.2815 25.6470
  182 455.505 -31.1833 -2.76222
  183 453.957 -30.9517 3.45262
  184 515.701 -50.0421 -11.4791
  185 518.457 -47.6762 5.11021
  186 710.820 167.603 -27.8371
  187 521.403 83.4690 22.2309
  188 521.266 32.0095 -50.5143
  189 534.806 -3.58969 -135.723
  190 516.093 -29.2715 -34.1197
  191 520.589 -20.9424 40.6480
  192 434.898 -49.3271 46.0323
  193 434.960 -48.9693 -45.9039
  194 467.241 6.04614 38.3672
  195 216.109 -5.46198 -80.8989
  196 216.612 -5.89978 80.4282
  197 798.885 119.220 17.4709
  198 489.186 -29.2205 17.8974
  199 506.749 -9.50016 -16.4891
  200 404.856 -9.79505 -5.47123
  201 404.869 -9.74901 5.45619
  202 488.312 -6.37840 -34.1760
  203 555.040 81.3660 -39.8885
  204 467.219 42.0889 -5.93911
  205 306.747 -10.6141 30.3536
  206 306.293 -10.6444 -30.5641
  207 513.549 -5.93671 8.79779
  208 502.604 9.46026 50.7389
  209 409.688 -29.5708 -20.7443
  210 407.054 -27.9919 21.1568
  211 590.362 87.6318 35.4952
  212 689.584 96.9388 20.7245
  213 48.9993 37.6794 -32.2117
  214 45.3742 34.8290 27.4532
  215 286.709 82.7426 192.236
  216 484.349 -32.2326 -13.2149
  217 515.268 -5.69807 -7.93797
  218 462.198 4.17643 -35.3499
  219 327.596 -3.11145 -9.68040
  220 327.704 -3.07699 9.60282
  221 437.223 -20.4205 -5.17773
  222 437.429 -20.5531 4.93365
  223 492.235 -6.68298 28.9861
  224 562.949 -32.4887 16.0106
  225 562.926 114.475 -11.4260
  226 441.463 -42.4889 -22.5874
  227 555.716 -9.70625 30.3653
  228 474.728 -8.18681 1.22550
  229 474.729 -8.12340 -1.22410
  230 438.342 -42.2905 23.3660
  231 500.960 -31.8918 27.5220
  232 697.445 93.2280 -49.4460
  233 158.165 94.0679 -140.714
  234 429.000 15.2809 7.69388
  235 504.939 44.4982 42.8310
  236 535.719 -3.81415 -44.0982
  237 501.357 -18.1298 -41.0565
  238 271.998 -8.56030 -37.8560
  239 272.902 -8.43395 37.7507
  240 501.963 -6.17885 -22.2115
  241 478.145 -12.2818 4.57986
  242 477.923 -12.2704 -4.40206
  243 104.017 9.20136 -52.2434
  244 105.564 8.06096 52.0570
  245 530.516 -46.5085 -43.8839
  246 524.493 -2.13180 1.10194
  247 525.007 -2.16971 -1.23184
  248 493.577 40.9575 -39.3140
  249 437.043 8.60107 23.2491
  250 892.827 142.932 96.2129
  251 885.021 100.765 -59.8946
  252 649.025 139.121 0.117595
  253 405.529 -19.7212 122.100
  254 372.756 -13.0168 -127.569
  255 428.908 -8.81398 -2.09943
  256 428.872 -8.76162 2.08643
  257 358.798 -9.37612 13.5109
  258 358.787 -9.50196 -13.6202
  259 513.374 -5.72551 13.4369
  260 498.888 -35.6161 -22.1696
  261 329.718 -0.532330 -2.29717
  262 329.799 -0.522551 2.28445
  263 492.667 -20.0944 -17.8190
  264 213.810 -6.90051 -52.6409
  265 214.682 -6.92165 52.2833
  266 499.063 -21.7473 32.5257
  267 382.422 -40.5885 74.1991
  268 383.338 -41.3125 -73.9688
  269 434.957 16.8781 -10.8228
  270 375.442 -5.60929 -4.56236
  271 375.479 -5.57317 4.54663
  272 470.314 -1.11765 28.2122
  273 559.801 102.107 27.5613
  274 305.207 -3.57287 16.2255
  275 304.979 -3.60170 -16.3537
  276 511.780 -42.8769 14.4409
  277 473.744 -53.2904 -50.8829
  278 526.640 -2.78360 4.00421
  279 370.838 -21.6491 -28.5172
  280 370.236 -21.4132 28.4191
  281 642.230 72.0591 171.180
  282 310.159 -25.1079 88.1865
  283 498.550 69.9014 -2.52180
  284 624.411 69.8981 -21.0214
  285 473.392 -36.5931 3.90486
  286 474.194 -54.7329 46.0784
  287 311.046 -24.7115 -89.1337
  288 58.7064 72.5760 66.8100
  289 492.753 -20.1579 18.1583
  290 642.743 85.0717 15.2259
  291 530.536 -2.48912 -3.47317
  292 485.215 17.0746 -45.2684
  293 476.975 -27.0209 8.89660
  294 467.198 -39.3832 3.26780
  295 483.595 22.2733 43.6649
  296 509.402 -42.8745 -12.6516
  297 718.963 139.065 -13.1885
  298 476.850 -25.9806 -8.49261
  299 390.782 114.954 -233.966
  300 486.885 -51.6720 -11.9377
  301 483.509 -53.0908 17.4198
  302 358.197 -32.1944 -58.2259
  303 326.667 -1.15127 -4.96892
  304 326.763 -1.13106 4.93350
  305 358.369 -32.2259 57.9269
  306 515.908 -0.900391 -50.5658
  307 554.582 -22.9815 -18.9781
  308 425.580 -25.4346 -11.5651
  309 425.333 -25.4946 11.7656
  310 504.655 -43.4475 80.3142
  311 505.929 -4.17181 16.8028
  312 610.210 3.97447 31.3987
  313 417.441 -14.6065 -6.48711
  314 417.474 -14.5628 6.45572
  315 381.780 -9.74124 -9.07534
  316 381.789 -9.65373 9.06436
  317 432.754 5.96871 -22.4757
  318 549.416 40.2934 -48.1200
  319 840.622 227.931 -110.534
  320 499.414 -4.70353 -1.28315
  321 499.150 -4.64331 1.32415
  322 270.797 -0.889794 110.066
  323 379.543 -16.9315 -19.1165
  324 378.866 -16.8818 19.1679
  325 270.743 -1.54048 -109.644
  326 525.145 61.8931 -41.4509
  327 584.380 29.1802 34.4926
  328 504.435 -35.9725 -88.9064
  329 466.518 -18.0877 3.34731
  330 466.060 -17.9641 -3.15402
  331 496.669 -10.5505 -8.35243
  332 470.613 -0.850810 -26.3724
  333 525.093 2.16627 49.3009
  334 522.131 -3.85031 -9.20430
  335 319.149 -19.0668 44.3104
  336 318.799 -19.1681 -44.6298
  337 489.949 -1.07917 46.8815
  338 307.356 -2.37631 -9.67853
  339 307.550 -2.35445 9.59749
  340 500.469 -11.7302 13.4866
  341 600.865 122.324 -19.3226
  342 496.459 -10.6214 8.68671
  343 530.883 66.5110 41.5220
  344 507.511 -9.51442 48.1569
  345 404.443 -7.49581 2.06625
  346 404.441 -7.53874 -2.07801
  347 481.733 -1.68019 -41.6461
  348 633.929 132.986 10.9961
  349 529.954 96.7261 0.860799
  350 324.091 37.5086 -162.895
  351 35.5843 14.7623 -23.3945
  352 38.7954 15.9875 25.0700
  353 -1.06650 4.07402 9.24832
  354 0.810974 2.49170 -9.70865
  355 912.294 63.3464 21.4751
  356 438.770 -35.4383 -13.8427
  357 500.812 -11.3506 -13.1494
  358 453.377 -8.13138 0.295956
  359 453.325 -8.07068 -0.299508
  360 486.928 53.7979 -21.3095
  361 414.756 -42.0531 37.9228
  362 37.5327 56.1844 -42.0905
  363 415.102 -42.0317 -38.5678
  364 493.075 56.0740 22.6700
  365 500.264 -13.5108 -24.3676
  366 529.741 -29.6905 -28.3726
  367 566.689 118.939 7.84635
  368 530.791 -33.3018 22.8299
  369 225.674 -5.46524 35.2040
  370 224.400 -5.35821 -35.4112
  371 128.985 2.96724 -49.3226
  372 130.241 2.47819 49.1103
  373 439.221 1.63636 22.6933
  374 815.819 241.079 97.6019
  375 516.333 -3.44943 -11.8881
  376 404.756 -33.8803 -29.1826
  377 404.458 -33.8061 29.1458
  378 497.775 -11.6049 -31.2771
  379 563.748 -27.2381 0.385900
  380 438.756 -35.4114 14.2184
  381 616.172 5.64821 -54.6971
  382 356.660 -2.73136 -1.83835
  383 356.718 -2.70883 1.82744
  384 490.417 -2.91361 -20.1700
  385 269.613 -3.74643 -22.9223
  386 269.768 -3.87039 22.6570
  387 583.461 74.6713 -39.7786
  388 316.830 22.2169 151.583
  389 458.368 -24.0348 0.610740
  390 458.809 -23.9969 -0.628652
  391 539.122 90.8992 -26.1096
  392 509.250 -15.1839 -45.4148
  393 508.626 -52.1117 45.1591
  394 427.452 -11.3225 -3.33242
  395 427.409 -11.2732 3.30573
  396 490.984 -37.9435 14.1355
  397 526.787 -2.69356 6.79791
  398 334.513 -11.8969 -27.1073
  399 334.649 -11.9015 26.8934
  400 500.256 16.8345 -50.1111
  401 470.954 -10.4344 1.80323
  402 470.929 -10.4616 -1.74680
  403 488.458 -5.80782 38.0728
  404 457.895 33.5508 10.3138
  405 505.065 -21.4552 39.3557
  406 725.774 151.290 28.8481
  407 248.063 -13.3002 -70.6769
  408 248.730 -13.3011 70.1680
  409 111.563 59.0653 -85.8004
  410 537.428 -1.81661 1.77302
  411 281.139 -2.24277 -14.5268
  412 281.495 -2.19535 14.4110
  413 498.104 -13.1222 30.5573
  414 452.060 -48.9826 25.9754
  415 508.381 -6.62655 5.88929
  416 520.324 26.3830 51.9693
  417 116.684 62.8912 89.2339
  418 452.706 -48.6906 -24.0510
  419 467.578 -43.4008 -6.55475
  420 157.641 -3.14398 -44.5213
  421 158.735 -3.25522 44.2299
  422 360.093 -29.0971 -106.329
  423 535.697 -8.11194 42.9123
  424 358.835 -29.4988 105.434
  425 495.514 -27.9400 -24.7590
  426 463.948 31.4897 -22.5105
  427 495.563 -21.5733 23.6494
  428 530.552 -2.60871 -4.47990
  429 17.0219 18.7086 9.19573
  430 109.823 128.409 126.069
  431 479.131 -1.74550 19.5540
  432 406.595 5.78540 9.89396
  433 413.191 6.99817 -13.3936
  434 352.543 -5.60557 -9.53694
  435 352.588 -5.53576 9.48156
  436 488.541 -37.9134 -12.7727
  437 494.651 -9.75941 -42.4873
  438 408.617 7.91541 -3.63617
  439 725.070 173.132 39.2710
  440 103.946 33.7096 -64.4434
  441 114.285 30.9242 68.6658
  442 457.943 -16.3822 0.857880
  443 457.777 -16.3507 -0.743506
  444 609.676 133.709 -1.44193
  445 376.046 161.731 239.157
  446 583.297 -7.82972 -4.23500
  447 341.058 -17.4675 -36.7680
  448 341.225 -17.3536 36.4783
  449 344.177 -7.43414 14.7057
  450 344.106 -7.48601 -14.8265
  451 461.078 10.4181 -36.4560
  452 539.980 -0.980897 -1.15214
  453 449.101 20.8415 20.5582
  454 562.109 69.3327 43.9128
  455 468.594 -34.7530 -2.32137
  456 508.146 -6.32871 -5.73334
  457 532.617 -2.38442 4.12325
  458 538.379 -1.05913 0.655667
  459 538.769 -1.16890 -0.463416
  460 306.006 -0.481946 3.61578
  461 305.852 -0.489487 -3.64964
  462 511.627 -32.6647 29.9466
  463 465.379 18.5290 35.3175
  464 484.931 2.01688 -45.8143
  465 503.845 -10.8561 17.8862
  466 715.745 127.045 -146.100
  467 505.481 -28.1828 -34.0194
  468 6.34483 9.81199 4.85081
  469 6.24054 10.0283 -2.34401
  470 403.236 -22.5524 16.8254
  471 401.945 -22.2375 -16.6020
  472 622.167 13.6634 80.1571
  473 175.877 164.178 -182.892
  474 499.570 -1.61274 15.0384
  475 561.836 -32.4785 -46.8660
  476 305.724 -17.3241 51.1884
  477 605.041 107.421 -27.8505
  478 498.274 -27.1102 28.3185
  479 420.558 -19.9024 -8.87728
  480 420.924 -19.5807 8.85830
  481 439.120 2.43071 -20.0225
  482 304.794 -17.2496 -51.4779
  483 449.574 0.305791 20.0796
  484 427.362 -48.9592 -66.7818
  485 426.314 -49.0336 67.0603
  486 513.645 -3.56056 13.1507
  487 470.866 44.5185 4.25844
  488 471.531 8.97821 164.589
  489 695.467 140.568 -0.875980
  490 481.817 -8.39995 2.38244
  491 481.837 -8.37127 -2.49006
  492 375.131 -6.46372 -6.18742
  493 375.164 -6.41270 6.16780
  494 199.206 8.74513 92.9218
  495 500.625 -24.2502 -33.4711
  496 454.771 -10.0308 -0.216128
  497 454.726 -9.99969 0.223425
  498 397.124 -41.8822 54.6123
  499 202.954 11.6147 -95.2317
  500 500.811 -40.9319 -14.7043
  501 9.24423 3.10563 2.85074
  502 442.765 23.1263 1.52030
  503 483.399 -5.90993 -0.756079
  504 483.393 -5.98393 0.733036
  505 397.317 -41.8004 -55.0195
  506 562.318 -28.5461 58.8214
  507 559.989 20.3538 44.2552
  508 515.661 -3.82641 -2.75761
  509 499.290 -41.4965 14.9668
  510 320.354 -0.234196 -0.674882
  511 320.436 -0.231556 0.670162
  512 499.292 -19.2928 -36.0124
  513 485.886 36.0114 38.5026
  514 553.267 13.6944 -43.7669
  515 318.398 -0.431745 -2.04132
  516 318.490 -0.425332 2.02894
  517 950.310 137.405 -122.271
  518 505.075 60.0551 33.7731
  519 516.073 -3.56296 2.44328
  520 468.578 -44.3673 7.69646
  521 396.925 -12.9171 9.42568
  522 396.914 -13.0105 -9.40649
  523 543.130 -33.2212 10.9323
  524 523.552 -10.5838 -45.6285
  525 585.821 114.946 23.9854
  526 489.076 8.47331 47.5420
  527 490.597 -9.71745 5.05150
  528 476.274 -51.0270 -64.8241
  529 495.911 -12.3934 35.7633
  530 938.132 43.2049 -17.0726
  531 538.988 -40.7561 2.53599
  532 512.470 -3.73492 -0.586779
  533 512.595 -3.95013 0.491563
  534 947.921 63.5603 59.5874
  535 477.389 -0.0960083 40.4403
  536 661.259 112.617 -5.97789
  537 499.501 -13.8144 -17.2246
  538 232.699 -2.09038 -15.6603
  539 233.369 -1.98881 15.5092
  540 341.220 -31.8640 -73.9597
  541 341.516 -31.3327 73.4333
  542 490.322 -9.33391 -5.01735
  543 534.408 19.5881 -50.2336
  544 469.948 -31.9618 4.13205
  545 507.221 58.1090 -34.9840
  546 508.403 -6.11700 17.6840
  547 632.773 33.0291 -11.9543
  548 436.980 -14.9349 -3.23863
  549 436.859 -14.8904 3.20887
  550 473.154 -22.4016 6.35421
  551 691.872 138.966 -15.5987
  552 499.826 21.8871 49.3443
  553 215.124 55.1649 136.944
  554 479.062 -28.6724 111.021
  555 627.720 33.2087 -122.996
  556 510.894 42.2468 -45.7976
  557 450.764 -39.1587 -96.4292
  558 488.573 -53.6583 -21.3199
  559 509.348 -51.7549 -30.2023
  560 68.4996 90.3049 -85.4390
  561 512.222 -6.77156 -10.5279
  562 766.492 148.723 -45.0442
  563 475.593 -21.5234 -7.32444
  564 479.277 -15.7691 6.06527
  565 478.840 -15.4229 -5.78141
  566 336.883 -1.79846 -4.54243
  567 336.961 -1.77536 4.51589
  568 50.7561 4.87459 -27.5377
  569 53.2878 5.11927 28.1540
  570 251.242 -11.4910 -53.8234
  571 253.080 -11.5566 53.7627
  572 485.917 -26.4440 -15.0176
  573 494.101 -53.8820 22.9028
  574 507.829 -48.3666 0.119982
  575 419.691 -7.41018 -1.76450
  576 419.671 -7.36156 1.75630
  577 396.782 -41.7418 -82.4682
  578 442.349 -36.4662 101.865
  579 387.466 -39.2782 82.8922
  580 500.615 -11.1892 -45.5751
  581 319.272 -5.10377 16.3800
  582 319.116 -5.15545 -16.5038
  583 479.407 26.6320 -38.7183
  584 479.425 -0.848094 -17.7422
  585 596.475 128.682 -10.5754
  586 393.107 -5.83401 -1.66826
  587 393.123 -5.79813 1.66129
  588 508.684 -1.57175 -9.84804
  589 355.951 -11.7285 -18.3632
  590 355.971 -11.6918 18.2169
  591 288.972 12.9472 130.663
  592 495.096 -22.9211 -23.8798
  593 279.426 -14.9800 94.0111
  594 486.565 -25.3227 15.4060
  595 510.997 -7.48214 11.6779
  596 504.167 -4.95473 -2.39096
  597 360.520 -4.28934 -4.29706
  598 360.572 -4.25575 4.27789
  599 572.451 113.780 -21.8079
  600 279.220 -14.4466 -94.3358
  601 484.915 -21.1418 -12.1485
  602 439.000 -8.23200 -0.974642
  603 438.957 -8.17612 0.971004
  604 812.463 109.003 -19.5608
  605 297.043 -1.80815 8.99165
  606 296.795 -1.82533 -9.06880
  607 455.922 10.6203 33.3084
  608 641.528 55.1971 -2.56626
  609 307.554 1.71574 -129.603
  610 160.602 3.74373 -71.2238
  611 161.865 2.87157 70.8511
  612 386.851 -22.2627 23.0035
  613 390.718 -22.9196 -22.4111
  614 650.842 131.502 7.60787
  615 502.209 -5.12308 2.12494
  616 437.285 12.5435 -20.1709
  617 540.575 96.7471 20.6637
  618 538.783 100.370 -13.7505
  619 442.706 -24.4302 -5.14070
  620 445.966 -23.8990 3.58645
  621 316.416 69.4793 -185.476
  622 383.078 -12.8563 -12.9326
  623 383.118 -12.7147 12.8949
  624 946.245 193.993 146.235
  625 499.690 -16.4804 39.0378
  626 290.657 -10.0288 -34.4618
  627 763.033 184.506 126.537
  628 291.309 -9.97692 34.3450
  629 474.937 -17.9539 -129.154
  630 342.820 -1.55666 -1.67122
  631 342.890 -1.54337 1.66378
  632 422.583 3.93361 17.6102
  633 195.597 -2.82180 -30.8942
  634 196.602 -2.82955 30.6672
  635 437.128 -30.7731 10.9020
  636 457.635 -36.5557 -4.60174
  637 535.625 -1.29528 -3.83669
  638 310.938 -0.446682 2.69927
  639 310.815 -0.454998 -2.72404
  640 413.682 -9.26730 -2.84440
  641 413.671 -9.21977 2.82685
  642 470.800 -52.4048 65.4160
  643 542.415 60.5190 -45.5409
  644 364.565 -16.6930 -23.6323
  645 364.327 -16.4160 23.4733
  646 429.312 -30.6732 -14.4535
  647 671.510 145.623 6.31678
  648 504.917 -48.9808 2.59198
  649 440.591 -10.6101 -1.73371
  650 440.530 -10.5632 1.73243
  651 601.900 66.2789 32.3463
  652 506.394 -7.51154 -19.2109
  653 452.023 -0.478933 -16.3349
  654 211.992 -7.26131 -67.8458
  655 212.601 -7.45263 67.3217
  656 428.026 -36.7201 -22.4444
  657 639.027 139.750 0.0540721
  658 498.623 67.4244 -15.2144
  659 335.004 -2.89742 -8.27923
  660 335.088 -2.85778 8.21990
  661 463.282 -13.2334 -1.13296
  662 463.370 -13.2423 1.22432
  663 851.298 110.883 49.0258
  664 542.600 -1.62465 0.975577
  665 526.403 -2.22741 6.69831
  666 524.557 -2.24366 -7.93044
  667 499.030 -46.5590 4.73647
  668 372.265 -4.19650 -2.14555
  669 372.307 -4.16839 2.13717
  670 535.163 85.4891 31.9423
  671 682.310 151.225 -11.5037
  672 377.844 -27.7488 -33.4713
  673 377.760 -27.4862 33.3179
  674 468.995 -48.2878 -12.2250
  675 496.437 29.5563 -46.5024
  676 584.248 1.75591 16.6451
  677 393.248 -7.19378 -4.40873
  678 393.266 -7.15096 4.39326
  679 340.140 -29.6725 -66.7599
  680 494.395 -47.8971 -0.257403
  681 412.414 -45.7078 60.2110
  682 198.988 62.4202 -132.252
  683 386.417 -35.5693 46.4609
  684 466.335 0.133966 15.0263
  685 340.468 -29.3419 66.3366
  686 484.643 -21.5373 12.2983
  687 386.511 -35.4126 -46.8574
  688 400.168 5.39537 3.70664
  689 309.943 -8.08669 24.6004
  690 309.675 -8.09187 -24.7582
  691 412.580 -46.8890 -60.8641
  692 508.333 -33.6182 -28.9171
  693 466.780 -6.79260 -0.329517
  694 466.854 -6.85749 0.331366
  695 519.151 -33.2319 28.3771
  696 472.468 -49.3674 14.1613
  697 572.987 52.6581 42.9590
  698 517.947 -9.81922 47.2639
  699 498.427 -18.0486 28.3661
  700 479.078 39.4988 -29.3721
  701 572.783 96.1112 34.1178
  702 495.148 -6.92798 -28.0653
  703 492.378 -16.5197 13.9246
  704 511.666 79.8857 8.20367
  705 501.375 -8.64768 24.1955
  706 159.692 109.101 138.886
  707 466.226 -53.6944 -38.7697
  708 539.729 9.74627 47.7705
  709 544.061 -16.9022 -32.7589
  710 540.500 -0.873835 2.05423
  711 497.828 -17.2937 -22.0509
  712 466.963 -54.1114 35.4341
  713 890.294 78.9377 -13.1533
  714 285.284 -1.14766 9.40039
  715 284.959 -1.15982 -9.48190
  716 504.070 -9.42767 -9.93473
  717 543.555 -0.679097 -2.02190
  718 427.298 -37.3211 22.5568
  719 511.306 -19.1503 42.6967
  720 767.525 187.158 -63.1166
  721 484.667 -35.1769 12.0603
  722 535.747 -35.4040 -15.1513
  723 492.543 -16.0908 -13.6953
  724 542.972 -1.10800 -0.589452
  725 500.189 -0.0834599 49.8248
  726 23.7655 24.6091 31.0519
  727 558.701 -20.8323 -85.7892
  728 609.479 36.8275 18.3455
  729 508.934 -52.1351 27.3148
  730 368.283 -8.62614 10.5523
  731 368.273 -8.74249 -10.5968
  732 466.630 247.495 -250.913
  733 519.331 -34.4941 -25.9853
  734 398.677 2.30503 -7.09042
  735 460.351 2.65039 32.3647
  736 501.782 -25.2359 33.9823
  737 480.949 -40.5311 4.69962
  738 498.052 -45.5823 -70.3283
  739 478.125 -37.8313 -5.69119
  740 562.007 -26.8667 -2.33876
  741 517.997 -4.51338 5.73545
  742 464.733 -27.8993 2.32553
  743 834.024 166.626 -89.8534
  744 494.523 -13.4629 10.9211
  745 491.554 8.10916 -48.7852
  746 417.170 -4.49444 144.883
  747 525.589 42.2616 49.4140
  748 452.273 -35.4975 6.86385
  749 351.894 -27.4246 -48.9310
  750 351.947 -27.3566 48.5595
  751 482.924 54.3433 -6.82071
  752 489.600 -5.70221 43.3060
  753 494.321 -11.8375 -36.6194
  754 465.248 -28.4823 -2.45632
  755 450.124 -40.2095 13.6721
  756 515.491 84.7637 -9.19791
  757 480.372 -41.5817 -2.81213
  758 481.634 -30.5403 11.8654
  759 487.194 -6.55369 1.68461
  760 487.473 -6.38803 -1.66790
  761 654.994 143.012 1.30533
  762 534.533 -45.5776 -19.4349
  763 499.312 -15.4677 22.0115
  764 518.091 -4.50958 -5.18002
  765 525.695 3.43713 -49.7888
  766 595.846 31.8402 -26.6525
  767 300.535 -0.230192 -4.42769
  768 300.729 -0.226246 4.38740
  769 4.58644 -8.24798 -5.72973
  770 509.875 -0.677150 9.10121
  771 470.159 -0.659582 -35.6750
  772 484.563 -4.55026 31.2072
  773 437.289 56.2779 211.060
  774 551.169 112.658 -1.11060
  775 393.554 -27.8474 26.4631
  776 73.0023 1.48006 -26.9727
  777 74.8997 1.07641 27.2522
  778 480.555 -3.40297 -35.3147
  779 394.553 -28.1146 -26.4675
  780 515.089 -4.94785 4.25836
  781 269.506 -11.2962 45.8924
  782 267.284 -11.2530 -45.8907
  783 494.474 -13.0826 -10.6282
  784 321.571 -7.85831 -21.4614
  785 321.730 -7.80979 21.2872
  786 514.459 -5.07222 -13.1576
  787 396.851 -10.4346 -7.54957
  788 396.870 -10.3712 7.55327
  789 561.167 -3.49387 -32.5619
  790 507.226 -5.35945 -49.7642
  791 264.417 -1.61272 -11.9269
  792 264.896 -1.59755 11.7973
  793 15.4657 6.51969 -16.7867
  794 17.6709 6.88657 17.6321
  795 416.498 2.06959 -12.7788
  796 462.728 -51.9810 -29.4298
  797 -5.18654 -3.53914 9.08338
  798 -4.59539 -4.27138 -9.09436
  799 481.273 -9.89594 3.71395
  800 521.083 -40.8097 -13.2766
  801 540.233 79.8667 -37.1772
  802 517.161 -4.46935 -4.05818
  803 1082.26 221.089 -203.191
  804 481.171 -9.86905 -3.66181
  805 720.890 136.583 12.1043
  806 516.002 15.0082 -51.9988
  807 568.176 43.0122 -44.1446
  808 100.887 -1.16978 -24.7686
  809 102.562 -1.30935 24.7283
  810 327.211 -4.53959 12.8102
  811 327.092 -4.57576 -12.9132
  812 314.028 -0.669914 2.41673
  813 313.925 -0.677142 -2.43391
  814 575.569 96.7556 -33.7073
  815 345.988 -2.02101 -3.62035
  816 346.056 -1.99833 3.60280
  817 491.075 -4.94030 -45.2434
  818 697.931 75.4228 65.9478
  819 444.999 10.1625 -28.0471
  820 158.539 -1.37786 26.3676
  821 157.317 -1.39097 -26.5621
  822 563.536 17.1341 152.582
  823 503.620 -9.50354 10.2527
  824 455.211 30.4152 -11.6731
  825 215.094 -0.291487 17.8706
  826 214.081 -0.194287 -17.9928
  827 319.883 -1.51754 -6.31402
  828 320.003 -1.49575 6.26195
  829 58.0344 51.3539 45.5882
  830 473.259 11.4143 41.4796
  831 525.186 76.9765 -32.0950
  832 563.116 65.4227 -44.3052
  833 374.052 -13.8517 -16.7530
  834 373.854 -13.7560 16.7390
  835 584.094 123.582 15.0594
  836 502.052 -4.50759 -0.484773
  837 502.090 -4.47488 0.565767
  838 498.604 -15.1112 -28.7586
  839 419.541 -27.7166 16.0889
  840 460.014 -51.6710 29.5054
  841 537.601 -44.0344 45.5899
  842 416.294 -11.9804 -4.83039
  843 416.296 -11.9410 4.80382
  844 476.518 44.2624 18.9040
  845 448.830 6.30400 -30.2456
  846 124.482 152.983 144.479
  847 451.483 -39.8739 -12.5800
  848 453.152 -20.2339 -0.526943
  849 453.390 -20.2845 0.498208
  850 498.418 -7.39506 47.3879
  851 493.210 -32.5016 -20.2230
  852 441.844 -29.0944 -7.48695
  853 983.400 31.8201 -47.9749
  854 420.400 -39.5396 30.3063
  855 420.045 -40.0406 -30.7660
  856 497.555 -6.03082 23.8323
  857 742.240 193.047 -47.4971
  858 395.270 -35.6069 -37.2139
  859 435.059 -48.8568 35.9732
  860 395.197 -35.1894 36.9054
  861 427.955 -17.1120 -5.72691
  862 427.953 -17.0615 5.69291
  863 65.6877 27.1856 39.5092
  864 534.500 39.9256 -49.7496
  865 411.412 -15.8826 -8.43690
  866 411.493 -15.7293 8.46419
  867 406.742 -6.67602 -1.03390
  868 406.740 -6.63373 1.02812
  869 445.338 -8.96688 -0.582749
  870 445.287 -8.91301 0.578421
  871 365.580 -6.94882 -9.09101
  872 365.617 -6.87395 9.05806
  873 412.775 -21.4709 -12.4632
  874 412.834 -21.3352 12.5185
  875 10.5018 -1.53443 -6.21262
  876 617.290 115.905 23.4174
  877 531.441 -18.7565 -38.6951
  878 434.660 -48.1412 -36.3196
  879 468.899 -15.2345 3.02289
  880 468.699 -15.0868 -2.90359
  881 511.527 0.578141 50.8665
  882 552.343 -39.3626 -26.9957
  883 487.322 36.5060 -183.606
  884 227.220 -4.00663 91.5906
  885 -6.48522 5.29553 -6.91182
  886 -5.44210 5.98700 7.56535
  887 65.3350 28.9065 -40.3662
  888 498.864 -14.5482 17.0843
  889 523.211 -3.65891 -7.13081
  890 471.214 -45.5132 80.1371
  891 226.697 -3.79260 -91.9341
  892 525.084 -43.1642 8.18599
  893 581.299 -16.2701 71.1426
  894 430.754 1.78952 13.5273
  895 490.382 46.6747 32.0736
  896 268.347 -15.0121 67.0600
  897 267.338 -15.1317 -67.4754
  898 321.482 -14.9919 -37.6952
  899 334.217 -16.7253 -116.415
  900 526.351 -12.4368 44.1074
  901 717.978 170.660 31.4922
  902 529.148 20.2858 50.7346
  903 500.085 -10.8152 -26.3474
  904 341.056 -14.9810 119.284
  905 635.008 117.553 -15.6671
  906 65.3664 55.0521 -55.9111
  907 465.104 -0.884378 -14.3332
  908 321.814 -14.8729 37.3841
  909 390.258 -8.45007 6.60762
  910 390.240 -8.50373 -6.61955
  911 493.904 -32.3251 20.9576
  912 510.838 -3.58283 1.53087
  913 377.218 3.27499 -144.251
  914 537.650 -1.30525 3.36190
  915 534.152 -1.08766 -4.36885
  916 407.587 3.64613 -11.7854
  917 517.901 -2.16107 -8.03102
  918 391.142 -18.0122 -15.7224
  919 391.402 -17.7514 15.7742
  920 -12.1506 4.94053 -6.89523
  921 -17.0904 2.98258 7.43066
  922 510.810 -3.34736 -1.57713
  923 174.418 -4.03404 61.8825
  924 173.447 -3.68082 -62.2151
  925 548.698 79.8388 39.0803
  926 960.979 17.4313 14.7187
  927 517.379 57.4434 41.7249
  928 580.464 -20.0010 23.0456
  929 507.663 -28.3908 34.0435
  930 631.094 132.006 -11.9937
  931 399.438 1.85367 8.89286
  932 488.120 -11.7296 -6.25243
  933 508.983 27.3906 -50.5533
  934 609.550 18.8705 -5.38800
  935 476.558 -29.4621 -8.90706
  936 250.198 -1.32045 -13.3171
  937 250.426 -1.27319 13.1376
  938 502.198 -11.9960 -20.2668
  939 17.8431 22.2625 5.84279
  940 482.189 -50.0128 -7.69657
  941 423.580 12.8127 -1.21321
  942 627.350 137.192 -7.94098
  943 101.673 75.4344 -91.3208
  944 484.579 -3.62047 -27.9614
  945 340.215 -5.46833 -12.0360
  946 340.288 -5.40610 11.9446
  947 3.25648 -13.3616 10.0351
  948 331.777 -24.4077 -54.0767
  949 491.402 -28.5101 -19.7197
  950 313.251 0.679064 -1.01536
  951 313.338 0.681835 1.00942
  952 498.776 60.4857 -25.5960
  953 528.836 -1.83519 -0.674084
  954 528.867 -1.85394 0.898622
  955 331.940 -24.3477 53.7356
  956 498.240 -0.761321 -10.9685
  957 570.182 4.20244 31.0778
  958 506.332 -7.41649 7.82792
  959 84.3643 20.6641 -49.2894
  960 524.168 -3.40537 6.43226
  961 479.885 3.96902 44.2676
  962 505.994 69.9406 22.7558
  963 504.977 5.85878 -51.6078
  964 351.256 -18.4933 -32.5956
  965 542.497 -19.3624 31.4884
  966 351.489 -18.4287 32.2899
  967 17.1425 18.2806 -2.91881
  968 62.8362 10.2546 36.1829
  969 289.352 -4.93436 22.1527
  970 289.015 -4.93515 -22.2657
  971 488.468 -11.9371 6.63390
  972 527.715 91.4089 12.4693
  973 269.561 24.2656 -137.035
  974 441.069 -27.3920 6.67685
  975 414.131 -43.1279 -44.8056
  976 601.067 114.922 25.2803
  977 463.266 -8.36041 0.171497
  978 463.246 -8.31861 -0.176006
  979 506.196 -9.59434 -14.3400
  980 472.246 40.9092 -17.4307
  981 1035.13 312.441 210.162
  982 102.007 5.40985 -46.9928
  983 103.466 4.48733 47.0837
  984 7.60113 -7.35616 3.63220
  985 473.356 26.3869 35.7805
  986 414.063 -43.3981 44.4952
  987 511.230 -24.2669 -39.1248
  988 555.892 45.4084 48.4664
  989 531.880 -42.9556 -55.1844
  990 774.796 162.768 55.8684
  991 455.175 -7.52689 -0.377614
  992 455.117 -7.46942 0.377372
  993 530.896 -21.7960 36.5219
  994 37.4870 66.7195 66.4261
  995 245.362 -4.99641 31.6381
  996 244.644 -4.93157 -31.9517
  997 290.793 -13.9449 43.3939
  998 289.828 -13.7244 -43.5394
  999 326.727 -13.1838 31.3516
  1000 357.204 -2.68876 -1.61401
  1001 357.262 -2.66967 1.60813
  1002 860.772 281.616 -181.607
  1003 788.397 197.922 84.1651
  1004 326.464 -13.2460 -31.5945
  1005 546.658 -2.60287 40.4321
  1006 492.656 51.1329 -30.8274
  1007 348.186 -30.1290 96.6247
  1008 444.968 -52.6145 -53.2617
  1009 508.134 -4.29161 -15.8910
  1010 232.184 15.4248 111.917
  1011 297.748 -22.6895 77.1682
  1012 453.536 23.4652 -22.4851
  1013 514.264 -10.2754 -47.8935
  1014 638.724 275.137 284.755
  1015 429.772 13.3762 16.0748
  1016 578.761 123.859 -1.83630
  1017 422.719 17.0377 -163.654
  1018 432.904 -45.3720 -31.2044
  1019 543.812 -0.742763 -1.63598
  1020 526.828 48.3513 -48.1034
  1021 314.773 -1.90524 8.06124
  1022 314.624 -1.92430 -8.12980
  1023 11.8445 9.31224 -18.2071
  1024 351.741 -15.7392 -27.2316
  1025 297.377 -22.9786 -77.7166
  1026 351.498 -15.7099 26.9552
  1027 503.027 -15.4058 44.3119
  1028 451.867 -27.8361 -2.76774
  1029 476.175 8.86398 -42.9533
  1030 490.164 61.1812 9.00533
  1031 654.323 41.7683 28.9524
  1032 497.564 -37.8887 19.6267
  1033 318.548 -25.2082 -59.1645
  1034 472.495 16.8685 -40.3013
  1035 351.055 -29.7441 -97.0895
  1036 669.026 144.199 -3.54792
  1037 460.227 30.3961 20.4564
  1038 574.156 -3.17871 -22.7989
  1039 435.569 -45.4052 28.9305
  1040 498.234 -15.9147 34.0173
  1041 494.588 -26.2171 23.6259
  1042 491.864 -24.8480 20.2747
  1043 605.433 77.3324 -33.4225
  1044 492.351 -8.00696 34.9876
  1045 444.323 -52.7603 52.4211
  1046 474.227 -19.4906 5.77237
  1047 318.753 -25.2621 58.8641
  1048 446.230 -32.7060 -8.01940
  1049 262.488 -12.8512 -82.5043
  1050 371.395 -38.4350 65.8264
  1051 500.780 -3.50449 -18.5745
  1052 488.783 -5.54030 -39.9692
  1053 423.946 -33.2831 -19.4967
  1054 262.929 -13.2028 81.8960
  1055 458.063 1.20148 -28.1231
  1056 342.146 -22.3597 -42.0553
  1057 612.159 129.675 15.5619
  1058 140.089 22.5456 -79.3429
  1059 1023.56 72.2143 97.3711
  1060 248.197 17.9345 -117.001
  1061 491.600 -40.7826 -10.9760
  1062 342.250 -22.1764 41.7360
  1063 453.539 4.96023 31.5456
  1064 258.437 -5.08185 26.2061
  1065 258.321 -5.20596 -26.4577
  1066 498.528 -13.9439 -41.1455
  1067 526.599 -2.90837 2.46891
  1068 518.290 -1.26057 8.08959
  1069 514.335 17.0227 51.9460
  1070 482.317 -3.62497 37.6564
  1071 371.841 40.0626 176.823
  1072 547.042 -0.522021 0.749445
  1073 518.765 70.1336 33.1873
  1074 442.125 6.58127 27.2466
  1075 524.233 -2.10016 7.72402
  1076 343.563 -3.50369 -6.79289
  1077 343.631 -3.46461 6.75397
  1078 220.655 -6.11826 -43.7684
  1079 221.465 -6.33986 43.4954
  1080 443.580 22.3581 11.4581
  1081 655.746 37.3383 -53.0262
  1082 602.718 0.808878 -95.3651
  1083 487.085 -0.468553 -11.4376
  1084 371.494 -38.7169 -66.3050
  1085 424.843 -31.6598 17.5962
  1086 489.732 -1.15222 11.9270
  1087 510.642 -37.1831 -23.3943
  1088 325.602 -0.652443 4.00568
  1089 325.512 -0.664656 -4.02797
  1090 490.677 -41.9495 10.9626
  1091 466.856 -9.73267 0.709648
  1092 466.777 -9.74411 -0.683161
  1093 454.555 -45.6683 19.2253
  1094 581.538 -18.5129 -10.3462
  1095 271.555 -0.452264 -7.43930
  1096 271.972 -0.436487 7.36645
  1097 398.736 -25.5057 -111.256
  1098 425.962 -10.1427 2.79206
  1099 425.997 -10.1937 -2.81205
  1100 256.460 140.049 194.363
  1101 585.919 48.3599 -38.5010
  1102 89.1990 42.7194 -60.8996
  1103 506.564 -7.80824 -7.55272
  1104 138.611 46.7477 -91.0706
  1105 286.733 -17.7913 -56.0655
  1106 546.934 -0.732094 0.506661
  1107 547.115 -0.695028 -0.365513
  1108 499.569 -28.6317 -28.9570
  1109 442.219 -49.7851 -72.4231
  1110 140.204 19.1949 75.6036
  1111 543.850 53.7684 46.4141
  1112 492.292 -5.27433 -0.608564
  1113 492.355 -5.27647 0.652154
  1114 535.405 -34.1063 88.0711
  1115 557.828 111.123 17.6716
  1116 335.595 -7.83429 -17.1369
  1117 335.685 -7.80038 17.0270
  1118 253.065 28.5320 138.405
  1119 474.949 2.49797 -41.5171
  1120 150.993 48.0298 97.7141
  1121 602.463 -9.62145 -32.6082
  1122 596.836 130.988 5.13458
  1123 412.137 -32.3195 23.2907
  1124 385.430 2.19249 -1.73561
  1125 519.047 -4.74220 9.70659
  1126 536.329 -0.791190 3.76625
  1127 123.660 0.184310 -22.1252
  1128 125.193 0.129166 21.9834
  1129 429.124 7.38266 -20.2225
  1130 438.800 -12.8931 -2.43567
  1131 438.709 -12.8395 2.42460
  1132 46.8830 79.4257 -70.8167
  1133 73.6769 167.991 -138.777
  1134 444.164 -17.3156 2.37115
  1135 444.323 -17.3065 -2.39964
  1136 458.318 -11.1593 0.644590
  1137 458.254 -11.1403 -0.610355
  1138 122.290 77.8271 98.6972
  1139 365.672 -4.36302 -3.33580
  1140 365.720 -4.33323 3.32204
  1141 457.988 34.7911 -0.463226
  1142 571.963 76.5212 -203.641
  1143 555.025 95.4209 -30.3220
  1144 505.811 -19.5119 -41.6570
  1145 498.107 -24.9607 -29.5874
  1146 412.338 -32.6126 -23.6632
  1147 418.317 1.44718 12.4821
  1148 467.652 29.3105 -29.9318
  1149 461.425 24.9804 28.6351
  1150 473.926 -18.9363 -5.65225
  1151 452.990 -27.2875 2.41899
  1152 413.108 -26.4266 -17.7023
  1153 490.547 -2.92978 22.1984
  1154 854.023 86.0284 11.9232
  1155 493.625 -10.5805 40.3998
  1156 496.203 32.5964 44.6988
  1157 456.649 -44.8231 -14.9713
  1158 59.7415 9.40641 -34.9325
  1159 465.199 -21.5602 -3.49774
  1160 315.441 -0.426611 -0.215247
  1161 315.522 -0.424692 0.213325
  1162 563.985 -14.9575 19.0209
  1163 537.310 -45.3076 22.7276
  1164 769.438 137.199 34.5973
  1165 191.177 -0.337564 -18.3305
  1166 192.230 -0.297403 18.2021
  1167 417.218 -8.40935 -2.18716
  1168 417.202 -8.36089 2.17360
  1169 466.523 -41.0894 -3.49348
  1170 388.714 1.85636 5.69244
  1171 477.583 -34.0157 8.20614
  1172 28.1610 33.4426 -17.4163
  1173 88.2022 43.3415 59.5086
  1174 321.358 -17.7451 107.474
  1175 553.216 104.942 -21.6769
  1176 526.059 -1.52508 -6.11058
  1177 549.153 -0.948944 0.310630
  1178 549.638 -1.26492 -0.180041
  1179 327.381 -0.681715 -0.679614
  1180 327.460 -0.676089 0.675230
  1181 509.993 32.5808 50.5473
  1182 748.090 127.036 -2.71607
  1183 525.875 86.6721 -22.3744
  1184 392.484 -29.1021 110.556
  1185 319.660 -17.0949 -107.259
  1186 356.502 -23.5317 -37.8389
  1187 488.824 -13.8576 8.62428
  1188 679.687 150.374 9.66588
  1189 356.547 -23.3990 37.5622
  1190 498.921 -8.97263 6.52260
  1191 449.888 16.9041 27.3624
  1192 493.417 15.3348 48.7162
  1193 697.660 155.581 19.5575
  1194 417.957 -10.8414 4.04417
  1195 417.973 -10.8890 -4.06853
  1196 505.613 -9.71520 14.9098
  1197 305.826 -3.13434 12.5770
  1198 305.616 -3.16527 -12.6817
  1199 494.362 -6.99326 -2.73397
  1200 204.968 122.835 -188.492
  1201 428.212 -24.2630 -118.427
  1202 406.915 -12.6099 -7.17430
  1203 406.960 -12.5573 7.17724
  1204 528.566 -2.70564 2.27913
  1205 501.681 -6.83983 5.19407
  1206 28.4601 36.5700 27.3502
  1207 543.747 -0.694199 1.92335
  1208 66.4346 85.4566 84.7553
  1209 490.398 -7.58483 -3.55441
  1210 -0.472668 -11.8313 -10.3986
  1211 349.150 -34.1073 -83.3187
  1212 348.237 -33.2882 82.5111
  1213 543.722 -1.03340 -2.14312
  1214 468.078 -24.7134 -4.31606
  1215 528.253 -2.49197 -2.29736
  1216 426.726 -13.7422 -4.12219
  1217 426.691 -13.6974 4.08458
  1218 494.054 -6.94838 2.55215
  1219 464.871 -21.1328 3.46153
  1220 447.848 -14.4436 1.00351
  1221 447.998 -14.4771 -0.954076
  1222 527.746 -2.56624 -1.86397
  1223 457.097 -48.2871 -81.5054
  1224 516.895 -3.46636 -1.86405
  1225 492.420 -7.78559 3.86876
  1226 348.891 -3.65634 -5.08224
  1227 348.955 -3.62149 5.05599
  1228 387.692 -5.59426 -2.70805
  1229 387.716 -5.55827 2.69633
  1230 620.801 97.1898 27.3195
  1231 522.219 -40.2822 16.4505
  1232 359.375 -1.85904 136.350
  1233 293.796 -0.438794 4.83355
  1234 293.555 -0.443775 -4.87787
  1235 496.342 -9.25148 30.2065
  1236 474.450 -7.40886 0.551950
  1237 474.466 -7.38596 -0.551697
  1238 544.675 105.535 10.1813
  1239 496.054 -52.0465 65.2985
  1240 293.519 -4.00186 17.5623
  1241 293.240 -4.03051 -17.6812
  1242 473.890 -11.7329 2.76636
  1243 473.784 -11.8164 -2.66519
  1244 488.553 -13.6985 -8.28302
  1245 452.747 0.116815 14.5445
  1246 771.113 191.858 -66.1957
  1247 497.962 -18.3568 -26.1952
  1248 88.1282 20.4156 50.6166
  1249 514.121 -27.5240 36.1758
  1250 418.164 9.36182 -11.0730
  1251 33.2912 23.6499 19.0849
  1252 672.593 76.8193 -11.0409
  1253 502.504 -22.9490 -36.9268
  1254 420.064 6.15461 16.9744
  1255 288.691 -17.8263 55.9945
  1256 509.820 -39.5805 20.5820
  1257 734.094 144.071 50.2244
  1258 174.212 25.2326 95.9546
  1259 511.918 -6.30159 -12.8774
  1260 968.471 10.9336 -9.62574
  1261 999.485 14.9265 42.7083
  1262 1065.41 35.7763 -101.844
  1263 497.646 -15.6501 -33.0298
  1264 497.334 -22.8196 27.6640
  1265 504.969 -36.0536 25.1460
  1266 -14.7777 1.81216 9.28472
  1267 -13.4126 1.48277 -10.1489
  1268 490.980 -54.3812 -31.7480
  1269 502.432 -50.9300 -46.5410
  1270 391.349 2.58684 -7.01905
  1271 488.814 -55.3284 46.3082
  1272 522.760 -24.9040 -36.6238
  1273 11.2989 16.0507 2.73521
  1274 427.157 -7.82935 1.41075
  1275 427.185 -7.88130 -1.41445
  1276 518.572 -4.36959 8.67196
  1277 498.864 -8.81953 -6.10074
  1278 470.635 -51.3645 -17.7123
  1279 431.393 -23.1946 8.17640
  1280 429.279 -22.8613 -8.75705
  1281 504.174 -10.8255 20.8174
  1282 516.820 -19.0875 -42.7126
  1283 34.5212 24.6564 -18.6151
</Section>

newXOutput 69

<Section columns = "stress_xx | stress_yy | stress_xy">
  1 559.943 -0.212153 1.03634
  2 559.944 -0.201052 -1.03888
  3 315.318 -0.0777075 -0.373728
  4 -3.95006 -3.89806 -5.68137
  5 987.550 405.999 320.367
  6 978.571 420.180 -318.539
  7 -4.59078 -3.69586 6.05658
  8 315.236 -0.0787706 0.372827
  9 563.659 -0.980382 0.299389
  10 562.593 -1.53199 -0.317463
  11 561.514 -1.06252 1.15367
  12 560.411 -1.42724 0.252588
  13 558.016 -1.21622 1.81424
  14 555.820 -1.22109 1.28039
  15 550.477 -1.07547 2.62661
  16 542.665 -0.806966 3.88818
  17 535.740 -0.825665 4.36913
  18 525.314 -1.09549 5.32607
  19 510.673 -0.137679 7.93224
  20 497.152 -0.804931 7.58998
  21 481.533 -1.01106 10.7594
  22 458.999 0.708311 9.41079
  23 442.515 1.12027 11.1683
  24 420.992 1.85687 8.77783
  25 406.025 2.02350 8.86836
  26 384.353 2.76512 4.53309
  27 379.751 4.34225 4.87339
  28 376.965 3.59892 -1.44465
  29 380.733 2.15256 -3.15207
  30 387.688 2.04337 -3.87201
  31 403.932 2.54096 -7.71497
  32 419.714 2.00913 -9.72299
  33 442.720 0.496184 -11.5054
  34 461.099 -0.215658 -10.4188
  35 480.563 -0.799639 -10.1807
  36 498.120 -0.633086 -7.15443
  37 513.084 -0.679995 -6.07926
  38 525.327 -1.07663 -5.06435
  39 536.207 -0.791849 -3.47652
  40 542.891 -0.963499 -3.66529
  41 549.355 -1.14635 -2.66788
  42 555.376 -1.34430 -1.10458
  43 558.434 -1.09382 -1.34391
  44 559.940 -0.711309 -0.811919
  45 558.534 -0.452135 -0.743181
  46 563.112 -1.53137 0.227451
  47 563.806 -1.01560 -0.308382
  48 546.470 -0.615542 -0.642358
  49 534.939 -2.53114 -1.20155
  50 520.750 -3.65961 -0.720366
  51 503.381 -5.28837 -1.00447
  52 486.826 -5.74250 -1.21476
  53 469.093 -7.04453 -1.16688
  54 453.338 -7.75165 -0.598066
  55 439.516 -8.55700 -0.160623
  56 423.545 -7.07011 -0.143423
  57 405.131 -6.54827 -0.327934
  58 387.400 -5.11383 -0.0288510
  59 370.621 -3.20545 0.0302862
  60 354.699 -2.24422 0.0897618
  61 340.774 -1.09871 0.197798
  62 326.588 -0.255126 -0.422627
  63 315.450 0.451241 0.599515
  64 310.398 1.18572 0.426811
  65 313.647 0.0336830 0.968526
  66 309.644 -0.130190 1.17845
  67 305.848 -0.208062 1.46589
  68 300.742 0.00221954 1.88802
  69 294.312 0.00395619 2.36226
  70 289.404 -0.326259 4.48452
  71 275.964 0.400981 4.88339
  72 266.404 -0.00840571 5.55286
  73 252.175 -0.222276 6.30974
  74 235.829 -0.387702 7.66849
  75 215.377 -0.0729239 9.31263
  76 190.451 0.127592 10.2921
  77 168.702 -0.187683 14.7219
  78 126.121 1.34232 13.9464
  79 96.8466 1.15530 14.7796
  80 61.5211 -0.298157 16.4692
  81 31.9406 2.64980 17.2305
  82 -1.85990 4.01579 10.5523
  83 -26.7380 4.09305 3.99276
  84 -26.7278 4.00806 -1.06532
  85 -26.1871 3.35755 -7.76449
  86 -15.4779 -0.978432 -7.48231
  87 -1.82762 -14.8569 -8.28353
  88 1.57587 -27.2120 -10.2317
  89 4.21345 -42.2780 -5.29667
  90 9.25830 -41.8411 1.33765
  91 19.4421 -5.30810 26.7171
  92 57.1871 95.8713 87.7030
  93 326.947 320.620 287.997
  94 1198.17 180.396 198.876
  95 1082.88 25.7244 64.3308
  96 1009.64 10.7684 19.6867
  97 982.651 9.19843 1.48879
  98 997.139 12.1726 -17.1275
  99 1080.85 24.0821 -50.9550
  100 1265.96 87.0002 -170.315
  101 195.060 329.789 -241.777
  102 42.7862 71.7008 -73.1392
  103 21.2760 -3.17169 -28.5711
  104 8.68378 -41.5828 -5.61969
  105 2.56831 -31.9400 6.03351
  106 3.14808 -34.3584 8.83081
  107 0.188524 -12.7934 9.18107
  108 -16.1697 -0.591950 7.07610
  109 -27.0135 2.52119 6.75091
  110 -28.1657 4.86387 1.21090
  111 -27.5799 4.02045 -3.73241
  112 -3.81454 4.11524 -9.91021
  113 30.2356 2.67228 -16.4421
  114 59.7847 -0.0130009 -16.2001
  115 95.0490 1.24831 -14.8075
  116 124.489 1.37649 -14.0481
  117 167.437 -0.193766 -14.8397
  118 189.369 0.140738 -10.3871
  119 214.431 -0.0697084 -9.42500
  120 235.348 -0.431706 -7.72139
  121 251.518 -0.209541 -6.32388
  122 265.904 0.00876378 -5.60743
  123 275.552 0.396415 -4.93372
  124 289.104 -0.329654 -4.52713
  125 294.069 0.00175212 -2.38832
  126 300.554 0.000103409 -1.90939
  127 305.701 -0.211580 -1.48278
  128 309.528 -0.133206 -1.19020
  129 313.549 0.0311309 -0.975994
  130 310.310 1.18453 -0.430247
  131 315.366 0.450625 -0.601684
  132 326.507 -0.258010 0.421562
  133 340.698 -1.10595 -0.200416
  134 354.633 -2.26006 -0.0928090
  135 370.570 -3.22743 -0.0332070
  136 387.369 -5.14555 0.0259327
  137 405.122 -6.58851 0.325615
  138 423.561 -7.11684 0.140972
  139 439.552 -8.60971 0.159457
  140 453.388 -7.80436 0.599772
  141 469.166 -7.09251 1.17231
  142 486.891 -5.77537 1.23424
  143 503.432 -5.31780 1.09881
  144 520.847 -3.47500 0.736175
  145 535.310 -2.47025 1.17469
  146 546.572 -0.700760 0.632224
  147 492.266 -46.2758 -0.769144
  148 491.835 -45.6480 0.941827
  149 518.833 74.3934 -24.1032
  150 550.590 32.4131 50.3284
  151 417.357 -40.3726 -93.5358
  152 420.787 -40.3020 90.6070
  153 408.120 -17.0931 11.9157
  154 408.146 -17.3240 -11.9211
  155 582.187 21.1304 -36.9935
  156 490.981 -17.8201 9.28485
  157 490.769 -17.4018 -9.17347
  158 634.503 140.693 5.28033
  159 503.922 -0.796082 -49.8501
  160 374.986 -29.1764 -42.1340
  161 375.016 -28.9410 41.7861
  162 504.434 -11.4855 44.7010
  163 481.401 35.2442 30.0518
  164 200.409 31.6017 -111.745
  165 221.701 29.9874 117.664
  166 612.694 7.58565 0.754297
  167 505.053 -19.4969 -30.4607
  168 666.630 146.355 0.544413
  169 455.798 -12.9241 -0.829011
  170 455.706 -12.8894 0.864766
  171 509.445 -6.45898 -3.99882
  172 510.955 -5.83827 3.43566
  173 362.038 -5.01059 -6.86189
  174 362.090 -4.96029 6.83057
  175 544.426 -13.6063 118.994
  176 466.585 19.5366 -32.4085
  177 306.413 -22.7943 -66.9572
  178 307.315 -22.6310 66.5484
  179 344.858 -11.0317 -22.0798
  180 344.897 -10.9087 21.9296
  181 507.369 -13.4753 25.9140
  182 461.939 -31.6187 -2.88315
  183 460.372 -31.3839 3.58133
  184 522.879 -50.7460 -11.7755
  185 525.677 -48.3468 5.32038
  186 720.625 169.932 -28.3780
  187 528.809 84.6417 22.4856
  188 528.622 32.4617 -51.0905
  189 542.112 -3.59079 -137.729
  190 523.320 -29.6869 -34.4533
  191 527.882 -21.2417 41.0685
  192 441.036 -50.0205 46.7618
  193 441.096 -49.6572 -46.6319
  194 473.932 6.13798 38.8273
  195 219.321 -5.55235 -82.0989
  196 219.830 -5.99552 81.6225
  197 809.767 120.823 17.7182
  198 496.054 -29.6347 18.0395
  199 513.835 -9.64288 -16.6506
  200 410.672 -9.92908 -5.57395
  201 410.685 -9.88264 5.55876
  202 495.228 -6.47042 -34.5668
  203 562.852 82.5066 -40.3167
  204 473.935 42.7002 -6.01022
  205 311.288 -10.7573 30.8007
  206 310.828 -10.7878 -31.0134
  207 520.693 -6.03150 8.87288
  208 509.715 9.59507 51.3290
  209 415.540 -29.9782 -21.0946
  210 412.875 -28.3771 21.5100
  211 598.611 88.8616 35.8241
  212 698.997 98.3873 21.2539
  213 49.7776 38.2468 -32.7610
  214 46.0979 35.3534 27.9254
  215 290.751 83.9442 195.026
  216 491.153 -32.6876 -13.2925
  217 522.429 -5.78881 -8.00523
  218 468.829 4.24236 -35.7749
  219 332.461 -3.14924 -9.82804
  220 332.571 -3.11441 9.74966
  221 443.431 -20.7048 -5.30657
  222 443.640 -20.8395 5.05924
  223 499.193 -6.77996 29.3130
  224 570.722 -32.9310 16.3947
  225 570.882 116.063 -11.5416
  226 447.704 -43.0809 -22.9869
  227 563.446 -9.84209 30.6204
  228 481.392 -8.31215 1.21850
  229 481.393 -8.24798 -1.21712
  230 444.545 -42.8799 23.7744
  231 507.987 -32.3447 27.7786
  232 706.902 94.6501 -50.3739
  233 160.478 95.4417 -142.825
  234 435.249 15.5150 7.78990
  235 512.109 45.1297 43.3334
  236 543.217 -3.86973 -44.5584
  237 508.414 -18.3891 -41.5055
  238 276.061 -8.67737 -38.4059
  239 276.976 -8.54946 38.2999
  240 509.019 -6.27196 -22.4523
  241 484.856 -12.4629 4.59212
  242 484.631 -12.4516 -4.41241
  243 105.644 9.32620 -53.0507
  244 107.208 8.17005 52.8609
  245 537.854 -47.1563 -44.6306
  246 531.733 -2.17411 1.10581
  247 532.252 -2.21264 -1.23807
  248 500.607 41.5437 -39.7802
  249 443.386 8.73617 23.5346
  250 904.815 144.850 97.5155
  251 896.883 102.117 -60.6908
  252 658.091 141.023 0.162404
  253 411.215 -20.0067 123.898
  254 378.010 -13.2156 -129.441
  255 435.018 -8.93936 -2.14755
  256 434.982 -8.88648 2.13435
  257 364.039 -9.50021 13.7251
  258 364.028 -9.62752 -13.8356
  259 520.538 -5.81509 13.5698
  260 505.884 -36.1200 -22.3525
  261 334.634 -0.535591 -2.33381
  262 334.717 -0.525713 2.32096
  263 499.578 -20.3839 -17.9755
  264 217.041 -6.99981 -53.4130
  265 217.924 -7.02120 53.0513
  266 506.077 -22.0585 32.8641
  267 387.863 -41.1663 75.3096
  268 388.790 -41.9004 -75.0757
  269 441.277 17.1350 -10.9558
  270 380.903 -5.68249 -4.63714
  271 380.941 -5.64602 4.62126
  272 477.035 -1.13071 28.5455
  273 567.700 103.529 27.8515
  274 309.762 -3.61798 16.4650
  275 309.532 -3.64710 -16.5946
  276 518.931 -43.4828 14.5036
  277 480.363 -54.0420 -51.7013
  278 533.920 -2.83403 4.03428
  279 376.200 -21.9444 -28.9571
  280 375.592 -21.7056 28.8580
  281 650.824 73.2465 173.687
  282 314.638 -25.4745 89.4889
  283 505.665 70.8940 -2.55069
  284 633.043 70.9079 -21.1075
  285 480.052 -37.1066 3.85790
  286 480.824 -55.5040 46.8301
  287 315.535 -25.0730 -90.4476
  288 59.6027 73.6927 67.8785
  289 499.665 -20.4479 18.3183
  290 651.606 86.2945 15.2233
  291 537.857 -2.53439 -3.49933
  292 492.126 17.3230 -45.8061
  293 483.683 -27.4031 8.93017
  294 473.776 -39.9347 3.41103
  295 490.491 22.5951 44.1861
  296 516.524 -43.4795 -12.6927
  297 728.892 140.950 -13.4147
  298 483.556 -26.3484 -8.52365
  299 396.118 116.648 -237.297
  300 493.699 -52.3982 -12.2223
  301 490.280 -53.8375 17.7781
  302 363.351 -32.6462 -59.0927
  303 331.536 -1.16326 -5.04676
  304 331.633 -1.14283 5.01098
  305 363.527 -32.6785 58.7902
  306 523.169 -0.914024 -51.1334
  307 562.281 -23.3008 -19.0780
  308 431.638 -25.7858 -11.7873
  309 431.390 -25.8467 11.9910
  310 511.640 -44.0493 81.5542
  311 513.032 -4.23614 16.9844
  312 618.572 4.08086 32.0215
  313 423.407 -14.8079 -6.61704
  314 423.441 -14.7639 6.58526
  315 387.310 -9.87156 -9.22769
  316 387.320 -9.78308 9.21666
  317 439.045 6.06297 -22.7513
  318 557.121 40.8613 -48.6380
  319 852.019 231.079 -112.157
  320 506.366 -4.78352 -1.28733
  321 506.100 -4.72240 1.32884
  322 274.717 -0.921021 111.693
  323 385.028 -17.1609 -19.4232
  324 384.343 -17.1110 19.4755
  325 274.662 -1.58214 -111.265
  326 532.575 62.7658 -41.9234
  327 592.495 29.5987 34.7882
  328 511.407 -36.4684 -90.2660
  329 473.090 -18.3459 3.33011
  330 472.626 -18.2211 -3.13459
  331 503.609 -10.7099 -8.41155
  332 477.337 -0.860949 -26.6834
  333 532.468 2.19334 49.8435
  334 529.386 -3.91303 -9.29252
  335 323.821 -19.3300 44.9651
  336 323.467 -19.4324 -45.2881
  337 496.898 -1.09271 47.4287
  338 311.958 -2.40502 -9.82383
  339 312.154 -2.38292 9.74194
  340 507.467 -11.9049 13.6052
  341 609.292 124.022 -19.4777
  342 503.398 -10.7814 8.74932
  343 538.386 67.4449 41.9914
  344 514.660 -9.65146 48.6968
  345 410.257 -7.59886 2.10801
  346 410.255 -7.64220 -2.11992
  347 488.583 -1.70190 -42.1345
  348 642.775 134.830 11.0148
  349 537.480 98.0802 0.870160
  350 328.666 38.0307 -165.268
  351 36.1926 14.9760 -23.7884
  352 39.4477 16.2197 25.4872
  353 -1.05393 4.14786 9.35417
  354 0.844910 2.54578 -9.82234
  355 924.441 64.1934 21.7487
  356 444.988 -35.9306 -14.1141
  357 507.813 -11.5204 -13.2646
  358 459.783 -8.25261 0.285065
  359 459.731 -8.19123 -0.288705
  360 493.887 54.5681 -21.5631
  361 420.651 -42.6399 38.5257
  362 38.1221 57.0832 -42.7965
  363 421.000 -42.6176 -39.1788
  364 500.113 56.8747 22.9394
  365 507.285 -13.7083 -24.6184
  366 537.134 -30.1105 -28.6157
  367 574.697 120.587 7.92395
  368 538.191 -33.7729 22.9954
  369 229.102 -5.54025 35.7174
  370 227.812 -5.43167 -35.9267
  371 131.006 3.00508 -50.0640
  372 132.277 2.50965 49.8489
  373 445.589 1.66883 22.9697
  374 826.864 244.470 99.1442
  375 523.540 -3.50493 -12.0111
  376 410.536 -34.3484 -29.6528
  377 410.236 -34.2737 29.6156
  378 504.784 -11.7737 -31.6180
  379 571.543 -27.6132 0.225617
  380 444.973 -35.9036 14.4953
  381 624.579 5.78151 -55.6380
  382 361.897 -2.76406 -1.87189
  383 361.956 -2.74131 1.86088
  384 497.359 -2.95744 -20.3992
  385 273.675 -3.79552 -23.2540
  386 273.831 -3.92130 22.9855
  387 591.612 75.7231 -40.1636
  388 321.320 22.5247 153.803
  389 464.839 -24.3723 0.546111
  390 465.286 -24.3341 -0.564105
  391 546.755 92.1723 -26.3966
  392 516.413 -15.4009 -45.9136
  393 515.690 -52.8416 45.9141
  394 433.544 -11.4813 -3.41105
  395 433.500 -11.4317 3.38398
  396 497.873 -38.4782 14.2149
  397 534.091 -2.73854 6.86105
  398 339.422 -12.0559 -27.5115
  399 339.561 -12.0609 27.2952
  400 507.345 17.0758 -50.6970
  401 477.574 -10.5899 1.78993
  402 477.549 -10.6177 -1.73298
  403 495.378 -5.89207 38.5104
  404 464.495 34.0435 10.4406
  405 512.164 -21.7620 39.7745
  406 735.790 153.350 29.3229
  407 251.734 -13.4945 -71.7176
  408 252.409 -13.4953 71.2026
  409 113.248 59.9243 -87.1335
  410 544.818 -1.85149 1.78437
  411 285.377 -2.26984 -14.7379
  412 285.737 -2.22185 14.6209
  413 505.114 -13.3124 30.8867
  414 458.432 -49.6688 26.4324
  415 515.453 -6.73205 5.92987
  416 527.665 26.7546 52.5640
  417 118.434 63.8057 90.6099
  418 459.085 -49.3718 -24.4809
  419 474.157 -44.0083 -6.74808
  420 160.088 -3.19180 -45.1820
  421 161.194 -3.30443 44.8870
  422 365.205 -29.5232 -107.898
  423 543.190 -8.22934 43.3546
  424 363.934 -29.9292 106.992
  425 502.471 -28.3370 -24.9891
  426 470.619 31.9518 -22.7832
  427 502.519 -21.8830 23.8760
  428 537.881 -2.65469 -4.51641
  429 17.2982 19.0374 9.39881
  430 111.440 130.382 127.989
  431 485.952 -1.76968 19.7807
  432 412.579 5.88033 10.0173
  433 419.253 7.11067 -13.5594
  434 357.717 -5.67688 -9.68834
  435 357.762 -5.60628 9.63239
  436 495.398 -38.4475 -12.8354
  437 501.640 -9.89997 -42.9695
  438 414.624 8.04336 -3.68108
  439 735.055 175.537 39.9712
  440 105.541 34.1905 -65.4522
  441 116.024 31.3647 69.7320
  442 464.408 -16.6154 0.814722
  443 464.240 -16.5838 -0.699086
  444 618.244 135.543 -1.44921
  445 381.111 164.208 242.560
  446 591.353 -7.92051 -4.11556
  447 346.030 -17.7063 -37.3161
  448 346.200 -17.5912 37.0230
  449 349.235 -7.53102 14.9324
  450 349.163 -7.58342 -15.0546
  451 467.700 10.5763 -36.8968
  452 547.396 -1.00283 -1.15824
  453 455.590 21.1537 20.8104
  454 569.994 70.3041 44.3759
  455 475.194 -35.2406 -2.25942
  456 515.213 -6.43036 -5.77341
  457 539.969 -2.42727 4.15671
  458 545.771 -1.08313 0.658992
  459 546.164 -1.19456 -0.464816
  460 310.616 -0.486095 3.67151
  461 310.460 -0.493720 -3.70572
  462 518.791 -33.1282 30.2253
  463 472.057 18.8030 35.7449
  464 491.824 2.04824 -46.3528
  465 510.897 -11.0180 18.0606
  466 725.292 129.033 -148.326
  467 512.575 -28.5834 -34.3617
  468 6.49904 9.96025 4.96037
  469 6.39054 10.1824 -2.41817
  470 409.016 -22.8617 17.1123
  471 407.708 -22.5418 -16.8843
  472 630.627 13.9445 81.4461
  473 178.349 166.665 -185.563
  474 506.612 -1.63932 15.2058
  475 569.563 -32.9139 -47.6728
  476 310.210 -17.5648 51.9399
  477 613.492 108.926 -28.0777
  478 505.269 -27.4963 28.5945
  479 426.559 -20.1766 -9.05135
  480 426.930 -19.8509 9.03226
  481 445.487 2.46979 -20.2656
  482 309.267 -17.4890 -52.2323
  483 456.062 0.314832 20.3211
  484 433.382 -49.6527 -67.8032
  485 432.320 -49.7282 68.0877
  486 520.826 -3.61672 13.2880
  487 477.627 45.1636 4.31052
  488 478.015 9.14119 166.979
  489 705.115 142.476 -0.887657
  490 488.566 -8.52911 2.38353
  491 488.587 -8.50006 -2.49259
  492 380.585 -6.54831 -6.29173
  493 380.619 -6.49676 6.27193
  494 202.152 8.85480 94.3160
  495 507.658 -24.5962 -33.8163
  496 461.195 -10.1777 -0.246615
  497 461.149 -10.1463 0.253903
  498 402.778 -42.4709 55.4452
  499 205.951 11.7633 -96.6583
  500 507.825 -41.5098 -14.7804
  501 9.40063 3.20514 2.84289
  502 449.181 23.4731 1.53989
  503 490.163 -6.00566 -0.754841
  504 490.157 -6.08057 0.731483
  505 402.971 -42.3874 -55.8579
  506 570.047 -28.9201 59.7897
  507 567.801 20.6400 44.7025
  508 522.806 -3.89308 -2.77263
  509 506.283 -42.0818 15.0470
  510 325.164 -0.234431 -0.686480
  511 325.248 -0.231764 0.681718
  512 506.315 -19.5688 -36.3981
  513 492.818 36.5283 38.9621
  514 560.991 13.8881 -44.2119
  515 323.179 -0.434912 -2.07310
  516 323.273 -0.428430 2.06060
  517 962.939 139.238 -123.871
  518 512.258 60.9056 34.1699
  519 523.221 -3.62650 2.45594
  520 475.170 -44.9889 7.90639
  521 402.638 -13.0927 9.59228
  522 402.627 -13.1870 -9.57275
  523 550.675 -33.6877 10.9272
  524 530.893 -10.7364 -46.1169
  525 594.055 116.541 24.2110
  526 496.024 8.59675 48.1023
  527 497.457 -9.86518 5.07547
  528 482.912 -51.7470 -65.8380
  529 502.904 -12.5728 36.1588
  530 950.555 43.7853 -17.2941
  531 546.468 -41.3260 2.72176
  532 519.571 -3.80094 -0.586564
  533 519.698 -4.01902 0.489996
  534 960.475 64.4007 60.3488
  535 484.192 -0.0944330 40.9174
  536 670.371 114.236 -5.83850
  537 506.496 -14.0174 -17.3852
  538 236.263 -2.11793 -15.8862
  539 236.941 -2.01498 15.7334
  540 346.130 -32.3185 -75.0539
  541 346.431 -31.7798 74.5207
  542 497.178 -9.47659 -5.04179
  543 541.912 19.8633 -50.7868
  544 476.566 -32.4108 4.09620
  545 514.431 58.9335 -35.3923
  546 515.521 -6.21142 17.8679
  547 641.446 33.5426 -12.3257
  548 443.187 -15.1444 -3.32820
  549 443.064 -15.0997 3.29795
  550 479.812 -22.7194 6.36391
  551 701.368 140.956 -16.0427
  552 506.914 22.1991 49.9241
  553 218.233 55.9544 138.980
  554 485.695 -29.0659 112.676
  555 636.195 33.7811 -124.856
  556 518.133 42.8466 -46.3301
  557 457.050 -39.7135 -97.8750
  558 495.402 -54.4133 -21.7364
  559 516.430 -52.4821 -30.7512
  560 69.5244 91.7231 -86.7725
  561 519.355 -6.87815 -10.6216
  562 776.994 150.746 -45.7286
  563 482.281 -21.8304 -7.34841
  564 486.006 -15.9977 6.08648
  565 485.564 -15.6471 -5.79960
  566 341.879 -1.81825 -4.61486
  567 341.958 -1.79489 4.58806
  568 51.6352 4.94116 -27.9692
  569 54.1987 5.18960 28.5941
  570 254.990 -11.6531 -54.6112
  571 256.851 -11.7198 54.5508
  572 492.742 -26.8202 -15.1284
  573 501.000 -54.6403 23.3438
  574 514.917 -49.0481 -0.0118457
  575 425.690 -7.51491 -1.79829
  576 425.670 -7.46581 1.78997
  577 402.396 -42.3384 -83.7013
  578 448.527 -36.9838 103.386
  579 392.961 -39.8406 84.1297
  580 507.677 -11.3496 -46.0882
  581 324.011 -5.16911 16.6255
  582 323.853 -5.22137 -16.7506
  583 486.256 27.0192 -39.1827
  584 486.249 -0.860543 -17.9477
  585 604.865 130.455 -10.6640
  586 398.784 -5.91216 -1.69730
  587 398.800 -5.87594 1.69025
  588 515.824 -1.59653 -9.95582
  589 361.147 -11.8845 -18.6481
  590 361.168 -11.8475 18.5000
  591 293.112 13.1141 132.587
  592 502.047 -23.2490 -24.1071
  593 283.483 -15.2070 95.4014
  594 493.397 -25.6829 15.5229
  595 518.120 -7.59808 11.7843
  596 511.178 -5.03804 -2.40147
  597 365.801 -4.34333 -4.36865
  598 365.853 -4.30941 4.34929
  599 580.519 115.360 -22.0228
  600 283.273 -14.6670 -95.7296
  601 491.723 -21.4450 -12.2323
  602 445.233 -8.35147 -0.997567
  603 445.189 -8.29500 0.993856
  604 823.495 110.467 -19.8356
  605 301.508 -1.83028 9.12430
  606 301.257 -1.84766 -9.20227
  607 462.485 10.7812 33.7133
  608 650.333 56.0233 -2.38258
  609 311.944 1.72113 -131.508
  610 163.034 3.78536 -72.2963
  611 164.314 2.90208 71.9182
  612 392.421 -22.5668 23.3712
  613 396.336 -23.2327 -22.7723
  614 659.872 133.344 7.53499
  615 509.196 -5.20872 2.13232
  616 443.631 12.7370 -20.4184
  617 548.232 98.0992 20.8912
  618 546.422 101.771 -13.9025
  619 448.981 -24.7704 -5.27824
  620 452.282 -24.2328 3.70316
  621 320.851 70.4783 -188.166
  622 388.619 -13.0290 -13.1455
  623 388.659 -12.8857 13.1075
  624 958.870 196.596 148.201
  625 506.726 -16.7170 39.4636
  626 294.977 -10.1647 -34.9650
  627 773.238 187.300 128.582
  628 295.638 -10.1123 34.8471
  629 481.502 -18.1936 -131.059
  630 347.894 -1.57288 -1.69772
  631 347.965 -1.55945 1.69021
  632 428.756 3.99775 17.8270
  633 198.611 -2.86053 -31.3436
  634 199.628 -2.86842 31.1140
  635 443.329 -31.2003 11.1267
  636 464.093 -37.0660 -4.75523
  637 543.022 -1.31889 -3.87092
  638 315.617 -0.450609 2.74217
  639 315.492 -0.459018 -2.76718
  640 419.606 -9.39607 -2.90529
  641 419.596 -9.34810 2.88751
  642 477.374 -53.1442 66.4351
  643 550.053 61.3702 -46.0446
  644 369.858 -16.9186 -23.9974
  645 369.617 -16.6382 23.8364
  646 435.414 -31.0973 -14.7234
  647 680.848 147.623 6.50271
  648 511.968 -49.6704 2.75849
  649 446.843 -10.7624 -1.78745
  650 446.781 -10.7152 1.78607
  651 610.260 67.2201 32.6059
  652 513.488 -7.62583 -19.4101
  653 458.539 -0.482320 -16.5305
  654 215.170 -7.37115 -68.8470
  655 215.786 -7.56478 68.3166
  656 434.102 -37.2296 -22.8311
  657 647.970 141.658 0.0450346
  658 505.736 68.3824 -15.3934
  659 339.965 -2.93222 -8.40778
  660 340.051 -2.89213 8.34784
  661 469.811 -13.4254 -1.10319
  662 469.900 -13.4342 1.19549
  663 862.785 112.368 49.6891
  664 550.041 -1.65382 0.981501
  665 533.711 -2.26490 6.76263
  666 531.849 -2.28031 -8.01028
  667 506.012 -47.2149 4.67513
  668 377.690 -4.25020 -2.18122
  669 377.733 -4.22182 2.17276
  670 542.738 86.6860 32.2999
  671 691.776 153.306 -11.7773
  672 383.283 -28.1303 -33.9882
  673 383.200 -27.8645 33.8331
  674 475.587 -48.9643 -12.5003
  675 503.490 29.9791 -47.0515
  676 592.326 1.79224 16.6944
  677 398.925 -7.29057 -4.48796
  678 398.943 -7.24736 4.47233
  679 345.049 -30.0924 -67.7464
  680 501.315 -48.5712 -0.137443
  681 418.253 -46.3536 61.1314
  682 201.878 63.3082 -134.222
  683 391.946 -36.0658 47.1715
  684 473.016 0.136231 15.2035
  685 345.382 -29.7575 67.3181
  686 491.448 -21.8455 12.3831
  687 392.040 -35.9066 -47.5728
  688 406.074 5.48343 3.75277
  689 314.541 -8.19380 24.9637
  690 314.269 -8.19887 -25.1231
  691 418.419 -47.5513 -61.7938
  692 515.455 -34.0948 -29.1847
  693 473.347 -6.89847 -0.323668
  694 473.422 -6.96413 0.325507
  695 526.409 -33.7033 28.6273
  696 479.104 -50.0601 14.4662
  697 580.987 53.3993 43.3857
  698 525.221 -9.96157 47.7813
  699 505.429 -18.3093 28.6586
  700 485.933 40.0694 -29.7245
  701 580.830 97.4519 34.4626
  702 502.134 -7.02915 -28.3784
  703 499.278 -16.7600 14.0387
  704 518.951 81.0128 8.29917
  705 508.421 -8.77561 24.4549
  706 162.011 110.710 140.966
  707 472.759 -54.4501 -39.4158
  708 547.288 9.88093 48.2809
  709 551.644 -17.1400 -33.0545
  710 547.932 -0.892682 2.06949
  711 504.810 -17.5447 -22.2657
  712 473.510 -54.8727 36.0332
  713 902.203 79.9987 -13.3271
  714 289.589 -1.16120 9.53864
  715 289.260 -1.17349 -9.62103
  716 511.102 -9.57111 -10.0161
  717 551.022 -0.694250 -2.03784
  718 433.366 -37.8393 22.9453
  719 518.486 -19.4244 43.1543
  720 777.910 189.863 -64.2499
  721 491.474 -35.6727 12.1192
  722 543.203 -35.9020 -15.2090
  723 499.445 -16.3254 -13.8071
  724 550.416 -1.13049 -0.590975
  725 507.260 -0.0857541 50.3990
  726 24.1318 25.1057 31.5807
  727 566.355 -21.0883 -87.1285
  728 617.897 37.3685 18.4015
  729 516.016 -52.8667 27.8256
  730 373.646 -8.74002 10.7243
  731 373.636 -8.85772 -10.7692
  732 472.786 251.241 -254.466
  733 526.589 -34.9823 -26.2033
  734 404.565 2.34884 -7.17890
  735 466.961 2.69326 32.7532
  736 508.830 -25.5960 34.3308
  737 487.704 -41.1004 4.65524
  738 504.959 -46.2223 -71.4254
  739 484.846 -38.3630 -5.66528
  740 569.783 -27.2356 -2.20667
  741 525.184 -4.58845 5.77933
  742 471.285 -28.2910 2.27514
  743 845.345 168.884 -91.1134
  744 501.444 -13.6617 11.0048
  745 498.532 8.22766 -49.3587
  746 422.981 -4.54880 147.004
  747 533.006 42.8563 49.9777
  748 458.664 -35.9928 7.04555
  749 356.981 -27.8058 -49.6602
  750 357.036 -27.7372 49.2843
  751 489.838 55.1236 -6.90156
  752 496.537 -5.78438 43.8050
  753 501.299 -12.0078 -37.0280
  754 471.806 -28.8827 -2.40698
  755 456.482 -40.7703 13.9510
  756 522.825 85.9567 -9.30212
  757 487.120 -42.1660 -2.74152
  758 488.403 -30.9718 11.9301
  759 494.005 -6.65842 1.68639
  760 494.286 -6.49061 -1.66937
  761 664.128 144.971 1.23971
  762 541.941 -46.2142 -19.8507
  763 506.313 -15.6928 22.2284
  764 525.275 -4.58499 -5.21776
  765 533.078 3.48379 -50.3375
  766 604.100 32.3056 -26.8328
  767 305.067 -0.230826 -4.49440
  768 305.263 -0.226838 4.45369
  769 4.66641 -8.32672 -5.77953
  770 517.030 -0.690310 9.20002
  771 476.879 -0.664021 -36.0980
  772 491.440 -4.61540 31.5669
  773 443.280 57.1428 214.086
  774 558.975 114.224 -1.12308
  775 399.200 -28.2302 26.8868
  776 74.2324 1.49830 -27.3852
  777 76.1526 1.08908 27.6686
  778 487.388 -3.45039 -35.7264
  779 400.210 -28.5006 -26.8917
  780 522.234 -5.03000 4.28626
  781 273.518 -11.4536 46.5621
  782 271.266 -11.4097 -46.5594
  783 501.393 -13.2763 -10.7093
  784 326.325 -7.96132 -21.7804
  785 326.487 -7.91230 21.6043
  786 521.636 -5.15293 -13.2887
  787 402.567 -10.5756 -7.68370
  788 402.586 -10.5116 7.68750
  789 568.971 -3.53851 -32.8442
  790 514.376 -5.43652 -50.3277
  791 268.431 -1.63326 -12.0999
  792 268.915 -1.61790 11.9689
  793 15.8059 6.61372 -17.0619
  794 18.0386 6.98625 17.9200
  795 422.600 2.10317 -12.9354
  796 469.228 -52.7108 -29.9425
  797 -5.25338 -3.58257 9.20638
  798 -4.65672 -4.32800 -9.22045
  799 488.019 -10.0455 3.72340
  800 528.352 -41.3853 -13.3179
  801 547.864 80.9870 -37.5892
  802 524.328 -4.54442 -4.08533
  803 1096.31 224.089 -205.822
  804 487.915 -10.0184 -3.67093
  805 730.847 138.432 12.3111
  806 523.278 15.2202 -52.5921
  807 576.110 43.6206 -44.5908
  808 102.542 -1.18815 -25.1406
  809 104.237 -1.32959 25.1000
  810 332.061 -4.59758 13.0045
  811 331.940 -4.63413 -13.1086
  812 318.753 -0.676478 2.45418
  813 318.648 -0.683787 -2.47153
  814 583.650 98.1082 -34.0427
  815 351.096 -2.04383 -3.67861
  816 351.165 -2.02092 3.66090
  817 498.031 -5.00983 -45.7665
  818 707.361 76.6169 67.0941
  819 451.434 10.3196 -28.3896
  820 161.031 -1.39736 26.7561
  821 159.795 -1.41067 -26.9529
  822 571.188 17.4487 154.819
  823 510.649 -9.64808 10.3366
  824 461.777 30.8637 -11.8152
  825 218.405 -0.293478 18.1292
  826 217.381 -0.194908 -18.2528
  827 324.661 -1.53447 -6.41132
  828 324.783 -1.51245 6.35871
  829 58.9325 52.1349 46.3374
  830 480.025 11.5837 41.9772
  831 532.631 78.0595 -32.4606
  832 571.013 66.3436 -44.7718
  833 379.475 -14.0378 -17.0202
  834 379.275 -13.9412 17.0064
  835 592.320 125.290 15.1980
  836 509.033 -4.58501 -0.485597
  837 509.071 -4.55179 0.567565
  838 505.612 -15.3309 -29.0617
  839 425.522 -28.0994 16.3756
  840 466.481 -52.3964 30.0164
  841 545.030 -44.6419 46.3661
  842 422.248 -12.1461 -4.93144
  843 422.250 -12.1064 4.90454
  844 483.347 44.9017 19.1324
  845 455.309 6.40296 -30.6129
  846 126.264 155.427 146.636
  847 457.858 -40.4297 -12.8443
  848 459.558 -20.5187 -0.597400
  849 459.799 -20.5704 0.568085
  850 505.459 -7.50159 47.9281
  851 500.133 -32.9619 -20.3882
  852 448.106 -29.4984 -7.66375
  853 996.338 32.2381 -48.5765
  854 426.374 -40.0896 30.8020
  855 426.013 -40.5970 -31.2679
  856 504.568 -6.11971 24.0965
  857 752.421 195.755 -48.3460
  858 400.922 -36.1008 -37.7950
  859 441.208 -49.5410 36.5612
  860 400.849 -35.6779 37.4825
  861 434.050 -17.3494 -5.85344
  862 434.048 -17.2986 5.81895
  863 66.7229 27.5817 40.1538
  864 542.023 40.4882 -50.3056
  865 417.303 -16.1008 -8.59677
  866 417.384 -15.9457 8.62446
  867 412.584 -6.76824 -1.05400
  868 412.582 -6.72554 1.04814
  869 451.647 -9.09825 -0.611626
  870 451.595 -9.04381 0.607181
  871 370.915 -7.03922 -9.23762
  872 370.952 -6.96352 9.20436
  873 418.677 -21.7653 -12.6883
  874 418.737 -21.6282 12.7445
  875 10.6746 -1.46704 -6.36343
  876 625.898 117.527 23.5766
  877 538.869 -19.0233 -39.0801
  878 440.803 -48.8151 -36.9119
  879 475.498 -15.4545 3.00873
  880 475.296 -15.3051 -2.88822
  881 518.737 0.584226 51.4435
  882 559.970 -39.9038 -27.5263
  883 493.987 37.0869 -186.260
  884 230.564 -4.07936 92.9530
  885 -6.49688 5.37338 -7.04278
  886 -5.44153 6.07545 7.70522
  887 66.3680 29.3275 -41.0261
  888 505.850 -14.7616 17.2420
  889 530.467 -3.72049 -7.19386
  890 477.777 -46.1554 81.3603
  891 230.034 -3.86330 -93.3006
  892 532.396 -43.7733 8.15456
  893 589.254 -16.4535 72.2870
  894 437.026 1.81784 13.6924
  895 497.378 47.3426 32.4562
  896 272.302 -15.2278 68.0435
  897 271.280 -15.3491 -68.4637
  898 326.201 -15.1964 -38.2513
  899 338.977 -16.9792 -118.130
  900 533.725 -12.6159 44.5735
  901 727.825 173.086 32.1524
  902 536.590 20.5694 51.3016
  903 507.115 -10.9740 -26.6299
  904 345.906 -15.2082 121.040
  905 643.830 119.210 -15.7013
  906 66.3758 55.8789 -56.8181
  907 471.770 -0.894873 -14.5023
  908 326.538 -15.0761 37.9367
  909 395.896 -8.56391 6.72313
  910 395.876 -8.61810 -6.73517
  911 500.835 -32.7828 21.1322
  912 517.924 -3.64733 1.53652
  913 382.511 3.31246 -146.358
  914 545.069 -1.32866 3.39109
  915 541.544 -1.10782 -4.41004
  916 413.583 3.70485 -11.9313
  917 525.135 -2.19372 -8.11671
  918 396.776 -18.2570 -15.9838
  919 397.039 -17.9931 16.0367
  920 -12.2953 5.01876 -6.97302
  921 -17.3088 3.02994 7.52054
  922 517.895 -3.40841 -1.58411
  923 177.069 -4.09893 62.8061
  924 176.086 -3.74124 -63.1427
  925 556.432 80.9559 39.5061
  926 973.649 17.6643 14.8979
  927 524.710 58.2538 42.2074
  928 588.455 -20.2563 23.5354
  929 514.784 -28.7948 34.3837
  930 639.903 133.840 -12.0233
  931 405.338 1.88797 9.00332
  932 494.953 -11.9051 -6.28469
  933 516.185 27.7800 -51.1410
  934 617.946 19.1688 -5.26673
  935 483.261 -29.8778 -8.93588
  936 254.011 -1.33688 -13.5089
  937 254.241 -1.28902 13.3272
  938 509.233 -12.1734 -20.4685
  939 18.1408 22.6185 5.98826
  940 488.949 -50.7152 -7.91867
  941 429.765 13.0128 -1.22816
  942 636.131 139.084 -7.95951
  943 103.202 76.5608 -92.7424
  944 491.455 -3.67240 -28.2837
  945 345.232 -5.53812 -12.2213
  946 345.306 -5.47519 12.1289
  947 3.31774 -13.5322 10.1572
  948 336.598 -24.7479 -54.8742
  949 498.300 -28.9152 -19.8852
  950 317.977 0.689598 -1.03165
  951 318.066 0.692393 1.02566
  952 505.884 61.3465 -25.8974
  953 536.120 -1.87246 -0.679681
  954 536.152 -1.89136 0.906755
  955 336.764 -24.6874 54.5291
  956 505.271 -0.775592 -11.0916
  957 578.101 4.26594 31.3333
  958 513.386 -7.53234 7.88778
  959 85.6901 20.9567 -50.0681
  960 531.433 -3.46313 6.48782
  961 486.722 4.03050 44.7928
  962 513.198 70.9304 23.0231
  963 512.112 5.94244 -52.2035
  964 356.366 -18.7454 -33.0864
  965 550.057 -19.6378 31.7669
  966 356.602 -18.6803 32.7771
  967 17.4338 18.5752 -3.01922
  968 63.8611 10.3983 36.7573
  969 293.678 -4.99902 22.4766
  970 293.337 -4.99966 -22.5907
  971 495.307 -12.1150 6.67035
  972 535.209 92.6906 12.6105
  973 273.429 24.5951 -139.056
  974 447.323 -27.7730 6.83959
  975 420.008 -43.7315 -45.5066
  976 609.483 116.521 25.4945
  977 469.792 -8.48602 0.153280
  978 469.771 -8.44379 -0.157910
  979 513.266 -9.73925 -14.4737
  980 479.022 41.5030 -17.6410
  981 1048.60 316.736 213.020
  982 103.626 5.48129 -47.7126
  983 105.102 4.54619 47.8042
  984 7.72252 -7.37832 3.73441
  985 480.134 26.7724 36.2125
  986 419.940 -44.0059 45.1922
  987 518.404 -24.6123 -39.5327
  988 563.678 46.0449 48.9831
  989 539.226 -43.5489 -56.0909
  990 785.405 164.987 56.7092
  991 461.603 -7.64009 -0.389889
  992 461.544 -7.58198 0.389617
  993 538.314 -22.1066 36.8778
  994 38.0434 67.9027 67.4822
  995 249.073 -5.06412 32.0971
  996 248.346 -4.99836 -32.4141
  997 295.095 -14.1369 44.0295
  998 294.118 -13.9130 -44.1763
  999 331.524 -13.3627 31.8182
  1000 362.450 -2.72064 -1.63897
  1001 362.508 -2.70138 1.63303
  1002 872.150 285.652 -184.285
  1003 799.168 200.643 85.4376
  1004 331.259 -13.4255 -32.0637
  1005 554.288 -2.64186 40.8322
  1006 499.682 51.8634 -31.1927
  1007 353.157 -30.5675 98.0523
  1008 451.223 -53.3565 -54.0996
  1009 515.259 -4.35742 -16.0620
  1010 235.568 15.6263 113.583
  1011 302.079 -23.0170 78.3063
  1012 460.078 23.8138 -22.7597
  1013 521.494 -10.4232 -48.4218
  1014 647.020 279.330 288.720
  1015 436.030 13.5813 16.2739
  1016 586.929 125.570 -1.85425
  1017 428.578 17.2936 -166.033
  1018 439.031 -46.0051 -31.7214
  1019 551.274 -0.760135 -1.64825
  1020 534.265 49.0332 -48.6509
  1021 319.480 -1.92739 8.18313
  1022 319.329 -1.94666 -8.25241
  1023 12.0350 9.58925 -18.5467
  1024 356.867 -15.9523 -27.6439
  1025 301.702 -23.3101 -78.8613
  1026 356.622 -15.9230 27.3644
  1027 510.111 -15.6267 44.8018
  1028 458.256 -28.2250 -2.88167
  1029 482.973 8.99574 -43.4658
  1030 497.169 62.0542 9.11223
  1031 663.243 42.4353 29.5734
  1032 504.540 -38.4240 19.7746
  1033 323.186 -25.5624 -60.0369
  1034 479.255 17.1170 -40.7862
  1035 356.060 -30.1778 -98.5220
  1036 678.345 146.165 -3.63378
  1037 466.852 30.8422 20.7063
  1038 582.114 -3.21285 -22.9391
  1039 441.732 -46.0394 29.4185
  1040 505.245 -16.1444 34.3834
  1041 501.532 -26.5902 23.8443
  1042 498.768 -25.2021 20.4535
  1043 613.850 78.4283 -33.6993
  1044 499.309 -8.12325 35.3833
  1045 450.572 -53.5042 53.2469
  1046 480.896 -19.7695 5.78209
  1047 323.393 -25.6174 59.7334
  1048 452.545 -33.1603 -8.21030
  1049 266.336 -13.0441 -83.7202
  1050 376.707 -38.9789 66.8110
  1051 507.830 -3.55888 -18.7795
  1052 495.707 -5.61983 -40.4297
  1053 429.975 -33.7440 -19.8374
  1054 266.782 -13.4001 83.1047
  1055 464.645 1.22290 -28.4604
  1056 347.121 -22.6678 -42.6823
  1057 620.739 131.465 15.6763
  1058 142.207 22.8568 -80.5534
  1059 1036.96 73.1553 98.5954
  1060 251.797 18.1689 -118.735
  1061 498.494 -41.3571 -11.0085
  1062 347.228 -22.4824 42.3593
  1063 460.072 5.03915 31.9279
  1064 262.336 -5.15078 26.5868
  1065 262.219 -5.27651 -26.8414
  1066 505.556 -14.1438 -41.6036
  1067 533.871 -2.96054 2.48320
  1068 525.529 -1.28274 8.17478
  1069 521.593 17.2615 52.5415
  1070 489.171 -3.67614 38.0949
  1071 377.033 40.6419 179.386
  1072 554.538 -0.534008 0.753156
  1073 526.126 71.1219 33.5700
  1074 448.526 6.68475 27.5797
  1075 531.529 -2.13430 7.80341
  1076 348.634 -3.54613 -6.89997
  1077 348.703 -3.50662 6.86066
  1078 223.999 -6.20421 -44.4073
  1079 224.818 -6.42899 44.1315
  1080 450.005 22.6930 11.5992
  1081 664.653 37.9425 -53.9635
  1082 610.913 0.887002 -96.8450
  1083 493.996 -0.476909 -11.5685
  1084 376.806 -39.2645 -67.2958
  1085 430.885 -32.0983 17.9103
  1086 496.673 -1.17000 12.0630
  1087 517.789 -37.7096 -23.5826
  1088 330.466 -0.657518 4.06688
  1089 330.375 -0.669863 -4.08939
  1090 497.559 -42.5405 10.9948
  1091 473.426 -9.87790 0.690107
  1092 473.345 -9.88960 -0.663413
  1093 460.964 -46.3066 19.5874
  1094 589.547 -18.7546 -10.6643
  1095 275.677 -0.457604 -7.54763
  1096 276.099 -0.441640 7.47400
  1097 404.343 -25.8781 -112.899
  1098 432.036 -10.2856 2.85691
  1099 432.071 -10.3371 -2.87719
  1100 260.058 142.116 197.182
  1101 594.072 49.0483 -38.8557
  1102 90.5697 43.3427 -61.8684
  1103 513.619 -7.92945 -7.60995
  1104 140.687 47.4114 -92.4634
  1105 290.957 -18.0412 -56.8873
  1106 554.417 -0.748458 0.511138
  1107 554.600 -0.710885 -0.368379
  1108 506.582 -29.0389 -29.2377
  1109 448.420 -50.4906 -73.5310
  1110 142.325 19.4600 76.7570
  1111 551.502 54.5232 46.9250
  1112 499.160 -5.36218 -0.610273
  1113 499.224 -5.36427 0.654338
  1114 542.768 -34.5585 89.4300
  1115 565.713 112.667 17.8574
  1116 340.540 -7.93699 -17.3972
  1117 340.632 -7.90278 17.2862
  1118 256.710 28.9243 140.450
  1119 481.726 2.53781 -42.0102
  1120 153.238 48.7150 99.1996
  1121 610.719 -9.72038 -33.2399
  1122 605.237 132.788 5.17852
  1123 418.017 -32.7660 23.6798
  1124 391.162 2.23203 -1.75725
  1125 526.267 -4.81713 9.79821
  1126 543.743 -0.807655 3.80096
  1127 125.662 0.185532 -22.4525
  1128 127.211 0.129708 22.3091
  1129 435.372 7.50039 -20.4716
  1130 445.030 -13.0752 -2.50794
  1131 444.937 -13.0211 2.49663
  1132 47.5807 80.8645 -71.9479
  1133 74.7341 170.788 -140.864
  1134 450.459 -17.5590 2.45629
  1135 450.619 -17.5494 -2.48534
  1136 464.785 -11.3219 0.617844
  1137 464.720 -11.3028 -0.583329
  1138 124.109 78.9720 100.214
  1139 371.016 -4.41844 -3.39124
  1140 371.066 -4.38836 3.37734
  1141 464.589 35.3015 -0.468358
  1142 579.659 77.7545 -206.568
  1143 562.857 96.7547 -30.6428
  1144 512.922 -19.7904 -42.1069
  1145 505.104 -25.3170 -29.8838
  1146 418.218 -33.0626 -24.0578
  1147 424.443 1.47233 12.6358
  1148 474.364 29.7392 -30.2942
  1149 468.060 25.3482 28.9838
  1150 480.591 -19.2078 -5.66101
  1151 459.393 -27.6692 2.52744
  1152 419.008 -26.7898 -18.0068
  1153 497.490 -2.97349 22.4506
  1154 865.531 87.1796 12.0790
  1155 500.600 -10.7326 40.8566
  1156 503.257 33.0614 45.2271
  1157 463.085 -45.4489 -15.2758
  1158 60.7263 9.53737 -35.4887
  1159 471.756 -21.8658 -3.47501
  1160 320.197 -0.429574 -0.219286
  1161 320.280 -0.427634 0.217349
  1162 571.805 -15.1638 19.1146
  1163 544.753 -45.9383 23.1912
  1164 779.986 139.051 35.1098
  1165 194.154 -0.339950 -18.5967
  1166 195.220 -0.299222 18.4669
  1167 423.186 -8.52699 -2.23336
  1168 423.170 -8.47806 2.21961
  1169 473.092 -41.6643 -3.64035
  1170 394.486 1.88886 5.76388
  1171 484.299 -34.4944 8.21837
  1172 28.6127 33.9778 -17.7490
  1173 89.5539 43.9755 60.4534
  1174 325.961 -18.0134 109.057
  1175 561.038 106.404 -21.9078
  1176 533.376 -1.54964 -6.17389
  1177 556.662 -0.965296 0.311844
  1178 557.151 -1.28541 -0.179819
  1179 332.274 -0.686720 -0.690996
  1180 332.354 -0.681039 0.686573
  1181 517.212 33.0416 51.1359
  1182 758.372 128.743 -2.75349
  1183 533.339 87.8888 -22.6278
  1184 398.016 -29.5249 112.189
  1185 324.239 -17.3551 -108.839
  1186 361.667 -23.8549 -38.4091
  1187 495.671 -14.0616 8.67980
  1188 689.087 152.487 9.98375
  1189 361.714 -23.7207 38.1291
  1190 505.883 -9.11076 6.56447
  1191 456.383 17.1581 27.6973
  1192 500.424 15.5557 49.2907
  1193 707.316 157.723 19.9608
  1194 423.933 -10.9920 4.12810
  1195 423.949 -11.0400 -4.15277
  1196 512.678 -9.86235 15.0496
  1197 310.399 -3.17372 12.7648
  1198 310.186 -3.20499 -12.8706
  1199 501.260 -7.10418 -2.74204
  1200 207.895 124.628 -191.251
  1201 434.192 -24.6085 -120.178
  1202 412.753 -12.7822 -7.30881
  1203 412.799 -12.7292 7.31183
  1204 535.855 -2.75399 2.29490
  1205 508.671 -6.94885 5.22632
  1206 28.9075 37.1850 27.8330
  1207 551.224 -0.708036 1.93851
  1208 67.4338 86.8071 86.0921
  1209 497.252 -7.70382 -3.56710
  1210 -0.472158 -11.9870 -10.5372
  1211 354.146 -34.5975 -84.5517
  1212 353.223 -33.7671 83.7335
  1213 551.198 -1.05146 -2.16090
  1214 474.671 -25.0623 -4.29737
  1215 535.541 -2.53766 -2.31117
  1216 432.808 -13.9338 -4.21903
  1217 432.771 -13.8887 4.18091
  1218 500.948 -7.05881 2.55873
  1219 471.423 -21.4320 3.43906
  1220 454.188 -14.6493 1.06328
  1221 454.340 -14.6829 -1.01339
  1222 535.025 -2.61317 -1.87453
  1223 463.478 -48.9702 -82.7445
  1224 524.050 -3.52837 -1.87229
  1225 499.299 -7.90718 3.88533
  1226 354.030 -3.70081 -5.16471
  1227 354.095 -3.66558 5.13821
  1228 393.303 -5.66875 -2.75710
  1229 393.327 -5.63241 2.74526
  1230 629.426 98.5611 27.5100
  1231 529.501 -40.8516 16.5351
  1232 364.446 -1.89478 138.350
  1233 298.235 -0.442284 4.90595
  1234 297.991 -0.447322 -4.95073
  1235 503.339 -9.38629 30.5407
  1236 481.109 -7.52392 0.542627
  1237 481.124 -7.50079 -0.542385
  1238 552.392 107.005 10.2923
  1239 502.945 -52.7754 66.3271
  1240 297.914 -4.05362 17.8202
  1241 297.631 -4.08256 -17.9403
  1242 480.548 -11.9061 2.76025
  1243 480.441 -11.9909 -2.65803
  1244 495.396 -13.9007 -8.33488
  1245 459.275 0.119837 14.7182
  1246 781.673 194.499 -67.2209
  1247 504.955 -18.6217 -26.4604
  1248 89.5052 20.7055 51.4130
  1249 521.326 -27.9158 36.5384
  1250 424.284 9.51012 -11.2099
  1251 33.8453 24.0025 19.4237
  1252 681.783 77.9669 -11.4285
  1253 509.566 -23.2763 -37.3153
  1254 426.206 6.25393 17.1849
  1255 292.941 -18.0769 56.8166
  1256 516.952 -40.1400 20.7328
  1257 744.066 146.221 51.1957
  1258 176.796 25.5813 97.4043
  1259 519.058 -6.40088 -13.0000
  1260 981.222 11.0834 -9.74643
  1261 1012.58 15.1172 43.2328
  1262 1079.28 36.2167 -103.113
  1263 504.649 -15.8764 -33.3849
  1264 504.318 -23.1463 27.9389
  1265 512.043 -36.5644 25.3634
  1266 -14.9807 1.84339 9.40740
  1267 -13.5948 1.51013 -10.2854
  1268 497.833 -55.1467 -32.3102
  1269 509.416 -51.6451 -47.3157
  1270 397.152 2.63015 -7.10663
  1271 495.629 -56.1057 47.0716
  1272 530.075 -25.2577 -36.9862
  1273 11.5108 16.2997 2.82407
  1274 433.246 -7.94139 1.43443
  1275 433.274 -7.99388 -1.43819
  1276 525.779 -4.44164 8.74977
  1277 505.824 -8.95564 -6.13836
  1278 477.244 -52.0849 -18.0666
  1279 437.528 -23.5158 8.34994
  1280 435.386 -23.1774 -8.93657
  1281 511.239 -10.9862 21.0301
  1282 524.069 -19.3600 -43.1654
  1283 35.0943 25.0239 -18.9520
</Section>

newXOutput 70

<Section columns = "stress_xx | stress_yy | stress_xy">
  1 567.466 -0.219814 1.04764
  2 567.466 -0.208462 -1.05018
  3 320.021 -0.0770629 -0.377726
  4 -4.00705 -3.95371 -5.76348
  5 999.841 411.740 324.602
  6 990.761 426.091 -322.675
  7 -4.65722 -3.74806 6.14490
  8 319.938 -0.0781362 0.376821
  9 571.221 -0.995734 0.301823
  10 570.147 -1.55509 -0.323514
  11 569.063 -1.08058 1.16419
  12 567.953 -1.44974 0.251280
  13 565.544 -1.23613 1.83062
  14 563.333 -1.24069 1.28974
  15 557.947 -1.09253 2.65143
  16 550.061 -0.822722 3.92579
  17 543.074 -0.840306 4.41336
  18 532.546 -1.11210 5.38205
  19 517.753 -0.142493 8.01833
  20 504.092 -0.816970 7.67469
  21 488.302 -1.02443 10.8825
  22 465.520 0.717308 9.52070
  23 448.847 1.13709 11.3007
  24 427.077 1.88324 8.88365
  25 411.934 2.05603 8.97613
  26 390.010 2.80620 4.58868
  27 385.351 4.40618 4.93385
  28 382.532 3.65392 -1.46286
  29 386.344 2.18890 -3.19058
  30 393.382 2.07547 -3.91963
  31 409.816 2.57900 -7.80920
  32 425.784 2.03933 -9.83997
  33 449.053 0.506255 -11.6428
  34 467.641 -0.217002 -10.5404
  35 487.321 -0.809984 -10.2970
  36 505.069 -0.642811 -7.23469
  37 520.190 -0.691272 -6.14566
  38 532.557 -1.09321 -5.11796
  39 543.544 -0.805105 -3.51089
  40 550.289 -0.980632 -3.70039
  41 556.812 -1.16493 -2.69290
  42 562.884 -1.36538 -1.11200
  43 565.965 -1.11150 -1.35512
  44 567.479 -0.724580 -0.817431
  45 566.052 -0.463156 -0.748349
  46 570.670 -1.55385 0.232392
  47 571.370 -1.03126 -0.310870
  48 553.850 -0.632758 -0.649402
  49 542.195 -2.57716 -1.21655
  50 527.849 -3.72360 -0.726778
  51 510.283 -5.37517 -1.01418
  52 493.538 -5.83476 -1.22516
  53 475.598 -7.15150 -1.17742
  54 459.658 -7.86563 -0.601384
  55 445.672 -8.67764 -0.158680
  56 429.511 -7.16831 -0.140805
  57 410.878 -6.63648 -0.328426
  58 392.937 -5.18012 -0.0255222
  59 375.959 -3.24432 0.0334265
  60 359.851 -2.26950 0.0931193
  61 345.764 -1.10854 0.201945
  62 331.418 -0.255344 -0.426895
  63 320.153 0.458408 0.608642
  64 315.042 1.20101 0.434260
  65 318.320 0.0352300 0.983838
  66 314.263 -0.130389 1.19753
  67 310.410 -0.209214 1.48948
  68 305.232 0.00376054 1.91743
  69 298.712 0.00498672 2.39837
  70 293.727 -0.328428 4.55012
  71 280.104 0.406856 4.95423
  72 270.410 -0.00761668 5.63173
  73 255.980 -0.224131 6.39987
  74 239.406 -0.391608 7.77751
  75 218.668 -0.0728611 9.44511
  76 193.393 0.129974 10.4398
  77 171.329 -0.188526 14.9341
  78 128.150 1.36046 14.1502
  79 98.4505 1.17082 14.9961
  80 62.6005 -0.304325 16.7146
  81 32.5686 2.68507 17.4928
  82 -1.75404 4.07205 10.7238
  83 -27.0313 4.15107 4.07045
  84 -27.0591 4.06803 -1.05942
  85 -26.5476 3.40916 -7.86541
  86 -15.6949 -0.988479 -7.58502
  87 -1.84973 -15.0650 -8.39866
  88 1.60377 -27.5854 -10.3674
  89 4.28001 -42.8236 -5.34824
  90 9.39949 -42.3147 1.39834
  91 19.7308 -5.13552 27.1644
  92 57.9949 97.6082 89.0255
  93 331.141 325.469 291.883
  94 1213.23 182.736 201.286
  95 1096.67 26.0526 65.0887
  96 1022.65 10.9115 19.9187
  97 995.372 9.32364 1.50437
  98 1010.02 12.3344 -17.3340
  99 1094.64 24.3966 -51.5584
  100 1281.68 88.1288 -172.327
  101 197.608 334.872 -245.084
  102 43.3887 73.1821 -74.2698
  103 21.5946 -2.96713 -29.0690
  104 8.81748 -42.0376 -5.75205
  105 2.61404 -32.3393 6.08922
  106 3.19956 -34.8329 8.94561
  107 0.193624 -12.9701 9.30908
  108 -16.3971 -0.595622 7.17205
  109 -27.3851 2.56000 6.83734
  110 -28.5160 4.93620 1.20646
  111 -27.8814 4.07694 -3.80672
  112 -3.73179 4.17287 -10.0726
  113 30.8446 2.70781 -16.6932
  114 60.8451 -0.0151703 -16.4416
  115 96.6328 1.26503 -15.0241
  116 126.499 1.39502 -14.2531
  117 170.050 -0.194696 -15.0531
  118 192.300 0.143294 -10.5359
  119 217.712 -0.0696402 -9.55880
  120 238.920 -0.436188 -7.83089
  121 255.315 -0.211191 -6.41407
  122 269.903 0.00977596 -5.68689
  123 279.687 0.402242 -5.00510
  124 293.424 -0.331858 -4.59318
  125 298.465 0.00275985 -2.42469
  126 305.042 0.00162141 -1.93902
  127 310.262 -0.212772 -1.50654
  128 314.145 -0.133440 -1.20940
  129 318.220 0.0326516 -0.991376
  130 314.951 1.19981 -0.437725
  131 320.068 0.457789 -0.610831
  132 331.335 -0.258255 0.425826
  133 345.687 -1.11585 -0.204584
  134 359.784 -2.28548 -0.0961897
  135 375.908 -3.26650 -0.0363686
  136 392.905 -5.21214 0.0225799
  137 410.869 -6.67712 0.326086
  138 429.527 -7.21550 0.138324
  139 445.708 -8.73090 0.157495
  140 459.708 -7.91890 0.603103
  141 475.672 -7.19998 1.18290
  142 493.604 -5.86796 1.24486
  143 510.336 -5.40490 1.10961
  144 527.946 -3.53645 0.742708
  145 542.570 -2.51544 1.18934
  146 553.954 -0.719152 0.639133
  147 499.064 -46.9164 -0.662486
  148 498.626 -46.2796 0.837428
  149 526.098 75.4285 -24.3771
  150 558.196 32.8599 50.8671
  151 423.137 -40.9423 -94.9112
  152 426.617 -40.8696 91.9432
  153 413.890 -17.3228 12.1227
  154 413.915 -17.5565 -12.1280
  155 590.155 21.4307 -37.3207
  156 497.763 -18.0739 9.33747
  157 497.547 -17.6501 -9.22572
  158 643.256 142.592 5.29547
  159 510.941 -0.806267 -50.4162
  160 380.305 -29.5732 -42.7635
  161 380.337 -29.3349 42.4115
  162 511.443 -11.6482 45.1949
  163 488.191 35.7479 30.4082
  164 203.311 32.0299 -113.394
  165 224.885 30.3960 119.396
  166 620.992 7.71831 0.571430
  167 512.040 -19.7728 -30.7695
  168 675.754 148.357 0.704050
  169 462.148 -13.1065 -0.879803
  170 462.055 -13.0717 0.915855
  171 516.427 -6.56156 -4.01869
  172 517.953 -5.93264 3.45169
  173 367.266 -5.07290 -6.97181
  174 367.319 -5.02207 6.94019
  175 551.764 -13.7523 120.749
  176 473.192 19.8223 -32.7948
  177 310.817 -23.1132 -67.9263
  178 311.730 -22.9478 67.5130
  179 349.843 -11.1763 -22.4084
  180 349.882 -11.0519 22.2567
  181 514.382 -13.6689 26.1781
  182 468.362 -32.0533 -3.00602
  183 466.776 -31.8153 3.71192
  184 530.043 -51.4486 -12.0750
  185 532.883 -49.0163 5.53390
  186 730.407 172.257 -28.9219
  187 536.204 85.8124 22.7383
  188 535.966 32.9133 -51.6621
  189 549.399 -3.59045 -139.734
  190 530.534 -30.1017 -34.7824
  191 535.162 -21.5405 41.4842
  192 447.163 -50.7128 47.4921
  193 447.222 -50.3439 -47.3609
  194 480.614 6.22987 39.2845
  195 222.532 -5.64295 -83.2985
  196 223.047 -6.09146 82.8165
  197 820.621 122.420 17.9650
  198 502.911 -30.0482 18.1784
  199 520.908 -9.78559 -16.8099
  200 416.480 -10.0628 -5.67716
  201 416.494 -10.0159 5.66180
  202 502.134 -6.56235 -34.9546
  203 570.652 83.6451 -40.7405
  204 480.643 43.3109 -6.08087
  205 315.826 -10.8999 31.2475
  206 315.361 -10.9306 -31.4625
  207 527.822 -6.12642 8.94660
  208 516.815 9.72975 51.9149
  209 421.384 -30.3846 -21.4458
  210 418.689 -28.7615 21.8641
  211 606.844 90.0893 36.1478
  212 708.386 99.8359 21.7886
  213 50.5571 38.8143 -33.3120
  214 46.8228 35.8778 28.3992
  215 294.787 85.1449 197.813
  216 497.945 -33.1420 -13.3672
  217 529.575 -5.87966 -8.07123
  218 475.452 4.30839 -36.1972
  219 337.325 -3.18681 -9.97572
  220 337.436 -3.15160 9.89653
  221 449.630 -20.9884 -5.43663
  222 449.841 -21.1254 5.18607
  223 506.139 -6.87686 29.6372
  224 578.477 -33.3721 16.7824
  225 578.825 117.648 -11.6558
  226 453.935 -43.6718 -23.3878
  227 571.160 -9.97760 30.8704
  228 488.043 -8.43753 1.21088
  229 488.044 -8.37260 -1.20955
  230 450.739 -43.4683 24.1841
  231 515.002 -32.7968 28.0313
  232 716.333 96.0731 -51.3064
  233 162.790 96.8145 -144.937
  234 441.493 15.7493 7.88541
  235 519.268 45.7603 43.8323
  236 550.701 -3.92520 -45.0134
  237 515.460 -18.6480 -41.9504
  238 280.123 -8.79414 -38.9554
  239 281.050 -8.66468 38.8487
  240 516.062 -6.36509 -22.6908
  241 491.556 -12.6439 4.60302
  242 491.328 -12.6327 -4.42141
  243 107.272 9.45070 -53.8587
  244 108.855 8.27884 53.6653
  245 545.177 -47.8029 -45.3795
  246 538.957 -2.21665 1.10938
  247 539.480 -2.25581 -1.24400
  248 507.627 42.1293 -40.2433
  249 449.723 8.87144 23.8185
  250 916.766 146.762 98.8144
  251 908.710 103.465 -61.4843
  252 667.140 142.921 0.208260
  253 416.891 -20.2920 125.695
  254 383.255 -13.4146 -131.312
  255 441.120 -9.06453 -2.19607
  256 441.083 -9.01115 2.18267
  257 369.276 -9.62387 13.9396
  258 369.264 -9.75264 -14.0513
  259 527.687 -5.90475 13.7010
  260 512.868 -36.6232 -22.5317
  261 339.550 -0.538730 -2.37049
  262 339.634 -0.528754 2.35752
  263 506.477 -20.6730 -18.1292
  264 220.273 -7.09899 -54.1847
  265 221.166 -7.12064 53.8189
  266 513.079 -22.3693 33.1988
  267 393.297 -41.7433 76.4200
  268 394.234 -42.4875 -76.1824
  269 447.592 17.3920 -11.0880
  270 386.360 -5.75540 -4.71206
  271 386.399 -5.71858 4.69602
  272 483.748 -1.14366 28.8765
  273 575.585 104.949 28.1386
  274 314.316 -3.66286 16.7044
  275 314.083 -3.69228 -16.8353
  276 526.068 -44.0877 14.5625
  277 486.969 -54.7924 -52.5210
  278 541.183 -2.88466 4.06365
  279 381.557 -22.2389 -29.3971
  280 380.942 -21.9973 29.2971
  281 659.392 74.4367 176.192
  282 319.111 -25.8408 90.7908
  283 512.771 71.8852 -2.57936
  284 641.656 71.9168 -21.1877
  285 486.700 -37.6191 3.80834
  286 487.441 -56.2739 47.5832
  287 320.018 -25.4343 -91.7609
  288 60.4993 74.8102 68.9489
  289 506.565 -20.7375 18.4755
  290 660.450 87.5162 15.2150
  291 545.162 -2.57984 -3.52488
  292 499.027 17.5713 -46.3402
  293 490.379 -27.7846 8.96129
  294 480.344 -40.4853 3.55658
  295 497.376 22.9167 44.7039
  296 523.632 -44.0835 -12.7300
  297 738.800 142.830 -13.6415
  298 490.250 -26.7156 -8.55233
  299 401.440 118.342 -240.622
  300 500.501 -53.1232 -12.5094
  301 497.038 -54.5829 18.1388
  302 368.500 -33.0971 -59.9593
  303 336.403 -1.17511 -5.12465
  304 336.503 -1.15446 5.08852
  305 368.679 -33.1302 59.6532
  306 530.417 -0.927612 -51.6962
  307 569.964 -23.6194 -19.1732
  308 437.688 -26.1362 -12.0106
  309 437.437 -26.1980 12.2175
  310 518.610 -44.6498 82.7952
  311 520.123 -4.30052 17.1643
  312 626.913 4.18859 32.6480
  313 429.366 -15.0089 -6.74773
  314 429.400 -14.9645 6.71557
  315 392.836 -10.0015 -9.38041
  316 392.846 -9.91203 9.36933
  317 445.331 6.15737 -23.0253
  318 564.812 41.4284 -49.1509
  319 863.384 234.219 -113.778
  320 513.304 -4.86371 -1.29114
  321 513.035 -4.80169 1.33317
  322 278.633 -0.952728 113.320
  323 390.507 -17.3897 -19.7303
  324 389.815 -17.3396 19.7835
  325 278.577 -1.62429 -112.886
  326 539.993 63.6372 -42.3920
  327 600.593 30.0169 35.0782
  328 518.363 -36.9632 -91.6263
  329 479.651 -18.6039 3.31128
  330 479.182 -18.4777 -3.11354
  331 510.535 -10.8694 -8.46906
  332 484.052 -0.871020 -26.9922
  333 539.829 2.22032 50.3811
  334 536.626 -3.97587 -9.37953
  335 328.491 -19.5925 45.6195
  336 328.131 -19.6961 -45.9461
  337 503.836 -1.10615 47.9719
  338 316.560 -2.43355 -9.96910
  339 316.759 -2.41121 9.88637
  340 514.453 -12.0796 13.7217
  341 617.705 125.717 -19.6294
  342 510.323 -10.9415 8.81028
  343 545.877 68.3773 42.4569
  344 521.797 -9.78832 49.2321
  345 416.064 -7.70165 2.15002
  346 416.061 -7.74540 -2.16207
  347 495.423 -1.72350 -42.6194
  348 651.603 136.670 11.0299
  349 544.994 99.4318 0.879424
  350 333.233 38.5517 -167.639
  351 36.8030 15.1896 -24.1836
  352 40.1018 16.4517 25.9056
  353 -1.04058 4.22205 9.45913
  354 0.879450 2.60032 -9.93515
  355 936.548 65.0379 22.0210
  356 451.197 -36.4219 -14.3870
  357 514.801 -11.6902 -13.3777
  358 466.179 -8.37378 0.273808
  359 466.126 -8.31173 -0.277537
  360 500.838 55.3374 -21.8151
  361 426.537 -43.2255 39.1293
  362 38.7123 57.9836 -43.5046
  363 426.889 -43.2024 -39.7905
  364 507.140 57.6743 23.2070
  365 514.295 -13.9055 -24.8664
  366 544.513 -30.5297 -28.8542
  367 582.692 122.231 8.00052
  368 545.576 -34.2432 23.1565
  369 232.531 -5.61506 36.2304
  370 231.225 -5.50494 -36.4417
  371 133.030 3.04276 -50.8055
  372 134.316 2.54097 50.5875
  373 451.950 1.70150 23.2444
  374 837.878 247.856 100.688
  375 530.733 -3.56052 -12.1328
  376 416.308 -34.8153 -30.1239
  377 416.006 -34.7403 30.0862
  378 511.780 -11.9424 -31.9558
  379 579.321 -27.9875 0.0611589
  380 451.182 -36.3948 14.7736
  381 632.964 5.91619 -56.5818
  382 367.131 -2.79654 -1.90557
  383 367.191 -2.77358 1.89446
  384 504.290 -3.00128 -20.6265
  385 277.737 -3.84442 -23.5854
  386 277.895 -3.97203 23.3138
  387 599.747 76.7733 -40.5432
  388 325.803 22.8319 156.022
  389 471.300 -24.7092 0.479692
  390 471.753 -24.6707 -0.497763
  391 554.376 93.4432 -26.6809
  392 523.564 -15.6176 -46.4078
  393 522.741 -53.5703 46.6711
  394 439.627 -11.6399 -3.49036
  395 439.583 -11.5898 3.46291
  396 504.749 -39.0121 14.2911
  397 541.380 -2.78362 6.92326
  398 344.328 -12.2145 -27.9155
  399 344.469 -12.2198 27.6970
  400 514.424 17.3169 -51.2786
  401 484.184 -10.7454 1.77566
  402 484.158 -10.7737 -1.71820
  403 502.288 -5.97625 38.9445
  404 471.088 34.5360 10.5666
  405 519.250 -22.0683 40.1890
  406 745.782 155.406 29.7986
  407 255.404 -13.6886 -72.7578
  408 256.087 -13.6892 72.2367
  409 114.933 60.7826 -88.4679
  410 552.191 -1.88655 1.79537
  411 289.615 -2.29674 -14.9489
  412 289.979 -2.24818 14.8306
  413 512.112 -13.5024 31.2129
  414 464.793 -50.3537 26.8910
  415 522.511 -6.83769 5.96930
  416 534.993 27.1257 53.1541
  417 120.183 64.7196 91.9869
  418 465.454 -50.0518 -24.9125
  419 480.725 -44.6147 -6.94375
  420 162.537 -3.23963 -45.8425
  421 163.656 -3.35364 45.5440
  422 370.309 -29.9491 -109.467
  423 550.668 -8.34657 43.7919
  424 369.025 -30.3593 108.550
  425 509.416 -28.7334 -25.2156
  426 477.281 32.4136 -23.0543
  427 509.463 -22.1923 24.0993
  428 545.195 -2.70083 -4.55218
  429 17.5750 19.3676 9.60367
  430 113.056 132.356 129.910
  431 492.763 -1.79381 20.0058
  432 418.560 5.97550 10.1401
  433 425.310 7.22339 -13.7243
  434 362.887 -5.74785 -9.83990
  435 362.933 -5.67647 9.78340
  436 502.244 -38.9806 -12.8948
  437 508.617 -10.0404 -43.4477
  438 420.628 8.17156 -3.72574
  439 745.017 177.938 40.6741
  440 107.136 34.6708 -66.4621
  441 117.764 31.8046 70.7993
  442 470.862 -16.8483 0.770216
  443 470.692 -16.8167 -0.653328
  444 626.797 137.373 -1.45614
  445 386.160 166.687 245.957
  446 599.391 -8.01052 -3.99151
  447 350.999 -17.9446 -37.8640
  448 351.171 -17.8282 37.5677
  449 354.290 -7.62752 15.1593
  450 354.216 -7.68044 -15.2827
  451 474.315 10.7346 -37.3349
  452 554.795 -1.02493 -1.16407
  453 462.072 21.4659 21.0612
  454 577.865 71.2738 44.8340
  455 481.782 -35.7273 -2.19510
  456 522.267 -6.53216 -5.81238
  457 547.306 -2.47029 4.18949
  458 553.146 -1.10732 0.662164
  459 553.542 -1.22041 -0.466086
  460 315.226 -0.490164 3.72726
  461 315.068 -0.497872 -3.76181
  462 525.942 -33.5910 30.4998
  463 478.728 19.0769 36.1697
  464 498.707 2.07964 -46.8876
  465 517.935 -11.1799 18.2327
  466 734.808 131.024 -150.552
  467 519.655 -28.9835 -34.6998
  468 6.65488 10.1086 5.07095
  469 6.54209 10.3365 -2.49339
  470 414.788 -23.1702 17.4000
  471 413.464 -22.8453 -17.1673
  472 639.065 14.2277 82.7371
  473 180.816 169.153 -188.232
  474 513.642 -1.66595 15.3718
  475 577.273 -33.3479 -48.4822
  476 314.692 -17.8050 52.6909
  477 621.927 110.428 -28.3001
  478 512.252 -27.8818 28.8668
  479 432.552 -20.4502 -9.22639
  480 432.928 -20.1205 9.20718
  481 451.847 2.50894 -20.5072
  482 313.737 -17.7279 -52.9863
  483 462.543 0.323990 20.5611
  484 439.392 -50.3452 -68.8250
  485 438.316 -50.4217 69.1155
  486 527.993 -3.67295 13.4239
  487 484.381 45.8082 4.36230
  488 484.483 9.30497 169.368
  489 714.743 144.378 -0.899299
  490 495.303 -8.65831 2.38379
  491 495.324 -8.62890 -2.49429
  492 386.035 -6.63256 -6.39629
  493 386.069 -6.58049 6.37633
  494 205.097 8.96390 95.7102
  495 514.679 -24.9418 -34.1575
  496 467.608 -10.3244 -0.277751
  497 467.561 -10.2928 0.285027
  498 408.424 -43.0585 56.2784
  499 208.946 11.9112 -98.0849
  500 514.826 -42.0868 -14.8528
  501 9.55754 3.30612 2.83365
  502 455.590 23.8201 1.55941
  503 496.915 -6.10153 -0.753304
  504 496.909 -6.17734 0.729631
  505 408.618 -42.9734 -56.6965
  506 577.759 -29.2926 60.7603
  507 575.598 20.9258 45.1442
  508 529.936 -3.95996 -2.78702
  509 513.263 -42.6662 15.1236
  510 329.975 -0.234582 -0.698111
  511 330.060 -0.231888 0.693308
  512 513.326 -19.8444 -36.7799
  513 499.742 37.0447 39.4187
  514 568.701 14.0817 -44.6515
  515 327.959 -0.437994 -2.10490
  516 328.055 -0.431443 2.09228
  517 975.527 141.065 -125.464
  518 519.430 61.7549 34.5639
  519 530.355 -3.69027 2.46803
  520 481.750 -45.6093 8.11864
  521 408.346 -13.2677 9.75946
  522 408.333 -13.3631 -9.73960
  523 558.204 -34.1534 10.9179
  524 538.220 -10.8889 -46.6004
  525 602.274 118.133 24.4332
  526 502.962 8.72013 48.6588
  527 504.304 -10.0129 5.09819
  528 489.538 -52.4659 -66.8530
  529 509.885 -12.7521 36.5507
  530 962.937 44.3640 -17.5147
  531 553.933 -41.8948 2.91125
  532 526.657 -3.86718 -0.586137
  533 526.787 -4.08812 0.488218
  534 972.986 65.2382 61.1068
  535 490.986 -0.0927652 41.3911
  536 679.462 115.854 -5.69343
  537 513.477 -14.2203 -17.5435
  538 239.829 -2.14538 -16.1118
  539 240.515 -2.04104 15.9572
  540 351.034 -32.7724 -76.1476
  541 351.340 -32.2262 75.6077
  542 504.021 -9.61932 -5.06501
  543 549.403 20.1382 -51.3349
  544 483.172 -32.8589 4.05796
  545 521.630 59.7569 -35.7977
  546 522.627 -6.30590 18.0497
  547 650.099 34.0568 -12.7019
  548 449.384 -15.3536 -3.41875
  549 449.261 -15.3086 3.38800
  550 486.458 -23.0368 6.37152
  551 710.842 142.944 -16.4918
  552 513.992 22.5108 50.4999
  553 221.338 56.7429 141.014
  554 492.314 -29.4584 114.332
  555 644.647 34.3557 -126.717
  556 525.362 43.4455 -46.8587
  557 463.323 -40.2674 -99.3208
  558 502.219 -55.1670 -22.1552
  559 523.497 -53.2082 -31.3025
  560 70.5491 93.1431 -88.1073
  561 526.474 -6.98486 -10.7137
  562 787.470 152.765 -46.4130
  563 488.958 -22.1370 -7.37029
  564 492.723 -16.2261 6.10599
  565 492.275 -15.8711 -5.81614
  566 346.873 -1.83784 -4.68737
  567 346.954 -1.81425 4.66032
  568 52.5175 5.00757 -28.4012
  569 55.1127 5.25977 29.0348
  570 258.737 -11.8150 -55.3986
  571 260.621 -11.8827 55.3383
  572 499.555 -27.1958 -15.2365
  573 507.886 -55.3974 23.7873
  574 521.991 -49.7285 -0.147016
  575 431.681 -7.61946 -1.83225
  576 431.661 -7.56987 1.82382
  577 408.000 -42.9341 -84.9342
  578 454.694 -37.5007 104.906
  579 398.447 -40.4023 85.3670
  580 514.727 -11.5098 -46.5970
  581 328.749 -5.23416 16.8709
  582 328.589 -5.28700 -16.9973
  583 493.097 27.4062 -39.6441
  584 493.063 -0.872987 -18.1518
  585 613.241 132.225 -10.7509
  586 404.455 -5.99005 -1.72643
  587 404.472 -5.95349 1.71930
  588 522.952 -1.62134 -10.0626
  589 366.339 -12.0401 -18.9331
  590 366.361 -12.0028 18.7834
  591 297.247 13.2802 134.510
  592 508.986 -23.5765 -24.3313
  593 287.536 -15.4340 96.7912
  594 500.218 -26.0426 15.6370
  595 525.230 -7.71410 11.8889
  596 518.174 -5.12154 -2.41137
  597 371.077 -4.39706 -4.44039
  598 371.131 -4.36280 4.42086
  599 588.573 116.936 -22.2349
  600 287.323 -14.8874 -97.1229
  601 498.519 -21.7478 -12.3137
  602 451.456 -8.47081 -1.02069
  603 451.412 -8.41376 1.01690
  604 834.498 111.927 -20.1098
  605 305.974 -1.85229 9.25686
  606 305.720 -1.86985 -9.33565
  607 469.041 10.9422 34.1157
  608 659.116 56.8497 -2.19337
  609 316.329 1.72599 -133.412
  610 165.467 3.82661 -73.3689
  611 166.762 2.93226 72.9854
  612 397.984 -22.8702 23.7395
  613 401.947 -23.5450 -23.1340
  614 668.882 135.184 7.45746
  615 516.170 -5.29455 2.13912
  616 449.970 12.9307 -20.6644
  617 555.878 99.4487 21.1166
  618 554.049 103.170 -14.0530
  619 455.247 -25.1100 -5.41724
  620 458.589 -24.5659 3.82138
  621 325.278 71.4763 -190.854
  622 394.153 -13.2012 -13.3589
  623 394.194 -13.0562 13.3206
  624 971.454 199.191 150.160
  625 513.750 -16.9532 39.8854
  626 299.295 -10.3001 -35.4677
  627 783.412 190.094 130.629
  628 299.965 -10.2472 35.3488
  629 488.053 -18.4325 -132.963
  630 352.965 -1.58891 -1.72425
  631 353.038 -1.57536 1.71667
  632 434.924 4.06202 18.0425
  633 201.628 -2.89916 -31.7926
  634 202.656 -2.90719 31.5605
  635 449.521 -31.6267 11.3530
  636 470.540 -37.5753 -4.91080
  637 550.402 -1.34260 -3.90459
  638 320.297 -0.454464 2.78511
  639 320.170 -0.462965 -2.81037
  640 425.523 -9.52456 -2.96661
  641 425.513 -9.47616 2.94860
  642 483.936 -53.8825 67.4552
  643 557.679 62.2201 -46.5437
  644 375.146 -17.1437 -24.3627
  645 374.903 -16.8597 24.1998
  646 441.506 -31.5205 -14.9946
  647 690.167 149.619 6.69084
  648 519.006 -50.3588 2.92818
  649 453.086 -10.9146 -1.84186
  650 453.023 -10.8669 1.84036
  651 618.602 68.1600 32.8599
  652 520.569 -7.74015 -19.6072
  653 465.048 -0.485608 -16.7249
  654 218.349 -7.48101 -69.8478
  655 218.972 -7.67694 69.3110
  656 440.170 -37.7381 -23.2191
  657 656.897 143.561 0.0357491
  658 512.839 69.3390 -15.5710
  659 344.925 -2.96680 -8.53642
  660 345.012 -2.92627 8.47587
  661 476.329 -13.6172 -1.07230
  662 476.419 -13.6259 1.16552
  663 874.239 113.848 50.3505
  664 557.465 -1.68310 0.987220
  665 541.005 -2.30248 6.82607
  666 539.127 -2.31704 -8.08917
  667 512.980 -47.8697 4.61048
  668 383.111 -4.30365 -2.21697
  669 383.154 -4.27501 2.20842
  670 550.301 87.8809 32.6543
  671 701.221 155.381 -12.0535
  672 388.717 -28.5109 -34.5055
  673 388.633 -28.2420 34.3487
  674 482.169 -49.6397 -12.7778
  675 510.533 30.4015 -47.5967
  676 600.387 1.82894 16.7386
  677 404.595 -7.38707 -4.56750
  678 404.614 -7.34345 4.55171
  679 349.953 -30.5118 -68.7326
  680 508.223 -49.2441 -0.0143976
  681 424.083 -46.9983 62.0522
  682 204.766 64.1949 -136.193
  683 397.467 -36.5613 47.8824
  684 479.689 0.138503 15.3795
  685 350.292 -30.1725 68.2991
  686 498.241 -22.1532 12.4654
  687 397.561 -36.3996 -48.2885
  688 411.978 5.57168 3.79864
  689 319.137 -8.30053 25.3269
  690 318.861 -8.30549 -25.4879
  691 424.249 -48.2126 -62.7238
  692 522.565 -34.5706 -29.4482
  693 479.902 -7.00442 -0.317563
  694 479.978 -7.07082 0.319391
  695 533.654 -34.1741 28.8731
  696 485.728 -50.7516 14.7734
  697 588.971 54.1394 43.8069
  698 532.483 -10.1037 48.2938
  699 512.418 -18.5697 28.9477
  700 492.779 40.6396 -30.0746
  701 588.863 98.7902 34.8031
  702 509.109 -7.13024 -28.6889
  703 506.166 -17.0000 14.1504
  704 526.226 82.1381 8.39396
  705 515.454 -8.90350 24.7117
  706 164.328 112.317 143.045
  707 479.281 -55.2045 -40.0634
  708 554.834 10.0154 48.7861
  709 559.212 -17.3774 -33.3452
  710 555.347 -0.911663 2.08438
  711 511.780 -17.7955 -22.4776
  712 480.045 -55.6328 36.6340
  713 914.075 81.0567 -13.5003
  714 293.895 -1.17465 9.67681
  715 293.562 -1.18705 -9.76006
  716 518.121 -9.71458 -10.0959
  717 558.471 -0.709521 -2.05345
  718 439.426 -38.3565 23.3349
  719 525.653 -19.6981 43.6074
  720 788.266 192.565 -65.3876
  721 498.270 -36.1677 12.1751
  722 550.644 -36.3991 -15.2624
  723 506.335 -16.5598 -13.9167
  724 557.842 -1.15312 -0.592328
  725 514.320 -0.0880395 50.9688
  726 24.4984 25.6058 32.1112
  727 573.991 -21.3428 -88.4692
  728 626.296 37.9095 18.4520
  729 523.083 -53.5969 28.3391
  730 379.004 -8.85350 10.8966
  731 378.994 -8.97253 -10.9420
  732 478.921 254.989 -258.014
  733 533.834 -35.4698 -26.4170
  734 410.449 2.39289 -7.26691
  735 473.563 2.73622 33.1393
  736 515.866 -25.9555 34.6752
  737 494.447 -41.6687 4.60802
  738 511.851 -46.8612 -72.5235
  739 491.555 -38.8938 -5.63662
  740 577.543 -27.6035 -2.07037
  741 532.356 -4.66369 5.82220
  742 477.825 -28.6819 2.22267
  743 856.635 171.137 -92.3710
  744 508.352 -13.8604 11.0865
  745 505.499 8.34611 -49.9281
  746 428.781 -4.60279 149.124
  747 540.411 43.4501 50.5368
  748 465.044 -36.4872 7.22917
  749 362.064 -28.1862 -50.3892
  750 362.121 -28.1170 50.0089
  751 496.743 55.9031 -6.98187
  752 503.463 -5.86644 44.3002
  753 508.266 -12.1778 -37.4330
  754 478.353 -29.2824 -2.35554
  755 462.830 -41.3300 14.2317
  756 530.149 87.1476 -9.40548
  757 493.855 -42.7493 -2.66811
  758 495.159 -31.4025 11.9921
  759 500.803 -6.76329 1.68760
  760 501.088 -6.59333 -1.67029
  761 673.244 146.925 1.17200
  762 549.333 -46.8496 -20.2696
  763 513.303 -15.9178 22.4425
  764 532.444 -4.66058 -5.25454
  765 540.448 3.53039 -50.8812
  766 612.337 32.7708 -27.0076
  767 309.599 -0.231388 -4.56110
  768 309.798 -0.227357 4.51998
  769 4.74670 -8.40423 -5.82835
  770 524.173 -0.703547 9.29791
  771 483.590 -0.668310 -36.5182
  772 498.307 -4.68045 31.9238
  773 449.257 58.0083 217.109
  774 566.769 115.786 -1.13546
  775 404.839 -28.6121 27.3111
  776 75.4662 1.51644 -27.7979
  777 77.4090 1.10166 28.0852
  778 494.212 -3.49772 -36.1351
  779 405.861 -28.8856 -27.3166
  780 529.364 -5.11233 4.31331
  781 277.528 -11.6107 47.2313
  782 275.247 -11.5660 -47.2276
  783 508.299 -13.4698 -10.7884
  784 331.078 -8.06393 -22.0992
  785 331.242 -8.01443 21.9213
  786 528.798 -5.23376 -13.4181
  787 408.276 -10.7162 -7.81831
  788 408.296 -10.6515 7.82221
  789 576.758 -3.58288 -33.1213
  790 521.514 -5.51347 -50.8867
  791 272.445 -1.65371 -12.2728
  792 272.935 -1.63815 12.1403
  793 16.1491 6.70766 -17.3378
  794 18.4091 7.08584 18.2085
  795 428.699 2.13682 -13.0912
  796 475.717 -53.4393 -30.4568
  797 -5.31992 -3.62574 9.32902
  798 -4.71785 -4.38442 -9.34627
  799 494.753 -10.1950 3.73174
  800 535.607 -41.9599 -13.3553
  801 555.483 82.1053 -37.9975
  802 531.481 -4.61968 -4.11168
  803 1110.31 227.080 -208.443
  804 494.648 -10.1678 -3.67895
  805 740.781 140.277 12.5186
  806 530.542 15.4319 -53.1806
  807 584.028 44.2281 -45.0315
  808 104.201 -1.20653 -25.5127
  809 105.915 -1.34984 25.4716
  810 336.909 -4.65531 13.1989
  811 336.786 -4.69224 -13.3040
  812 323.479 -0.682952 2.49165
  813 323.372 -0.690342 -2.50917
  814 591.717 99.4584 -34.3738
  815 356.202 -2.06645 -3.73695
  816 356.272 -2.04332 3.71907
  817 504.977 -5.07922 -46.2856
  818 716.764 77.8129 68.2441
  819 457.862 10.4769 -28.7301
  820 163.526 -1.41682 27.1443
  821 162.276 -1.43033 -27.3434
  822 578.820 17.7649 157.054
  823 517.664 -9.79264 10.4188
  824 468.336 31.3120 -11.9564
  825 221.718 -0.295403 18.3875
  826 220.682 -0.195465 -18.5124
  827 329.439 -1.55126 -6.50865
  828 329.563 -1.52899 6.45551
  829 59.8314 52.9162 47.0884
  830 486.782 11.7532 42.4715
  831 540.065 79.1407 -32.8233
  832 578.895 67.2630 -45.2333
  833 384.893 -14.2233 -17.2878
  834 384.691 -14.1258 17.2741
  835 600.533 126.995 15.3344
  836 516.000 -4.66265 -0.486268
  837 516.039 -4.62890 0.569204
  838 512.608 -15.5505 -29.3616
  839 431.494 -28.4814 16.6635
  840 472.937 -53.1207 30.5291
  841 552.443 -45.2480 47.1445
  842 428.195 -12.3113 -5.03317
  843 428.197 -12.2714 5.00594
  844 490.168 45.5405 19.3595
  845 461.780 6.50206 -30.9781
  846 128.043 157.876 148.792
  847 464.223 -40.9843 -13.1105
  848 465.953 -20.8030 -0.669366
  849 466.198 -20.8559 0.639468
  850 512.489 -7.60798 48.4640
  851 507.044 -33.4216 -20.5501
  852 454.359 -29.9016 -7.84211
  853 1009.23 32.6547 -49.1753
  854 432.340 -40.6385 31.2987
  855 431.972 -41.1523 -31.7708
  856 511.570 -6.20856 24.3585
  857 762.577 198.457 -49.1981
  858 406.566 -36.5936 -38.3766
  859 447.348 -50.2240 37.1504
  860 406.493 -36.1655 38.0602
  861 440.136 -17.5864 -5.98093
  862 440.134 -17.5351 5.94596
  863 67.7595 27.9776 40.7998
  864 549.534 41.0499 -50.8567
  865 423.186 -16.3184 -8.75743
  866 423.269 -16.1616 8.78550
  867 418.419 -6.86024 -1.07420
  868 418.418 -6.81713 1.06828
  869 457.947 -9.22952 -0.640980
  870 457.894 -9.17452 0.636419
  871 376.245 -7.12925 -9.38445
  872 376.284 -7.05273 9.35088
  873 424.570 -22.0590 -12.9142
  874 424.632 -21.9205 12.9715
  875 10.8478 -1.39717 -6.51582
  876 634.489 119.147 23.7309
  877 546.283 -19.2896 -39.4602
  878 446.935 -49.4878 -37.5052
  879 482.087 -15.6742 2.99314
  880 481.882 -15.5231 -2.87142
  881 525.934 0.590291 52.0158
  882 567.581 -40.4436 -28.0601
  883 500.635 37.6687 -188.912
  884 233.906 -4.15243 94.3151
  885 -6.50618 5.45120 -7.17451
  886 -5.43871 6.16386 7.84581
  887 67.4026 29.7481 -41.6874
  888 512.823 -14.9749 17.3971
  889 537.709 -3.78223 -7.25586
  890 484.327 -46.7966 82.5840
  891 233.370 -3.93438 -94.6668
  892 539.694 -44.3813 8.11926
  893 597.189 -16.6353 73.4332
  894 443.293 1.84620 13.8565
  895 504.365 48.0097 32.8362
  896 276.255 -15.4433 69.0264
  897 275.220 -15.5662 -69.4513
  898 330.918 -15.4005 -38.8071
  899 343.731 -17.2332 -119.844
  900 541.086 -12.7948 45.0348
  901 737.649 175.509 32.8170
  902 544.019 20.8525 51.8637
  903 514.132 -11.1327 -26.9097
  904 350.748 -15.4356 122.795
  905 652.634 120.864 -15.7305
  906 67.3861 56.7057 -57.7270
  907 478.428 -0.905298 -14.6701
  908 331.259 -15.2787 38.4890
  909 401.527 -8.67741 6.83903
  910 401.507 -8.73211 -6.85116
  911 507.754 -33.2398 21.3033
  912 524.996 -3.71207 1.54176
  913 387.795 3.34963 -148.463
  914 552.471 -1.35217 3.41976
  915 548.919 -1.12807 -4.45065
  916 419.576 3.76368 -12.0764
  917 532.356 -2.22638 -8.20156
  918 402.404 -18.5011 -16.2458
  919 402.670 -18.2342 16.2997
  920 -12.4390 5.09711 -7.05011
  921 -17.5262 3.07737 7.60983
  922 524.965 -3.46971 -1.59070
  923 179.720 -4.16394 63.7295
  924 178.726 -3.80180 -64.0703
  925 564.153 82.0711 39.9278
  926 986.275 17.8967 15.0761
  927 532.030 59.0630 42.6864
  928 596.427 -20.5104 24.0288
  929 521.893 -29.1981 34.7197
  930 648.695 135.669 -12.0492
  931 411.236 1.92244 9.11317
  932 501.775 -12.0806 -6.31546
  933 523.376 28.1689 -51.7244
  934 626.322 19.4677 -5.14038
  935 489.953 -30.2928 -8.96213
  936 257.825 -1.35323 -13.7004
  937 258.056 -1.30475 13.5166
  938 516.256 -12.3508 -20.6676
  939 18.4394 22.9753 6.13530
  940 495.697 -51.4163 -8.14342
  941 435.945 13.2131 -1.24304
  942 644.895 140.970 -7.97555
  943 104.731 77.6871 -94.1654
  944 498.322 -3.72427 -28.6035
  945 350.247 -5.60759 -12.4068
  946 350.322 -5.54398 12.3134
  947 3.37934 -13.7019 10.2785
  948 341.416 -25.0875 -55.6712
  949 505.187 -29.3198 -20.0474
  950 322.705 0.700142 -1.04796
  951 322.795 0.702960 1.04191
  952 512.983 62.2062 -26.1967
  953 543.388 -1.90996 -0.685169
  954 543.421 -1.92899 0.914758
  955 341.585 -25.0265 55.3223
  956 512.291 -0.789937 -11.2136
  957 586.003 4.32955 31.5835
  958 520.426 -7.64829 7.94625
  959 87.0176 21.2488 -50.8479
  960 538.684 -3.52105 6.54238
  961 493.550 4.09206 45.3144
  962 520.392 71.9188 23.2884
  963 519.236 6.02603 -52.7946
  964 361.472 -18.9968 -33.5772
  965 557.602 -19.9127 32.0405
  966 361.711 -18.9312 33.2643
  967 17.7261 18.8703 -3.12118
  968 64.8883 10.5418 37.3326
  969 298.003 -5.06343 22.8002
  970 297.658 -5.06392 -22.9154
  971 502.133 -12.2930 6.70527
  972 542.692 93.9701 12.7505
  973 277.292 24.9237 -141.075
  974 453.567 -28.1531 7.00384
  975 425.876 -44.3340 -46.2083
  976 617.884 118.117 25.7045
  977 476.307 -8.61162 0.134569
  978 476.285 -8.56894 -0.139321
  979 520.323 -9.88418 -14.6053
  980 485.790 42.0962 -17.8501
  981 1062.02 321.022 215.869
  982 105.247 5.55249 -48.4328
  983 106.740 4.60485 48.5251
  984 7.84413 -7.39807 3.83792
  985 486.903 27.1576 36.6417
  986 425.810 -44.6126 45.8899
  987 525.565 -24.9572 -39.9360
  988 571.450 46.6802 49.4944
  989 546.556 -44.1408 -56.9994
  990 795.988 167.199 57.5498
  991 468.020 -7.75327 -0.402319
  992 467.960 -7.69453 0.402017
  993 545.717 -22.4167 37.2290
  994 38.5996 69.0909 68.5399
  995 252.784 -5.13163 32.5557
  996 252.048 -5.06495 -32.8761
  997 299.396 -14.3284 44.6646
  998 298.406 -14.1012 -44.8127
  999 336.320 -13.5412 32.2845
  1000 367.691 -2.75231 -1.66395
  1001 367.751 -2.73286 1.65795
  1002 883.490 289.682 -186.960
  1003 809.912 203.358 86.7099
  1004 336.050 -13.6046 -32.5328
  1005 561.904 -2.68078 41.2271
  1006 506.699 52.5930 -31.5556
  1007 358.121 -31.0058 99.4793
  1008 457.467 -54.0972 -54.9385
  1009 522.371 -4.42327 -16.2313
  1010 238.950 15.8271 115.248
  1011 306.407 -23.3442 79.4439
  1012 466.613 24.1623 -23.0327
  1013 528.711 -10.5709 -48.9452
  1014 655.284 283.525 292.676
  1015 442.283 13.7866 16.4719
  1016 595.084 127.278 -1.87196
  1017 434.425 17.5496 -168.410
  1018 445.149 -46.6369 -32.2397
  1019 558.719 -0.777652 -1.66022
  1020 541.690 49.7140 -49.1941
  1021 324.186 -1.94939 8.30501
  1022 324.033 -1.96886 -8.37500
  1023 12.2259 9.87002 -18.8881
  1024 361.989 -16.1649 -28.0563
  1025 306.024 -23.6412 -80.0054
  1026 361.742 -16.1354 27.7736
  1027 517.184 -15.8473 45.2872
  1028 464.635 -28.6131 -2.99735
  1029 489.761 9.12749 -43.9749
  1030 504.166 62.9261 9.21840
  1031 672.140 43.1035 30.1990
  1032 511.504 -38.9584 19.9188
  1033 327.820 -25.9161 -60.9088
  1034 486.006 17.3654 -41.2680
  1035 361.059 -30.6112 -99.9539
  1036 687.646 148.125 -3.72043
  1037 473.470 31.2882 20.9546
  1038 590.055 -3.24655 -23.0742
  1039 447.886 -46.6724 29.9078
  1040 512.245 -16.3739 34.7459
  1041 508.463 -26.9628 24.0593
  1042 505.661 -25.5556 20.6292
  1043 622.250 79.5228 -33.9705
  1044 506.256 -8.23945 35.7758
  1045 456.811 -54.2469 54.0737
  1046 487.553 -20.0480 5.78994
  1047 328.030 -25.9721 60.6023
  1048 458.850 -33.6135 -8.40290
  1049 270.181 -13.2370 -84.9356
  1050 382.013 -39.5220 67.7955
  1051 514.868 -3.61332 -18.9827
  1052 502.620 -5.69925 -40.8867
  1053 435.996 -34.2039 -20.1792
  1054 270.633 -13.5973 84.3129
  1055 471.220 1.24442 -28.7956
  1056 352.093 -22.9753 -43.3092
  1057 629.304 133.250 15.7877
  1058 144.326 23.1674 -81.7645
  1059 1050.31 74.0927 99.8137
  1060 255.394 18.4024 -120.469
  1061 505.376 -41.9308 -11.0378
  1062 352.201 -22.7877 42.9825
  1063 466.597 5.11819 32.3080
  1064 266.236 -5.21952 26.9672
  1065 266.118 -5.34685 -27.2248
  1066 512.572 -14.3434 -42.0577
  1067 541.127 -3.01292 2.49694
  1068 532.755 -1.30498 8.25909
  1069 528.838 17.4999 53.1323
  1070 496.015 -3.72722 38.5301
  1071 382.214 41.2207 181.946
  1072 562.016 -0.546092 0.756690
  1073 533.476 72.1086 33.9497
  1074 454.921 6.78837 27.9109
  1075 538.810 -2.16851 7.88191
  1076 353.702 -3.58830 -7.00715
  1077 353.773 -3.54836 6.96745
  1078 227.343 -6.29000 -45.0458
  1079 228.172 -6.51797 44.7672
  1080 456.423 23.0279 11.7394
  1081 673.537 38.5480 -54.9042
  1082 619.087 0.966956 -98.3260
  1083 500.896 -0.485301 -11.6984
  1084 382.111 -39.8113 -68.2865
  1085 436.919 -32.5360 18.2256
  1086 503.603 -1.18780 12.1981
  1087 524.923 -38.2352 -23.7667
  1088 335.329 -0.662471 4.12810
  1089 335.236 -0.674947 -4.15083
  1090 504.429 -43.1305 11.0236
  1091 479.984 -10.0231 0.669846
  1092 479.902 -10.0350 -0.642950
  1093 467.362 -46.9437 19.9514
  1094 597.539 -18.9952 -10.9865
  1095 279.800 -0.462907 -7.65587
  1096 280.227 -0.446756 7.58145
  1097 409.940 -26.2502 -114.541
  1098 438.101 -10.4283 2.92230
  1099 438.137 -10.4803 -2.94286
  1100 263.648 144.183 199.998
  1101 602.209 49.7358 -39.2046
  1102 91.9413 43.9657 -62.8389
  1103 520.660 -8.05075 -7.66583
  1104 142.764 48.0742 -93.8570
  1105 295.179 -18.2906 -57.7086
  1106 561.883 -0.764945 0.515540
  1107 562.066 -0.726866 -0.371183
  1108 513.584 -29.4456 -29.5146
  1109 454.610 -51.1951 -74.6393
  1110 144.447 19.7245 77.9109
  1111 559.140 55.2767 47.4313
  1112 506.015 -5.45022 -0.611805
  1113 506.079 -5.45225 0.656340
  1114 550.113 -35.0090 90.7900
  1115 573.585 114.208 18.0411
  1116 345.483 -8.03930 -17.6575
  1117 345.576 -8.00481 17.5453
  1118 260.352 29.3156 142.493
  1119 488.494 2.57772 -42.5001
  1120 155.484 49.3993 100.686
  1121 618.956 -9.81803 -33.8752
  1122 613.624 134.584 5.22163
  1123 423.888 -33.2114 24.0699
  1124 396.892 2.27176 -1.77878
  1125 533.474 -4.89216 9.88852
  1126 551.142 -0.824234 3.83516
  1127 127.667 0.186718 -22.7797
  1128 129.234 0.130218 22.6346
  1129 441.615 7.61831 -20.7193
  1130 451.251 -13.2569 -2.58105
  1131 451.157 -13.2024 2.56950
  1132 48.2782 82.3100 -73.0808
  1133 75.7899 173.591 -142.952
  1134 456.744 -17.8019 2.54261
  1135 456.906 -17.7918 -2.57224
  1136 471.242 -11.4843 0.590227
  1137 471.176 -11.4651 -0.555439
  1138 125.928 80.1163 101.732
  1139 376.357 -4.47359 -3.44679
  1140 376.407 -4.44323 3.43277
  1141 471.183 35.8116 -0.473447
  1142 587.333 78.9903 -209.492
  1143 570.676 98.0860 -30.9603
  1144 520.021 -20.0685 -42.5524
  1145 512.088 -25.6729 -30.1766
  1146 424.091 -33.5117 -24.4534
  1147 430.565 1.49757 12.7886
  1148 481.067 30.1677 -30.6543
  1149 474.689 25.7158 29.3304
  1150 487.244 -19.4789 -5.66793
  1151 465.786 -28.0502 2.63764
  1152 424.899 -27.1522 -18.3121
  1153 504.422 -3.01719 22.7007
  1154 877.004 88.3273 12.2342
  1155 507.565 -10.8845 41.3096
  1156 510.301 33.5258 45.7518
  1157 469.511 -46.0735 -15.5822
  1158 61.7135 9.66807 -36.0458
  1159 478.302 -22.1709 -3.45045
  1160 324.954 -0.432450 -0.223344
  1161 325.038 -0.430489 0.221391
  1162 579.608 -15.3695 19.2036
  1163 552.181 -46.5677 23.6578
  1164 790.507 140.899 35.6219
  1165 197.135 -0.342261 -18.8627
  1166 198.212 -0.300968 18.7315
  1167 429.147 -8.64438 -2.27987
  1168 429.130 -8.59499 2.26594
  1169 479.650 -42.2382 -3.78955
  1170 400.257 1.92149 5.83496
  1171 491.003 -34.9724 8.22787
  1172 29.0652 34.5139 -18.0836
  1173 90.9063 44.6092 61.3995
  1174 330.558 -18.2817 110.640
  1175 568.847 107.863 -22.1362
  1176 540.678 -1.57425 -6.23651
  1177 564.152 -0.981693 0.312978
  1178 564.646 -1.30593 -0.179528
  1179 337.166 -0.691591 -0.702404
  1180 337.248 -0.685855 0.697942
  1181 524.419 33.5017 51.7202
  1182 768.630 130.445 -2.79083
  1183 540.792 89.1033 -22.8792
  1184 403.538 -29.9474 113.821
  1185 328.813 -17.6155 -110.418
  1186 366.828 -24.1772 -38.9792
  1187 502.506 -14.2654 8.73352
  1188 698.468 154.597 10.3058
  1189 366.877 -24.0416 38.6961
  1190 512.832 -9.24896 6.60499
  1191 462.872 17.4121 28.0303
  1192 507.421 15.7764 49.8613
  1193 716.951 159.861 20.3668
  1194 429.901 -11.1423 4.21258
  1195 429.917 -11.1907 -4.23757
  1196 519.730 -10.0095 15.1873
  1197 314.971 -3.21290 12.9525
  1198 314.755 -3.24452 -13.0595
  1199 508.145 -7.21521 -2.74933
  1200 210.819 126.419 -194.009
  1201 440.160 -24.9536 -121.929
  1202 418.584 -12.9541 -7.44395
  1203 418.631 -12.9006 7.44704
  1204 543.129 -2.80252 2.31025
  1205 515.648 -7.05800 5.25748
  1206 29.3555 37.8019 28.3178
  1207 558.684 -0.721954 1.95335
  1208 68.4331 88.1595 87.4305
  1209 504.093 -7.82290 -3.57883
  1210 -0.471438 -12.1422 -10.6754
  1211 359.137 -35.0872 -85.7842
  1212 358.204 -34.2455 84.9554
  1213 558.657 -1.06958 -2.17833
  1214 481.254 -25.4106 -4.27665
  1215 542.814 -2.58355 -2.32450
  1216 438.880 -14.1250 -4.31671
  1217 438.844 -14.0795 4.27807
  1218 507.829 -7.16938 2.56455
  1219 477.965 -21.7308 3.41478
  1220 460.519 -14.8547 1.12413
  1221 460.672 -14.8884 -1.07378
  1222 542.287 -2.66029 -1.88468
  1223 469.848 -49.6522 -83.9840
  1224 531.190 -3.59060 -1.88006
  1225 506.164 -8.02885 3.90089
  1226 359.166 -3.74501 -5.24731
  1227 359.232 -3.70941 5.22056
  1228 398.908 -5.74298 -2.80635
  1229 398.933 -5.70631 2.79438
  1230 638.033 99.9304 27.6949
  1231 536.769 -41.4201 16.6158
  1232 369.509 -1.93073 140.348
  1233 302.674 -0.445695 4.97832
  1234 302.427 -0.450787 -5.02358
  1235 510.324 -9.52099 30.8720
  1236 487.756 -7.63906 0.532884
  1237 487.771 -7.61569 -0.532653
  1238 560.097 108.473 10.4022
  1239 509.822 -53.5030 67.3569
  1240 302.309 -4.10517 18.0780
  1241 302.023 -4.13439 -18.1992
  1242 487.195 -12.0792 2.75300
  1243 487.085 -12.1653 -2.64973
  1244 502.227 -14.1027 -8.38498
  1245 465.796 0.122891 14.8908
  1246 792.207 197.133 -68.2467
  1247 511.935 -18.8862 -26.7225
  1248 90.8836 20.9951 52.2105
  1249 528.518 -28.3070 36.8965
  1250 430.400 9.65865 -11.3460
  1251 34.4008 24.3551 19.7639
  1252 690.950 79.1146 -11.8216
  1253 516.615 -23.6031 -37.6996
  1254 432.344 6.35344 17.3943
  1255 297.188 -18.3271 57.6381
  1256 524.070 -40.6986 20.8795
  1257 754.011 148.370 52.1721
  1258 179.380 25.9292 98.8543
  1259 526.184 -6.50028 -13.1210
  1260 993.927 11.2329 -9.86655
  1261 1025.63 15.3072 43.7545
  1262 1093.09 36.6547 -104.375
  1263 511.641 -16.1024 -33.7366
  1264 511.289 -23.4726 28.2104
  1265 519.105 -37.0743 25.5768
  1266 -15.1833 1.87474 9.52963
  1267 -13.7766 1.53763 -10.4214
  1268 504.672 -55.9110 -32.8746
  1269 516.386 -52.3589 -48.0924
  1270 402.953 2.67358 -7.19374
  1271 502.431 -56.8816 47.8368
  1272 537.377 -25.6108 -37.3440
  1273 11.7240 16.5490 2.91424
  1274 439.327 -8.05326 1.45816
  1275 439.356 -8.10629 -1.46198
  1276 532.973 -4.51384 8.82632
  1277 512.771 -9.09183 -6.17469
  1278 483.841 -52.8040 -18.4231
  1279 443.653 -23.8363 8.52470
  1280 441.485 -23.4929 -9.11722
  1281 518.292 -11.1467 21.2403
  1282 531.306 -19.6320 -43.6134
  1283 35.6690 25.3914 -19.2905
</Section>

newXOutput 71

<Section columns = "stress_xx | stress_yy | stress_xy">
  1 574.971 -0.227579 1.05884
  2 574.970 -0.215972 -1.06138
  3 324.725 -0.0763732 -0.381687
  4 -4.06401 -4.00932 -5.84556
  5 1012.08 417.474 328.823
  6 1002.89 431.994 -326.795
  7 -4.72363 -3.80021 6.23319
  8 324.641 -0.0774564 0.380779
  9 578.765 -1.01110 0.304211
  10 577.681 -1.57819 -0.329593
  11 576.593 -1.09868 1.17456
  12 575.478 -1.47228 0.249857
  13 573.054 -1.25609 1.84677
  14 570.829 -1.26033 1.29886
  15 565.400 -1.10962 2.67592
  16 557.442 -0.838571 3.96293
  17 550.393 -0.855007 4.45710
  18 539.765 -1.12872 5.43749
  19 524.821 -0.147379 8.10367
  20 511.022 -0.829011 7.75872
  21 495.061 -1.03777 11.0047
  22 472.034 0.726268 9.62989
  23 455.174 1.15391 11.4323
  24 433.159 1.90959 8.98887
  25 417.841 2.08863 9.08331
  26 395.665 2.84728 4.64398
  27 390.951 4.47011 4.99402
  28 388.098 3.70899 -1.48099
  29 391.954 2.22536 -3.22887
  30 399.074 2.10763 -3.96700
  31 415.698 2.61706 -7.90293
  32 431.850 2.06954 -9.95626
  33 455.380 0.516397 -11.7793
  34 474.175 -0.218300 -10.6612
  35 494.069 -0.820294 -10.4125
  36 512.007 -0.652547 -7.31433
  37 527.284 -0.702581 -6.21150
  38 539.774 -1.10981 -5.17105
  39 550.866 -0.818401 -3.54485
  40 557.671 -0.997836 -3.73504
  41 564.252 -1.18354 -2.71758
  42 570.374 -1.38650 -1.11922
  43 573.479 -1.12921 -1.36612
  44 575.000 -0.737913 -0.822793
  45 573.551 -0.474276 -0.753381
  46 578.210 -1.57633 0.237367
  47 578.914 -1.04693 -0.313309
  48 561.212 -0.650158 -0.656387
  49 549.434 -2.62337 -1.23148
  50 534.932 -3.78779 -0.733088
  51 517.172 -5.46215 -1.02377
  52 500.238 -5.92717 -1.23539
  53 482.093 -7.25850 -1.18779
  54 465.968 -7.97957 -0.604572
  55 451.819 -8.79812 -0.156637
  56 435.469 -7.26633 -0.138075
  57 416.618 -6.72446 -0.328816
  58 398.468 -5.24617 -0.0221057
  59 381.294 -3.28296 0.0366290
  60 365.000 -2.29457 0.0965235
  61 350.754 -1.11820 0.206120
  62 336.247 -0.255472 -0.431116
  63 324.857 0.465588 0.617772
  64 319.686 1.21624 0.441734
  65 322.994 0.0368037 0.999170
  66 318.882 -0.130546 1.21665
  67 314.974 -0.210318 1.51310
  68 309.723 0.00533985 1.94687
  69 303.112 0.00604243 2.43450
  70 298.051 -0.330530 4.61569
  71 284.245 0.412730 5.02504
  72 274.417 -0.00680328 5.71051
  73 259.787 -0.225948 6.48990
  74 242.985 -0.395464 7.88640
  75 221.962 -0.0727660 9.57745
  76 196.338 0.132372 10.5874
  77 173.960 -0.189316 15.1460
  78 130.183 1.37857 14.3539
  79 100.059 1.18631 15.2125
  80 63.6845 -0.310533 16.9600
  81 33.2008 2.72024 17.7554
  82 -1.64456 4.12824 10.8958
  83 -27.3220 4.20903 4.14866
  84 -27.3887 4.12803 -1.05293
  85 -26.9075 3.46083 -7.96596
  86 -15.9115 -0.998407 -7.68752
  87 -1.87171 -15.2729 -8.51360
  88 1.63180 -27.9579 -10.5027
  89 4.34669 -43.3672 -5.39908
  90 9.54081 -42.7845 1.46014
  91 20.0195 -4.95620 27.6130
  92 58.8017 99.3533 90.3486
  93 335.320 330.320 295.758
  94 1228.22 185.068 203.683
  95 1110.40 26.3795 65.8421
  96 1035.60 11.0542 20.1494
  97 1008.05 9.44859 1.51981
  98 1022.86 12.4958 -17.5393
  99 1108.37 24.7102 -52.1583
  100 1297.32 89.2537 -174.328
  101 200.148 339.960 -248.384
  102 43.9903 74.6744 -75.4014
  103 21.9134 -2.75582 -29.5689
  104 8.95134 -42.4881 -5.88575
  105 2.65999 -32.7366 6.14403
  106 3.25118 -35.3066 9.05999
  107 0.198788 -13.1465 9.43690
  108 -16.6242 -0.599158 7.26778
  109 -27.7560 2.59885 6.92341
  110 -28.8645 5.00855 1.20142
  111 -28.1799 4.13336 -3.88155
  112 -3.64526 4.23044 -10.2355
  113 31.4580 2.74325 -16.9445
  114 61.9102 -0.0173850 -16.6831
  115 98.2214 1.28172 -15.2407
  116 128.514 1.41352 -14.4579
  117 172.667 -0.195571 -15.2664
  118 195.233 0.145866 -10.6846
  119 220.995 -0.0695408 -9.69244
  120 242.494 -0.440619 -7.94027
  121 259.115 -0.212802 -6.50415
  122 273.904 0.0108117 -5.76626
  123 283.823 0.408069 -5.07643
  124 297.744 -0.333994 -4.65919
  125 302.862 0.00379300 -2.46108
  126 309.530 0.00317794 -1.96867
  127 314.823 -0.213914 -1.53033
  128 318.762 -0.133630 -1.22863
  129 322.892 0.0341993 -1.00678
  130 319.594 1.21504 -0.445229
  131 324.770 0.464965 -0.619981
  132 336.162 -0.258410 0.430043
  133 350.675 -1.12558 -0.208779
  134 364.932 -2.31070 -0.0996166
  135 381.242 -3.30535 -0.0395920
  136 398.436 -5.27848 0.0191398
  137 416.609 -6.76548 0.326455
  138 435.486 -7.31398 0.135565
  139 451.856 -8.85191 0.155431
  140 466.019 -8.03339 0.606304
  141 482.168 -7.30748 1.19334
  142 500.305 -5.96070 1.25530
  143 517.226 -5.49218 1.12028
  144 535.031 -3.59812 0.749137
  145 549.814 -2.56081 1.20391
  146 561.318 -0.737727 0.645982
  147 505.850 -47.5558 -0.552948
  148 505.405 -46.9100 0.730142
  149 533.353 76.4621 -24.6489
  150 565.787 33.3059 51.4006
  151 428.906 -41.5113 -96.2864
  152 432.436 -41.4365 93.2793
  153 419.652 -17.5520 12.3304
  154 419.678 -17.7884 -12.3356
  155 598.107 21.7308 -37.6424
  156 504.533 -18.3274 9.38807
  157 504.314 -17.8983 -9.27597
  158 651.993 144.487 5.30908
  159 517.950 -0.816381 -50.9781
  160 385.619 -29.9690 -43.3930
  161 385.652 -29.7280 43.0370
  162 518.441 -11.8107 45.6846
  163 494.973 36.2511 30.7623
  164 206.211 32.4570 -115.043
  165 228.067 30.8038 121.128
  166 629.271 7.85163 0.383778
  167 519.015 -20.0483 -31.0749
  168 684.859 150.355 0.867341
  169 468.488 -13.2888 -0.931499
  170 468.394 -13.2537 0.967843
  171 523.395 -6.66430 -4.03763
  172 524.937 -6.02719 3.46692
  173 372.490 -5.13490 -7.08190
  174 372.544 -5.08354 7.05000
  175 559.084 -13.8968 122.505
  176 479.792 20.1079 -33.1787
  177 315.217 -23.4317 -68.8949
  178 316.143 -23.2641 68.4771
  179 354.824 -11.3205 -22.7371
  180 354.864 -11.1946 22.5838
  181 521.382 -13.8624 26.4394
  182 474.775 -32.4871 -3.13081
  183 473.170 -32.2458 3.84436
  184 537.192 -52.1500 -12.3776
  185 540.075 -49.6846 5.75075
  186 740.167 174.578 -29.4686
  187 543.588 86.9811 22.9890
  188 543.298 33.3642 -52.2291
  189 556.668 -3.58865 -141.738
  190 537.734 -30.5158 -35.1071
  191 542.428 -21.8389 41.8953
  192 453.281 -51.4039 48.2234
  193 453.338 -51.0295 -48.0909
  194 487.289 6.32181 39.7388
  195 225.742 -5.73377 -84.4977
  196 226.264 -6.18758 84.0101
  197 831.446 124.013 18.2115
  198 509.755 -30.4612 18.3142
  199 527.967 -9.92831 -16.9672
  200 422.282 -10.1961 -5.78085
  201 422.296 -10.1489 5.76532
  202 509.028 -6.65417 -35.3393
  203 578.438 84.7818 -41.1601
  204 487.343 43.9212 -6.15105
  205 320.363 -11.0422 31.6940
  206 319.892 -11.0731 -31.9112
  207 534.938 -6.22147 9.01896
  208 523.903 9.86429 52.4964
  209 427.220 -30.7901 -21.7980
  210 424.495 -29.1449 22.2190
  211 615.062 91.3149 36.4663
  212 717.751 101.285 22.3286
  213 51.3378 39.3820 -33.8649
  214 47.5489 36.4023 28.8747
  215 298.815 86.3446 200.599
  216 504.726 -33.5956 -13.4389
  217 536.707 -5.97064 -8.13600
  218 482.068 4.37452 -36.6167
  219 342.187 -3.22415 -10.1234
  220 342.300 -3.18856 10.0434
  221 455.819 -21.2715 -5.56791
  222 456.034 -21.4107 5.31413
  223 513.074 -6.97367 29.9587
  224 586.215 -33.8119 17.1738
  225 586.756 119.230 -11.7685
  226 460.157 -44.2615 -23.7902
  227 578.859 -10.1128 31.1154
  228 494.683 -8.56294 1.20267
  229 494.683 -8.49725 -1.20137
  230 456.924 -44.0555 24.5953
  231 522.005 -33.2484 28.2801
  232 725.738 97.4969 -52.2434
  233 165.101 98.1864 -147.048
  234 447.732 15.9837 7.98043
  235 526.416 46.3901 44.3275
  236 558.171 -3.98056 -45.4634
  237 522.493 -18.9066 -42.3911
  238 284.185 -8.91061 -39.5044
  239 285.123 -8.77960 39.3970
  240 523.093 -6.45822 -22.9270
  241 498.244 -12.8248 4.61258
  242 498.013 -12.8137 -4.42909
  243 108.902 9.57485 -54.6673
  244 110.503 8.38732 54.4705
  245 552.484 -48.4482 -46.1306
  246 546.165 -2.25943 1.11266
  247 546.693 -2.29921 -1.24964
  248 514.637 42.7141 -40.7033
  249 456.054 9.00688 24.1007
  250 928.681 148.668 100.110
  251 920.500 104.809 -62.2751
  252 676.170 144.814 0.255154
  253 422.556 -20.5770 127.491
  254 388.491 -13.6136 -133.181
  255 447.213 -9.18951 -2.24497
  256 447.176 -9.13563 2.23137
  257 374.509 -9.74710 14.1543
  258 374.497 -9.87732 -14.2672
  259 534.823 -5.99450 13.8305
  260 519.839 -37.1255 -22.7071
  261 344.465 -0.541748 -2.40721
  262 344.550 -0.531674 2.39412
  263 513.363 -20.9617 -18.2802
  264 223.505 -7.19806 -54.9558
  265 224.408 -7.21996 54.5860
  266 520.068 -22.6797 33.5298
  267 398.723 -42.3195 77.5303
  268 399.670 -43.0739 -77.2891
  269 453.901 17.6492 -11.2195
  270 391.812 -5.82802 -4.78711
  271 391.852 -5.79085 4.77092
  272 490.451 -1.15652 29.2052
  273 583.457 106.365 28.4226
  274 318.870 -3.70752 16.9436
  275 318.634 -3.73723 -17.0759
  276 533.193 -44.6916 14.6176
  277 493.562 -55.5416 -53.3421
  278 548.431 -2.93549 4.09230
  279 386.909 -22.5327 -29.8374
  280 386.287 -22.2882 29.7364
  281 667.934 75.6299 178.695
  282 323.581 -26.2069 92.0922
  283 519.867 72.8751 -2.60781
  284 650.250 72.9249 -21.2623
  285 493.337 -38.1307 3.75619
  286 494.046 -57.0425 48.3379
  287 324.497 -25.7953 -93.0736
  288 61.3964 75.9286 70.0210
  289 513.453 -21.0268 18.6300
  290 669.273 88.7366 15.2009
  291 552.450 -2.62547 -3.54981
  292 505.919 17.8194 -46.8708
  293 497.063 -28.1656 8.98997
  294 486.901 -41.0349 3.70443
  295 504.253 23.2379 45.2182
  296 530.727 -44.6866 -12.7637
  297 748.685 144.705 -13.8690
  298 496.933 -27.0823 -8.57868
  299 406.748 120.036 -243.943
  300 507.291 -53.8469 -12.7992
  301 503.784 -55.3271 18.5019
  302 373.642 -33.5473 -60.8257
  303 341.270 -1.18683 -5.20260
  304 341.371 -1.16596 5.16613
  305 373.825 -33.5812 60.5161
  306 537.654 -0.941151 -52.2542
  307 577.632 -23.9373 -19.2638
  308 443.729 -26.4859 -12.2350
  309 443.477 -26.5485 12.4452
  310 525.564 -45.2491 84.0370
  311 527.201 -4.36494 17.3424
  312 635.235 4.29765 33.2783
  313 435.317 -15.2094 -6.87918
  314 435.352 -15.1647 6.84665
  315 398.356 -10.1310 -9.53349
  316 398.366 -10.0406 9.52236
  317 451.610 6.25190 -23.2977
  318 572.490 41.9946 -49.6587
  319 874.718 237.353 -115.398
  320 520.229 -4.94410 -1.29461
  321 519.957 -4.88119 1.33713
  322 282.546 -0.984914 114.946
  323 395.981 -17.6179 -20.0378
  324 395.281 -17.5675 20.0920
  325 282.489 -1.66695 -114.505
  326 547.399 64.5073 -42.8569
  327 608.674 30.4347 35.3626
  328 525.304 -37.4569 -92.9873
  329 486.201 -18.8615 3.29083
  330 485.726 -18.7340 -3.09088
  331 517.449 -11.0288 -8.52499
  332 490.758 -0.881022 -27.2988
  333 547.177 2.24724 50.9137
  334 543.851 -4.03883 -9.46534
  335 333.157 -19.8545 46.2736
  336 332.793 -19.9591 -46.6038
  337 510.764 -1.11950 48.5112
  338 321.161 -2.46190 -10.1143
  339 321.362 -2.43932 10.0308
  340 521.426 -12.2543 13.8362
  341 626.101 127.408 -19.7778
  342 517.236 -11.1016 8.86963
  343 553.356 69.3081 42.9184
  344 528.922 -9.92500 49.7628
  345 421.864 -7.80417 2.19228
  346 421.861 -7.84832 -2.20447
  347 502.254 -1.74500 -43.1009
  348 660.414 138.507 11.0413
  349 552.498 100.781 0.888593
  350 337.793 39.0717 -170.008
  351 37.4155 15.4029 -24.5799
  352 40.7580 16.6835 26.3251
  353 -1.02644 4.29660 9.56320
  354 0.914592 2.65532 -10.0471
  355 948.617 65.8799 22.2921
  356 457.396 -36.9121 -14.6615
  357 521.776 -11.8600 -13.4888
  358 472.565 -8.49491 0.262188
  359 472.511 -8.43219 -0.266006
  360 507.779 56.1057 -22.0653
  361 432.415 -43.8100 39.7338
  362 39.3032 58.8856 -44.2146
  363 432.769 -43.7861 -40.4029
  364 514.158 58.4730 23.4729
  365 521.292 -14.1027 -25.1116
  366 551.878 -30.9482 -29.0881
  367 590.674 123.872 8.07608
  368 552.947 -34.7127 23.3132
  369 235.960 -5.68969 36.7430
  370 234.639 -5.57802 -36.9563
  371 135.057 3.08026 -51.5470
  372 136.356 2.57215 51.3263
  373 458.306 1.73439 23.5174
  374 848.861 251.237 102.233
  375 537.913 -3.61621 -12.2531
  376 422.073 -35.2813 -30.5956
  377 421.768 -35.2059 30.5574
  378 518.765 -12.1110 -32.2904
  379 587.083 -28.3609 -0.107446
  380 457.381 -36.8850 15.0535
  381 641.328 6.05226 -57.5286
  382 372.361 -2.82880 -1.93938
  383 372.423 -2.80563 1.92817
  384 511.211 -3.04512 -20.8521
  385 281.800 -3.89314 -23.9165
  386 281.959 -4.02256 23.6417
  387 607.866 77.8219 -40.9175
  388 330.280 23.1384 158.240
  389 477.750 -25.0455 0.411498
  390 478.209 -25.0066 -0.429641
  391 561.986 94.7118 -26.9625
  392 530.702 -15.8340 -46.8973
  393 529.776 -54.2976 47.4300
  394 445.701 -11.7982 -3.57034
  395 445.657 -11.7477 3.54251
  396 511.613 -39.5451 14.3639
  397 548.654 -2.82882 6.98453
  398 349.232 -12.3726 -28.3195
  399 349.374 -12.3782 28.0986
  400 521.491 17.5578 -51.8561
  401 490.781 -10.9008 1.76044
  402 490.755 -10.9297 -1.70247
  403 509.187 -6.06034 39.3753
  404 477.673 35.0282 10.6919
  405 526.324 -22.3743 40.5992
  406 755.752 157.456 30.2752
  407 259.072 -13.8826 -73.7974
  408 259.764 -13.8831 73.2703
  409 116.619 61.6402 -89.8036
  410 559.547 -1.92178 1.80601
  411 293.853 -2.32346 -15.1596
  412 294.222 -2.27435 15.0401
  413 519.098 -13.6922 31.5360
  414 471.143 -51.0373 27.3513
  415 529.554 -6.94346 6.00759
  416 542.310 27.4963 53.7395
  417 121.933 65.6328 93.3650
  418 471.812 -50.7306 -25.3458
  419 487.283 -45.2200 -7.14175
  420 164.989 -3.28748 -46.5028
  421 166.120 -3.40286 46.2008
  422 375.405 -30.3747 -111.036
  423 558.132 -8.46362 44.2241
  424 374.109 -30.7891 110.107
  425 516.349 -29.1293 -25.4387
  426 483.937 32.8753 -23.3237
  427 516.395 -22.5013 24.3196
  428 552.492 -2.74712 -4.58723
  429 17.8524 19.6991 9.81032
  430 114.671 134.331 131.832
  431 499.565 -1.81789 20.2292
  432 424.538 6.07089 10.2622
  433 431.364 7.33631 -13.8882
  434 368.055 -5.81849 -9.99164
  435 368.102 -5.74633 9.93457
  436 509.077 -39.5128 -12.9511
  437 515.583 -10.1806 -43.9222
  438 426.628 8.30002 -3.77015
  439 754.956 180.334 41.3794
  440 108.732 35.1504 -67.4732
  441 119.505 32.2440 71.8676
  442 477.306 -17.0809 0.724372
  443 477.134 -17.0492 -0.606244
  444 635.335 139.198 -1.46271
  445 391.195 169.168 249.350
  446 607.411 -8.09975 -3.86289
  447 355.963 -18.1823 -38.4118
  448 356.138 -18.0646 38.1122
  449 359.341 -7.72363 15.3863
  450 359.266 -7.77707 -15.5109
  451 480.922 10.8930 -37.7703
  452 562.177 -1.04719 -1.16964
  453 468.547 21.7781 21.3106
  454 585.722 72.2419 45.2871
  455 488.360 -36.2131 -2.12841
  456 529.306 -6.63410 -5.85025
  457 554.626 -2.51347 4.22160
  458 560.503 -1.13169 0.665184
  459 560.903 -1.24645 -0.467227
  460 319.837 -0.494155 3.78302
  461 319.676 -0.501945 -3.81792
  462 533.080 -34.0531 30.7700
  463 485.391 19.3508 36.5920
  464 505.580 2.11110 -47.4187
  465 524.961 -11.3417 18.4025
  466 744.295 133.017 -152.779
  467 526.723 -29.3829 -35.0337
  468 6.81235 10.2569 5.18254
  469 6.69520 10.4908 -2.56968
  470 420.553 -23.4779 17.6885
  471 419.214 -23.1481 -17.4511
  472 647.481 14.5130 84.0303
  473 183.280 171.641 -190.899
  474 520.661 -1.69265 15.5364
  475 584.965 -33.7805 -49.2942
  476 319.172 -18.0448 53.4414
  477 630.346 111.928 -28.5178
  478 519.222 -28.2667 29.1355
  479 438.537 -20.7232 -9.40239
  480 438.917 -20.3894 9.38306
  481 458.201 2.54816 -20.7474
  482 318.205 -17.9663 -53.7397
  483 469.017 0.333264 20.7996
  484 445.392 -51.0367 -69.8472
  485 444.303 -51.1142 70.1439
  486 535.146 -3.72925 13.5583
  487 491.127 46.4522 4.41376
  488 490.936 9.46957 171.755
  489 724.351 146.276 -0.910906
  490 502.028 -8.78756 2.38323
  491 502.049 -8.75779 -2.49516
  492 391.480 -6.71649 -6.50111
  493 391.515 -6.66390 6.48097
  494 208.040 9.07244 97.1044
  495 521.688 -25.2869 -34.4949
  496 474.011 -10.4711 -0.309529
  497 473.964 -10.4392 0.316791
  498 414.062 -43.6451 57.1118
  499 211.940 12.0585 -99.5115
  500 521.814 -42.6629 -14.9217
  501 9.71495 3.40855 2.82303
  502 461.993 24.1670 1.57883
  503 503.654 -6.19755 -0.751469
  504 503.649 -6.27425 0.727484
  505 414.256 -43.5584 -57.5353
  506 585.453 -29.6636 61.7329
  507 583.380 21.2113 45.5806
  508 537.051 -4.02704 -2.80078
  509 520.231 -43.2496 15.1966
  510 334.786 -0.234650 -0.709773
  511 334.872 -0.231929 0.704930
  512 520.325 -20.1197 -37.1578
  513 506.656 37.5605 39.8722
  514 576.396 14.2751 -45.0858
  515 332.740 -0.440990 -2.13672
  516 332.838 -0.434372 2.12399
  517 988.073 142.887 -127.052
  518 526.592 62.6029 34.9551
  519 537.474 -3.75427 2.47956
  520 488.320 -46.2286 8.33320
  521 414.047 -13.4423 9.92721
  522 414.034 -13.5387 -9.90702
  523 565.718 -34.6183 10.9044
  524 545.534 -11.0411 -47.0790
  525 610.479 119.722 24.6520
  526 509.890 8.84344 49.2114
  527 511.139 -10.1607 5.11968
  528 496.150 -53.1835 -67.8689
  529 516.855 -12.9312 36.9392
  530 975.276 44.9411 -17.7344
  531 561.382 -42.4624 3.10442
  532 533.729 -3.93365 -0.585499
  533 533.860 -4.15743 0.486231
  534 985.455 66.0729 61.8615
  535 497.771 -0.0910046 41.8616
  536 688.532 117.470 -5.54273
  537 520.446 -14.4230 -17.6994
  538 243.398 -2.17272 -16.3372
  539 244.090 -2.06700 16.1809
  540 355.932 -33.2257 -77.2408
  541 356.244 -32.6721 76.6943
  542 510.851 -9.76208 -5.08702
  543 556.880 20.4126 -51.8779
  544 489.767 -33.3063 4.01733
  545 528.819 60.5790 -36.2000
  546 529.719 -6.40045 18.2296
  547 658.731 34.5717 -13.0828
  548 455.573 -15.5624 -3.51026
  549 455.448 -15.5171 3.47901
  550 493.093 -23.3537 6.37706
  551 720.293 144.930 -16.9460
  552 521.058 22.8221 51.0716
  553 224.440 57.5305 143.049
  554 498.918 -29.8499 115.987
  555 653.074 34.9323 -128.577
  556 532.580 44.0436 -47.3833
  557 469.584 -40.8204 -100.766
  558 509.023 -55.9194 -22.5765
  559 530.550 -53.9330 -31.8562
  560 71.5737 94.5649 -89.4435
  561 533.580 -7.09169 -10.8043
  562 797.920 154.778 -47.0974
  563 495.623 -22.4431 -7.39009
  564 499.429 -16.4543 6.12383
  565 498.975 -16.0948 -5.83103
  566 351.866 -1.85725 -4.75996
  567 351.948 -1.83341 4.73267
  568 53.4030 5.07382 -28.8337
  569 56.0298 5.32978 29.4759
  570 262.483 -11.9766 -56.1854
  571 264.391 -12.0454 56.1253
  572 506.356 -27.5709 -15.3417
  573 514.759 -56.1532 24.2331
  574 529.052 -50.4078 -0.285505
  575 437.664 -7.72381 -1.86638
  576 437.644 -7.67376 1.85783
  577 413.597 -43.5291 -86.1669
  578 460.849 -38.0169 106.426
  579 403.925 -40.9634 86.6041
  580 521.765 -11.6697 -47.1016
  581 333.486 -5.29892 17.1163
  582 333.323 -5.35233 -17.2439
  583 499.928 27.7930 -40.1026
  584 499.867 -0.885426 -18.3543
  585 621.602 133.991 -10.8361
  586 410.120 -6.06768 -1.75565
  587 410.138 -6.03079 1.74844
  588 530.067 -1.64619 -10.1684
  589 371.527 -12.1951 -19.2183
  590 371.550 -12.1576 19.0669
  591 301.377 13.4457 136.433
  592 515.912 -23.9035 -24.5522
  593 291.585 -15.6611 98.1805
  594 507.026 -26.4018 15.7484
  595 532.325 -7.83020 11.9919
  596 525.156 -5.20524 -2.42068
  597 376.351 -4.45051 -4.51229
  598 376.406 -4.41592 4.49258
  599 596.613 118.509 -22.4442
  600 291.369 -15.1080 -98.5156
  601 505.303 -22.0502 -12.3926
  602 457.671 -8.59002 -1.04400
  603 457.626 -8.53239 1.04014
  604 845.470 113.383 -20.3835
  605 310.441 -1.87416 9.38935
  606 310.183 -1.89191 -9.46894
  607 475.589 11.1032 34.5156
  608 667.879 57.6762 -1.99866
  609 320.708 1.73031 -135.314
  610 167.901 3.86749 -74.4417
  611 169.212 2.96212 74.0528
  612 403.542 -23.1727 24.1082
  613 407.552 -23.8565 -23.4963
  614 677.873 137.020 7.37533
  615 523.130 -5.38056 2.14535
  616 456.304 13.1245 -20.9091
  617 563.512 100.796 21.3399
  618 561.665 104.566 -14.2022
  619 461.503 -25.4489 -5.55769
  620 464.886 -24.8984 3.94111
  621 329.698 72.4732 -193.539
  622 399.683 -13.3728 -13.5727
  623 399.724 -13.2262 13.5341
  624 983.998 201.778 152.114
  625 520.762 -17.1892 40.3033
  626 303.613 -10.4352 -35.9701
  627 793.554 192.889 132.679
  628 304.291 -10.3818 35.8502
  629 494.589 -18.6706 -134.865
  630 358.035 -1.60476 -1.75080
  631 358.109 -1.59107 1.74315
  632 441.088 4.12645 18.2568
  633 204.646 -2.93769 -32.2412
  634 205.686 -2.94586 32.0065
  635 455.704 -32.0522 11.5807
  636 476.977 -38.0837 -5.06841
  637 557.767 -1.36641 -3.93771
  638 324.977 -0.458247 2.82809
  639 324.848 -0.466840 -2.85360
  640 431.433 -9.65277 -3.02834
  641 431.423 -9.60393 3.01012
  642 490.485 -54.6197 68.4761
  643 565.291 63.0685 -47.0384
  644 380.430 -17.3681 -24.7282
  645 380.185 -17.0806 24.5634
  646 447.591 -31.9428 -15.2670
  647 699.467 151.609 6.88116
  648 526.030 -51.0461 3.10104
  649 459.319 -11.0665 -1.89691
  650 459.256 -11.0184 1.89531
  651 626.927 69.0988 33.1082
  652 527.636 -7.85451 -19.8020
  653 471.550 -0.488798 -16.9181
  654 221.528 -7.59089 -70.8481
  655 222.158 -7.78911 70.3051
  656 446.228 -38.2456 -23.6082
  657 665.807 145.459 0.0262172
  658 519.933 70.2942 -15.7474
  659 349.883 -3.00115 -8.66512
  660 349.971 -2.96019 8.60398
  661 482.836 -13.8089 -1.04029
  662 482.928 -13.8174 1.13444
  663 885.660 115.324 51.0100
  664 564.872 -1.71248 0.992735
  665 548.284 -2.34017 6.88865
  666 546.390 -2.35385 -8.16712
  667 519.936 -48.5234 4.54254
  668 388.528 -4.35685 -2.25279
  669 388.572 -4.32796 2.24416
  670 557.852 89.0736 33.0057
  671 710.647 157.452 -12.3320
  672 394.144 -28.8906 -35.0230
  673 394.060 -28.6186 34.8645
  674 488.739 -50.3138 -13.0575
  675 517.566 30.8235 -48.1382
  676 608.430 1.86600 16.7779
  677 410.260 -7.48327 -4.64734
  678 410.279 -7.43926 4.63138
  679 354.852 -30.9305 -69.7182
  680 515.118 -49.9158 0.111711
  681 429.904 -47.6421 62.9734
  682 207.652 65.0805 -138.163
  683 402.982 -37.0559 48.5935
  684 486.353 0.140780 15.5543
  685 355.196 -30.5868 69.2797
  686 505.021 -22.4607 12.5453
  687 403.076 -36.8916 -49.0044
  688 417.878 5.66012 3.84428
  689 323.731 -8.40689 25.6898
  690 323.452 -8.41174 -25.8524
  691 430.070 -48.8728 -63.6541
  692 529.662 -35.0457 -29.7075
  693 486.446 -7.11042 -0.311203
  694 486.524 -7.17758 0.313019
  695 540.885 -34.6441 29.1145
  696 492.340 -51.4419 15.0829
  697 596.940 54.8783 44.2226
  698 539.731 -10.2457 48.8016
  699 519.396 -18.8299 29.2336
  700 499.617 41.2092 -30.4224
  701 596.881 100.126 35.1394
  702 516.072 -7.23126 -28.9968
  703 513.042 -17.2399 14.2598
  704 533.490 83.2616 8.48804
  705 522.475 -9.03134 24.9661
  706 166.642 113.924 145.125
  707 485.792 -55.9577 -40.7127
  708 562.366 10.1496 49.2861
  709 566.766 -17.6142 -33.6310
  710 562.745 -0.930777 2.09890
  711 518.737 -18.0461 -22.6867
  712 486.569 -56.3916 37.2365
  713 925.910 82.1116 -13.6729
  714 298.201 -1.18800 9.81488
  715 297.865 -1.20052 -9.89898
  716 525.126 -9.85808 -10.1740
  717 565.904 -0.724907 -2.06871
  718 445.476 -38.8726 23.7257
  719 532.808 -19.9715 44.0558
  720 798.594 195.265 -66.5295
  721 505.054 -36.6619 12.2280
  722 558.070 -36.8954 -15.3116
  723 513.212 -16.7940 -14.0240
  724 565.251 -1.17588 -0.593512
  725 521.369 -0.0903146 51.5343
  726 24.8653 26.1094 32.6434
  727 581.608 -21.5958 -89.8111
  728 634.676 38.4503 18.4970
  729 530.137 -54.3258 28.8550
  730 384.359 -8.96657 11.0692
  731 384.348 -9.08693 -11.1150
  732 485.035 258.737 -261.555
  733 541.065 -35.9565 -26.6264
  734 416.332 2.43719 -7.35446
  735 480.157 2.77928 33.5229
  736 522.889 -26.3147 35.0156
  737 501.179 -42.2360 4.55798
  738 518.728 -47.4989 -73.6226
  739 498.253 -39.4236 -5.60524
  740 585.287 -27.9705 -1.92990
  741 539.513 -4.73910 5.86407
  742 484.355 -29.0722 2.16814
  743 867.894 173.384 -93.6261
  744 515.247 -14.0591 11.1664
  745 512.456 8.46452 -50.4935
  746 434.570 -4.65642 151.243
  747 547.804 44.0430 51.0914
  748 471.414 -36.9806 7.41470
  749 367.142 -28.5658 -51.1180
  750 367.200 -28.4961 50.7334
  751 503.639 56.6817 -7.06163
  752 510.379 -5.94841 44.7916
  753 515.221 -12.3477 -37.8345
  754 484.889 -29.6815 -2.30201
  755 469.168 -41.8886 14.5142
  756 537.462 88.3366 -9.50798
  757 500.579 -43.3317 -2.59194
  758 501.904 -31.8326 12.0513
  759 507.589 -6.86828 1.68826
  760 507.876 -6.69618 -1.67065
  761 682.342 148.875 1.10222
  762 556.710 -47.4838 -20.6916
  763 520.279 -16.1426 22.6538
  764 539.599 -4.73634 -5.29037
  765 547.806 3.57692 -51.4199
  766 620.556 33.2358 -27.1769
  767 314.131 -0.231878 -4.62780
  768 314.333 -0.227804 4.58626
  769 4.82731 -8.48052 -5.87618
  770 531.302 -0.716862 9.39488
  771 490.292 -0.672450 -36.9355
  772 505.164 -4.74543 32.2781
  773 455.219 58.8746 220.129
  774 574.550 117.345 -1.14774
  775 410.471 -28.9931 27.7361
  776 76.7038 1.53448 -28.2109
  777 78.6690 1.11416 28.5021
  778 501.026 -3.54494 -36.5409
  779 411.504 -29.2698 -27.7420
  780 536.479 -5.19483 4.33951
  781 281.538 -11.7674 47.9000
  782 279.228 -11.7220 -47.8952
  783 515.193 -13.6633 -10.8656
  784 335.829 -8.16616 -22.4180
  785 335.995 -8.11619 22.2381
  786 535.947 -5.31469 -13.5459
  787 413.979 -10.8564 -7.95339
  788 414.000 -10.7911 7.95740
  789 584.531 -3.62695 -33.3932
  790 528.640 -5.59030 -51.4410
  791 276.460 -1.67406 -12.4455
  792 276.956 -1.65830 12.3115
  793 16.4953 6.80152 -17.6143
  794 18.7825 7.18534 18.4976
  795 434.793 2.17054 -13.2461
  796 482.194 -54.1665 -30.9730
  797 -5.38617 -3.66865 9.45132
  798 -4.77877 -4.44064 -9.47181
  799 501.475 -10.3446 3.73897
  800 542.847 -42.5336 -13.3887
  801 563.090 83.2217 -38.4021
  802 538.618 -4.69512 -4.13723
  803 1124.25 230.063 -211.053
  804 501.368 -10.3171 -3.68588
  805 750.693 142.117 12.7265
  806 537.795 15.6433 -53.7644
  807 591.932 44.8348 -45.4668
  808 105.864 -1.22493 -25.8849
  809 107.598 -1.37010 25.8433
  810 341.756 -4.71277 13.3932
  811 341.631 -4.75008 -13.4994
  812 328.204 -0.689337 2.52914
  813 328.095 -0.696808 -2.54683
  814 599.769 100.806 -34.7007
  815 361.305 -2.08888 -3.79537
  816 361.377 -2.06552 3.77733
  817 511.912 -5.14848 -46.8008
  818 726.141 79.0107 69.3979
  819 464.284 10.6343 -29.0686
  820 166.024 -1.43624 27.5323
  821 164.761 -1.44995 -27.7336
  822 586.431 18.0828 159.288
  823 524.665 -9.93725 10.4994
  824 474.888 31.7601 -12.0967
  825 225.033 -0.297261 18.6456
  826 223.986 -0.195957 -18.7718
  827 334.216 -1.56790 -6.60603
  828 334.342 -1.54539 6.55236
  829 60.7311 53.6979 47.8412
  830 493.530 11.9226 42.9627
  831 547.487 80.2202 -33.1831
  832 586.764 68.1810 -45.6898
  833 390.306 -14.4083 -17.5557
  834 390.102 -14.3099 17.5421
  835 608.732 128.695 15.4686
  836 522.953 -4.74049 -0.486787
  837 522.993 -4.70623 0.570685
  838 519.592 -15.7699 -29.6583
  839 437.458 -28.8625 16.9523
  840 479.381 -53.8436 31.0436
  841 559.839 -45.8527 47.9253
  842 434.134 -12.4762 -5.13556
  843 434.136 -12.4360 5.10800
  844 496.980 46.1786 19.5852
  845 468.245 6.60129 -31.3410
  846 129.820 160.328 150.948
  847 470.578 -41.5379 -13.3784
  848 472.339 -21.0868 -0.742829
  849 472.587 -21.1408 0.712344
  850 519.507 -7.71424 48.9957
  851 513.942 -33.8805 -20.7085
  852 460.602 -30.3039 -8.02202
  853 1022.08 33.0699 -49.7711
  854 438.297 -41.1863 31.7963
  855 437.923 -41.7064 -32.2747
  856 518.561 -6.29737 24.6181
  857 772.708 201.155 -50.0532
  858 412.203 -37.0853 -38.9588
  859 453.478 -50.9058 37.7408
  860 412.131 -36.6520 38.6385
  861 446.214 -17.8227 -6.10939
  862 446.212 -17.7712 6.07392
  863 68.7975 28.3732 41.4472
  864 557.032 41.6108 -51.4030
  865 429.061 -16.5356 -8.91885
  866 429.146 -16.3769 8.94733
  867 424.248 -6.95201 -1.09451
  868 424.246 -6.90850 1.08852
  869 464.237 -9.36067 -0.670810
  870 464.184 -9.30512 0.666129
  871 381.572 -7.21893 -9.53149
  872 381.611 -7.14158 9.49762
  873 430.457 -22.3519 -13.1409
  874 430.519 -22.2121 13.1993
  875 11.0215 -1.32482 -6.66978
  876 643.062 120.763 23.8805
  877 553.683 -19.5556 -39.8354
  878 453.058 -50.1592 -38.0997
  879 488.664 -15.8937 2.97612
  880 488.457 -15.7408 -2.85322
  881 533.119 0.596338 52.5835
  882 575.174 -40.9821 -28.5970
  883 507.267 38.2516 -191.561
  884 237.247 -4.22584 95.6768
  885 -6.51315 5.52899 -7.30699
  886 -5.43363 6.25226 7.98714
  887 68.4387 30.1685 -42.3502
  888 519.783 -15.1880 17.5499
  889 544.935 -3.84413 -7.31681
  890 490.864 -47.4368 83.8082
  891 236.704 -4.00583 -96.0327
  892 546.977 -44.9884 8.08012
  893 605.105 -16.8154 74.5814
  894 449.555 1.87460 14.0196
  895 511.342 48.6760 33.2137
  896 280.207 -15.6586 70.0086
  897 279.159 -15.7831 -70.4383
  898 335.632 -15.6040 -39.3626
  899 348.478 -17.4872 -121.558
  900 548.433 -12.9734 45.4911
  901 747.449 177.929 33.4860
  902 551.435 21.1351 52.4210
  903 521.138 -11.2913 -27.1867
  904 355.583 -15.6630 124.550
  905 661.420 122.515 -15.7548
  906 68.3972 57.5327 -58.6377
  907 485.077 -0.915653 -14.8369
  908 335.978 -15.4808 39.0410
  909 407.153 -8.79056 6.95529
  910 407.133 -8.84577 -6.96751
  911 514.661 -33.6961 21.4709
  912 532.052 -3.77704 1.54659
  913 393.069 3.38651 -150.567
  914 559.856 -1.37577 3.44794
  915 556.279 -1.14842 -4.49068
  916 425.565 3.82262 -12.2207
  917 539.563 -2.25905 -8.28556
  918 408.025 -18.7446 -16.5084
  919 408.296 -18.4746 16.5633
  920 -12.5817 5.17558 -7.12650
  921 -17.7425 3.12488 7.69853
  922 532.021 -3.53125 -1.59690
  923 182.373 -4.22905 64.6529
  924 181.368 -3.86249 -64.9976
  925 571.862 83.1844 40.3454
  926 998.856 18.1283 15.2533
  927 539.338 59.8708 43.1616
  928 604.381 -20.7633 24.5257
  929 528.989 -29.6008 35.0514
  930 657.470 137.495 -12.0714
  931 417.131 1.95709 9.22243
  932 508.583 -12.2561 -6.34476
  933 530.556 28.5573 -52.3034
  934 634.680 19.7670 -5.00901
  935 496.633 -30.7072 -8.98582
  936 261.640 -1.36949 -13.8918
  937 261.874 -1.32040 13.7058
  938 523.266 -12.5280 -20.8642
  939 18.7388 23.3326 6.28393
  940 502.434 -52.1163 -8.37080
  941 442.121 13.4136 -1.25783
  942 653.643 142.853 -7.98912
  943 106.259 78.8133 -95.5898
  944 505.178 -3.77608 -28.9208
  945 355.259 -5.67674 -12.5923
  946 355.335 -5.61245 12.4980
  947 3.44129 -13.8708 10.3990
  948 346.230 -25.4265 -56.4678
  949 512.062 -29.7237 -20.2065
  950 327.432 0.710696 -1.06429
  951 327.524 0.713537 1.05819
  952 520.072 63.0647 -26.4939
  953 550.640 -1.94767 -0.690550
  954 550.674 -1.96684 0.922634
  955 346.401 -25.3650 56.1151
  956 519.299 -0.804356 -11.3346
  957 593.890 4.39328 31.8284
  958 527.453 -7.76433 8.00335
  959 88.3468 21.5405 -51.6289
  960 545.918 -3.57912 6.59598
  961 500.368 4.15370 45.8325
  962 527.576 72.9056 23.5519
  963 526.348 6.10957 -53.3813
  964 366.573 -19.2476 -34.0679
  965 565.133 -20.1871 32.3093
  966 366.816 -19.1815 33.7515
  967 18.0193 19.1661 -3.22469
  968 65.9177 10.6850 37.9087
  969 302.328 -5.12760 23.1236
  970 301.979 -5.12792 -23.2398
  971 508.946 -12.4708 6.73869
  972 550.165 95.2474 12.8893
  973 281.151 25.2514 -143.094
  974 459.801 -28.5325 7.16959
  975 431.735 -44.9354 -46.9106
  976 626.269 119.710 25.9104
  977 482.810 -8.73718 0.115368
  978 482.788 -8.69408 -0.120242
  979 527.366 -10.0291 -14.7350
  980 492.549 42.6890 -18.0579
  981 1075.39 325.297 218.711
  982 106.871 5.62343 -49.1534
  983 108.381 4.66329 49.2465
  984 7.96595 -7.41542 3.94274
  985 493.664 27.5425 37.0683
  986 431.670 -45.2182 46.5883
  987 532.713 -25.3016 -40.3349
  988 579.207 47.3146 50.0004
  989 553.870 -44.7314 -57.9099
  990 806.544 169.406 58.3903
  991 474.427 -7.86643 -0.414904
  992 474.367 -7.80706 0.414571
  993 553.106 -22.7263 37.5753
  994 39.1556 70.2839 69.5990
  995 256.497 -5.19895 33.0138
  996 255.752 -5.13136 -33.3375
  997 303.696 -14.5196 45.2992
  998 302.693 -14.2889 -45.4486
  999 341.112 -13.7191 32.7508
  1000 372.930 -2.78375 -1.68893
  1001 372.991 -2.76413 1.68287
  1002 894.790 293.708 -189.633
  1003 820.628 206.066 87.9821
  1004 340.839 -13.7831 -33.0016
  1005 569.504 -2.71961 41.6168
  1006 513.706 53.3217 -31.9160
  1007 363.079 -31.4437 100.906
  1008 463.701 -54.8367 -55.7784
  1009 529.470 -4.48916 -16.3989
  1010 242.329 16.0270 116.913
  1011 310.731 -23.6710 80.5810
  1012 473.141 24.5108 -23.3042
  1013 535.915 -10.7183 -49.4639
  1014 663.516 287.720 296.624
  1015 448.530 13.9920 16.6688
  1016 603.225 128.982 -1.88944
  1017 440.259 17.8056 -170.785
  1018 451.257 -47.2676 -32.7590
  1019 566.146 -0.795314 -1.67191
  1020 549.102 50.3938 -49.7328
  1021 328.892 -1.97121 8.42689
  1022 328.736 -1.99089 -8.49758
  1023 12.4171 10.1546 -19.2313
  1024 367.107 -16.3768 -28.4686
  1025 310.343 -23.9720 -81.1489
  1026 366.857 -16.3473 28.1829
  1027 524.246 -16.0677 45.7682
  1028 471.004 -29.0005 -3.11478
  1029 496.540 9.25924 -44.4807
  1030 511.153 63.7968 9.32385
  1031 681.015 43.7730 30.8292
  1032 518.455 -39.4920 20.0595
  1033 332.450 -26.2691 -61.7803
  1034 492.749 17.6138 -41.7468
  1035 366.051 -31.0444 -101.385
  1036 696.928 150.081 -3.80787
  1037 480.080 31.7339 21.2015
  1038 597.979 -3.27980 -23.2042
  1039 454.030 -47.3042 30.3984
  1040 519.233 -16.6031 35.1048
  1041 515.382 -27.3349 24.2710
  1042 512.541 -25.9087 20.8019
  1043 630.633 80.6158 -34.2361
  1044 513.192 -8.35554 36.1651
  1045 463.039 -54.9884 54.9015
  1046 494.199 -20.3261 5.79594
  1047 332.664 -26.3262 61.4707
  1048 465.145 -34.0659 -8.59720
  1049 274.024 -13.4299 -86.1504
  1050 387.312 -40.0642 68.7798
  1051 521.894 -3.66781 -19.1841
  1052 509.523 -5.77857 -41.3402
  1053 442.008 -34.6627 -20.5222
  1054 274.482 -13.7946 85.5205
  1055 477.787 1.26603 -29.1287
  1056 357.060 -23.2820 -43.9358
  1057 637.853 135.032 15.8961
  1058 146.446 23.4772 -82.9761
  1059 1063.62 75.0265 101.026
  1060 258.987 18.6350 -122.202
  1061 512.246 -42.5035 -11.0638
  1062 357.171 -23.0923 43.6056
  1063 473.115 5.19737 32.6857
  1064 270.136 -5.28807 27.3472
  1065 270.017 -5.41700 -27.6077
  1066 519.577 -14.5427 -42.5078
  1067 548.367 -3.06548 2.51015
  1068 539.967 -1.32731 8.34252
  1069 536.071 17.7380 53.7184
  1070 502.850 -3.77821 38.9621
  1071 387.385 41.7989 184.503
  1072 569.476 -0.558271 0.760050
  1073 540.815 73.0937 34.3266
  1074 461.310 6.89213 28.2402
  1075 546.077 -2.20278 7.95953
  1076 358.769 -3.63021 -7.11442
  1077 358.840 -3.58985 7.07435
  1078 230.689 -6.37563 -45.6838
  1079 231.527 -6.60678 45.4024
  1080 462.835 23.3628 11.8789
  1081 682.397 39.1549 -55.8484
  1082 627.239 1.04874 -99.8082
  1083 507.787 -0.493730 -11.8272
  1084 387.410 -40.3573 -69.2771
  1085 442.944 -32.9726 18.5421
  1086 510.523 -1.20561 12.3320
  1087 532.043 -38.7600 -23.9469
  1088 340.192 -0.667303 4.18932
  1089 340.097 -0.679908 -4.21227
  1090 511.287 -43.7196 11.0492
  1091 486.531 -10.1682 0.648871
  1092 486.449 -10.1804 -0.621777
  1093 473.749 -47.5796 20.3171
  1094 605.512 -19.2349 -11.3128
  1095 283.925 -0.468171 -7.76400
  1096 284.356 -0.451836 7.68880
  1097 415.528 -26.6221 -116.182
  1098 444.159 -10.5707 2.98822
  1099 444.194 -10.6231 -3.00908
  1100 267.232 146.249 202.811
  1101 610.329 50.4226 -39.5480
  1102 93.3138 44.5882 -63.8108
  1103 527.687 -8.17212 -7.72037
  1104 144.841 48.7360 -95.2513
  1105 299.399 -18.5396 -58.5293
  1106 569.330 -0.781554 0.519868
  1107 569.514 -0.742971 -0.373925
  1108 520.573 -29.8517 -29.7877
  1109 460.789 -51.8985 -75.7482
  1110 146.570 19.9884 79.0653
  1111 566.765 56.0290 47.9329
  1112 512.856 -5.53844 -0.613162
  1113 512.922 -5.54042 0.658163
  1114 557.441 -35.4580 92.1509
  1115 581.445 115.746 18.2229
  1116 350.423 -8.14123 -17.9178
  1117 350.518 -8.10645 17.8045
  1118 263.989 29.7060 144.536
  1119 495.253 2.61771 -42.9867
  1120 157.728 50.0827 102.172
  1121 627.172 -9.91441 -34.5140
  1122 621.997 136.375 5.26391
  1123 429.752 -33.6559 24.4609
  1124 402.620 2.31167 -1.80019
  1125 540.665 -4.96727 9.97753
  1126 558.524 -0.840924 3.86883
  1127 129.676 0.187869 -23.1068
  1128 131.261 0.130696 22.9599
  1129 447.853 7.73642 -20.9655
  1130 457.462 -13.4383 -2.65501
  1131 457.368 -13.3834 2.64322
  1132 48.9755 83.7622 -74.2154
  1133 76.8441 176.402 -145.039
  1134 463.020 -18.0444 2.63011
  1135 463.184 -18.0339 -2.66032
  1136 477.688 -11.6465 0.561746
  1137 477.622 -11.6273 -0.526690
  1138 127.745 81.2601 103.251
  1139 381.694 -4.52848 -3.50246
  1140 381.745 -4.49784 3.48831
  1141 477.769 36.3214 -0.478493
  1142 594.984 80.2286 -212.412
  1143 578.483 99.4150 -31.2744
  1144 527.108 -20.3463 -42.9936
  1145 519.060 -26.0282 -30.4658
  1146 429.955 -33.9598 -24.8499
  1147 436.683 1.52289 12.9405
  1148 487.763 30.5960 -31.0123
  1149 481.309 26.0833 29.6749
  1150 493.886 -19.7498 -5.67302
  1151 472.169 -28.4305 2.74957
  1152 430.783 -27.5137 -18.6183
  1153 511.344 -3.06089 22.9488
  1154 888.445 89.4715 12.3888
  1155 514.519 -11.0363 41.7589
  1156 517.334 33.9897 46.2728
  1157 475.927 -46.6970 -15.8905
  1158 62.7032 9.79851 -36.6038
  1159 484.837 -22.4756 -3.42408
  1160 329.711 -0.435239 -0.227421
  1161 329.797 -0.433258 0.225452
  1162 587.395 -15.5747 19.2877
  1163 559.593 -47.1959 24.1274
  1164 801.002 142.741 36.1337
  1165 200.118 -0.344497 -19.1284
  1166 201.207 -0.302640 18.9958
  1167 435.100 -8.76154 -2.32669
  1168 435.083 -8.71168 2.31258
  1169 486.197 -42.8111 -3.94105
  1170 406.026 1.95425 5.90567
  1171 497.696 -35.4495 8.23466
  1172 29.5185 35.0510 -18.4202
  1173 92.2596 45.2424 62.3472
  1174 335.150 -18.5501 112.222
  1175 576.644 109.319 -22.3623
  1176 547.966 -1.59890 -6.29845
  1177 571.625 -0.998135 0.314032
  1178 572.123 -1.32648 -0.179171
  1179 342.057 -0.696329 -0.713836
  1180 342.141 -0.690539 0.709337
  1181 531.615 33.9612 52.3002
  1182 778.863 132.142 -2.82810
  1183 548.235 90.3158 -23.1285
  1184 409.052 -30.3696 115.453
  1185 333.381 -17.8761 -111.997
  1186 371.984 -24.4988 -39.5493
  1187 509.329 -14.4692 8.78547
  1188 707.827 156.704 10.6321
  1189 372.034 -24.3618 39.2631
  1190 519.767 -9.38723 6.64418
  1191 469.354 17.6662 28.3614
  1192 514.407 15.9970 50.4279
  1193 726.565 161.994 20.7753
  1194 435.862 -11.2922 4.29759
  1195 435.878 -11.3410 -4.32290
  1196 526.769 -10.1567 15.3229
  1197 319.543 -3.25189 13.1402
  1198 319.324 -3.28384 -13.2483
  1199 515.016 -7.32637 -2.75583
  1200 213.739 128.208 -196.765
  1201 446.116 -25.2982 -123.679
  1202 424.408 -13.1256 -7.57971
  1203 424.456 -13.0717 7.58287
  1204 550.386 -2.85122 2.32515
  1205 522.611 -7.16729 5.28756
  1206 29.8041 38.4207 28.8045
  1207 566.126 -0.735952 1.96787
  1208 69.4323 89.5138 88.7707
  1209 510.921 -7.94209 -3.58958
  1210 -0.470509 -12.2968 -10.8130
  1211 364.121 -35.5763 -87.0163
  1212 363.177 -34.7233 86.1769
  1213 566.099 -1.08776 -2.19543
  1214 487.826 -25.7584 -4.25392
  1215 550.070 -2.62963 -2.33734
  1216 444.945 -14.3157 -4.41521
  1217 444.908 -14.2700 4.37606
  1218 514.697 -7.28007 2.56962
  1219 484.496 -22.0292 3.38872
  1220 466.840 -15.0598 1.18603
  1221 466.995 -15.0937 -1.13524
  1222 549.534 -2.70760 -1.89442
  1223 476.205 -50.3331 -85.2238
  1224 538.315 -3.65305 -1.88737
  1225 513.016 -8.15062 3.91548
  1226 364.300 -3.78894 -5.33004
  1227 364.367 -3.75297 5.30304
  1228 404.507 -5.81696 -2.85578
  1229 404.533 -5.77995 2.84369
  1230 646.622 101.298 27.8744
  1231 544.023 -41.9877 16.6923
  1232 374.563 -1.96688 142.346
  1233 307.114 -0.449026 5.05068
  1234 306.864 -0.454173 -5.09639
  1235 517.298 -9.65558 31.2003
  1236 494.391 -7.75426 0.522727
  1237 494.406 -7.73065 -0.522507
  1238 567.790 109.938 10.5110
  1239 516.685 -54.2294 68.3880
  1240 306.704 -4.15650 18.3355
  1241 306.414 -4.18600 -18.4580
  1242 493.829 -12.2521 2.74462
  1243 493.719 -12.3397 -2.64032
  1244 509.046 -14.3047 -8.43334
  1245 472.309 0.125978 15.0623
  1246 802.714 199.762 -69.2729
  1247 518.903 -19.1505 -26.9814
  1248 92.2636 21.2842 53.0089
  1249 535.696 -28.6976 37.2501
  1250 436.511 9.80740 -11.4814
  1251 34.9579 24.7076 20.1056
  1252 700.093 80.2625 -12.2201
  1253 523.652 -23.9294 -38.0798
  1254 438.478 6.45315 17.6025
  1255 301.434 -18.5768 58.4591
  1256 531.175 -41.2564 21.0224
  1257 763.929 150.520 53.1537
  1258 181.962 26.2764 100.305
  1259 533.296 -6.59979 -13.2402
  1260 1006.59 11.3821 -9.98609
  1261 1038.63 15.4963 44.2733
  1262 1106.85 37.0903 -105.631
  1263 518.621 -16.3282 -34.0848
  1264 518.248 -23.7985 28.4784
  1265 526.154 -37.5835 25.7863
  1266 -15.3854 1.90620 9.65142
  1267 -13.9579 1.56527 -10.5570
  1268 511.498 -56.6740 -33.4411
  1269 523.341 -53.0715 -48.8709
  1270 408.752 2.71713 -7.28039
  1271 509.220 -57.6562 48.6037
  1272 544.665 -25.9633 -37.6970
  1273 11.9383 16.7985 3.00572
  1274 445.400 -8.16498 1.48194
  1275 445.429 -8.21853 -1.48582
  1276 540.151 -4.58620 8.90161
  1277 519.704 -9.22809 -6.20973
  1278 490.426 -53.5218 -18.7817
  1279 449.770 -24.1561 8.70066
  1280 447.575 -23.8076 -9.29902
  1281 525.331 -11.3073 21.4481
  1282 538.530 -19.9036 -44.0568
  1283 36.2453 25.7589 -19.6306
</Section>

newXOutput 72

<Section columns = "stress_xx | stress_yy | stress_xy">
  1 582.456 -0.235446 1.06995
  2 582.455 -0.223583 -1.07248
  3 329.430 -0.0756385 -0.385612
  4 -4.12093 -4.06487 -5.92759
  5 1024.25 423.200 333.031
  6 1014.97 437.889 -330.901
  7 -4.79001 -3.85230 6.32146
  8 329.344 -0.0767315 0.384700
  9 586.290 -1.02648 0.306553
  10 585.198 -1.60130 -0.335700
  11 584.104 -1.11683 1.18478
  12 582.984 -1.49484 0.248320
  13 580.546 -1.27609 1.86267
  14 578.308 -1.28000 1.30776
  15 572.836 -1.12674 2.70008
  16 564.807 -0.854513 3.99959
  17 557.697 -0.869769 4.50036
  18 546.970 -1.14536 5.49238
  19 531.877 -0.152336 8.18825
  20 517.942 -0.841054 7.84208
  21 501.811 -1.05106 11.1260
  22 478.542 0.735191 9.73835
  23 461.496 1.17075 11.5631
  24 439.236 1.93592 9.09348
  25 423.746 2.12130 9.18990
  26 401.319 2.88838 4.69898
  27 396.551 4.53404 5.05389
  28 393.663 3.76411 -1.49904
  29 397.563 2.26194 -3.26697
  30 404.766 2.13984 -4.01411
  31 421.578 2.65514 -7.99615
  32 437.912 2.09978 -10.0719
  33 461.702 0.526610 -11.9150
  34 480.703 -0.219551 -10.7813
  35 500.808 -0.830569 -10.5272
  36 518.934 -0.662294 -7.39334
  37 534.366 -0.713921 -6.27677
  38 546.977 -1.12643 -5.22364
  39 558.174 -0.831736 -3.57842
  40 565.037 -1.01511 -3.76925
  41 571.676 -1.20219 -2.74192
  42 577.847 -1.40764 -1.12623
  43 580.975 -1.14696 -1.37693
  44 582.502 -0.751309 -0.828007
  45 581.032 -0.485495 -0.758280
  46 585.731 -1.59880 0.242375
  47 586.440 -1.06261 -0.315701
  48 568.557 -0.667741 -0.663313
  49 556.657 -2.66976 -1.24635
  50 542.000 -3.85220 -0.739299
  51 524.048 -5.54931 -1.03324
  52 506.926 -6.01973 -1.24545
  53 488.577 -7.36553 -1.19801
  54 472.268 -8.09346 -0.607630
  55 457.958 -8.91842 -0.154494
  56 441.420 -7.36417 -0.135236
  57 422.352 -6.81221 -0.329103
  58 403.995 -5.31197 -0.0186022
  59 386.625 -3.32138 0.0398932
  60 370.147 -2.31944 0.0999739
  61 355.741 -1.12770 0.210322
  62 341.076 -0.255511 -0.435289
  63 329.562 0.472781 0.626906
  64 324.332 1.23142 0.449232
  65 327.668 0.0384040 1.01452
  66 323.502 -0.130659 1.23580
  67 319.538 -0.211373 1.53677
  68 314.215 0.00695727 1.97634
  69 307.513 0.00712321 2.47064
  70 302.376 -0.332564 4.68123
  71 288.388 0.418603 5.09579
  72 278.425 -0.00596559 5.78920
  73 263.596 -0.227727 6.57984
  74 246.567 -0.399271 7.99517
  75 225.258 -0.0726387 9.70964
  76 199.287 0.134785 10.7348
  77 176.594 -0.190051 15.3578
  78 132.220 1.39663 14.5576
  79 101.672 1.20176 15.4288
  80 64.7731 -0.316780 17.2055
  81 33.8372 2.75532 18.0182
  82 -1.53147 4.18435 11.0682
  83 -27.6099 4.26693 4.22738
  84 -27.7165 4.18805 -1.04586
  85 -27.2666 3.51256 -8.06615
  86 -16.1279 -1.00822 -7.78983
  87 -1.89355 -15.4805 -8.62835
  88 1.65995 -28.3297 -10.6376
  89 4.41350 -43.9086 -5.44919
  90 9.68226 -43.2504 1.52304
  91 20.3082 -4.77017 28.0629
  92 59.6074 101.107 91.6720
  93 339.482 335.172 299.624
  94 1243.15 187.392 206.066
  95 1124.08 26.7051 66.5910
  96 1048.52 11.1965 20.3786
  97 1020.68 9.57327 1.53510
  98 1035.66 12.6568 -17.7436
  99 1122.05 25.0228 -52.7547
  100 1312.89 90.3749 -176.316
  101 202.679 345.052 -251.676
  102 44.5911 76.1777 -76.5341
  103 22.2322 -2.53779 -30.0707
  104 9.08535 -42.9343 -6.02077
  105 2.70616 -33.1320 6.19793
  106 3.30294 -35.7794 9.17395
  107 0.204015 -13.3225 9.56453
  108 -16.8510 -0.602556 7.36328
  109 -28.1261 2.63775 7.00914
  110 -29.2112 5.08092 1.19578
  111 -28.4757 4.18970 -3.95691
  112 -3.55497 4.28792 -10.3988
  113 32.0758 2.77859 -17.1961
  114 62.9800 -0.0196446 -16.9246
  115 99.8148 1.29836 -15.4572
  116 130.534 1.43197 -14.6628
  117 175.287 -0.196392 -15.4795
  118 198.170 0.148453 -10.8331
  119 224.281 -0.0694101 -9.82593
  120 246.071 -0.444999 -8.04951
  121 262.916 -0.214375 -6.59415
  122 277.907 0.0118710 -5.84553
  123 287.961 0.413896 -5.14770
  124 302.065 -0.336062 -4.72516
  125 307.261 0.00485145 -2.49749
  126 314.020 0.00477277 -1.99836
  127 319.386 -0.215008 -1.55416
  128 323.380 -0.133776 -1.24790
  129 327.565 0.0357739 -1.02219
  130 324.238 1.23022 -0.452756
  131 329.473 0.472155 -0.629135
  132 340.990 -0.258475 0.434212
  133 355.662 -1.13515 -0.213001
  134 370.078 -2.33571 -0.103089
  135 386.572 -3.34396 -0.0428767
  136 403.962 -5.34457 0.0156131
  137 422.343 -6.85360 0.326722
  138 441.436 -7.41227 0.132697
  139 457.995 -8.97275 0.153268
  140 472.319 -8.14783 0.609375
  141 488.653 -7.41502 1.20361
  142 506.994 -6.05358 1.26556
  143 524.102 -5.57963 1.13081
  144 542.100 -3.66000 0.755464
  145 557.041 -2.60637 1.21842
  146 568.665 -0.756481 0.652773
  147 512.624 -48.1942 -0.440552
  148 512.173 -47.5395 0.619991
  149 540.598 77.4941 -24.9187
  150 573.366 33.7513 51.9291
  151 434.666 -42.0797 -97.6614
  152 438.246 -42.0028 94.6154
  153 425.409 -17.7806 12.5388
  154 425.434 -18.0196 -12.5439
  155 606.042 22.0308 -37.9587
  156 511.291 -18.5806 9.43666
  157 511.069 -18.1461 -9.32424
  158 660.714 146.377 5.32115
  159 524.948 -0.826421 -51.5357
  160 390.927 -30.3640 -44.0227
  161 390.961 -30.1203 43.6626
  162 525.428 -11.9730 46.1702
  163 501.747 36.7540 31.1143
  164 209.109 32.8831 -116.692
  165 231.247 31.2106 122.860
  166 637.531 7.98560 0.191372
  167 525.978 -20.3235 -31.3768
  168 693.945 152.349 1.03426
  169 474.818 -13.4708 -0.984091
  170 474.723 -13.4355 1.02072
  171 530.350 -6.76718 -4.05565
  172 531.907 -6.12190 3.48133
  173 377.712 -5.19661 -7.19217
  174 377.766 -5.14472 7.15998
  175 566.385 -14.0399 124.260
  176 486.384 20.3935 -33.5604
  177 319.614 -23.7497 -69.8629
  178 320.552 -23.5800 69.4407
  179 359.802 -11.4641 -23.0657
  180 359.843 -11.3369 22.9109
  181 528.370 -14.0557 26.6977
  182 481.177 -32.9200 -3.25751
  183 479.554 -32.6756 3.97864
  184 544.327 -52.8503 -12.6833
  185 547.252 -50.3518 5.97089
  186 749.905 176.893 -30.0182
  187 550.962 88.1479 23.2377
  188 550.618 33.8145 -52.7915
  189 563.919 -3.58541 -143.741
  190 544.921 -30.9294 -35.4273
  191 549.682 -22.1369 42.3016
  192 459.389 -52.0938 48.9557
  193 459.444 -51.7138 -48.8218
  194 493.955 6.41380 40.1902
  195 228.952 -5.82481 -85.6967
  196 229.479 -6.28390 85.2034
  197 842.243 125.602 18.4575
  198 516.588 -30.8735 18.4469
  199 535.014 -10.0710 -17.1223
  200 428.077 -10.3291 -5.88500
  201 428.092 -10.2815 5.86931
  202 515.912 -6.74590 -35.7210
  203 586.211 85.9165 -41.5754
  204 494.035 44.5310 -6.22079
  205 324.899 -11.1840 32.1403
  206 324.422 -11.2152 -32.3597
  207 542.039 -6.31665 9.08997
  208 530.981 9.99869 53.0736
  209 433.049 -31.1947 -22.1510
  210 430.294 -29.5274 22.5746
  211 623.264 92.5386 36.7798
  212 727.093 102.733 22.8739
  213 52.1198 39.9497 -34.4196
  214 48.2761 36.9270 29.3518
  215 302.837 87.5434 203.382
  216 511.495 -34.0485 -13.5077
  217 543.825 -6.06172 -8.19954
  218 488.675 4.44075 -37.0337
  219 347.048 -3.26125 -10.2711
  220 347.163 -3.22529 10.1904
  221 462.000 -21.5540 -5.70039
  222 462.218 -21.6955 5.44339
  223 519.998 -7.07040 30.2776
  224 593.936 -34.2506 17.5687
  225 594.674 120.808 -11.8799
  226 466.369 -44.8500 -24.1941
  227 586.542 -10.2476 31.3555
  228 501.311 -8.68837 1.19385
  229 501.311 -8.62193 -1.19260
  230 463.098 -44.6415 25.0078
  231 528.995 -33.6992 28.5250
  232 735.118 98.9216 -53.1848
  233 167.409 99.5575 -149.159
  234 453.966 16.2182 8.07494
  235 533.554 47.0190 44.8193
  236 565.627 -4.03582 -45.9084
  237 529.514 -19.1649 -42.8277
  238 288.247 -9.02678 -40.0528
  239 289.196 -8.89424 39.9447
  240 530.112 -6.55136 -23.1610
  241 504.920 -13.0056 4.62079
  242 504.686 -12.9946 -4.43544
  243 110.534 9.69867 -55.4766
  244 112.153 8.49550 55.2762
  245 559.776 -49.0923 -46.8840
  246 553.357 -2.30244 1.11564
  247 553.890 -2.34285 -1.25500
  248 521.638 43.2983 -41.1602
  249 462.379 9.14249 24.3813
  250 940.560 150.568 101.401
  251 932.254 106.149 -63.0634
  252 685.184 146.702 0.303078
  253 428.212 -20.8618 129.286
  254 393.719 -13.8128 -135.050
  255 453.298 -9.31429 -2.29426
  256 453.261 -9.25991 2.28045
  257 379.739 -9.86989 14.3693
  258 379.726 -10.0016 -14.4833
  259 541.945 -6.08434 13.9583
  260 526.797 -37.6271 -22.8789
  261 349.378 -0.544644 -2.44397
  262 349.465 -0.534474 2.43077
  263 520.238 -21.2502 -18.4285
  264 226.738 -7.29700 -55.7265
  265 227.651 -7.31916 55.3526
  266 527.046 -22.9898 33.8571
  267 404.141 -42.8950 78.6405
  268 405.099 -43.6594 -78.3956
  269 460.204 17.9064 -11.3503
  270 397.260 -5.90035 -4.86230
  271 397.300 -5.86285 4.84595
  272 497.146 -1.16928 29.5316
  273 591.317 107.779 28.7035
  274 323.423 -3.75195 17.1826
  275 323.184 -3.78196 -17.3163
  276 540.303 -45.2945 14.6688
  277 500.143 -56.2896 -54.1645
  278 555.663 -2.98652 4.12025
  279 392.256 -22.8257 -30.2780
  280 391.627 -22.5784 30.1760
  281 676.449 76.8260 181.196
  282 328.045 -26.5728 93.3930
  283 526.954 73.8635 -2.63603
  284 658.825 73.9323 -21.3312
  285 499.963 -38.6414 3.70149
  286 500.638 -57.8099 49.0941
  287 328.972 -26.1562 -94.3856
  288 62.2939 77.0478 71.0949
  289 520.329 -21.3158 18.7818
  290 678.077 89.9559 15.1812
  291 559.722 -2.67129 -3.57413
  292 512.801 18.0674 -47.3978
  293 503.736 -28.5459 9.01625
  294 493.446 -41.5834 3.85455
  295 511.120 23.5589 45.7292
  296 537.808 -45.2887 -12.7936
  297 758.548 146.575 -14.0970
  298 503.604 -27.4484 -8.60270
  299 412.043 121.728 -247.260
  300 514.068 -54.5693 -13.0915
  301 510.518 -56.0700 18.8674
  302 378.779 -33.9967 -61.6918
  303 346.136 -1.19841 -5.28061
  304 346.238 -1.17733 5.24380
  305 378.966 -34.0313 61.3787
  306 544.878 -0.954640 -52.8074
  307 585.283 -24.2545 -19.3499
  308 449.762 -26.8347 -12.4606
  309 449.508 -26.8983 12.6741
  310 532.504 -45.8470 85.2796
  311 534.267 -4.42941 17.5188
  312 643.536 4.40804 33.9123
  313 441.261 -15.4094 -7.01139
  314 441.297 -15.3645 6.97847
  315 403.871 -10.2600 -9.68691
  316 403.882 -10.1687 9.67575
  317 457.885 6.34656 -23.5685
  318 580.153 42.5601 -50.1614
  319 886.021 240.480 -117.016
  320 527.140 -5.02470 -1.29772
  321 526.866 -4.96089 1.34075
  322 286.455 -1.01758 116.572
  323 401.450 -17.8454 -20.3458
  324 400.742 -17.7948 20.4009
  325 286.397 -1.71010 -116.124
  326 554.794 65.3760 -43.3181
  327 616.739 30.8521 35.6415
  328 532.231 -37.9494 -94.3488
  329 492.740 -19.1187 3.26878
  330 492.260 -18.9900 -3.06664
  331 524.350 -11.1883 -8.57934
  332 497.455 -0.890957 -27.6034
  333 554.513 2.27407 51.4413
  334 551.062 -4.10190 -9.54996
  335 337.820 -20.1159 46.9274
  336 337.451 -20.2216 -47.2610
  337 517.682 -1.13275 49.0466
  338 325.762 -2.49007 -10.2596
  339 325.966 -2.46726 10.1752
  340 528.385 -12.4289 13.9486
  341 634.483 129.096 -19.9228
  342 524.135 -11.2617 8.92736
  343 560.824 70.2374 43.3761
  344 536.035 -10.0615 50.2889
  345 427.658 -7.90644 2.23479
  346 427.655 -7.95099 -2.24711
  347 509.075 -1.76639 -43.5790
  348 669.208 140.340 11.0492
  349 559.991 102.128 0.897666
  350 342.346 39.5908 -172.375
  351 38.0300 15.6161 -24.9774
  352 41.4160 16.9152 26.7458
  353 -1.01151 4.37151 9.66638
  354 0.950334 2.71079 -10.1582
  355 960.647 66.7192 22.5620
  356 463.586 -37.4014 -14.9375
  357 528.738 -12.0297 -13.5980
  358 478.941 -8.61598 0.250209
  359 478.886 -8.55260 -0.254117
  360 514.711 56.8731 -22.3139
  361 438.284 -44.3935 40.3390
  362 39.8948 59.7891 -44.9267
  363 438.641 -44.3686 -41.0161
  364 521.167 59.2706 23.7369
  365 528.276 -14.2996 -25.3540
  366 559.228 -31.3661 -29.3175
  367 598.644 125.509 8.15063
  368 560.304 -35.1815 23.4654
  369 239.391 -5.76413 37.2552
  370 238.055 -5.65092 -37.4705
  371 137.086 3.11761 -52.2885
  372 138.399 2.60318 52.0650
  373 464.655 1.76749 23.7888
  374 859.814 254.611 103.779
  375 545.079 -3.67199 -12.3721
  376 427.830 -35.7462 -31.0681
  377 427.523 -35.6705 31.0295
  378 525.738 -12.2794 -32.6218
  379 594.827 -28.7333 -0.280172
  380 463.570 -37.3742 15.3349
  381 649.671 6.18971 -58.4783
  382 377.589 -2.86085 -1.97332
  383 377.651 -2.83747 1.96202
  384 518.120 -3.08897 -21.0758
  385 285.863 -3.94167 -24.2471
  386 286.024 -4.07291 23.9692
  387 615.971 78.8689 -41.2866
  388 334.749 23.4443 160.456
  389 484.190 -25.3812 0.341542
  390 484.654 -25.3420 -0.359753
  391 569.583 95.9781 -27.2415
  392 537.829 -16.0501 -47.3824
  393 536.798 -55.0236 48.1908
  394 451.768 -11.9561 -3.65098
  395 451.723 -11.9053 3.62278
  396 518.465 -40.0772 14.4336
  397 555.913 -2.87412 7.04489
  398 354.132 -12.5302 -28.7233
  399 354.277 -12.5361 28.5000
  400 528.548 17.7984 -52.4294
  401 497.368 -11.0562 1.74426
  402 497.341 -11.0856 -1.68580
  403 516.075 -6.14434 39.8028
  404 484.252 35.5202 10.8165
  405 533.385 -22.6799 41.0052
  406 765.699 159.501 30.7527
  407 262.739 -14.0764 -74.8365
  408 263.440 -14.0768 74.3034
  409 118.304 62.4972 -91.1405
  410 566.887 -1.95719 1.81629
  411 298.092 -2.35002 -15.3701
  412 298.465 -2.30035 15.2494
  413 526.072 -13.8818 31.8559
  414 477.483 -51.7198 27.8132
  415 536.584 -7.04935 6.04476
  416 549.614 27.8663 54.3203
  417 123.682 66.5452 94.7441
  418 478.159 -51.4081 -25.7808
  419 493.829 -45.8242 -7.34205
  420 167.443 -3.33533 -47.1629
  421 168.587 -3.45208 46.8574
  422 380.494 -30.8002 -112.603
  423 565.582 -8.58050 44.6513
  424 379.185 -31.2186 111.664
  425 523.269 -29.5245 -25.6583
  426 490.584 33.3367 -23.5914
  427 523.314 -22.8099 24.5367
  428 559.774 -2.79357 -4.62156
  429 18.1303 20.0319 10.0187
  430 116.285 136.308 133.754
  431 506.358 -1.84192 20.4509
  432 430.512 6.16650 10.3836
  433 437.414 7.44945 -14.0512
  434 373.219 -5.88879 -10.1435
  435 373.267 -5.81587 10.0859
  436 515.898 -40.0442 -13.0042
  437 522.538 -10.3206 -44.3927
  438 432.624 8.42873 -3.81432
  439 764.872 182.725 42.0872
  440 110.330 35.6294 -68.4855
  441 121.246 32.6827 72.9369
  442 483.740 -17.3132 0.677202
  443 483.566 -17.2814 -0.557844
  444 643.858 141.019 -1.46895
  445 396.215 171.650 252.737
  446 615.413 -8.18820 -3.72974
  447 360.924 -18.4193 -38.9594
  448 361.101 -18.3005 38.6566
  449 364.390 -7.81937 15.6133
  450 364.314 -7.87332 -15.7393
  451 487.521 11.0515 -38.2030
  452 569.541 -1.06962 -1.17496
  453 475.016 22.0904 21.5585
  454 593.564 73.2083 45.7354
  455 494.927 -36.6981 -2.05939
  456 536.331 -6.73618 -5.88705
  457 561.930 -2.55681 4.25305
  458 567.844 -1.15625 0.668054
  459 568.247 -1.27267 -0.468239
  460 324.448 -0.498067 3.83881
  461 324.285 -0.505939 -3.87405
  462 540.205 -34.5145 31.0360
  463 492.046 19.6246 37.0116
  464 512.443 2.14262 -47.9460
  465 531.974 -11.5035 18.5701
  466 753.752 135.012 -155.007
  467 533.779 -29.7818 -35.3635
  468 6.97144 10.4053 5.29514
  469 6.84985 10.6452 -2.64704
  470 426.311 -23.7849 17.9778
  471 424.956 -23.4501 -17.7357
  472 655.874 14.8005 85.3255
  473 185.738 174.130 -193.564
  474 527.668 -1.71941 15.6995
  475 592.639 -34.2117 -50.1087
  476 323.649 -18.2840 54.1914
  477 638.748 113.425 -28.7307
  478 526.180 -28.6511 29.4005
  479 444.514 -20.9955 -9.57933
  480 444.899 -20.6577 9.55990
  481 464.550 2.58746 -20.9861
  482 322.670 -18.2042 -54.4926
  483 475.484 0.342653 21.0366
  484 451.382 -51.7271 -70.8699
  485 450.279 -51.8057 71.1728
  486 542.286 -3.78561 13.6912
  487 497.864 47.0956 4.46492
  488 497.374 9.63497 174.139
  489 733.938 148.168 -0.922478
  490 508.741 -8.91686 2.38185
  491 508.762 -8.88673 -2.49522
  492 396.921 -6.80009 -6.60618
  493 396.956 -6.74698 6.58587
  494 210.983 9.18042 98.4987
  495 528.685 -25.6315 -34.8283
  496 480.404 -10.6176 -0.341946
  497 480.356 -10.5855 0.349189
  498 419.692 -44.2307 57.9456
  499 214.933 12.2050 -100.938
  500 528.790 -43.2380 -14.9870
  501 9.87287 3.51244 2.81103
  502 468.391 24.5140 1.59817
  503 510.381 -6.29371 -0.749340
  504 510.376 -6.37129 0.725043
  505 419.887 -44.1423 -58.3744
  506 593.129 -30.0332 62.7077
  507 591.146 21.4963 46.0115
  508 544.151 -4.09433 -2.81394
  509 527.185 -43.8320 15.2660
  510 339.596 -0.234636 -0.721467
  511 339.684 -0.231888 0.716584
  512 527.313 -20.3946 -37.5320
  513 513.561 38.0757 40.3227
  514 584.076 14.4683 -45.5148
  515 337.521 -0.443902 -2.16856
  516 337.620 -0.437218 2.15571
  517 1000.58 144.703 -128.634
  518 533.745 63.4496 35.3436
  519 544.578 -3.81849 2.49052
  520 494.878 -46.8467 8.55005
  521 419.741 -13.6164 10.0955
  522 419.728 -13.7137 -10.0750
  523 573.216 -35.0823 10.8866
  524 552.834 -11.1931 -47.5527
  525 618.670 121.307 24.8675
  526 516.808 8.96670 49.7601
  527 517.961 -10.3085 5.13994
  528 502.750 -53.9001 -68.8859
  529 523.813 -13.1101 37.3242
  530 987.575 45.5164 -17.9533
  531 568.816 -43.0290 3.30125
  532 540.786 -4.00033 -0.584652
  533 540.919 -4.22695 0.484038
  534 997.882 66.9049 62.6130
  535 504.546 -0.0891514 42.3288
  536 697.581 119.084 -5.38644
  537 527.402 -14.6257 -17.8529
  538 246.967 -2.19997 -16.5624
  539 247.668 -2.09287 16.4043
  540 360.826 -33.6784 -78.3336
  541 361.143 -33.1174 77.7804
  542 517.669 -9.90488 -5.10782
  543 564.345 20.6867 -52.4159
  544 496.351 -33.7529 3.97435
  545 535.997 61.4001 -36.5995
  546 536.799 -6.49506 18.4075
  547 667.341 35.0872 -13.4685
  548 461.753 -15.7707 -3.60274
  549 461.626 -15.7252 3.57099
  550 499.716 -23.6702 6.38055
  551 729.722 146.913 -17.4052
  552 528.114 23.1330 51.6393
  553 227.539 58.3172 145.083
  554 505.509 -30.2405 117.642
  555 661.478 35.5110 -130.438
  556 539.786 44.6409 -47.9041
  557 475.833 -41.3727 -102.212
  558 515.815 -56.6706 -23.0001
  559 537.589 -54.6565 -32.4122
  560 72.5981 95.9884 -90.7810
  561 540.671 -7.19863 -10.8933
  562 808.345 156.786 -47.7819
  563 502.276 -22.7488 -7.40783
  564 506.122 -16.6822 6.14000
  565 505.663 -16.3184 -5.84429
  566 356.857 -1.87647 -4.83264
  567 356.940 -1.85240 4.80510
  568 54.2918 5.13989 -29.2667
  569 56.9499 5.39962 29.9176
  570 266.229 -12.1379 -56.9717
  571 268.161 -12.2078 56.9118
  572 513.145 -27.9455 -15.4441
  573 521.618 -56.9078 24.6814
  574 536.099 -51.0860 -0.427292
  575 443.640 -7.82798 -1.90068
  576 443.620 -7.77746 1.89201
  577 419.184 -44.1234 -87.3995
  578 466.993 -38.5323 107.946
  579 409.395 -41.5238 87.8410
  580 528.791 -11.8295 -47.6019
  581 338.221 -5.36338 17.3616
  582 338.056 -5.41737 -17.4905
  583 506.751 28.1794 -40.5581
  584 506.661 -0.897861 -18.5553
  585 629.949 135.753 -10.9195
  586 415.780 -6.14506 -1.78496
  587 415.798 -6.10784 1.77767
  588 537.170 -1.67107 -10.2733
  589 376.711 -12.3496 -19.5037
  590 376.735 -12.3118 19.3507
  591 305.502 13.6104 138.355
  592 522.826 -24.2301 -24.7699
  593 295.631 -15.8883 99.5693
  594 513.823 -26.7605 15.8570
  595 539.407 -7.94638 12.0933
  596 532.125 -5.28914 -2.42939
  597 381.621 -4.50370 -4.58433
  598 381.677 -4.46877 4.56445
  599 604.640 120.079 -22.6506
  600 295.411 -15.3287 -99.9077
  601 512.076 -22.3523 -12.4692
  602 463.876 -8.70910 -1.06750
  603 463.831 -8.65089 1.06357
  604 856.413 114.835 -20.6568
  605 314.907 -1.89591 9.52174
  606 314.646 -1.91384 -9.60214
  607 482.131 11.2643 34.9132
  608 676.621 58.5029 -1.79849
  609 325.081 1.73410 -137.216
  610 170.335 3.90798 -75.5145
  611 171.662 2.99164 75.1203
  612 409.093 -23.4745 24.4774
  613 413.151 -24.1673 -23.8591
  614 686.845 138.853 7.28862
  615 530.077 -5.46677 2.15100
  616 462.632 13.3185 -21.1524
  617 571.135 102.140 21.5611
  618 569.269 105.959 -14.3500
  619 467.749 -25.7872 -5.69956
  620 471.173 -25.2303 4.06233
  621 334.109 73.4691 -196.222
  622 405.206 -13.5439 -13.7869
  623 405.249 -13.3957 13.7480
  624 996.502 204.358 154.061
  625 527.763 -17.4249 40.7171
  626 307.930 -10.5699 -36.4721
  627 803.664 195.684 134.732
  628 308.616 -10.5160 36.3512
  629 501.111 -18.9079 -136.768
  630 363.103 -1.62042 -1.77738
  631 363.178 -1.60661 1.76967
  632 447.248 4.19101 18.4699
  633 207.667 -2.97612 -32.6894
  634 208.718 -2.98443 32.4523
  635 461.877 -32.4768 11.8098
  636 483.403 -38.5910 -5.22805
  637 565.115 -1.39032 -3.97028
  638 329.657 -0.461960 2.87112
  639 329.526 -0.470643 -2.89687
  640 437.336 -9.78069 -3.09050
  641 437.325 -9.73144 3.07205
  642 497.021 -55.3556 69.4980
  643 572.891 63.9157 -47.5285
  644 385.709 -17.5919 -25.0938
  645 385.462 -17.3009 24.9271
  646 453.666 -32.3642 -15.5407
  647 708.747 153.595 7.07364
  648 533.041 -51.7323 3.27704
  649 465.543 -11.2183 -1.95261
  650 465.479 -11.1698 1.95090
  651 635.235 70.0364 33.3509
  652 534.691 -7.96891 -19.9947
  653 478.045 -0.491890 -17.1100
  654 224.707 -7.70080 -71.8480
  655 225.343 -7.90128 71.2987
  656 452.278 -38.7520 -23.9985
  657 674.700 147.353 0.0164406
  658 527.017 71.2482 -15.9226
  659 354.839 -3.03528 -8.79390
  660 354.929 -2.99388 8.73217
  661 489.333 -14.0004 -1.00718
  662 489.426 -14.0087 1.10224
  663 897.049 116.796 51.6677
  664 572.261 -1.74197 0.998049
  665 555.548 -2.37795 6.95036
  666 553.638 -2.39072 -8.24413
  667 526.879 -49.1760 4.47136
  668 393.940 -4.40981 -2.28868
  669 393.985 -4.38066 2.27997
  670 565.391 90.2642 33.3540
  671 720.052 159.518 -12.6130
  672 399.566 -29.2694 -35.5408
  673 399.482 -28.9944 35.3807
  674 495.298 -50.9867 -13.3395
  675 524.588 31.2449 -48.6760
  676 616.455 1.90344 16.8121
  677 415.918 -7.57917 -4.72746
  678 415.938 -7.53477 4.71135
  679 359.747 -31.3485 -70.7034
  680 522.000 -50.5865 0.240862
  681 435.717 -48.2849 63.8949
  682 210.535 65.9648 -140.132
  683 408.490 -37.5496 49.3049
  684 493.009 0.143063 15.7279
  685 360.096 -31.0005 70.2599
  686 511.790 -22.7677 12.6229
  687 408.583 -37.3827 -49.7205
  688 423.776 5.74876 3.88966
  689 328.324 -8.51288 26.0525
  690 328.042 -8.51761 -26.2167
  691 435.882 -49.5320 -64.5849
  692 536.746 -35.5201 -29.9627
  693 492.979 -7.21649 -0.304590
  694 493.058 -7.28439 0.306393
  695 548.102 -35.1134 29.3516
  696 498.941 -52.1310 15.3946
  697 604.894 55.6161 44.6328
  698 546.967 -10.3876 49.3045
  699 526.361 -19.0898 29.5162
  700 506.445 41.7783 -30.7680
  701 604.886 101.459 35.4715
  702 523.023 -7.33221 -29.3019
  703 519.905 -17.4795 14.3669
  704 540.744 84.3833 8.58142
  705 529.483 -9.15912 25.2178
  706 168.955 115.530 147.204
  707 492.290 -56.7096 -41.3635
  708 569.884 10.2836 49.7810
  709 574.305 -17.8507 -33.9119
  710 570.126 -0.950023 2.11307
  711 525.682 -18.2964 -22.8930
  712 493.080 -57.1491 37.8406
  713 937.708 83.1634 -13.8449
  714 302.508 -1.20125 9.95285
  715 302.168 -1.21390 -10.0378
  716 532.118 -10.0016 -10.2505
  717 573.319 -0.740408 -2.08365
  718 451.518 -39.3876 24.1177
  719 539.950 -20.2445 44.4997
  720 808.892 197.962 -67.6757
  721 511.826 -37.1552 12.2779
  722 565.481 -37.3908 -15.3565
  723 520.077 -17.0281 -14.1290
  724 572.642 -1.19878 -0.594528
  725 528.406 -0.0925782 52.0954
  726 25.2325 26.6164 33.1773
  727 589.207 -21.8473 -91.1543
  728 643.038 38.9910 18.5365
  729 537.176 -55.0535 29.3734
  730 389.709 -9.07923 11.2421
  731 389.698 -9.20092 -11.2883
  732 491.127 262.486 -265.090
  733 548.283 -36.4424 -26.8315
  734 422.211 2.48173 -7.44155
  735 486.744 2.82242 33.9041
  736 529.900 -26.6733 35.3520
  737 507.898 -42.8023 4.50513
  738 525.591 -48.1356 -74.7228
  739 504.939 -39.9525 -5.57115
  740 593.013 -28.3366 -1.78528
  741 546.655 -4.81468 5.90495
  742 490.874 -29.4618 2.11157
  743 879.123 175.624 -94.8787
  744 522.130 -14.2576 11.2442
  745 519.403 8.58288 -51.0550
  746 440.346 -4.70969 153.360
  747 555.185 44.6349 51.6415
  748 477.774 -37.4731 7.60211
  749 372.215 -28.9447 -51.8465
  750 372.275 -28.8744 51.4577
  751 510.527 57.4594 -7.14085
  752 517.284 -6.03026 45.2792
  753 522.165 -12.5173 -38.2325
  754 491.415 -30.0798 -2.24641
  755 475.495 -42.4462 14.7985
  756 544.765 89.5236 -9.60963
  757 507.291 -43.9130 -2.51301
  758 508.637 -32.2620 12.1078
  759 514.361 -6.97340 1.68837
  760 514.652 -6.79917 -1.67045
  761 691.421 150.820 1.03037
  762 564.071 -48.1167 -21.1167
  763 527.243 -16.3672 22.8623
  764 546.738 -4.81227 -5.32526
  765 555.150 3.62340 -51.9536
  766 628.757 33.7006 -27.3408
  767 318.664 -0.232295 -4.69448
  768 318.868 -0.228180 4.65254
  769 4.90823 -8.55558 -5.92303
  770 538.419 -0.730254 9.49093
  771 496.986 -0.676441 -37.3501
  772 512.010 -4.81032 32.6296
  773 461.166 59.7415 223.144
  774 582.320 118.901 -1.15992
  775 416.097 -29.3732 28.1616
  776 77.9450 1.55243 -28.6241
  777 79.9325 1.12657 28.9191
  778 507.830 -3.59207 -36.9437
  779 417.141 -29.6530 -28.1681
  780 543.579 -5.27751 4.36486
  781 285.547 -11.9239 48.5681
  782 283.209 -11.8776 -48.5622
  783 522.074 -13.8568 -10.9410
  784 340.578 -8.26800 -22.7365
  785 340.746 -8.21756 22.5549
  786 543.083 -5.39573 -13.6722
  787 419.676 -10.9963 -8.08893
  788 419.698 -10.9303 8.09305
  789 592.287 -3.67074 -33.6599
  790 535.754 -5.66700 -51.9908
  791 280.477 -1.69432 -12.6180
  792 280.978 -1.67836 12.4825
  793 16.8445 6.89528 -17.8915
  794 19.1587 7.28476 18.7874
  795 440.883 2.20433 -13.4000
  796 488.660 -54.8925 -31.4908
  797 -5.45212 -3.71130 9.57326
  798 -4.83950 -4.49666 -9.59708
  799 508.185 -10.4941 3.74511
  800 550.074 -43.1064 -13.4183
  801 570.684 84.3362 -38.8030
  802 545.741 -4.77073 -4.16198
  803 1138.14 233.038 -213.652
  804 508.076 -10.4665 -3.69172
  805 760.583 143.952 12.9351
  806 545.035 15.8544 -54.3435
  807 599.820 45.4407 -45.8967
  808 107.531 -1.24334 -26.2570
  809 109.284 -1.39038 26.2151
  810 346.601 -4.76998 13.5876
  811 346.475 -4.80765 -13.6948
  812 332.930 -0.695634 2.56665
  813 332.819 -0.703184 -2.58450
  814 607.808 102.152 -35.0233
  815 366.406 -2.11111 -3.85387
  816 366.479 -2.08753 3.83567
  817 518.836 -5.21759 -47.3121
  818 735.491 80.2103 70.5553
  819 470.700 10.7919 -29.4051
  820 168.525 -1.45562 27.9202
  821 167.248 -1.46953 -28.1237
  822 594.021 18.4022 161.520
  823 531.654 -10.0819 10.5783
  824 481.432 32.2080 -12.2362
  825 228.351 -0.299053 18.9034
  826 227.292 -0.196386 -19.0309
  827 338.992 -1.58438 -6.70344
  828 339.120 -1.56164 6.64925
  829 61.6315 54.4799 48.5957
  830 500.270 12.0921 43.4507
  831 554.898 81.2979 -33.5399
  832 594.618 69.0975 -46.1414
  833 395.715 -14.5927 -17.8239
  834 395.508 -14.4935 17.8105
  835 616.917 130.393 15.6006
  836 529.892 -4.81855 -0.487156
  837 529.933 -4.78377 0.572010
  838 526.564 -15.9892 -29.9519
  839 443.414 -29.2428 17.2423
  840 485.815 -54.5654 31.5596
  841 567.219 -46.4561 48.7083
  842 440.065 -12.6407 -5.23861
  843 440.068 -12.6002 5.21073
  844 503.784 46.8161 19.8094
  845 474.703 6.70064 -31.7018
  846 131.595 162.785 153.103
  847 476.922 -42.0904 -13.6482
  848 478.715 -21.3701 -0.817776
  849 478.966 -21.4253 0.786701
  850 526.514 -7.82035 49.5230
  851 520.828 -34.3388 -20.8635
  852 466.835 -30.7054 -8.20345
  853 1034.88 33.4835 -50.3641
  854 444.245 -41.7330 32.2948
  855 443.866 -42.2594 -32.7795
  856 525.539 -6.38614 24.8754
  857 782.815 203.848 -50.9115
  858 417.833 -37.5761 -39.5414
  859 459.599 -51.5864 38.3323
  860 417.761 -37.1376 39.2172
  861 452.283 -18.0586 -6.23878
  862 452.282 -18.0067 6.20283
  863 69.8369 28.7686 42.0961
  864 564.518 42.1709 -51.9445
  865 434.930 -16.7522 -9.08105
  866 435.016 -16.5918 9.10991
  867 430.070 -7.04357 -1.11493
  868 430.068 -6.99966 1.10886
  869 470.517 -9.49171 -0.701109
  870 470.464 -9.43562 0.696309
  871 386.895 -7.30824 -9.67874
  872 386.935 -7.23008 9.64457
  873 436.336 -22.6441 -13.3686
  874 436.399 -22.5030 13.4280
  875 11.1956 -1.25001 -6.82532
  876 651.620 122.377 24.0254
  877 561.069 -19.8211 -40.2057
  878 459.171 -50.8294 -38.6954
  879 495.230 -16.1129 2.95769
  880 495.021 -15.9584 -2.83362
  881 540.293 0.602368 53.1464
  882 582.751 -41.5193 -29.1370
  883 513.881 38.8354 -194.207
  884 240.586 -4.29959 97.0383
  885 -6.51778 5.60675 -7.44022
  886 -5.42631 6.34062 8.12920
  887 69.4762 30.5886 -43.0145
  888 526.730 -15.4009 17.7003
  889 552.147 -3.90618 -7.37672
  890 497.388 -48.0760 85.0330
  891 240.036 -4.07765 -97.3983
  892 554.246 -45.5944 8.03715
  893 613.002 -16.9939 75.7314
  894 455.812 1.90304 14.1818
  895 518.311 49.3415 33.5886
  896 284.157 -15.8736 70.9902
  897 283.095 -15.9998 -71.4246
  898 340.343 -15.8070 -39.9177
  899 353.218 -17.7414 -123.271
  900 555.767 -13.1517 45.9426
  901 757.226 180.345 34.1595
  902 558.839 21.4173 52.9733
  903 528.131 -11.4499 -27.4610
  904 360.412 -15.8904 126.304
  905 670.187 124.164 -15.7741
  906 69.4091 58.3597 -59.5503
  907 491.718 -0.925940 -15.0024
  908 340.693 -15.6824 39.5927
  909 412.773 -8.90337 7.07192
  910 412.752 -8.95909 -7.08423
  911 521.556 -34.1517 21.6351
  912 539.094 -3.84226 1.55102
  913 398.334 3.42310 -152.670
  914 567.226 -1.39946 3.47561
  915 563.623 -1.16886 -4.53013
  916 431.550 3.88168 -12.3642
  917 546.757 -2.29173 -8.36872
  918 413.641 -18.9875 -16.7716
  919 413.915 -18.7144 16.8275
  920 -12.7234 5.25418 -7.20220
  921 -17.9579 3.17247 7.78666
  922 539.062 -3.59303 -1.60271
  923 185.027 -4.29428 65.5761
  924 184.011 -3.92331 -65.9248
  925 579.557 84.2956 40.7590
  926 1011.39 18.3593 15.4295
  927 546.636 60.6775 43.6333
  928 612.317 -21.0150 25.0262
  929 536.072 -30.0030 35.3789
  930 666.229 139.318 -12.0900
  931 423.023 1.99192 9.33109
  932 515.379 -12.4315 -6.37260
  933 537.725 28.9452 -52.8782
  934 643.019 20.0670 -4.87263
  935 503.302 -31.1208 -9.00697
  936 265.457 -1.38565 -14.0829
  937 265.692 -1.33596 13.8947
  938 530.263 -12.7052 -21.0584
  939 19.0390 23.6906 6.43413
  940 509.158 -52.8150 -8.60079
  941 448.292 13.6143 -1.27255
  942 662.374 144.732 -8.00023
  943 107.788 79.9394 -97.0155
  944 512.024 -3.82783 -29.2358
  945 360.268 -5.74558 -12.7779
  946 360.346 -5.68061 12.6826
  947 3.50359 -14.0389 10.5187
  948 351.039 -25.7647 -57.2640
  949 518.924 -30.1271 -20.3623
  950 332.160 0.721260 -1.08064
  951 332.254 0.724123 1.07448
  952 527.151 63.9221 -26.7890
  953 557.876 -1.98561 -0.695824
  954 557.911 -2.00490 0.930383
  955 351.214 -25.7028 56.9074
  956 526.296 -0.818849 -11.4546
  957 601.760 4.45713 32.0680
  958 534.465 -7.88047 8.05909
  959 89.6776 21.8318 -52.4109
  960 553.138 -3.63735 6.64860
  961 507.176 4.21540 46.3472
  962 534.751 73.8910 23.8135
  963 533.449 6.19305 -53.9635
  964 371.671 -19.4978 -34.5587
  965 572.648 -20.4611 32.5732
  966 371.917 -19.4311 34.2387
  967 18.3135 19.4624 -3.32973
  968 66.9495 10.8280 38.4858
  969 306.653 -5.19152 23.4466
  970 306.299 -5.19169 -23.5639
  971 515.748 -12.6486 6.77061
  972 557.626 96.5224 13.0269
  973 285.006 25.5782 -145.111
  974 466.027 -28.9112 7.33681
  975 437.586 -45.5358 -47.6136
  976 634.639 121.299 26.1122
  977 489.303 -8.86272 0.0956803
  978 489.281 -8.81918 -0.100678
  979 534.396 -10.1741 -14.8627
  980 499.300 43.2813 -18.2644
  981 1088.71 329.562 221.545
  982 108.497 5.69413 -49.8744
  983 110.024 4.72151 49.9682
  984 8.08798 -7.43036 4.04887
  985 500.417 27.9273 37.4922
  986 437.522 -45.8227 47.2874
  987 539.849 -25.6455 -40.7293
  988 586.950 47.9479 50.5012
  989 561.168 -45.3207 -58.8223
  990 817.075 171.608 59.2305
  991 480.824 -7.97955 -0.427641
  992 480.763 -7.91956 0.427278
  993 560.482 -23.0355 37.9169
  994 39.7114 71.4819 70.6597
  995 260.210 -5.26608 33.4715
  996 259.457 -5.19757 -33.7985
  997 307.994 -14.7102 45.9334
  998 306.978 -14.4762 -46.0840
  999 345.902 -13.8965 33.2168
  1000 378.166 -2.81497 -1.71392
  1001 378.228 -2.79517 1.70781
  1002 906.052 297.728 -192.305
  1003 831.318 208.769 89.2542
  1004 345.625 -13.9611 -33.4703
  1005 577.091 -2.75837 42.0014
  1006 520.704 54.0495 -32.2739
  1007 368.031 -31.8813 102.332
  1008 469.924 -55.5750 -56.6191
  1009 536.556 -4.55508 -16.5649
  1010 245.706 16.2262 118.578
  1011 315.052 -23.9975 81.7175
  1012 479.662 24.8592 -23.5740
  1013 543.107 -10.8656 -49.9778
  1014 671.717 291.917 300.564
  1015 454.773 14.1976 16.8646
  1016 611.353 130.682 -1.90668
  1017 446.080 18.0617 -173.158
  1018 457.355 -47.8971 -33.2796
  1019 573.556 -0.813120 -1.68331
  1020 556.503 51.0727 -50.2671
  1021 333.596 -1.99287 8.54876
  1022 333.439 -2.01275 -8.62015
  1023 12.6087 10.4428 -19.5763
  1024 372.221 -16.5882 -28.8810
  1025 314.658 -24.3025 -82.2918
  1026 371.969 -16.5585 28.5922
  1027 531.295 -16.2878 46.2449
  1028 477.363 -29.3871 -3.23393
  1029 503.310 9.39099 -44.9832
  1030 518.131 64.6665 9.42858
  1031 689.866 44.4437 31.4640
  1032 525.394 -40.0247 20.1965
  1033 337.077 -26.6215 -62.6513
  1034 499.483 17.8621 -42.2225
  1035 371.036 -31.4772 -102.816
  1036 706.191 152.031 -3.89608
  1037 486.683 32.1794 21.4470
  1038 605.887 -3.31261 -23.3292
  1039 460.165 -47.9348 30.8903
  1040 526.208 -16.8321 35.4602
  1041 522.288 -27.7064 24.4793
  1042 519.410 -26.2614 20.9715
  1043 638.999 81.7073 -34.4961
  1044 520.117 -8.47153 36.5512
  1045 469.257 -55.7287 55.7302
  1046 500.833 -20.6039 5.80010
  1047 337.294 -26.6796 62.3388
  1048 471.430 -34.5173 -8.79318
  1049 277.865 -13.6228 -87.3646
  1050 392.604 -40.6056 69.7639
  1051 528.908 -3.72235 -19.3837
  1052 516.416 -5.85778 -41.7902
  1053 448.012 -35.1206 -20.8664
  1054 278.329 -13.9919 86.7276
  1055 484.347 1.28773 -29.4596
  1056 362.023 -23.5881 -44.5623
  1057 646.386 136.810 16.0015
  1058 148.566 23.7863 -84.1884
  1059 1076.87 75.9569 102.233
  1060 262.577 18.8667 -123.934
  1061 519.104 -43.0752 -11.0865
  1062 362.136 -23.3963 44.2284
  1063 479.626 5.27667 33.0610
  1064 274.037 -5.35642 27.7268
  1065 273.917 -5.48694 -27.9903
  1066 526.570 -14.7418 -42.9540
  1067 555.592 -3.11824 2.52284
  1068 547.166 -1.34972 8.42508
  1069 543.293 17.9757 54.2999
  1070 509.674 -3.82910 39.3910
  1071 392.546 42.3767 187.059
  1072 576.918 -0.570545 0.763237
  1073 548.143 74.0773 34.7004
  1074 467.693 6.99602 28.5675
  1075 553.329 -2.23712 8.03628
  1076 363.832 -3.67187 -7.22179
  1077 363.905 -3.63108 7.18134
  1078 234.036 -6.46111 -46.3213
  1079 234.883 -6.69542 46.0372
  1080 469.242 23.6977 12.0175
  1081 691.234 39.7631 -56.7961
  1082 635.370 1.13233 -101.292
  1083 514.667 -0.502194 -11.9551
  1084 392.702 -40.9024 -70.2675
  1085 448.961 -33.4083 18.8597
  1086 517.433 -1.22343 12.4649
  1087 539.150 -39.2840 -24.1230
  1088 345.053 -0.672015 4.25056
  1089 344.957 -0.684748 -4.27372
  1090 518.132 -44.3077 11.0716
  1091 493.067 -10.3133 0.627188
  1092 492.984 -10.3258 -0.599900
  1093 480.126 -48.2143 20.6846
  1094 613.466 -19.4735 -11.6432
  1095 288.050 -0.473397 -7.87203
  1096 288.487 -0.456879 7.79606
  1097 421.106 -26.9937 -117.822
  1098 450.208 -10.7128 3.05468
  1099 450.244 -10.7657 -3.07582
  1100 270.809 148.314 205.622
  1101 618.433 51.1086 -39.8859
  1102 94.6873 45.2103 -64.7842
  1103 534.700 -8.29358 -7.77358
  1104 146.918 49.3969 -96.6464
  1105 303.616 -18.7881 -59.3494
  1106 576.759 -0.798283 0.524123
  1107 576.945 -0.759198 -0.376605
  1108 527.549 -30.2572 -30.0570
  1109 466.957 -52.6009 -76.8576
  1110 148.693 20.2517 80.2203
  1111 574.377 56.7801 48.4298
  1112 519.684 -5.62684 -0.614346
  1113 519.751 -5.62877 0.659807
  1114 564.752 -35.9055 93.5127
  1115 589.292 117.280 18.4027
  1116 355.361 -8.24278 -18.1781
  1117 355.457 -8.20772 18.0638
  1118 267.622 30.0956 146.578
  1119 502.003 2.65779 -43.4700
  1120 159.972 50.7652 103.659
  1121 635.369 -10.0095 -35.1562
  1122 630.355 138.163 5.30536
  1123 435.608 -34.0993 24.8528
  1124 408.347 2.35175 -1.82149
  1125 547.843 -5.04247 10.0653
  1126 565.890 -0.857726 3.90199
  1127 131.689 0.188985 -23.4337
  1128 133.291 0.131142 23.2852
  1129 454.086 7.85473 -21.2104
  1130 463.665 -13.6194 -2.72980
  1131 463.569 -13.5641 2.71776
  1132 49.6727 85.2209 -75.3517
  1133 77.8970 179.220 -147.125
  1134 469.287 -18.2865 2.71877
  1135 469.452 -18.2754 -2.74957
  1136 484.124 -11.8086 0.532409
  1137 484.057 -11.7893 -0.497091
  1138 129.563 82.4034 104.771
  1139 387.027 -4.58311 -3.55825
  1140 387.079 -4.55218 3.54397
  1141 484.349 36.8310 -0.483497
  1142 602.613 81.4693 -215.329
  1143 586.276 100.742 -31.5851
  1144 534.182 -20.6236 -43.4304
  1145 526.020 -26.3832 -30.7513
  1146 435.812 -34.4068 -25.2474
  1147 442.797 1.54832 13.0915
  1148 494.450 31.0240 -31.3680
  1149 487.922 26.4507 30.0174
  1150 500.517 -20.0203 -5.67630
  1151 478.543 -28.8101 2.86323
  1152 436.660 -27.8744 -18.9254
  1153 518.255 -3.10459 23.1949
  1154 899.852 90.6122 12.5429
  1155 521.461 -11.1878 42.2045
  1156 524.358 34.4530 46.7903
  1157 482.331 -47.3192 -16.2007
  1158 63.6953 9.92870 -37.1627
  1159 491.361 -22.7798 -3.39592
  1160 334.469 -0.437941 -0.231515
  1161 334.556 -0.435940 0.229531
  1162 595.165 -15.7793 19.3671
  1163 566.989 -47.8227 24.6001
  1164 811.471 144.578 36.6452
  1165 203.105 -0.346659 -19.3938
  1166 204.205 -0.304238 19.2599
  1167 441.045 -8.87846 -2.37382
  1168 441.029 -8.82815 2.35952
  1169 492.734 -43.3829 -4.09483
  1170 411.793 1.98713 5.97602
  1171 504.378 -35.9259 8.23875
  1172 29.9726 35.5890 -18.7587
  1173 93.6137 45.8753 63.2962
  1174 339.736 -18.8186 113.804
  1175 584.429 110.773 -22.5860
  1176 555.239 -1.62359 -6.35970
  1177 579.079 -1.01462 0.315008
  1178 579.581 -1.34706 -0.178748
  1179 346.948 -0.700933 -0.725294
  1180 347.033 -0.695090 0.720757
  1181 538.799 34.4201 52.8759
  1182 789.072 133.834 -2.86529
  1183 555.666 91.5262 -23.3757
  1184 414.556 -30.7914 117.084
  1185 337.944 -18.1367 -113.575
  1186 377.136 -24.8197 -40.1194
  1187 516.139 -14.6727 8.83566
  1188 717.166 158.806 10.9625
  1189 377.187 -24.6813 39.8301
  1190 526.689 -9.52555 6.68204
  1191 475.830 17.9203 28.6905
  1192 521.383 16.2173 50.9906
  1193 736.158 164.122 21.1863
  1194 441.815 -11.4418 4.38315
  1195 441.831 -11.4910 -4.40876
  1196 533.794 -10.3039 15.4566
  1197 324.114 -3.29068 13.3278
  1198 323.892 -3.32296 -13.4370
  1199 521.875 -7.43764 -2.76156
  1200 216.654 129.997 -199.519
  1201 452.061 -25.6423 -125.429
  1202 430.225 -13.2966 -7.71608
  1203 430.274 -13.2422 7.71932
  1204 557.627 -2.90009 2.33963
  1205 529.561 -7.27672 5.31655
  1206 30.2532 39.0412 29.2933
  1207 573.551 -0.750030 1.98208
  1208 70.4316 90.8700 90.1125
  1209 517.736 -8.06138 -3.59938
  1210 -0.469370 -12.4508 -10.9502
  1211 369.099 -36.0649 -88.2479
  1212 368.145 -35.2007 87.3980
  1213 573.524 -1.10599 -2.21219
  1214 494.386 -26.1056 -4.22919
  1215 557.310 -2.67589 -2.34969
  1216 451.001 -14.5061 -4.51452
  1217 450.965 -14.4601 4.47486
  1218 521.551 -7.39088 2.57395
  1219 491.016 -22.3270 3.36088
  1220 473.151 -15.2645 1.24899
  1221 473.308 -15.2986 -1.19776
  1222 556.764 -2.75510 -1.90375
  1223 482.550 -51.0131 -86.4640
  1224 545.425 -3.71573 -1.89422
  1225 519.855 -8.27248 3.92909
  1226 369.431 -3.83260 -5.41290
  1227 369.499 -3.79627 5.38566
  1228 410.101 -5.89068 -2.90541
  1229 410.128 -5.85335 2.89320
  1230 655.194 102.663 28.0484
  1231 551.263 -42.5544 16.7649
  1232 379.609 -2.00322 144.342
  1233 311.555 -0.452278 5.12302
  1234 311.302 -0.457479 -5.16918
  1235 524.260 -9.79007 31.5256
  1236 501.014 -7.86952 0.512158
  1237 501.029 -7.84568 -0.511950
  1238 575.471 111.400 10.6188
  1239 523.534 -54.9544 69.4202
  1240 311.098 -4.20762 18.5929
  1241 310.805 -4.23739 -18.7165
  1242 500.453 -12.4250 2.73511
  1243 500.340 -12.5139 -2.62978
  1244 515.852 -14.5065 -8.47997
  1245 478.816 0.129099 15.2326
  1246 813.196 202.384 -70.2996
  1247 525.859 -19.4145 -27.2372
  1248 93.6451 21.5729 53.8084
  1249 542.862 -29.0877 37.5992
  1250 442.618 9.95637 -11.6160
  1251 35.5165 25.0601 20.4487
  1252 709.214 81.4104 -12.6240
  1253 530.678 -24.2553 -38.4559
  1254 444.607 6.55306 17.8097
  1255 305.677 -18.8262 59.2796
  1256 538.267 -41.8132 21.1613
  1257 773.821 152.669 54.1403
  1258 184.544 26.6228 101.755
  1259 540.394 -6.69940 -13.3577
  1260 1019.20 11.5308 -10.1051
  1261 1051.59 15.6846 44.7894
  1262 1120.55 37.5236 -106.881
  1263 525.589 -16.5538 -34.4295
  1264 525.195 -24.1239 28.7430
  1265 533.190 -38.0920 25.9918
  1266 -15.5869 1.93777 9.77276
  1267 -14.1386 1.59306 -10.6923
  1268 518.311 -57.4358 -34.0097
  1269 530.283 -53.7828 -49.6513
  1270 414.549 2.76080 -7.36658
  1271 515.995 -58.4295 49.3723
  1272 551.940 -26.3153 -38.0454
  1273 12.1538 17.0482 3.09850
  1274 451.465 -8.27652 1.50578
  1275 451.494 -8.33060 -1.50972
  1276 547.315 -4.65870 8.97566
  1277 526.624 -9.36442 -6.24350
  1278 497.000 -54.2384 -19.1426
  1279 455.878 -24.4752 8.87781
  1280 453.657 -24.1217 -9.48194
  1281 532.358 -11.4678 21.6535
  1282 545.741 -20.1749 -44.4954
  1283 36.8230 26.1264 -19.9722
</Section>

newXOutput 73

<Section columns = "stress_xx | stress_yy | stress_xy">
  1 589.924 -0.243414 1.08097
  2 589.922 -0.231293 -1.08349
  3 334.136 -0.0748591 -0.389500
  4 -4.17783 -4.12038 -6.00957
  5 1036.38 428.919 337.226
  6 1027.00 443.776 -334.992
  7 -4.85635 -3.90433 6.40971
  8 334.048 -0.0759618 0.388585
  9 593.796 -1.04188 0.308850
  10 592.695 -1.62442 -0.341835
  11 591.598 -1.13503 1.19485
  12 590.471 -1.51743 0.246672
  13 588.020 -1.29613 1.87833
  14 585.769 -1.29970 1.31645
  15 580.255 -1.14388 2.72392
  16 572.157 -0.870545 4.03580
  17 564.987 -0.884590 4.54314
  18 554.161 -1.16200 5.54673
  19 538.922 -0.157364 8.27208
  20 524.851 -0.853100 7.92478
  21 508.552 -1.06432 11.2465
  22 485.042 0.744078 9.84608
  23 467.811 1.18759 11.6930
  24 445.310 1.96223 9.19749
  25 429.648 2.15405 9.29590
  26 406.972 2.92949 4.75369
  27 402.150 4.59798 5.11347
  28 399.228 3.81928 -1.51701
  29 403.172 2.29864 -3.30485
  30 410.456 2.17210 -4.06098
  31 427.454 2.69324 -8.08886
  32 443.971 2.13003 -10.1868
  33 468.018 0.536894 -12.0499
  34 487.223 -0.220755 -10.9005
  35 507.538 -0.840810 -10.6410
  36 525.850 -0.672051 -7.47174
  37 541.435 -0.725293 -6.34148
  38 554.167 -1.14306 -5.27573
  39 565.467 -0.845109 -3.61158
  40 572.388 -1.03245 -3.80301
  41 579.083 -1.22088 -2.76593
  42 585.302 -1.42880 -1.13304
  43 588.454 -1.16474 -1.38754
  44 589.987 -0.764766 -0.833073
  45 588.494 -0.496810 -0.763046
  46 593.233 -1.62125 0.247416
  47 593.947 -1.07831 -0.318045
  48 575.885 -0.685504 -0.670180
  49 563.864 -2.71634 -1.26114
  50 549.053 -3.91682 -0.745410
  51 530.910 -5.63664 -1.04259
  52 513.602 -6.11243 -1.25532
  53 495.050 -7.47260 -1.20807
  54 478.558 -8.20730 -0.610560
  55 464.088 -9.03854 -0.152252
  56 447.363 -7.46183 -0.132288
  57 428.080 -6.89973 -0.329289
  58 409.516 -5.37753 -0.0150125
  59 391.952 -3.35958 0.0432184
  60 375.291 -2.34411 0.103470
  61 360.728 -1.13704 0.214551
  62 345.904 -0.255462 -0.439415
  63 334.267 0.479987 0.636043
  64 328.978 1.24655 0.456755
  65 332.343 0.0400307 1.02989
  66 328.122 -0.130729 1.25499
  67 324.104 -0.212380 1.56047
  68 318.708 0.00861256 2.00584
  69 311.915 0.00822892 2.50680
  70 306.702 -0.334532 4.74673
  71 292.532 0.424476 5.16649
  72 282.435 -0.00510370 5.86779
  73 267.406 -0.229469 6.66969
  74 250.151 -0.403030 8.10381
  75 228.557 -0.0724792 9.84168
  76 202.239 0.137214 10.8822
  77 179.232 -0.190731 15.5695
  78 134.262 1.41465 14.7611
  79 103.290 1.21717 15.6450
  80 65.8663 -0.323067 17.4510
  81 34.4779 2.79030 18.2811
  82 -1.41477 4.24039 11.2410
  83 -27.8951 4.32477 4.30661
  84 -28.0427 4.24810 -1.03820
  85 -27.6251 3.56435 -8.16596
  86 -16.3440 -1.01791 -7.89193
  87 -1.91527 -15.6879 -8.74292
  88 1.68824 -28.7008 -10.7721
  89 4.48043 -44.4479 -5.49859
  90 9.82383 -43.7124 1.58704
  91 20.5970 -4.57744 28.5142
  92 60.4120 102.868 92.9959
  93 343.629 340.027 303.479
  94 1258.01 189.708 208.437
  95 1137.71 27.0295 67.3353
  96 1061.38 11.3384 20.6064
  97 1033.27 9.69769 1.55025
  98 1048.40 12.8173 -17.9468
  99 1135.67 25.3344 -53.3477
  100 1328.39 91.4924 -178.292
  101 205.201 350.149 -254.961
  102 45.1911 77.6919 -77.6678
  103 22.5512 -2.31306 -30.5745
  104 9.21951 -43.3763 -6.15712
  105 2.75254 -33.5254 6.25094
  106 3.35484 -36.2514 9.28750
  107 0.209305 -13.4982 9.69196
  108 -17.0775 -0.605818 7.45856
  109 -28.4956 2.67670 7.09451
  110 -29.5562 5.15331 1.18953
  111 -28.7686 4.24598 -4.03279
  112 -3.46093 4.34533 -10.5625
  113 32.6979 2.81384 -17.4479
  114 64.0547 -0.0219486 -17.1662
  115 101.413 1.31497 -15.6737
  116 132.558 1.45038 -14.8675
  117 177.911 -0.197159 -15.6925
  118 201.111 0.151055 -10.9814
  119 227.570 -0.0692483 -9.95927
  120 249.650 -0.449328 -8.15863
  121 266.720 -0.215910 -6.68404
  122 281.911 0.0129537 -5.92469
  123 292.100 0.419723 -5.21893
  124 306.387 -0.338063 -4.79110
  125 311.660 0.00593506 -2.53391
  126 318.510 0.00640570 -2.02806
  127 323.949 -0.216054 -1.57802
  128 327.999 -0.133879 -1.26719
  129 332.238 0.0373751 -1.03763
  130 328.883 1.24534 -0.460307
  131 334.177 0.479358 -0.638291
  132 345.817 -0.258452 0.438334
  133 360.647 -1.14456 -0.217250
  134 375.221 -2.36052 -0.106607
  135 391.898 -3.38236 -0.0462219
  136 409.483 -5.41041 0.0120006
  137 428.071 -6.94149 0.326887
  138 447.380 -7.51037 0.129719
  139 464.125 -9.09340 0.151005
  140 478.610 -8.26221 0.612316
  141 495.127 -7.52258 1.21373
  142 513.670 -6.14660 1.27564
  143 530.965 -5.66725 1.14122
  144 549.155 -3.72210 0.761688
  145 564.253 -2.65211 1.23286
  146 575.995 -0.775415 0.659505
  147 519.386 -48.8314 -0.325317
  148 518.928 -48.1678 0.506995
  149 547.833 78.5245 -25.1864
  150 580.931 34.1959 52.4525
  151 440.416 -42.6474 -99.0362
  152 444.046 -42.5683 95.9513
  153 431.158 -18.0086 12.7479
  154 431.183 -18.2503 -12.7529
  155 613.962 22.3305 -38.2696
  156 518.037 -18.8336 9.48325
  157 517.812 -18.3938 -9.37055
  158 669.419 148.263 5.33170
  159 531.935 -0.836388 -52.0892
  160 396.229 -30.7582 -44.6524
  161 396.265 -30.5117 44.2883
  162 532.404 -12.1351 46.6517
  163 508.511 37.2565 31.4640
  164 212.006 33.3082 -118.341
  165 234.423 31.6166 124.592
  166 645.772 8.12023 -0.00575638
  167 532.929 -20.5984 -31.6753
  168 703.013 154.339 1.20478
  169 481.138 -13.6525 -1.03757
  170 481.043 -13.6171 1.07448
  171 537.291 -6.87021 -4.07277
  172 538.863 -6.21678 3.49494
  173 382.930 -5.25801 -7.30261
  174 382.985 -5.20560 7.27014
  175 573.669 -14.1814 126.015
  176 492.969 20.6791 -33.9397
  177 324.008 -24.0672 -70.8303
  178 324.958 -23.8954 70.4037
  179 364.777 -11.6073 -23.3944
  180 364.820 -11.4787 23.2381
  181 535.345 -14.2489 26.9532
  182 487.570 -33.3521 -3.38609
  183 485.928 -33.1045 4.11475
  184 551.448 -53.5493 -12.9920
  185 554.415 -51.0178 6.19432
  186 759.620 179.205 -30.5707
  187 558.325 89.3126 23.4844
  188 557.926 34.2642 -53.3494
  189 571.151 -3.58074 -145.743
  190 552.096 -31.3422 -35.7432
  191 556.922 -22.4345 42.7032
  192 465.487 -52.7825 49.6888
  193 465.541 -52.3970 -49.5536
  194 500.613 6.50583 40.6386
  195 232.161 -5.91608 -86.8952
  196 232.694 -6.38041 86.3964
  197 853.011 127.186 18.7030
  198 523.409 -31.2852 18.5766
  199 542.047 -10.2137 -17.2755
  200 433.866 -10.4617 -5.98961
  201 433.881 -10.4138 5.97377
  202 522.786 -6.83754 -36.0997
  203 593.970 87.0492 -41.9864
  204 500.720 45.1403 -6.29007
  205 329.432 -11.3255 32.5863
  206 328.949 -11.3568 -32.8079
  207 549.126 -6.41195 9.15964
  208 538.047 10.1330 53.6466
  209 438.871 -31.5983 -22.5049
  210 436.085 -29.9090 22.9311
  211 631.451 93.7602 37.0882
  212 736.410 104.182 23.4244
  213 52.9029 40.5176 -34.9761
  214 49.0046 37.4517 29.8306
  215 306.852 88.7413 206.162
  216 518.252 -34.5007 -13.5736
  217 550.928 -6.15292 -8.26186
  218 495.274 4.50707 -37.4480
  219 351.907 -3.29814 -10.4189
  220 352.024 -3.26181 10.3373
  221 468.172 -21.8359 -5.83406
  222 468.392 -21.9796 5.57386
  223 526.911 -7.16704 30.5938
  224 601.640 -34.6881 17.9671
  225 602.579 122.383 -11.9898
  226 472.571 -45.4374 -24.5994
  227 594.209 -10.3822 31.5906
  228 507.927 -8.81383 1.18445
  229 507.927 -8.74665 -1.18324
  230 469.263 -45.2264 25.4217
  231 535.973 -34.1494 28.7661
  232 744.473 100.347 -54.1305
  233 169.717 100.928 -151.270
  234 460.195 16.4529 8.16895
  235 540.681 47.6471 45.3075
  236 573.070 -4.09096 -46.3484
  237 536.524 -19.4228 -43.2601
  238 292.308 -9.14266 -40.6007
  239 293.268 -9.00858 40.4920
  240 537.118 -6.64451 -23.3928
  241 511.584 -13.1862 4.62768
  242 511.347 -13.1754 -4.44049
  243 112.168 9.82215 -56.2865
  244 113.805 8.60337 56.0826
  245 567.051 -49.7350 -47.6394
  246 560.534 -2.34568 1.11833
  247 561.071 -2.38671 -1.26008
  248 528.629 43.8818 -41.6139
  249 468.698 9.27827 24.6604
  250 952.404 152.462 102.689
  251 943.972 107.484 -63.8490
  252 694.180 148.586 0.352024
  253 433.857 -21.1463 131.081
  254 398.938 -14.0120 -136.917
  255 459.375 -9.43887 -2.34393
  256 459.337 -9.38400 2.32992
  257 384.964 -9.99226 14.5844
  258 384.951 -10.1254 -14.6997
  259 549.054 -6.17426 14.0846
  260 533.743 -38.1279 -23.0470
  261 354.291 -0.547419 -2.48077
  262 354.379 -0.537155 2.46746
  263 527.100 -21.5384 -18.5742
  264 229.972 -7.39583 -56.4966
  265 230.895 -7.41824 56.1188
  266 534.011 -23.2994 34.1807
  267 409.552 -43.4696 79.7506
  268 410.519 -44.2441 -79.5020
  269 466.502 18.1638 -11.4803
  270 402.703 -5.97239 -4.93761
  271 402.744 -5.93455 4.92112
  272 503.832 -1.18194 29.8559
  273 599.163 109.190 28.9814
  274 327.975 -3.79617 17.4216
  275 327.733 -3.82647 -17.5565
  276 547.401 -45.8965 14.7163
  277 506.712 -57.0363 -54.9883
  278 562.880 -3.03774 4.14750
  279 397.597 -23.1179 -30.7187
  280 396.962 -22.8678 30.6158
  281 684.938 78.0251 183.696
  282 332.506 -26.9384 94.6932
  283 534.031 74.8505 -2.66403
  284 667.382 74.9388 -21.3945
  285 506.577 -39.1512 3.64425
  286 507.218 -58.5760 49.8517
  287 333.442 -26.5168 -95.6970
  288 63.1917 78.1677 72.1706
  289 527.192 -21.6044 18.9308
  290 686.861 91.1741 15.1558
  291 566.979 -2.71728 -3.59785
  292 519.673 18.3152 -47.9212
  293 510.398 -28.9257 9.04013
  294 499.981 -42.1310 4.00694
  295 517.978 23.8796 46.2368
  296 544.877 -45.8898 -12.8200
  297 768.388 148.440 -14.3257
  298 510.264 -27.8140 -8.62442
  299 417.325 123.421 -250.571
  300 520.833 -55.2905 -13.3864
  301 517.239 -56.8116 19.2352
  302 383.911 -34.4453 -62.5577
  303 351.000 -1.20986 -5.35868
  304 351.104 -1.18856 5.32153
  305 384.100 -34.4807 62.2411
  306 552.089 -0.968078 -53.3558
  307 592.919 -24.5710 -19.4313
  308 455.787 -27.1828 -12.6873
  309 455.530 -27.2472 12.9041
  310 539.428 -46.4437 86.5231
  311 541.320 -4.49392 17.6935
  312 651.817 4.51976 34.5500
  313 447.197 -15.6090 -7.14434
  314 447.233 -15.5637 7.11105
  315 409.380 -10.3887 -9.84069
  316 409.392 -10.2964 9.82949
  317 464.154 6.44135 -23.8377
  318 587.803 43.1247 -50.6589
  319 897.292 243.600 -118.633
  320 534.037 -5.10549 -1.30048
  321 533.761 -5.04079 1.34401
  322 290.360 -1.05072 118.197
  323 406.913 -18.0723 -20.6541
  324 406.197 -18.0215 20.7102
  325 290.301 -1.75374 -117.743
  326 562.178 66.2433 -43.7755
  327 624.787 31.2692 35.9149
  328 539.142 -38.4408 -95.7110
  329 499.268 -19.3756 3.24513
  330 498.782 -19.2456 -3.04083
  331 531.237 -11.3477 -8.63213
  332 504.144 -0.900823 -27.9058
  333 561.835 2.30084 51.9641
  334 558.258 -4.16508 -9.63340
  335 342.481 -20.3766 47.5808
  336 342.107 -20.4835 -47.9179
  337 524.589 -1.14591 49.5781
  338 330.362 -2.51806 -10.4047
  339 330.569 -2.49502 10.3195
  340 535.332 -12.6034 14.0591
  341 642.850 130.780 -20.0645
  342 531.022 -11.4218 8.98349
  343 568.279 71.1651 43.8300
  344 543.136 -10.1978 50.8105
  345 433.445 -8.00845 2.27754
  346 433.442 -8.05339 -2.29000
  347 515.886 -1.78767 -44.0537
  348 677.984 142.169 11.0534
  349 567.473 103.472 0.906644
  350 346.891 40.1088 -174.740
  351 38.6466 15.8291 -25.3761
  352 42.0761 17.1466 27.1676
  353 -0.995808 4.44677 9.76868
  354 0.986675 2.76672 -10.2684
  355 972.638 67.5561 22.8307
  356 469.766 -37.8897 -15.2149
  357 535.687 -12.1994 -13.7052
  358 485.306 -8.73700 0.237874
  359 485.251 -8.67296 -0.241873
  360 521.635 57.6397 -22.5609
  361 444.145 -44.9758 40.9450
  362 40.4872 60.6942 -45.6407
  363 444.505 -44.9500 -41.6300
  364 528.167 60.0673 23.9991
  365 535.248 -14.4965 -25.5937
  366 566.565 -31.7833 -29.5424
  367 606.601 127.143 8.22417
  368 567.647 -35.6496 23.6133
  369 242.823 -5.83838 37.7669
  370 241.472 -5.72363 -37.9842
  371 139.117 3.15479 -53.0301
  372 140.445 2.63408 52.8038
  373 470.999 1.80079 24.0586
  374 870.736 257.980 105.327
  375 552.232 -3.72785 -12.4898
  376 433.580 -36.2101 -31.5413
  377 433.270 -36.1341 31.5022
  378 532.699 -12.4477 -32.9501
  379 602.554 -29.1048 -0.456989
  380 469.751 -37.8624 15.6178
  381 657.992 6.32854 -59.4309
  382 382.814 -2.89268 -2.00739
  383 382.877 -2.86910 1.99600
  384 525.019 -3.13283 -21.2977
  385 289.927 -3.99001 -24.5775
  386 290.089 -4.12307 24.2965
  387 624.059 79.9143 -41.6503
  388 339.212 23.7495 162.671
  389 490.619 -25.7162 0.269839
  390 491.089 -25.6768 -0.288115
  391 577.169 97.2422 -27.5179
  392 544.942 -16.2659 -47.8629
  393 543.805 -55.7483 48.9535
  394 457.826 -12.1138 -3.73228
  395 457.781 -12.0626 3.70370
  396 525.305 -40.6085 14.5000
  397 563.157 -2.91953 7.10433
  398 359.030 -12.6873 -29.1269
  399 359.176 -12.6935 28.9014
  400 535.594 18.0388 -52.9985
  401 503.943 -11.2115 1.72714
  402 503.916 -11.2414 -1.66820
  403 522.953 -6.22827 40.2270
  404 490.823 36.0119 10.9403
  405 540.434 -22.9851 41.4069
  406 775.624 161.541 31.2310
  407 266.405 -14.2701 -75.8750
  408 267.114 -14.2704 75.3361
  409 119.991 63.3535 -92.4786
  410 574.209 -1.99276 1.82623
  411 302.331 -2.37640 -15.5804
  412 302.708 -2.32618 15.4585
  413 533.034 -14.0712 32.1726
  414 483.813 -52.4010 28.2766
  415 543.600 -7.15537 6.08081
  416 556.907 28.2358 54.8964
  417 125.432 67.4570 96.1242
  418 484.496 -52.0844 -26.2174
  419 500.363 -46.4273 -7.54464
  420 169.900 -3.38319 -47.8228
  421 171.055 -3.50130 47.5138
  422 385.576 -31.2253 -114.170
  423 573.019 -8.69721 45.0735
  424 384.254 -31.6479 113.220
  425 530.178 -29.9192 -25.8744
  426 497.224 33.7978 -23.8574
  427 530.221 -23.1182 24.7507
  428 567.040 -2.84018 -4.65517
  429 18.4089 20.3660 10.2289
  430 117.899 138.285 135.677
  431 513.141 -1.86591 20.6710
  432 436.483 6.26233 10.5044
  433 443.460 7.56278 -14.2134
  434 378.380 -5.95877 -10.2956
  435 378.429 -5.88509 10.2374
  436 522.707 -40.5747 -13.0542
  437 529.482 -10.4605 -44.8594
  438 438.618 8.55769 -3.85823
  439 774.765 185.111 42.7975
  440 111.928 36.1078 -69.4989
  441 122.988 33.1208 74.0072
  442 490.164 -17.5451 0.628717
  443 489.988 -17.5133 -0.508141
  444 652.365 142.836 -1.47483
  445 401.221 174.133 256.120
  446 623.398 -8.27586 -3.59207
  447 365.881 -18.6558 -39.5068
  448 366.061 -18.5358 39.2008
  449 369.436 -7.91473 15.8405
  450 369.359 -7.96918 -15.9677
  451 494.113 11.2100 -38.6331
  452 576.889 -1.09221 -1.18002
  453 481.478 22.4026 21.8049
  454 601.393 74.1731 46.1787
  455 501.483 -37.1823 -1.98805
  456 543.342 -6.83841 -5.92276
  457 569.219 -2.60031 4.28383
  458 575.167 -1.18098 0.670774
  459 575.573 -1.29907 -0.469125
  460 329.059 -0.501900 3.89462
  461 328.893 -0.509853 -3.93019
  462 547.317 -34.9753 31.2978
  463 498.693 19.8983 37.4286
  464 519.297 2.17419 -48.4696
  465 538.973 -11.6653 18.7354
  466 763.178 137.010 -157.234
  467 540.822 -30.1801 -35.6891
  468 7.13215 10.5538 5.40875
  469 7.00605 10.7997 -2.72546
  470 432.063 -24.0912 18.2679
  471 430.692 -23.7514 -18.0209
  472 664.245 15.0900 86.6227
  473 188.193 176.619 -196.226
  474 534.663 -1.74624 15.8612
  475 600.296 -34.6416 -50.9258
  476 328.124 -18.5228 54.9409
  477 647.135 114.920 -28.9390
  478 533.125 -29.0350 29.6618
  479 450.483 -21.2672 -9.75722
  480 450.873 -20.9255 9.73768
  481 470.892 2.62683 -21.2233
  482 327.132 -18.4416 -55.2449
  483 481.944 0.352157 21.2721
  484 457.362 -52.4165 -71.8931
  485 456.245 -52.4961 72.2022
  486 549.413 -3.84204 13.8228
  487 504.594 47.7385 4.51578
  488 503.797 9.80117 176.522
  489 743.505 150.056 -0.934016
  490 515.442 -9.04620 2.37967
  491 515.462 -9.01571 -2.49446
  492 402.357 -6.88337 -6.71149
  493 402.393 -6.82976 6.69102
  494 213.925 9.28783 99.8930
  495 535.669 -25.9757 -35.1579
  496 486.787 -10.7640 -0.374993
  497 486.739 -10.7317 0.382217
  498 425.314 -44.8152 58.7795
  499 217.925 12.3509 -102.365
  500 535.753 -43.8122 -15.0487
  501 10.0313 3.61777 2.79765
  502 474.782 24.8609 1.61743
  503 517.095 -6.39001 -0.746920
  504 517.091 -6.46847 0.722311
  505 425.509 -44.7253 -59.2138
  506 600.787 -30.4014 63.6845
  507 598.898 21.7810 46.4370
  508 551.236 -4.16182 -2.82648
  509 534.128 -44.4135 15.3320
  510 344.406 -0.234539 -0.733192
  511 344.496 -0.231765 0.728270
  512 534.288 -20.6692 -37.9024
  513 520.456 38.5904 40.7703
  514 591.742 14.6613 -45.9385
  515 342.301 -0.446731 -2.20042
  516 342.402 -0.439980 2.18745
  517 1013.04 146.513 -130.210
  518 540.887 64.2952 35.7292
  519 551.667 -3.88293 2.50093
  520 501.425 -47.4638 8.76918
  521 425.430 -13.7900 10.2644
  522 425.416 -13.8883 -10.2436
  523 580.699 -35.5454 10.8647
  524 560.122 -11.3449 -48.0215
  525 626.846 122.889 25.0796
  526 523.716 9.08990 50.3050
  527 524.770 -10.4563 5.15899
  528 509.336 -54.6155 -69.9038
  529 530.760 -13.2889 37.7057
  530 999.832 46.0901 -18.1714
  531 576.234 -43.5946 3.50172
  532 547.828 -4.06722 -0.583598
  533 547.963 -4.29668 0.481640
  534 1010.27 67.7340 63.3612
  535 511.312 -0.0872054 42.7928
  536 706.610 120.696 -5.22460
  537 534.345 -14.8282 -18.0041
  538 250.539 -2.22711 -16.7873
  539 251.247 -2.11863 16.6274
  540 365.713 -34.1305 -79.4260
  541 366.036 -33.5621 78.8661
  542 524.474 -10.0477 -5.12743
  543 571.796 20.9604 -52.9490
  544 502.924 -34.1988 3.92901
  545 543.165 62.2200 -36.9960
  546 543.865 -6.58974 18.5835
  547 675.932 35.6033 -13.8589
  548 467.923 -15.9787 -3.69617
  549 467.796 -15.9330 3.66391
  550 506.328 -23.9861 6.38200
  551 739.128 148.894 -17.8694
  552 535.160 23.4436 52.2029
  553 230.635 59.1029 147.116
  554 512.085 -30.6302 119.296
  555 669.858 36.0918 -132.299
  556 546.982 45.2374 -48.4210
  557 482.070 -41.9241 -103.658
  558 522.593 -57.4205 -23.4261
  559 544.614 -55.3788 -32.9706
  560 73.6224 97.4136 -92.1198
  561 547.748 -7.30567 -10.9809
  562 818.744 158.789 -48.4663
  563 508.918 -23.0541 -7.42353
  564 512.804 -16.9099 6.15453
  565 512.339 -16.5418 -5.85593
  566 361.846 -1.89551 -4.90540
  567 361.931 -1.87120 4.87761
  568 55.1838 5.20581 -29.7002
  569 57.8731 5.46929 30.3597
  570 269.975 -12.2989 -57.7573
  571 271.929 -12.3699 57.6978
  572 519.922 -28.3196 -15.5438
  573 528.465 -57.6611 25.1320
  574 543.133 -51.7630 -0.572354
  575 449.608 -7.93196 -1.93514
  576 449.588 -7.88097 1.92635
  577 424.763 -44.7170 -88.6320
  578 473.124 -39.0469 109.465
  579 414.856 -42.0835 89.0777
  580 535.806 -11.9890 -48.0980
  581 342.955 -5.42756 17.6068
  582 342.788 -5.48211 -17.7370
  583 513.564 28.5656 -41.0107
  584 513.446 -0.910291 -18.7549
  585 638.282 137.511 -11.0012
  586 421.434 -6.22219 -1.81436
  587 421.452 -6.18465 1.80699
  588 544.260 -1.69597 -10.3771
  589 381.892 -12.5035 -19.7892
  590 381.916 -12.4655 19.6346
  591 309.622 13.7744 140.275
  592 529.728 -24.5563 -24.9845
  593 299.673 -16.1156 100.957
  594 520.607 -27.1186 15.9628
  595 546.475 -8.06264 12.1930
  596 539.079 -5.37322 -2.43752
  597 386.888 -4.55661 -4.65653
  598 386.944 -4.52136 4.63648
  599 612.654 121.646 -22.8543
  600 299.451 -15.5496 -101.299
  601 518.836 -22.6540 -12.5434
  602 470.072 -8.82805 -1.09120
  603 470.027 -8.76927 1.08719
  604 867.327 116.283 -20.9294
  605 319.373 -1.91753 9.65405
  606 319.110 -1.93564 -9.73524
  607 488.664 11.4255 35.3083
  608 685.342 59.3298 -1.59290
  609 329.448 1.73736 -139.117
  610 172.770 3.94810 -76.5875
  611 174.112 3.02083 76.1879
  612 414.638 -23.7755 24.8471
  613 418.743 -24.4772 -24.2225
  614 695.799 140.683 7.19737
  615 537.009 -5.55316 2.15608
  616 468.955 13.5127 -21.3942
  617 578.745 103.482 21.7803
  618 576.862 107.350 -14.4965
  619 473.986 -26.1247 -5.84285
  620 477.451 -25.5615 4.18502
  621 338.511 74.4639 -198.902
  622 410.725 -13.7145 -14.0015
  623 410.768 -13.5647 13.9623
  624 1008.97 206.929 156.003
  625 534.751 -17.6603 41.1271
  626 312.245 -10.7042 -36.9736
  627 813.743 198.481 136.788
  628 312.940 -10.6498 36.8517
  629 507.619 -19.1444 -138.669
  630 368.168 -1.63589 -1.80399
  631 368.245 -1.62197 1.79621
  632 453.402 4.25571 18.6818
  633 210.690 -3.01445 -33.1372
  634 211.752 -3.02290 32.8976
  635 468.042 -32.9005 12.0404
  636 489.819 -39.0974 -5.38971
  637 572.447 -1.41433 -4.00231
  638 334.337 -0.465602 2.91420
  639 334.204 -0.474376 -2.94018
  640 443.231 -9.90834 -3.15307
  641 443.221 -9.85866 3.13440
  642 503.545 -56.0904 70.5208
  643 580.478 64.7614 -48.0141
  644 390.984 -17.8150 -25.4597
  645 390.734 -17.5206 25.2911
  646 459.732 -32.7846 -15.8156
  647 718.009 155.577 7.26826
  648 540.039 -52.4172 3.45617
  649 471.758 -11.3698 -2.00895
  650 471.693 -11.3210 2.00712
  651 643.526 70.9728 33.5881
  652 541.733 -8.08334 -20.1853
  653 484.533 -0.494885 -17.3007
  654 227.886 -7.81072 -72.8474
  655 228.529 -8.01347 72.2919
  656 458.318 -39.2573 -24.3900
  657 683.576 149.242 0.00642086
  658 534.092 72.2008 -16.0965
  659 359.793 -3.06918 -8.92275
  660 359.884 -3.02736 8.86043
  661 495.819 -14.1916 -0.972980
  662 495.913 -14.1998 1.06894
  663 908.404 118.263 52.3234
  664 579.633 -1.77156 1.00316
  665 562.797 -2.41582 7.01122
  666 560.872 -2.42766 -8.32022
  667 533.809 -49.8275 4.39693
  668 399.349 -4.46253 -2.32465
  669 399.394 -4.43312 2.31586
  670 572.919 91.4528 33.6992
  671 729.438 161.580 -12.8963
  672 404.981 -29.6473 -36.0589
  673 404.897 -29.3692 35.8971
  674 501.845 -51.6584 -13.6237
  675 531.601 31.6659 -49.2100
  676 624.464 1.94124 16.8415
  677 421.571 -7.67477 -4.80788
  678 421.591 -7.62999 4.79160
  679 364.636 -31.7659 -71.6882
  680 528.870 -51.2560 0.373034
  681 441.520 -48.9267 64.8168
  682 213.415 66.8478 -142.102
  683 413.991 -38.0423 50.0166
  684 499.656 0.145352 15.9003
  685 364.991 -31.4136 71.2397
  686 518.547 -23.0743 12.6980
  687 414.084 -37.8729 -50.4369
  688 429.672 5.83760 3.93480
  689 332.915 -8.61850 26.4150
  690 332.630 -8.62311 -26.5807
  691 441.685 -50.1902 -65.5159
  692 543.817 -35.9937 -30.2138
  693 499.501 -7.32262 -0.297727
  694 499.581 -7.39127 0.299517
  695 555.306 -35.5820 29.5843
  696 505.531 -52.8189 15.7085
  697 612.832 56.3529 45.0377
  698 554.191 -10.5292 49.8027
  699 533.314 -19.3494 29.7956
  700 513.266 42.3469 -31.1114
  701 612.876 102.790 35.7995
  702 529.964 -7.43309 -29.6045
  703 526.756 -17.7189 14.4718
  704 547.988 85.5033 8.67410
  705 536.480 -9.28686 25.4671
  706 171.265 117.136 149.283
  707 498.777 -57.4603 -42.0158
  708 577.388 10.4174 50.2707
  709 581.829 -18.0866 -34.1880
  710 577.490 -0.969399 2.12687
  711 532.615 -18.5465 -23.0965
  712 499.580 -57.9053 38.4463
  713 949.470 84.2122 -14.0164
  714 306.815 -1.21441 10.0907
  715 306.471 -1.22717 -10.1765
  716 539.096 -10.1452 -10.3255
  717 580.717 -0.756024 -2.09824
  718 457.551 -39.9016 24.5108
  719 547.080 -20.5171 44.9391
  720 819.162 200.657 -68.8259
  721 518.586 -37.6478 12.3248
  722 572.878 -37.8853 -15.3973
  723 526.929 -17.2620 -14.2318
  724 580.016 -1.22180 -0.595379
  725 535.433 -0.0948290 52.6522
  726 25.5999 27.1268 33.7129
  727 596.788 -22.0973 -92.4987
  728 651.382 39.5316 18.5707
  729 544.201 -55.7799 29.8943
  730 395.055 -9.19149 11.4153
  731 395.043 -9.31449 -11.4619
  732 497.198 266.235 -268.620
  733 555.487 -36.9275 -27.0324
  734 428.088 2.52652 -7.52817
  735 493.322 2.86565 34.2828
  736 536.899 -27.0314 35.6844
  737 514.606 -43.3676 4.44951
  738 532.440 -48.7712 -75.8240
  739 511.613 -40.4806 -5.53437
  740 600.723 -28.7018 -1.63654
  741 553.783 -4.89042 5.94484
  742 497.383 -29.8507 2.05296
  743 890.321 177.859 -96.1288
  744 528.999 -14.4560 11.3202
  745 526.339 8.70121 -51.6125
  746 446.112 -4.76259 155.476
  747 562.554 45.2259 52.1872
  748 484.124 -37.9647 7.79139
  749 377.283 -29.3228 -52.5749
  750 377.345 -29.2519 52.1819
  751 517.406 58.2363 -7.21953
  752 524.178 -6.11202 45.7632
  753 529.098 -12.6868 -38.6271
  754 497.930 -30.4774 -2.18875
  755 481.813 -43.0027 15.0845
  756 552.058 90.7087 -9.71044
  757 513.992 -44.4933 -2.43136
  758 515.359 -32.6907 12.1615
  759 521.121 -7.07865 1.68794
  760 521.415 -6.90229 -1.66971
  761 700.483 152.761 0.956469
  762 571.417 -48.7485 -21.5448
  763 534.195 -16.5916 23.0682
  764 553.863 -4.88838 -5.35921
  765 562.481 3.66982 -52.4824
  766 636.942 34.1653 -27.4992
  767 323.197 -0.232641 -4.76116
  768 323.404 -0.228484 4.71881
  769 4.98946 -8.62942 -5.96890
  770 545.524 -0.743723 9.58607
  771 503.671 -0.680283 -37.7618
  772 518.846 -4.87513 32.9785
  773 467.099 60.6091 226.156
  774 590.077 120.454 -1.17200
  775 421.716 -29.7524 28.5877
  776 79.1900 1.57028 -29.0375
  777 81.1996 1.13889 29.3364
  778 514.624 -3.63910 -37.3436
  779 422.771 -30.0353 -28.5948
  780 550.665 -5.36036 4.38938
  781 289.555 -12.0800 49.2357
  782 287.188 -12.0330 -49.2287
  783 528.943 -14.0501 -11.0145
  784 345.325 -8.36946 -23.0550
  785 345.495 -8.31855 22.8715
  786 550.204 -5.47688 -13.7968
  787 425.367 -11.1356 -8.22494
  788 425.389 -11.0691 8.22917
  789 600.028 -3.71424 -33.9216
  790 542.857 -5.74358 -52.5360
  791 284.494 -1.71448 -12.7903
  792 285.001 -1.69832 12.6534
  793 17.1966 6.98895 -18.1693
  794 19.5377 7.38409 19.0779
  795 446.969 2.23819 -13.5531
  796 495.114 -55.6172 -32.0103
  797 -5.51778 -3.75369 9.69485
  798 -4.90001 -4.55248 -9.72209
  799 514.882 -10.6436 3.75017
  800 557.286 -43.6782 -13.4439
  801 578.266 85.4488 -39.2003
  802 552.848 -4.84652 -4.18595
  803 1151.97 236.005 -216.241
  804 514.772 -10.6158 -3.69649
  805 770.450 145.781 13.1441
  806 552.263 16.0652 -54.9180
  807 607.693 46.0458 -46.3213
  808 109.202 -1.26177 -26.6291
  809 110.973 -1.41066 26.5868
  810 351.444 -4.82692 13.7820
  811 351.316 -4.86496 -13.8902
  812 337.655 -0.701843 2.60417
  813 337.543 -0.709472 -2.62219
  814 615.832 103.495 -35.3416
  815 371.505 -2.13315 -3.91245
  816 371.579 -2.10934 3.89409
  817 525.750 -5.28657 -47.8196
  818 744.815 81.4118 71.7164
  819 477.109 10.9496 -29.7396
  820 171.029 -1.47497 28.3078
  821 169.739 -1.48908 -28.5135
  822 601.592 18.7232 163.751
  823 538.628 -10.2265 10.6555
  824 487.970 32.6558 -12.3749
  825 231.670 -0.300779 19.1609
  826 230.600 -0.196751 -19.2898
  827 343.768 -1.60072 -6.80088
  828 343.897 -1.57774 6.74618
  829 62.5327 55.2623 49.3520
  830 507.000 12.2615 43.9356
  831 562.299 82.3738 -33.8938
  832 602.458 70.0127 -46.5880
  833 401.118 -14.7766 -18.0925
  834 400.909 -14.6765 18.0793
  835 625.087 132.086 15.7304
  836 536.817 -4.89681 -0.487376
  837 536.859 -4.86151 0.573180
  838 533.524 -16.2082 -30.2424
  839 449.362 -29.6222 17.5332
  840 492.237 -55.2858 32.0773
  841 574.583 -47.0581 49.4936
  842 445.989 -12.8048 -5.34231
  843 445.992 -12.7641 5.31411
  844 510.580 47.4530 20.0323
  845 481.154 6.80012 -32.0604
  846 133.367 165.245 155.257
  847 483.257 -42.6418 -13.9198
  848 485.081 -21.6529 -0.894195
  849 485.335 -21.7093 0.862525
  850 533.509 -7.92632 50.0461
  851 527.703 -34.7963 -21.0151
  852 473.060 -31.1061 -8.38640
  853 1047.63 33.8958 -50.9542
  854 450.185 -42.2786 32.7944
  855 449.799 -42.8113 -33.2852
  856 532.506 -6.47487 25.1304
  857 792.898 206.536 -51.7728
  858 423.456 -38.0658 -40.1245
  859 465.710 -52.2657 38.9249
  860 423.384 -37.6221 39.7964
  861 458.344 -18.2940 -6.36912
  862 458.343 -18.2418 6.33268
  863 70.8777 29.1636 42.7464
  864 571.991 42.7301 -52.4812
  865 440.791 -16.9683 -9.24400
  866 440.878 -16.8061 9.27325
  867 435.885 -7.13490 -1.13545
  868 435.883 -7.09059 1.12931
  869 476.788 -9.62264 -0.731874
  870 476.734 -9.56601 0.726953
  871 392.214 -7.39719 -9.82620
  872 392.254 -7.31823 9.79173
  873 442.207 -22.9356 -13.5971
  874 442.272 -22.7932 13.6576
  875 11.3701 -1.17273 -6.98242
  876 660.160 123.988 24.1655
  877 568.441 -20.0861 -40.5712
  878 465.275 -51.4984 -39.2921
  879 501.785 -16.3319 2.93787
  880 501.574 -16.1757 -2.81263
  881 547.454 0.608384 53.7048
  882 590.311 -42.0552 -29.6800
  883 520.480 39.4203 -196.851
  884 243.924 -4.37367 98.3995
  885 -6.52008 5.68447 -7.57421
  886 -5.41674 6.42896 8.27199
  887 70.5152 31.0084 -43.6803
  888 533.665 -15.6138 17.8484
  889 559.343 -3.96838 -7.43559
  890 503.900 -48.7141 86.2582
  891 243.367 -4.14984 -98.7635
  892 561.501 -46.1995 7.99039
  893 620.879 -17.1707 76.8833
  894 462.063 1.93152 14.3430
  895 525.269 50.0062 33.9611
  896 288.105 -16.0884 71.9712
  897 287.030 -16.2162 -72.4102
  898 345.051 -16.0094 -40.4726
  899 357.952 -17.9956 -124.983
  900 563.088 -13.3298 46.3892
  901 766.978 182.759 34.8372
  902 566.230 21.6990 53.5208
  903 535.112 -11.6083 -27.7325
  904 365.233 -16.1180 128.057
  905 678.937 125.811 -15.7885
  906 70.4218 59.1869 -60.4647
  907 498.351 -0.936158 -15.1669
  908 345.406 -15.8835 40.1441
  909 418.388 -9.01584 7.18890
  910 418.366 -9.07205 -7.20131
  911 528.439 -34.6066 21.7959
  912 546.122 -3.90770 1.55505
  913 403.589 3.45940 -154.771
  914 574.579 -1.42324 3.50279
  915 570.952 -1.18939 -4.56900
  916 437.533 3.94085 -12.5070
  917 553.937 -2.32440 -8.45105
  918 419.250 -19.2296 -17.0353
  919 419.527 -18.9535 17.0922
  920 -12.8640 5.33290 -7.27720
  921 -18.1722 3.22014 7.87420
  922 546.088 -3.65505 -1.60813
  923 187.681 -4.35962 66.4992
  924 186.654 -3.98427 -66.8519
  925 587.239 85.4049 41.1685
  926 1023.89 18.5895 15.6048
  927 553.922 61.4829 44.1013
  928 620.234 -21.2654 25.5303
  929 543.143 -30.4046 35.7022
  930 674.970 141.137 -12.1049
  931 428.912 2.02691 9.43917
  932 522.163 -12.6069 -6.39899
  933 544.883 29.3326 -53.4487
  934 651.338 20.3674 -4.73128
  935 509.960 -31.5338 -9.02561
  936 269.275 -1.40173 -14.2738
  937 269.513 -1.35144 14.0835
  938 537.248 -12.8824 -21.2501
  939 19.3401 24.0492 6.58591
  940 515.870 -53.5125 -8.83336
  941 454.459 13.8152 -1.28718
  942 671.090 146.606 -8.00889
  943 109.317 81.0654 -98.4426
  944 518.859 -3.87952 -29.5483
  945 365.276 -5.81410 -12.9635
  946 365.354 -5.74846 12.8674
  947 3.56624 -14.2063 10.6377
  948 355.845 -26.1023 -58.0598
  949 525.774 -30.5299 -20.5151
  950 336.888 0.731833 -1.09701
  951 336.984 0.734718 1.09080
  952 534.221 64.7783 -27.0820
  953 565.095 -2.02375 -0.700992
  954 565.131 -2.04317 0.938006
  955 356.022 -26.0399 57.6994
  956 533.281 -0.833414 -11.5736
  957 609.613 4.52110 32.3024
  958 541.464 -7.99670 8.11347
  959 91.0101 22.1226 -53.1939
  960 560.343 -3.69573 6.70027
  961 513.975 4.27718 46.8583
  962 541.915 74.8749 24.0733
  963 540.538 6.27646 -54.5412
  964 376.764 -19.7473 -35.0493
  965 580.149 -20.7347 32.8324
  966 377.014 -19.6801 34.7259
  967 18.6086 19.7593 -3.43631
  968 67.9835 10.9707 39.0637
  969 310.977 -5.25520 23.7694
  970 310.619 -5.25520 -23.8877
  971 522.536 -12.8264 6.80104
  972 565.076 97.7952 13.1634
  973 288.855 25.9041 -147.128
  974 472.243 -29.2890 7.50551
  975 443.429 -46.1350 -48.3172
  976 642.993 122.886 26.3098
  977 495.785 -8.98822 0.0755111
  978 495.763 -8.94426 -0.0806337
  979 541.413 -10.3190 -14.9885
  980 506.044 43.8731 -18.4696
  981 1101.98 333.818 224.370
  982 110.126 5.76459 -50.5958
  983 111.669 4.77952 50.6904
  984 8.21022 -7.44291 4.15628
  985 507.161 28.3118 37.9135
  986 443.366 -46.4261 47.9871
  987 546.972 -25.9889 -41.1194
  988 594.679 48.5802 50.9967
  989 568.450 -45.9087 -59.7366
  990 827.579 173.804 60.0705
  991 487.211 -8.09265 -0.440530
  992 487.149 -8.03204 0.440135
  993 567.843 -23.3442 38.2537
  994 40.2670 72.6847 71.7218
  995 263.923 -5.33302 33.9287
  996 263.162 -5.26359 -34.2590
  997 312.290 -14.9004 46.5671
  998 311.262 -14.6630 -46.7190
  999 350.688 -14.0735 33.6827
  1000 383.399 -2.84597 -1.73893
  1001 383.461 -2.82600 1.73276
  1002 917.275 301.744 -194.974
  1003 841.979 211.465 90.5261
  1004 350.408 -14.1386 -33.9387
  1005 584.662 -2.79704 42.3809
  1006 527.692 54.7764 -32.6294
  1007 372.976 -32.3186 103.757
  1008 476.136 -56.3122 -57.4608
  1009 543.630 -4.62103 -16.7293
  1010 249.080 16.4246 120.243
  1011 319.369 -24.3237 82.8534
  1012 486.176 25.2075 -23.8422
  1013 550.286 -11.0126 -50.4870
  1014 679.885 296.115 304.495
  1015 461.010 14.4033 17.0593
  1016 619.467 132.378 -1.92369
  1017 451.889 18.3179 -175.529
  1018 463.444 -48.5253 -33.8013
  1019 580.949 -0.831067 -1.69442
  1020 563.891 51.7504 -50.7971
  1021 338.301 -2.01437 8.67062
  1022 338.141 -2.03445 -8.74270
  1023 12.8007 10.7349 -19.9231
  1024 377.332 -16.7989 -29.2934
  1025 318.969 -24.6327 -83.4342
  1026 377.077 -16.7692 29.0015
  1027 538.332 -16.5076 46.7172
  1028 483.712 -29.7730 -3.35480
  1029 510.071 9.52274 -45.4823
  1030 525.100 65.5350 9.53258
  1031 698.695 45.1157 32.1032
  1032 532.320 -40.5566 20.3299
  1033 341.700 -26.9732 -63.5218
  1034 506.208 18.1103 -42.6953
  1035 376.015 -31.9098 -104.246
  1036 715.436 153.977 -3.98506
  1037 493.279 32.6247 21.6910
  1038 613.778 -3.34497 -23.4492
  1039 466.290 -48.5642 31.3834
  1040 533.172 -17.0608 35.8121
  1041 529.183 -28.0774 24.6844
  1042 526.266 -26.6135 21.1380
  1043 647.348 82.7974 -34.7505
  1044 527.031 -8.58742 36.9341
  1045 475.464 -56.4678 56.5598
  1046 507.456 -20.8813 5.80244
  1047 341.920 -27.0325 63.2064
  1048 477.706 -34.9678 -8.99084
  1049 281.703 -13.8157 -88.5782
  1050 397.889 -41.1462 70.7479
  1051 535.910 -3.77693 -19.5815
  1052 523.297 -5.93689 -42.2368
  1053 454.008 -35.5775 -21.2116
  1054 282.173 -14.1891 87.9342
  1055 490.899 1.30953 -29.7884
  1056 366.983 -23.8934 -45.1886
  1057 654.904 138.584 16.1041
  1058 150.686 24.0948 -85.4012
  1059 1090.08 76.8837 103.434
  1060 266.164 19.0975 -125.666
  1061 525.949 -43.6460 -11.1061
  1062 367.097 -23.6995 44.8512
  1063 486.130 5.35610 33.4341
  1064 277.938 -5.42457 28.1061
  1065 277.818 -5.55668 -28.3725
  1066 533.551 -14.9406 -43.3963
  1067 562.800 -3.17119 2.53499
  1068 554.350 -1.37221 8.50678
  1069 550.503 18.2131 54.8768
  1070 516.489 -3.87991 39.8168
  1071 397.697 42.9540 189.612
  1072 584.343 -0.582912 0.766252
  1073 555.460 75.0593 35.0714
  1074 474.069 7.10005 28.8929
  1075 560.567 -2.27152 8.11216
  1076 368.894 -3.71326 -7.32925
  1077 368.968 -3.67205 7.28844
  1078 237.383 -6.54642 -46.9583
  1079 238.240 -6.78391 46.6715
  1080 475.642 24.0326 12.1554
  1081 700.047 40.3726 -57.7471
  1082 643.479 1.21775 -102.776
  1083 521.537 -0.510695 -12.0820
  1084 397.987 -41.4467 -71.2577
  1085 454.969 -33.8431 19.1785
  1086 524.332 -1.24127 12.5968
  1087 546.245 -39.8072 -24.2951
  1088 349.914 -0.676606 4.31181
  1089 349.817 -0.689466 -4.33518
  1090 524.965 -44.8947 11.0907
  1091 499.593 -10.4583 0.604804
  1092 499.508 -10.4711 -0.577327
  1093 486.493 -48.8479 21.0538
  1094 621.403 -19.7111 -11.9775
  1095 292.177 -0.478586 -7.97996
  1096 292.618 -0.461885 7.90323
  1097 426.674 -27.3651 -119.462
  1098 456.249 -10.8547 3.12166
  1099 456.285 -10.9081 -3.14309
  1100 274.379 150.379 208.430
  1101 626.521 51.7938 -40.2182
  1102 96.0616 45.8319 -65.7592
  1103 541.699 -8.41511 -7.82547
  1104 148.994 50.0568 -98.0422
  1105 307.832 -19.0362 -60.1690
  1106 584.170 -0.815132 0.528305
  1107 584.357 -0.775546 -0.379225
  1108 534.514 -30.6621 -30.3226
  1109 473.114 -53.3023 -77.9674
  1110 150.816 20.5144 81.3758
  1111 581.976 57.5300 48.9221
  1112 526.499 -5.71542 -0.615357
  1113 526.567 -5.71729 0.661276
  1114 572.046 -36.3514 94.8753
  1115 597.127 118.811 18.5805
  1116 360.296 -8.34395 -18.4384
  1117 360.394 -8.30861 18.3230
  1118 271.252 30.4842 148.619
  1119 508.743 2.69794 -43.9500
  1120 162.216 51.4469 105.147
  1121 643.545 -10.1033 -35.8020
  1122 638.699 139.946 5.34599
  1123 441.456 -34.5418 25.2456
  1124 414.072 2.39202 -1.84268
  1125 555.006 -5.11776 10.1517
  1126 573.241 -0.874638 3.93464
  1127 133.707 0.190066 -23.7605
  1128 135.325 0.131556 23.6104
  1129 460.314 7.97323 -21.4539
  1130 469.858 -13.8002 -2.80542
  1131 469.762 -13.7444 2.79313
  1132 50.3695 86.6862 -76.4897
  1133 78.9483 182.045 -149.212
  1134 475.544 -18.5282 2.80859
  1135 475.711 -18.5165 -2.83997
  1136 490.550 -11.9706 0.502223
  1137 490.482 -11.9512 -0.466648
  1138 131.380 83.5461 106.291
  1139 392.356 -4.63747 -3.61415
  1140 392.409 -4.60627 3.59974
  1141 490.922 37.3403 -0.488460
  1142 610.220 82.7124 -218.242
  1143 594.057 102.066 -31.8925
  1144 541.245 -20.9005 -43.8629
  1145 532.968 -26.7376 -31.0333
  1146 441.660 -34.8529 -25.6457
  1147 448.907 1.57383 13.2417
  1148 501.130 31.4517 -31.7216
  1149 494.528 26.8178 30.3578
  1150 507.136 -20.2904 -5.67777
  1151 484.906 -29.1889 2.97860
  1152 442.528 -28.2342 -19.2335
  1153 525.155 -3.14828 23.4390
  1154 911.225 91.7495 12.6963
  1155 528.392 -11.3392 42.6464
  1156 531.371 34.9157 47.3042
  1157 488.725 -47.9403 -16.5129
  1158 64.6898 10.0586 -37.7224
  1159 497.875 -23.0835 -3.36597
  1160 339.226 -0.440557 -0.235626
  1161 339.315 -0.438536 0.233627
  1162 602.920 -15.9834 19.4417
  1163 574.369 -48.4483 25.0759
  1164 821.915 146.410 37.1564
  1165 206.094 -0.348745 -19.6591
  1166 207.206 -0.305763 19.5237
  1167 446.983 -8.99514 -2.42125
  1168 446.967 -8.94438 2.40677
  1169 499.259 -43.9536 -4.25088
  1170 417.558 2.02014 6.04600
  1171 511.048 -36.4014 8.24017
  1172 30.4276 36.1280 -19.0992
  1173 94.9685 46.5078 64.2466
  1174 344.316 -19.0872 115.385
  1175 592.202 112.223 -22.8074
  1176 562.498 -1.64833 -6.42029
  1177 586.515 -1.03115 0.315906
  1178 587.022 -1.36766 -0.178258
  1179 351.838 -0.705406 -0.736776
  1180 351.924 -0.699511 0.732202
  1181 545.973 34.8783 53.4474
  1182 799.257 135.522 -2.90240
  1183 563.086 92.7345 -23.6208
  1184 420.051 -31.2129 118.714
  1185 342.501 -18.3974 -115.152
  1186 382.282 -25.1397 -40.6895
  1187 522.936 -14.8762 8.88410
  1188 726.485 160.906 11.2970
  1189 382.335 -25.0000 40.3971
  1190 533.598 -9.66394 6.71858
  1191 482.298 18.1744 29.0177
  1192 528.349 16.4375 51.5493
  1193 745.730 166.245 21.5999
  1194 447.761 -11.5911 4.46923
  1195 447.777 -11.6407 -4.49516
  1196 540.806 -10.4512 15.5882
  1197 328.684 -3.32927 13.5154
  1198 328.460 -3.36188 -13.6256
  1199 528.720 -7.54903 -2.76653
  1200 219.566 131.784 -202.271
  1201 457.995 -25.9860 -127.177
  1202 436.035 -13.4672 -7.85306
  1203 436.085 -13.4124 7.85638
  1204 564.852 -2.94913 2.35368
  1205 536.497 -7.38627 5.34448
  1206 30.7030 39.6636 29.7839
  1207 580.960 -0.764185 1.99597
  1208 71.4309 92.2280 91.4560
  1209 524.538 -8.18077 -3.60823
  1210 -0.468023 -12.6043 -11.0870
  1211 374.071 -36.5530 -89.4791
  1212 373.107 -35.6776 88.6187
  1213 580.932 -1.12429 -2.22862
  1214 500.936 -26.4523 -4.20247
  1215 564.535 -2.72234 -2.36157
  1216 457.049 -14.6961 -4.61464
  1217 457.012 -14.6498 4.57447
  1218 528.393 -7.50181 2.57754
  1219 497.525 -22.6244 3.33127
  1220 479.453 -15.4690 1.31299
  1221 479.611 -15.5032 -1.26133
  1222 563.979 -2.80278 -1.91268
  1223 488.883 -51.6920 -87.7046
  1224 552.520 -3.77862 -1.90061
  1225 526.682 -8.39443 3.94172
  1226 374.559 -3.87599 -5.49588
  1227 374.629 -3.83930 5.46840
  1228 415.690 -5.96415 -2.95521
  1229 415.717 -5.92650 2.94289
  1230 663.748 104.026 28.2171
  1231 558.488 -43.1201 16.8335
  1232 384.647 -2.03977 146.337
  1233 315.996 -0.455451 5.19533
  1234 315.740 -0.460705 -5.24195
  1235 531.211 -9.92446 31.8481
  1236 507.626 -7.98484 0.501182
  1237 507.641 -7.96077 -0.500985
  1238 583.141 112.859 10.7255
  1239 530.368 -55.6781 70.4536
  1240 315.492 -4.25852 18.8500
  1241 315.196 -4.28856 -18.9749
  1242 507.064 -12.5978 2.72449
  1243 506.951 -12.6880 -2.61815
  1244 522.645 -14.7082 -8.52489
  1245 485.315 0.132251 15.4018
  1246 823.652 205.001 -71.3268
  1247 532.803 -19.6782 -27.4899
  1248 95.0281 21.8612 54.6090
  1249 550.014 -29.4772 37.9439
  1250 448.721 10.1056 -11.7499
  1251 36.0766 25.4126 20.7933
  1252 718.313 82.5584 -13.0332
  1253 537.690 -24.5807 -38.8280
  1254 450.732 6.65315 18.0156
  1255 309.918 -19.0750 60.0996
  1256 545.346 -42.3691 21.2964
  1257 783.686 154.819 55.1320
  1258 187.126 26.9684 103.206
  1259 547.479 -6.79913 -13.4735
  1260 1031.78 11.6793 -10.2235
  1261 1064.50 15.8720 45.3026
  1262 1134.21 37.9546 -108.124
  1263 532.546 -16.7791 -34.7708
  1264 532.129 -24.4490 29.0042
  1265 540.214 -38.5996 26.1934
  1266 -15.7880 1.96946 9.89367
  1267 -14.3189 1.62099 -10.8271
  1268 525.111 -58.1962 -34.5804
  1269 537.210 -54.4929 -50.4336
  1270 420.344 2.80460 -7.45232
  1271 522.758 -59.2015 50.1425
  1272 559.201 -26.6668 -38.3892
  1273 12.3705 17.2982 3.19259
  1274 457.522 -8.38791 1.52967
  1275 457.551 -8.44250 -1.53367
  1276 554.465 -4.73136 9.04848
  1277 533.531 -9.50082 -6.27600
  1278 503.562 -54.9537 -19.5055
  1279 461.977 -24.7936 9.05615
  1280 459.730 -24.4350 -9.66597
  1281 539.372 -11.6282 21.8564
  1282 552.939 -20.4457 -44.9294
  1283 37.4023 26.4938 -20.3154
</Section>

newXOutput 74

<Section columns = "stress_xx | stress_yy | stress_xy">
  1 597.373 -0.251482 1.09189
  2 597.370 -0.239101 -1.09441
  3 338.843 -0.0740352 -0.393351
  4 -4.23469 -4.17584 -6.09152
  5 1048.45 434.630 341.407
  6 1038.96 449.654 -339.068
  7 -4.92266 -3.95630 6.49793
  8 338.753 -0.0751475 0.392434
  9 601.283 -1.05729 0.311102
  10 600.174 -1.64753 -0.347997
  11 599.073 -1.15328 1.20477
  12 597.941 -1.54005 0.244913
  13 595.477 -1.31621 1.89375
  14 593.213 -1.31944 1.32492
  15 587.658 -1.16105 2.74743
  16 579.491 -0.886669 4.07154
  17 572.262 -0.899471 4.58545
  18 561.339 -1.17866 5.60055
  19 545.954 -0.162462 8.35518
  20 531.749 -0.865148 8.00683
  21 515.284 -1.07754 11.3660
  22 491.535 0.752929 9.95310
  23 474.121 1.20444 11.8221
  24 451.379 1.98850 9.30090
  25 435.546 2.18687 9.40131
  26 412.624 2.97061 4.80810
  27 407.747 4.66192 5.17276
  28 404.792 3.87451 -1.53490
  29 408.779 2.33546 -3.34253
  30 416.144 2.20442 -4.10761
  31 433.328 2.73135 -8.18108
  32 450.025 2.16030 -10.3011
  33 474.328 0.547248 -12.1839
  34 493.735 -0.221914 -11.0189
  35 514.260 -0.851017 -10.7540
  36 532.756 -0.681819 -7.54952
  37 548.492 -0.736696 -6.40563
  38 561.344 -1.15971 -5.32731
  39 572.745 -0.858521 -3.64436
  40 579.723 -1.04986 -3.83633
  41 586.474 -1.23961 -2.78960
  42 592.740 -1.45000 -1.13965
  43 595.914 -1.18255 -1.39795
  44 597.453 -0.778283 -0.837993
  45 595.939 -0.508221 -0.767681
  46 600.716 -1.64370 0.252490
  47 601.435 -1.09401 -0.320343
  48 583.196 -0.703446 -0.676989
  49 571.055 -2.76310 -1.27586
  50 556.092 -3.98164 -0.751423
  51 537.759 -5.72415 -1.05182
  52 520.265 -6.20527 -1.26502
  53 501.512 -7.57970 -1.21797
  54 484.839 -8.32109 -0.613362
  55 470.209 -9.15849 -0.149912
  56 453.299 -7.55930 -0.129231
  57 433.802 -6.98701 -0.329375
  58 415.033 -5.44284 -0.0113375
  59 397.276 -3.39756 0.0466041
  60 380.433 -2.36858 0.107011
  61 365.713 -1.14622 0.218807
  62 350.732 -0.255325 -0.443494
  63 338.973 0.487205 0.645184
  64 333.626 1.26162 0.464301
  65 337.018 0.0416836 1.04527
  66 332.744 -0.130756 1.27421
  67 328.669 -0.213339 1.58421
  68 323.202 0.0103055 2.03536
  69 316.318 0.00935943 2.54298
  70 311.028 -0.336432 4.81220
  71 296.677 0.430349 5.23715
  72 286.447 -0.00421772 5.94629
  73 271.219 -0.231172 6.75944
  74 253.737 -0.406739 8.21233
  75 231.859 -0.0722875 9.97358
  76 205.195 0.139659 11.0293
  77 181.873 -0.191357 15.7810
  78 136.308 1.43263 14.9646
  79 104.913 1.23255 15.8612
  80 66.9641 -0.329393 17.6966
  81 35.1227 2.82519 18.5443
  82 -1.29449 4.29636 11.4142
  83 -28.1775 4.38255 4.38635
  84 -28.3672 4.30817 -1.02995
  85 -27.9829 3.61620 -8.26541
  86 -16.5598 -1.02748 -7.99382
  87 -1.93685 -15.8949 -8.85729
  88 1.71665 -29.0711 -10.9061
  89 4.54748 -44.9852 -5.54727
  90 9.96554 -44.1705 1.65214
  91 20.8858 -4.37804 28.9669
  92 61.2156 104.638 94.3202
  93 347.760 344.884 307.325
  94 1272.81 192.016 210.795
  95 1151.28 27.3526 68.0751
  96 1074.20 11.4799 20.8329
  97 1045.81 9.82185 1.56525
  98 1061.10 12.9773 -18.1490
  99 1149.24 25.6451 -53.9371
  100 1343.82 92.6062 -180.256
  101 207.715 355.250 -258.238
  102 45.7902 79.2169 -78.8026
  103 22.8703 -2.08164 -31.0803
  104 9.35383 -43.8139 -6.29479
  105 2.79914 -33.9170 6.30305
  106 3.40687 -36.7225 9.40063
  107 0.214657 -13.6736 9.81919
  108 -17.3038 -0.608944 7.55361
  109 -28.8643 2.71569 7.17953
  110 -29.8995 5.22572 1.18268
  111 -29.0586 4.30219 -4.10920
  112 -3.36315 4.40266 -10.7267
  113 33.3245 2.84899 -17.6999
  114 65.1340 -0.0242966 -17.4079
  115 103.016 1.33153 -15.8901
  116 134.586 1.46875 -15.0721
  117 180.539 -0.197870 -15.9053
  118 204.055 0.153672 -11.1297
  119 230.862 -0.0690554 -10.0925
  120 253.232 -0.453606 -8.26761
  121 270.525 -0.217407 -6.77384
  122 285.917 0.0140598 -6.00376
  123 296.241 0.425551 -5.29009
  124 310.710 -0.339996 -4.85700
  125 316.060 0.00704372 -2.57035
  126 323.001 0.00807648 -2.05779
  127 328.512 -0.217051 -1.60192
  128 332.618 -0.133940 -1.28652
  129 336.912 0.0390029 -1.05308
  130 333.529 1.26041 -0.467882
  131 338.881 0.486573 -0.647450
  132 350.644 -0.258340 0.442409
  133 365.630 -1.15380 -0.221524
  134 380.361 -2.38513 -0.110170
  135 397.221 -3.42053 -0.0496272
  136 414.999 -5.47600 0.00830310
  137 433.792 -7.02913 0.326953
  138 453.316 -7.60829 0.126633
  139 470.247 -9.21387 0.148645
  140 484.892 -8.37653 0.615130
  141 501.590 -7.63016 1.22368
  142 520.335 -6.23975 1.28555
  143 537.815 -5.75504 1.15150
  144 556.195 -3.78441 0.767812
  145 571.448 -2.69804 1.24723
  146 583.307 -0.794524 0.666180
  147 526.136 -49.4676 -0.207264
  148 525.670 -48.7950 0.391174
  149 555.057 79.5533 -25.4520
  150 588.482 34.6398 52.9708
  151 446.156 -43.2144 -100.411
  152 449.836 -43.1332 97.2871
  153 436.900 -18.2360 12.9576
  154 436.925 -18.4804 -12.9626
  155 621.865 22.6301 -38.5752
  156 524.771 -19.0863 9.52787
  157 524.543 -18.6412 -9.41491
  158 678.107 150.145 5.34074
  159 538.911 -0.846279 -52.6384
  160 401.525 -31.1514 -45.2822
  161 401.563 -30.9022 44.9141
  162 539.368 -12.2969 47.1292
  163 515.268 37.7585 31.8115
  164 214.902 33.7323 -119.990
  165 237.598 32.0217 126.324
  166 653.994 8.25551 -0.207575
  167 539.868 -20.8729 -31.9704
  168 712.063 156.325 1.37886
  169 487.449 -13.8340 -1.09193
  170 487.352 -13.7984 1.12912
  171 544.218 -6.97338 -4.08899
  172 545.805 -6.31183 3.50776
  173 388.144 -5.31911 -7.41322
  174 388.201 -5.26619 7.38046
  175 580.935 -14.3216 127.770
  176 499.546 20.9646 -34.3167
  177 328.399 -24.3843 -71.7971
  178 329.361 -24.2104 71.3662
  179 369.749 -11.7501 -23.7230
  180 369.793 -11.6201 23.5652
  181 542.308 -14.4420 27.2059
  182 493.952 -33.7834 -3.51655
  183 492.292 -33.5326 4.25267
  184 558.555 -54.2471 -13.3038
  185 561.564 -51.6827 6.42100
  186 769.314 181.511 -31.1259
  187 565.677 90.4755 23.7291
  188 565.222 34.7132 -53.9028
  189 578.365 -3.57462 -147.745
  190 559.257 -31.7545 -36.0547
  191 564.149 -22.7316 43.1001
  192 471.575 -53.4701 50.4228
  193 471.627 -53.0790 -50.2863
  194 507.262 6.59792 41.0842
  195 235.369 -6.00756 -88.0934
  196 235.908 -6.47712 87.5891
  197 863.752 128.765 18.9482
  198 530.217 -31.6963 18.7032
  199 549.067 -10.3564 -17.4265
  200 439.648 -10.5940 -6.09469
  201 439.663 -10.5457 6.07869
  202 529.649 -6.92907 -36.4754
  203 601.716 88.1801 -42.3932
  204 507.397 45.7491 -6.35890
  205 333.964 -11.4665 33.0320
  206 333.476 -11.4980 -33.2557
  207 556.199 -6.50737 9.22798
  208 545.103 10.2671 54.2153
  209 444.684 -32.0010 -22.8597
  210 441.870 -30.2898 23.2884
  211 639.622 94.9799 37.3917
  212 745.705 105.631 23.9801
  213 53.6872 41.0855 -35.5343
  214 49.7342 37.9765 30.3110
  215 310.860 89.9382 208.940
  216 524.997 -34.9521 -13.6366
  217 558.017 -6.24423 -8.32297
  218 501.866 4.57350 -37.8596
  219 356.765 -3.33479 -10.5666
  220 356.883 -3.29809 10.4843
  221 474.334 -22.1172 -5.96891
  222 474.558 -22.2632 5.70552
  223 533.813 -7.26360 30.9074
  224 609.327 -35.1244 18.3691
  225 610.472 123.955 -12.0984
  226 478.763 -46.0237 -25.0061
  227 601.862 -10.5163 31.8207
  228 514.532 -8.93932 1.17447
  229 514.532 -8.87140 -1.17329
  230 475.419 -45.8102 25.8369
  231 542.938 -34.5989 29.0034
  232 753.802 101.773 -55.0806
  233 172.022 102.297 -153.382
  234 466.419 16.6878 8.26246
  235 547.798 48.2742 45.7922
  236 580.498 -4.14598 -46.7834
  237 543.522 -19.6804 -43.6885
  238 296.368 -9.25823 -41.1481
  239 297.339 -9.12264 41.0388
  240 544.113 -6.73767 -23.6223
  241 518.236 -13.3668 4.63325
  242 517.997 -13.3560 -4.44423
  243 113.803 9.94530 -57.0971
  244 115.458 8.71094 56.8897
  245 574.311 -50.3765 -48.3970
  246 567.694 -2.38914 1.12073
  247 568.236 -2.43080 -1.26488
  248 535.610 44.4646 -42.0645
  249 475.012 9.41423 24.9378
  250 964.211 154.351 103.973
  251 955.655 108.816 -64.6320
  252 703.159 150.465 0.401984
  253 439.491 -21.4305 132.874
  254 404.148 -14.2114 -138.783
  255 465.443 -9.56325 -2.39397
  256 465.406 -9.50789 2.37976
  257 390.186 -10.1142 14.7998
  258 390.173 -10.2487 -14.9162
  259 556.148 -6.26427 14.2092
  260 540.677 -38.6279 -23.2114
  261 359.202 -0.550075 -2.51762
  262 359.292 -0.539717 2.50419
  263 533.950 -21.8262 -18.7172
  264 233.206 -7.49455 -57.2663
  265 234.139 -7.51721 56.8845
  266 540.965 -23.6086 34.5008
  267 414.956 -44.0435 80.8605
  268 415.932 -44.8281 -80.6082
  269 472.795 18.4213 -11.6096
  270 408.142 -6.04415 -5.01305
  271 408.184 -6.00598 4.99641
  272 510.509 -1.19451 30.1778
  273 606.997 110.599 29.2561
  274 332.527 -3.84017 17.6603
  275 332.282 -3.87075 -17.7965
  276 554.485 -46.4976 14.7600
  277 513.268 -57.7819 -55.8133
  278 570.081 -3.08915 4.17406
  279 402.933 -23.4094 -31.1596
  280 402.291 -23.1565 31.0558
  281 693.401 79.2270 186.194
  282 336.961 -27.3037 95.9928
  283 541.099 75.8362 -2.69182
  284 675.920 75.9445 -21.4522
  285 513.180 -39.6601 3.58448
  286 513.786 -59.3408 50.6107
  287 337.907 -26.8772 -97.0078
  288 64.0900 79.2885 73.2480
  289 534.044 -21.8927 19.0772
  290 695.625 92.3911 15.1247
  291 574.219 -2.76345 -3.62097
  292 526.536 18.5629 -48.4411
  293 517.048 -29.3048 9.06164
  294 506.504 -42.6775 4.16157
  295 524.826 24.2000 46.7410
  296 551.932 -46.4899 -12.8427
  297 778.207 150.300 -14.5551
  298 516.913 -28.1790 -8.64384
  299 422.593 125.112 -253.878
  300 527.585 -56.0105 -13.6839
  301 523.948 -57.5520 19.6054
  302 389.037 -34.8930 -63.4233
  303 355.864 -1.22117 -5.43680
  304 355.969 -1.19966 5.39932
  305 389.230 -34.9293 63.1033
  306 559.289 -0.981464 -53.8996
  307 600.539 -24.8867 -19.5083
  308 461.803 -27.5301 -12.9151
  309 461.545 -27.5954 13.1352
  310 546.338 -47.0391 87.7675
  311 548.361 -4.55847 17.8665
  312 660.079 4.63281 35.1914
  313 453.125 -15.8081 -7.27803
  314 453.162 -15.7626 7.24436
  315 414.885 -10.5170 -9.99481
  316 414.897 -10.4238 9.98357
  317 470.418 6.53628 -24.1055
  318 595.439 43.6885 -51.1515
  319 908.532 246.713 -120.249
  320 540.921 -5.18648 -1.30289
  321 540.642 -5.12088 1.34692
  322 294.261 -1.08433 119.821
  323 412.370 -18.2986 -20.9629
  324 411.647 -18.2476 21.0200
  325 294.201 -1.79787 -119.361
  326 569.549 67.1093 -44.2291
  327 632.819 31.6860 36.1828
  328 546.037 -38.9310 -97.0737
  329 505.785 -19.6321 3.21991
  330 505.294 -19.5009 -3.01345
  331 538.112 -11.5072 -8.68337
  332 510.823 -0.910622 -28.2062
  333 569.145 2.32753 52.4820
  334 565.439 -4.22837 -9.71567
  335 347.138 -20.6368 48.2339
  336 346.759 -20.7447 -48.5745
  337 531.486 -1.15898 50.1057
  338 334.962 -2.54588 -10.5499
  339 335.171 -2.52261 10.4638
  340 542.266 -12.7779 14.1676
  341 651.201 132.461 -20.2028
  342 537.896 -11.5818 9.03803
  343 575.723 72.0913 44.2800
  344 550.225 -10.3339 51.3276
  345 439.226 -8.11020 2.32053
  346 439.222 -8.15552 -2.33313
  347 522.688 -1.80886 -44.5250
  348 686.743 143.994 11.0542
  349 574.943 104.814 0.915526
  350 351.428 40.6257 -177.104
  351 39.2652 16.0419 -25.7760
  352 42.7380 17.3779 27.5905
  353 -0.979324 4.52238 9.87009
  354 1.02361 2.82312 -10.3778
  355 984.591 68.3904 23.0982
  356 475.938 -38.3770 -15.4939
  357 542.623 -12.3690 -13.8105
  358 491.662 -8.85796 0.225185
  359 491.606 -8.79327 -0.229275
  360 528.549 58.4053 -22.8062
  361 449.998 -45.5569 41.5518
  362 41.0802 61.6008 -46.3568
  363 450.360 -45.5303 -42.2446
  364 535.157 60.8630 24.2596
  365 542.208 -14.6932 -25.8305
  366 573.887 -32.1998 -29.7629
  367 614.545 128.774 8.29671
  368 574.975 -36.1169 23.7569
  369 246.257 -5.91244 38.2782
  370 244.890 -5.79615 -38.4974
  371 141.151 3.19180 -53.7717
  372 142.492 2.66483 53.5427
  373 477.336 1.83431 24.3268
  374 881.627 261.343 106.876
  375 559.370 -3.78381 -12.6062
  376 439.322 -36.6730 -32.0152
  377 439.010 -36.5967 31.9756
  378 539.648 -12.6158 -33.2753
  379 610.265 -29.4754 -0.637873
  380 475.921 -38.3496 15.9021
  381 666.293 6.46875 -60.3864
  382 388.035 -2.92430 -2.04160
  383 388.100 -2.90051 2.03012
  384 531.907 -3.17669 -21.5179
  385 293.991 -4.03816 -24.9074
  386 294.154 -4.17304 24.6234
  387 632.133 80.9581 -42.0089
  388 343.668 24.0542 164.885
  389 497.038 -26.0507 0.196403
  390 497.514 -26.0110 -0.214738
  391 584.744 98.5041 -27.7917
  392 552.044 -16.4814 -48.3390
  393 550.797 -56.4717 49.7181
  394 463.876 -12.2712 -3.81423
  395 463.830 -12.2196 3.78528
  396 532.132 -41.1388 14.5632
  397 570.386 -2.96504 7.16286
  398 363.924 -12.8439 -29.5304
  399 364.073 -12.8504 29.3027
  400 542.630 18.2789 -53.5635
  401 510.507 -11.3668 1.70909
  402 510.479 -11.3972 -1.64967
  403 529.820 -6.31211 40.6479
  404 497.388 36.5034 11.0635
  405 547.471 -23.2899 41.8044
  406 785.526 163.575 31.7102
  407 270.069 -14.4637 -76.9130
  408 270.787 -14.4638 76.3681
  409 121.677 64.2092 -93.8180
  410 581.515 -2.02851 1.83581
  411 306.571 -2.40262 -15.7905
  412 306.952 -2.35184 15.6674
  413 539.984 -14.2605 32.4862
  414 490.132 -53.0809 28.7417
  415 550.602 -7.26152 6.11574
  416 564.188 28.6047 55.4679
  417 127.181 68.3680 97.5053
  418 490.823 -52.7594 -26.6556
  419 506.887 -47.0293 -7.74949
  420 172.358 -3.43107 -48.4825
  421 173.525 -3.55052 48.1700
  422 390.650 -31.6503 -115.736
  423 580.441 -8.81374 45.4907
  424 389.316 -32.0768 114.775
  425 537.074 -30.3133 -26.0872
  426 503.856 34.2588 -24.1219
  427 537.116 -23.4261 24.9616
  428 574.290 -2.88694 -4.68808
  429 18.6881 20.7015 10.4409
  430 119.511 140.265 137.601
  431 519.914 -1.88984 20.8895
  432 442.451 6.35839 10.6246
  433 449.502 7.67633 -14.3746
  434 383.538 -6.02842 -10.4478
  435 383.587 -5.95398 10.3891
  436 529.504 -41.1042 -13.1011
  437 536.415 -10.6003 -45.3223
  438 444.607 8.68690 -3.90190
  439 784.634 187.493 43.5102
  440 113.527 36.5855 -70.5134
  441 124.731 33.5584 75.0785
  442 496.577 -17.7766 0.578928
  443 496.399 -17.7448 -0.457145
  444 660.858 144.649 -1.48038
  445 406.211 176.618 259.498
  446 631.365 -8.36275 -3.44991
  447 370.834 -18.8917 -40.0540
  448 371.017 -18.7704 39.7449
  449 374.480 -8.00972 16.0677
  450 374.401 -8.06466 -16.1962
  451 500.697 11.3686 -39.0604
  452 584.219 -1.11496 -1.18482
  453 487.933 22.7149 22.0499
  454 609.207 75.1363 46.6172
  455 508.028 -37.6655 -1.91440
  456 550.339 -6.94077 -5.95742
  457 576.491 -2.64398 4.31396
  458 582.473 -1.20589 0.673347
  459 582.883 -1.32565 -0.469886
  460 333.670 -0.505656 3.95045
  461 333.502 -0.513689 -3.98635
  462 554.415 -35.4353 31.5554
  463 505.332 20.1720 37.8431
  464 526.140 2.20581 -48.9895
  465 545.960 -11.8270 18.8984
  466 772.575 139.010 -159.462
  467 547.853 -30.5778 -36.0107
  468 7.29447 10.7022 5.52336
  469 7.16378 10.9543 -2.80494
  470 437.807 -24.3967 18.5587
  471 436.421 -24.0520 -18.3070
  472 672.594 15.3817 87.9219
  473 190.642 179.110 -198.887
  474 541.646 -1.77312 16.0215
  475 607.934 -35.0701 -51.7454
  476 332.596 -18.7610 55.6899
  477 655.505 116.412 -29.1425
  478 540.059 -29.4184 29.9196
  479 456.444 -21.5383 -9.93603
  480 456.839 -21.1926 9.91639
  481 477.228 2.66627 -21.4591
  482 331.592 -18.6784 -55.9967
  483 488.397 0.361776 21.5061
  484 463.332 -53.1049 -72.9166
  485 462.201 -53.1856 73.2320
  486 556.526 -3.89853 13.9529
  487 511.316 48.3808 4.56634
  488 510.205 9.96818 178.903
  489 753.051 151.938 -0.945519
  490 522.130 -9.17558 2.37668
  491 522.151 -9.14473 -2.49290
  492 407.788 -6.96632 -6.81704
  493 407.825 -6.91221 6.79641
  494 216.865 9.39468 101.287
  495 542.641 -26.3194 -35.4837
  496 493.160 -10.9103 -0.408667
  497 493.110 -10.8777 0.415868
  498 430.928 -45.3988 59.6138
  499 220.916 12.4962 -103.791
  500 542.703 -44.3854 -15.1070
  501 10.1902 3.72455 2.78291
  502 481.167 25.2079 1.63660
  503 523.798 -6.48644 -0.744210
  504 523.793 -6.56577 0.719291
  505 431.124 -45.3072 -60.0534
  506 608.427 -30.7682 64.6634
  507 606.635 22.0653 46.8572
  508 558.307 -4.22951 -2.83842
  509 541.057 -44.9941 15.3944
  510 349.217 -0.234360 -0.744948
  511 349.308 -0.231561 0.739986
  512 541.251 -20.9435 -38.2690
  513 527.343 39.1046 41.2149
  514 599.393 14.8541 -46.3571
  515 347.081 -0.449476 -2.23229
  516 347.183 -0.442659 2.21921
  517 1025.46 148.317 -131.780
  518 548.018 65.1395 36.1121
  519 558.741 -3.94758 2.51079
  520 507.961 -48.0797 8.99056
  521 431.112 -13.9632 10.4339
  522 431.097 -14.0625 -10.4127
  523 588.167 -36.0077 10.8387
  524 567.397 -11.4965 -48.4855
  525 635.008 124.468 25.2885
  526 530.614 9.21304 50.8461
  527 531.566 -10.6042 5.17683
  528 515.910 -55.3297 -70.9228
  529 537.695 -13.4675 38.0838
  530 1012.05 46.6622 -18.3886
  531 583.637 -44.1590 3.70581
  532 554.855 -4.13432 -0.582339
  533 554.992 -4.36661 0.479039
  534 1022.61 68.5603 64.1061
  535 518.069 -0.0851666 43.2535
  536 715.619 122.308 -5.05724
  537 541.275 -15.0306 -18.1529
  538 254.113 -2.25415 -17.0119
  539 254.828 -2.14430 16.8503
  540 370.596 -34.5820 -80.5179
  541 370.924 -34.0063 79.9514
  542 531.267 -10.1906 -5.14586
  543 579.234 21.2337 -53.4770
  544 509.486 -34.6438 3.88135
  545 550.323 63.0387 -37.3895
  546 550.918 -6.68447 18.7575
  547 684.501 36.1201 -14.2539
  548 474.085 -16.1863 -3.79053
  549 473.956 -16.1404 3.75777
  550 512.929 -24.3016 6.38143
  551 748.511 150.873 -18.3386
  552 542.195 23.7538 52.7626
  553 233.728 59.8877 149.149
  554 518.647 -31.0189 120.951
  555 678.214 36.6746 -134.160
  556 554.166 45.8331 -48.9340
  557 488.295 -42.4748 -105.103
  558 529.359 -58.1692 -23.8544
  559 551.624 -56.0998 -33.5313
  560 74.6466 98.8407 -93.4600
  561 554.811 -7.41283 -11.0669
  562 829.117 160.787 -49.1508
  563 515.549 -23.3590 -7.43719
  564 519.474 -17.1374 6.16742
  565 519.004 -16.7649 -5.86596
  566 366.834 -1.91437 -4.97824
  567 366.920 -1.88982 4.95021
  568 56.0790 5.27156 -30.1342
  569 58.7993 5.53881 30.8023
  570 273.719 -12.4597 -58.5425
  571 275.697 -12.5318 58.4832
  572 526.688 -28.6931 -15.6408
  573 535.298 -58.4131 25.5850
  574 550.153 -52.4390 -0.720668
  575 455.568 -8.03575 -1.96976
  576 455.548 -7.98431 1.96086
  577 430.333 -45.3098 -89.8643
  578 479.244 -39.5609 110.985
  579 420.310 -42.6426 90.3142
  580 542.810 -12.1484 -48.5898
  581 347.687 -5.49145 17.8520
  582 347.518 -5.54655 -17.9834
  583 520.369 28.9515 -41.4603
  584 520.221 -0.922717 -18.9529
  585 646.599 139.265 -11.0812
  586 427.082 -6.29906 -1.84384
  587 427.101 -6.26120 1.83640
  588 551.337 -1.72091 -10.4801
  589 387.068 -12.6570 -20.0749
  590 387.093 -12.6188 19.9186
  591 313.737 13.9377 142.195
  592 536.618 -24.8821 -25.1959
  593 303.712 -16.3430 102.345
  594 527.380 -27.4763 16.0659
  595 553.529 -8.17898 12.2912
  596 546.020 -5.45748 -2.44506
  597 392.151 -4.60926 -4.72888
  598 392.208 -4.57368 4.70866
  599 620.654 123.210 -23.0552
  600 303.486 -15.7705 -102.690
  601 525.584 -22.9553 -12.6153
  602 476.259 -8.94686 -1.11508
  603 476.214 -8.88752 1.11100
  604 878.210 117.726 -21.2016
  605 323.839 -1.93902 9.78628
  606 323.573 -1.95731 -9.86824
  607 495.191 11.5867 35.7011
  608 694.043 60.1568 -1.38191
  609 333.810 1.74009 -141.017
  610 175.206 3.98784 -77.6607
  611 176.564 3.04971 77.2556
  612 420.177 -24.0757 25.2172
  613 424.329 -24.7864 -24.5863
  614 704.733 142.510 7.10161
  615 543.928 -5.63972 2.16060
  616 475.271 13.7070 -21.6347
  617 586.344 104.822 21.9973
  618 584.443 108.738 -14.6416
  619 480.214 -26.4616 -5.98754
  620 483.719 -25.8920 4.30919
  621 342.906 75.4577 -201.580
  622 416.238 -13.8846 -14.2164
  623 416.282 -13.7332 14.1770
  624 1021.39 209.493 157.938
  625 541.728 -17.8954 41.5331
  626 316.560 -10.8381 -37.4748
  627 823.791 201.278 138.847
  628 317.262 -10.7833 37.3519
  629 514.112 -19.3802 -140.569
  630 373.232 -1.65119 -1.83062
  631 373.309 -1.63714 1.82277
  632 459.552 4.32055 18.8925
  633 213.715 -3.05267 -33.5847
  634 214.788 -3.06127 33.3425
  635 474.197 -33.3233 12.2724
  636 496.225 -39.6029 -5.55336
  637 579.764 -1.43843 -4.03379
  638 339.017 -0.469174 2.95731
  639 338.882 -0.478037 -2.98354
  640 449.119 -10.0357 -3.21606
  641 449.109 -9.98562 3.19717
  642 510.056 -56.8241 71.5444
  643 588.052 65.6059 -48.4952
  644 396.254 -18.0375 -25.8257
  645 396.002 -17.7397 25.6552
  646 465.790 -33.2041 -16.0918
  647 727.251 157.553 7.46501
  648 547.023 -53.1011 3.63841
  649 477.963 -11.5211 -2.06592
  650 477.898 -11.4719 2.06398
  651 651.800 71.9080 33.8197
  652 548.763 -8.19781 -20.3738
  653 491.013 -0.497783 -17.4901
  654 231.064 -7.92067 -73.8463
  655 231.715 -8.12566 73.2847
  656 464.350 -39.7616 -24.7826
  657 692.436 151.126 -0.00384038
  658 541.157 73.1521 -16.2691
  659 364.746 -3.10286 -9.05166
  660 364.838 -3.06062 8.98877
  661 502.294 -14.3827 -0.937693
  662 502.389 -14.3907 1.03454
  663 919.727 119.725 52.9772
  664 586.988 -1.80126 1.00808
  665 570.031 -2.45380 7.07123
  666 568.091 -2.46467 -8.39538
  667 540.726 -50.4779 4.31929
  668 404.752 -4.51500 -2.36069
  669 404.799 -4.48534 2.35182
  670 580.434 92.6392 34.0414
  671 738.803 163.637 -13.1820
  672 410.391 -30.0243 -36.5772
  673 410.307 -29.7432 36.4139
  674 508.381 -52.3288 -13.9101
  675 538.603 32.0864 -49.7403
  676 632.455 1.97942 16.8658
  677 427.218 -7.77007 -4.88858
  678 427.239 -7.72492 4.87215
  679 369.520 -32.1827 -72.6725
  680 535.727 -51.9243 0.508206
  681 447.314 -49.5674 65.7391
  682 216.293 67.7297 -144.071
  683 419.485 -38.5341 50.7284
  684 506.295 0.147646 16.0715
  685 369.880 -31.8261 72.2190
  686 525.292 -23.3805 12.7707
  687 419.578 -38.3621 -51.1534
  688 435.564 5.92662 3.97970
  689 337.505 -8.72376 26.7773
  690 337.217 -8.72824 -26.9446
  691 447.479 -50.8474 -66.4474
  692 550.875 -36.4666 -30.4609
  693 506.012 -7.42881 -0.290616
  694 506.093 -7.49819 0.292392
  695 562.496 -36.0498 29.8127
  696 512.108 -53.5055 16.0247
  697 620.755 57.0885 45.4372
  698 561.401 -10.6707 50.2961
  699 540.254 -19.6088 30.0718
  700 520.077 42.9150 -31.4526
  701 620.852 104.119 36.1233
  702 536.893 -7.53390 -29.9044
  703 533.594 -17.9581 14.5744
  704 555.222 86.6214 8.76608
  705 543.464 -9.41455 25.7139
  706 173.574 118.741 151.362
  707 505.252 -58.2097 -42.6697
  708 584.879 10.5511 50.7553
  709 589.338 -18.3222 -34.4592
  710 584.837 -0.988905 2.14031
  711 539.535 -18.7964 -23.2972
  712 506.068 -58.6603 39.0537
  713 961.195 85.2580 -14.1872
  714 311.123 -1.22748 10.2285
  715 310.775 -1.24035 -10.3151
  716 546.061 -10.2888 -10.3988
  717 588.098 -0.771752 -2.11251
  718 463.576 -40.4145 24.9051
  719 554.197 -20.7894 45.3740
  720 829.404 203.349 -69.9803
  721 525.334 -38.1395 12.3688
  722 580.259 -38.3789 -15.4339
  723 533.769 -17.4956 -14.3324
  724 587.372 -1.24496 -0.596065
  725 542.448 -0.0970656 53.2046
  726 25.9676 27.6407 34.2501
  727 604.350 -22.3458 -93.8444
  728 659.707 40.0720 18.5995
  729 551.212 -56.5049 30.4177
  730 400.397 -9.30335 11.5887
  731 400.384 -9.42765 -11.6358
  732 503.248 269.985 -272.143
  733 562.678 -37.4119 -27.2291
  734 433.962 2.57155 -7.61434
  735 499.893 2.90897 34.6591
  736 543.886 -27.3890 36.0129
  737 521.302 -43.9320 4.39113
  738 539.275 -49.4056 -76.9262
  739 518.276 -41.0077 -5.49492
  740 608.416 -29.0660 -1.48370
  741 560.896 -4.96632 5.98375
  742 503.880 -30.2389 1.99233
  743 901.488 180.087 -97.3764
  744 535.857 -14.6543 11.3943
  745 533.265 8.81950 -52.1660
  746 451.866 -4.81514 157.591
  747 569.910 45.8160 52.7285
  748 490.464 -38.4553 7.98253
  749 382.346 -29.7001 -53.3030
  750 382.409 -29.6287 52.9058
  751 524.276 59.0123 -7.29767
  752 531.062 -6.19367 46.2433
  753 536.019 -12.8561 -39.0182
  754 504.434 -30.8744 -2.12906
  755 488.120 -43.5581 15.3723
  756 559.340 91.8918 -9.81040
  757 520.680 -45.0726 -2.34700
  758 522.069 -33.1187 12.2126
  759 527.869 -7.18401 1.68696
  760 528.165 -7.00554 -1.66843
  761 709.527 154.697 0.880538
  762 578.747 -49.3790 -21.9760
  763 541.134 -16.8159 23.2713
  764 560.972 -4.96466 -5.39225
  765 569.800 3.71618 -53.0063
  766 645.108 34.6299 -27.6523
  767 327.731 -0.232916 -4.82782
  768 327.940 -0.228718 4.78507
  769 5.07100 -8.70204 -6.01379
  770 552.615 -0.757269 9.68031
  771 510.347 -0.683978 -38.1707
  772 525.672 -4.93985 33.3247
  773 473.017 61.4773 229.165
  774 597.823 122.003 -1.18398
  775 427.329 -30.1307 29.0143
  776 80.4386 1.58803 -29.4511
  777 82.4702 1.15114 29.7539
  778 521.408 -3.68603 -37.7406
  779 428.395 -30.4168 -29.0220
  780 557.736 -5.44337 4.41306
  781 293.562 -12.2358 49.9027
  782 291.167 -12.1880 -49.8946
  783 535.799 -14.2434 -11.0861
  784 350.070 -8.47053 -23.3733
  785 350.243 -8.41917 23.1881
  786 557.312 -5.55814 -13.9199
  787 431.052 -11.2746 -8.36141
  788 431.074 -11.2075 8.36574
  789 607.753 -3.75745 -34.1782
  790 549.948 -5.82002 -53.0767
  791 288.513 -1.73455 -12.9625
  792 289.025 -1.71819 12.8241
  793 17.5516 7.08253 -18.4478
  794 19.9195 7.48333 19.3690
  795 453.051 2.27212 -13.7053
  796 501.558 -56.3406 -32.5316
  797 -5.58314 -3.79582 9.81609
  798 -4.96033 -4.60810 -9.84682
  799 521.568 -10.7931 3.75416
  800 564.485 -44.2490 -13.4657
  801 585.836 86.5596 -39.5940
  802 559.941 -4.92247 -4.20915
  803 1165.75 238.964 -218.820
  804 521.457 -10.7652 -3.70020
  805 780.295 147.606 13.3537
  806 559.479 16.2758 -55.4878
  807 615.551 46.6500 -46.7405
  808 110.877 -1.28022 -27.0012
  809 112.667 -1.43095 26.9585
  810 356.286 -4.88361 13.9763
  811 356.156 -4.92200 -14.0856
  812 342.381 -0.707964 2.64171
  813 342.267 -0.715671 -2.65989
  814 623.841 104.835 -35.6558
  815 376.601 -2.15499 -3.97110
  816 376.677 -2.13097 3.95259
  817 532.653 -5.35540 -48.3232
  818 754.113 82.6152 72.8811
  819 483.512 11.1074 -30.0721
  820 173.537 -1.49428 28.6952
  821 172.233 -1.50859 -28.9031
  822 609.142 19.0459 165.980
  823 545.590 -10.3712 10.7311
  824 494.502 33.1034 -12.5128
  825 234.992 -0.302440 19.4182
  826 233.911 -0.197052 -19.5483
  827 348.543 -1.61691 -6.89836
  828 348.674 -1.59370 6.84315
  829 63.4346 56.0450 50.1101
  830 513.722 12.4308 44.4174
  831 569.687 83.4480 -34.2448
  832 610.284 70.9264 -47.0297
  833 406.516 -14.9599 -18.3613
  834 406.306 -14.8589 18.3483
  835 633.244 133.776 15.8580
  836 543.729 -4.97527 -0.487449
  837 543.771 -4.93945 0.574197
  838 540.471 -16.4271 -30.5298
  839 455.302 -30.0008 17.8252
  840 498.648 -56.0050 32.5966
  841 581.930 -47.6587 50.2811
  842 451.906 -12.9685 -5.44666
  843 451.909 -12.9276 5.41813
  844 517.367 48.0894 20.2537
  845 487.598 6.89973 -32.4168
  846 135.137 167.709 157.411
  847 489.581 -43.1922 -14.1932
  848 491.436 -21.9352 -0.972074
  849 491.693 -21.9928 0.939806
  850 540.494 -8.03215 50.5650
  851 534.565 -35.2532 -21.1635
  852 479.275 -31.5060 -8.57085
  853 1060.34 34.3066 -51.5415
  854 456.116 -42.8231 33.2948
  855 455.725 -43.3620 -33.7918
  856 539.462 -6.56356 25.3832
  857 802.956 209.220 -52.6371
  858 429.071 -38.5545 -40.7081
  859 471.811 -52.9438 39.5186
  860 429.000 -38.1056 40.3761
  861 464.396 -18.5289 -6.50038
  862 464.396 -18.4763 6.46345
  863 71.9198 29.5584 43.3981
  864 579.451 43.2885 -53.0133
  865 446.645 -17.1838 -9.40770
  866 446.733 -17.0200 9.43734
  867 441.693 -7.22601 -1.15606
  868 441.692 -7.18131 1.14986
  869 483.050 -9.75346 -0.763100
  870 482.995 -9.69629 0.758057
  871 397.528 -7.48579 -9.97386
  872 397.570 -7.40603 9.93910
  873 448.071 -23.2264 -13.8265
  874 448.137 -23.0827 13.8880
  875 11.5451 -1.09301 -7.14108
  876 668.683 125.596 24.3009
  877 575.799 -20.3508 -40.9319
  878 471.368 -52.1662 -39.8899
  879 508.329 -16.5506 2.91665
  880 508.115 -16.3928 -2.79027
  881 554.604 0.614388 54.2585
  882 597.854 -42.5899 -30.2262
  883 527.062 40.0061 -199.492
  884 247.259 -4.44810 99.7604
  885 -6.52006 5.76216 -7.70895
  886 -5.40494 6.51727 8.41551
  887 71.5556 31.4278 -44.3476
  888 540.587 -15.8265 17.9941
  889 566.525 -4.03074 -7.49344
  890 510.398 -49.3513 87.4839
  891 246.696 -4.22239 -100.128
  892 568.741 -46.8035 7.93986
  893 628.736 -17.3459 78.0370
  894 468.310 1.96004 14.5033
  895 532.219 50.6702 34.3311
  896 292.051 -16.3029 72.9516
  897 290.963 -16.4323 -73.3952
  898 349.757 -16.2113 -41.0271
  899 362.680 -18.2500 -126.694
  900 570.396 -13.5077 46.8309
  901 776.707 185.168 35.5193
  902 573.608 21.9803 54.0635
  903 542.081 -11.7666 -28.0013
  904 370.048 -16.3456 129.809
  905 687.668 127.455 -15.7981
  906 71.4353 60.0140 -61.3810
  907 504.975 -0.946308 -15.3302
  908 350.116 -16.0841 40.6952
  909 423.997 -9.12797 7.30624
  910 423.975 -9.18467 -7.31874
  911 535.309 -35.0607 21.9533
  912 553.135 -3.97338 1.55868
  913 408.835 3.49542 -156.870
  914 581.916 -1.44711 3.52948
  915 578.264 -1.21001 -4.60732
  916 443.512 4.00012 -12.6489
  917 561.103 -2.35709 -8.53255
  918 424.853 -19.4712 -17.2995
  919 425.134 -19.1920 17.3575
  920 -13.0037 5.41173 -7.35151
  921 -18.3855 3.26789 7.96116
  922 553.100 -3.71730 -1.61317
  923 190.337 -4.42507 67.4221
  924 189.299 -4.04535 -67.7788
  925 594.909 86.5123 41.5741
  926 1036.34 18.8191 15.7790
  927 561.198 62.2871 44.5658
  928 628.134 -21.5146 26.0379
  929 550.201 -30.8056 36.0213
  930 683.694 142.952 -12.1161
  931 434.798 2.06208 9.54665
  932 528.935 -12.7823 -6.42394
  933 552.029 29.7196 -54.0149
  934 659.639 20.6684 -4.58500
  935 516.606 -31.9461 -9.04175
  936 273.095 -1.41772 -14.4644
  937 273.334 -1.36682 14.2720
  938 544.220 -13.0594 -21.4394
  939 19.6420 24.4084 6.73924
  940 522.570 -54.2088 -9.06851
  941 460.621 14.0164 -1.30173
  942 679.788 148.476 -8.01514
  943 110.846 82.1913 -99.8711
  944 525.685 -3.93115 -29.8585
  945 370.280 -5.88230 -13.1492
  946 370.361 -5.81600 13.0521
  947 3.62922 -14.3728 10.7559
  948 360.646 -26.4393 -58.8551
  949 532.612 -30.9321 -20.6646
  950 341.617 0.742416 -1.11340
  951 341.714 0.745322 1.10714
  952 541.281 65.6334 -27.3730
  953 572.298 -2.06211 -0.706055
  954 572.335 -2.08165 0.945504
  955 360.826 -26.3764 58.4909
  956 540.255 -0.848053 -11.6915
  957 617.451 4.58519 32.5316
  958 548.450 -8.11302 8.16650
  959 92.3443 22.4130 -53.9781
  960 567.533 -3.75425 6.75098
  961 520.765 4.33904 47.3660
  962 549.069 75.8573 24.3311
  963 547.617 6.35982 -55.1145
  964 381.853 -19.9961 -35.5400
  965 587.636 -21.0078 33.0867
  966 382.106 -19.9284 35.2130
  967 18.9047 20.0567 -3.54443
  968 69.0197 11.1131 39.6425
  969 315.300 -5.31864 24.0920
  970 314.939 -5.31846 -24.2113
  971 529.313 -13.0040 6.83000
  972 572.515 99.0657 13.2987
  973 292.701 26.2292 -149.144
  974 478.450 -29.6661 7.67566
  975 449.262 -46.7331 -49.0215
  976 651.332 124.469 26.5035
  977 502.256 -9.11369 0.0548644
  978 502.233 -9.06931 -0.0601132
  979 548.417 -10.4640 -15.1123
  980 512.779 44.4645 -18.6735
  981 1115.19 338.064 227.188
  982 111.757 5.83480 -51.3177
  983 113.317 4.83732 51.4129
  984 8.33267 -7.45307 4.26500
  985 513.896 28.6961 38.3321
  986 449.201 -47.0284 48.6875
  987 554.082 -26.3318 -41.5050
  988 602.394 49.2115 51.4869
  989 575.715 -46.4954 -60.6528
  990 838.057 175.994 60.9103
  991 493.587 -8.20572 -0.453569
  992 493.524 -8.14450 0.453142
  993 575.191 -23.6524 38.5857
  994 40.8223 73.8925 72.7854
  995 267.638 -5.39976 34.3855
  996 266.868 -5.32941 -34.7190
  997 316.584 -15.0902 47.2003
  998 315.545 -14.8494 -47.3534
  999 355.473 -14.2500 34.1483
  1000 388.628 -2.87675 -1.76395
  1001 388.692 -2.85661 1.75772
  1002 928.459 305.755 -197.641
  1003 852.614 214.155 91.7977
  1004 355.189 -14.3156 -34.4070
  1005 592.219 -2.83563 42.7552
  1006 534.671 55.5024 -32.9825
  1007 377.914 -32.7555 105.182
  1008 482.337 -57.0481 -58.3033
  1009 550.691 -4.68702 -16.8920
  1010 252.451 16.6222 121.907
  1011 323.683 -24.6496 83.9888
  1012 492.684 25.5558 -24.1088
  1013 557.454 -11.1595 -50.9915
  1014 688.023 300.314 308.417
  1015 467.242 14.6091 17.2530
  1016 627.569 134.071 -1.94047
  1017 457.686 18.5741 -177.898
  1018 469.524 -49.1524 -34.3241
  1019 588.324 -0.849154 -1.70526
  1020 571.268 52.4272 -51.3228
  1021 343.005 -2.03570 8.79247
  1022 342.843 -2.05598 -8.86522
  1023 12.9930 11.0306 -20.2717
  1024 382.438 -17.0091 -29.7058
  1025 323.277 -24.9625 -84.5759
  1026 382.181 -16.9793 29.4109
  1027 545.358 -16.7271 47.1853
  1028 490.051 -30.1582 -3.47736
  1029 516.823 9.65448 -45.9782
  1030 532.060 66.4025 9.63587
  1031 707.501 45.7889 32.7470
  1032 539.234 -41.0876 20.4598
  1033 346.320 -27.3244 -64.3919
  1034 512.925 18.3584 -43.1650
  1035 380.986 -32.3420 -105.675
  1036 724.662 155.918 -4.07480
  1037 499.867 33.0697 21.9335
  1038 621.652 -3.37688 -23.5643
  1039 472.406 -49.1925 31.8778
  1040 540.124 -17.2893 36.1604
  1041 536.065 -28.4479 24.8861
  1042 533.110 -26.9652 21.3016
  1043 655.680 83.8860 -34.9994
  1044 533.934 -8.70320 37.3139
  1045 481.660 -57.2057 57.3903
  1046 514.068 -21.1584 5.80297
  1047 346.542 -27.3847 64.0735
  1048 483.972 -35.4173 -9.19014
  1049 285.539 -14.0086 -89.7912
  1050 403.168 -41.6860 71.7318
  1051 542.900 -3.83157 -19.7776
  1052 530.169 -6.01590 -42.6800
  1053 459.994 -36.0335 -21.5579
  1054 286.014 -14.3863 89.1402
  1055 497.443 1.33142 -30.1151
  1056 371.938 -24.1981 -45.8147
  1057 663.406 140.354 16.2037
  1058 152.807 24.4025 -86.6145
  1059 1103.24 77.8070 104.629
  1060 269.748 19.3274 -127.398
  1061 532.782 -44.2158 -11.1224
  1062 372.054 -24.0021 45.4737
  1063 492.627 5.43566 33.8049
  1064 281.840 -5.49254 28.4850
  1065 281.719 -5.62623 -28.7543
  1066 540.521 -15.1392 -43.8347
  1067 569.993 -3.22432 2.54663
  1068 561.521 -1.39478 8.58762
  1069 557.701 18.4501 55.4491
  1070 523.293 -3.93062 40.2394
  1071 402.839 43.5308 192.163
  1072 591.750 -0.595371 0.769098
  1073 562.767 76.0397 35.4395
  1074 480.439 7.20421 29.2164
  1075 567.791 -2.30599 8.18717
  1076 373.953 -3.75439 -7.43681
  1077 374.028 -3.71277 7.39563
  1078 240.732 -6.63158 -47.5948
  1079 241.597 -6.87223 47.3053
  1080 482.036 24.3675 12.2924
  1081 708.837 40.9835 -58.7015
  1082 651.567 1.30497 -104.262
  1083 528.396 -0.519231 -12.2079
  1084 403.265 -41.9901 -72.2478
  1085 460.969 -34.2770 19.4984
  1086 531.220 -1.25912 12.7276
  1087 553.326 -40.3296 -24.4632
  1088 354.774 -0.681078 4.37306
  1089 354.675 -0.694063 -4.39664
  1090 531.786 -45.4809 11.1066
  1091 506.107 -10.6033 0.581724
  1092 506.021 -10.6163 -0.554062
  1093 492.848 -49.4802 21.4248
  1094 629.322 -19.9478 -12.3158
  1095 296.305 -0.483737 -8.08777
  1096 296.751 -0.466856 8.01029
  1097 432.233 -27.7363 -121.101
  1098 462.283 -10.9964 3.18916
  1099 462.319 -11.0502 -3.21088
  1100 277.943 152.443 211.235
  1101 634.593 52.4782 -40.5450
  1102 97.4369 46.4532 -66.7356
  1103 548.685 -8.53672 -7.87605
  1104 151.071 50.7157 -99.4387
  1105 312.046 -19.2839 -60.9880
  1106 591.563 -0.832098 0.532415
  1107 591.751 -0.792012 -0.381784
  1108 541.466 -31.0664 -30.5844
  1109 479.260 -54.0026 -79.0778
  1110 152.940 20.7766 82.5319
  1111 589.562 58.2786 49.4098
  1112 533.301 -5.80418 -0.616198
  1113 533.370 -5.80599 0.662569
  1114 579.324 -36.7957 96.2389
  1115 604.949 120.340 18.7563
  1116 365.229 -8.44473 -18.6988
  1117 365.328 -8.40912 18.5823
  1118 274.877 30.8719 150.659
  1119 515.475 2.73817 -44.4269
  1120 164.459 52.1276 106.635
  1121 651.702 -10.1959 -36.4512
  1122 647.029 141.725 5.38580
  1123 447.296 -34.9833 25.6392
  1124 419.795 2.43246 -1.86375
  1125 562.155 -5.19313 10.2369
  1126 580.575 -0.891659 3.96679
  1127 135.728 0.191112 -24.0872
  1128 137.363 0.131940 23.9354
  1129 466.536 8.09193 -21.6960
  1130 476.042 -13.9807 -2.88186
  1131 475.945 -13.9245 2.86932
  1132 51.0662 88.1581 -77.6293
  1133 79.9982 184.877 -151.298
  1134 481.791 -18.7694 2.89956
  1135 481.960 -18.7572 -2.93153
  1136 496.965 -12.1323 0.471197
  1137 496.896 -12.1130 -0.435370
  1138 133.196 84.6883 107.813
  1139 397.682 -4.69157 -3.67016
  1140 397.736 -4.66010 3.65562
  1141 497.487 37.8493 -0.493380
  1142 617.804 83.9580 -221.152
  1143 601.825 103.387 -32.1965
  1144 548.295 -21.1771 -44.2912
  1145 539.904 -27.0916 -31.3116
  1146 447.501 -35.2979 -26.0449
  1147 455.012 1.59943 13.3910
  1148 507.802 31.8792 -32.0730
  1149 501.126 27.1849 30.6962
  1150 513.744 -20.5602 -5.67745
  1151 491.259 -29.5671 3.09565
  1152 448.389 -28.5932 -19.5423
  1153 532.044 -3.19197 23.6811
  1154 922.566 92.8834 12.8492
  1155 535.313 -11.4904 43.0846
  1156 538.375 35.3779 47.8145
  1157 495.109 -48.5602 -16.8270
  1158 65.6868 10.1883 -38.2831
  1159 504.377 -23.3868 -3.33425
  1160 343.984 -0.443087 -0.239756
  1161 344.074 -0.441047 0.237742
  1162 610.658 -16.1870 19.5116
  1163 581.734 -49.0727 25.5546
  1164 832.333 148.237 37.6672
  1165 209.086 -0.350758 -19.9240
  1166 210.210 -0.307214 19.7873
  1167 452.914 -9.11158 -2.46898
  1168 452.898 -9.06037 2.45433
  1169 505.773 -44.5233 -4.40919
  1170 423.321 2.05328 6.11563
  1171 517.706 -36.8762 8.23894
  1172 30.8833 36.6679 -19.4415
  1173 96.3242 47.1399 65.1985
  1174 348.891 -19.3558 116.964
  1175 599.962 113.671 -23.0264
  1176 569.742 -1.67310 -6.48020
  1177 593.933 -1.04773 0.316726
  1178 594.444 -1.38830 -0.177704
  1179 356.727 -0.709748 -0.748282
  1180 356.815 -0.703800 0.743672
  1181 553.135 35.3358 54.0146
  1182 809.418 137.204 -2.93943
  1183 570.495 93.9408 -23.8639
  1184 425.537 -31.6341 120.343
  1185 347.052 -18.6583 -116.728
  1186 387.424 -25.4590 -41.2596
  1187 529.722 -15.0796 8.93080
  1188 735.783 163.002 11.6356
  1189 387.478 -25.3179 40.9641
  1190 540.493 -9.80239 6.75382
  1191 488.760 18.4286 29.3430
  1192 535.304 16.6575 52.1042
  1193 755.281 168.363 22.0160
  1194 453.699 -11.7401 4.55583
  1195 453.715 -11.7900 -4.58208
  1196 547.805 -10.5985 15.7179
  1197 333.254 -3.36766 13.7029
  1198 333.027 -3.40061 -13.8141
  1199 535.552 -7.66053 -2.77073
  1200 222.473 133.570 -205.021
  1201 463.917 -26.3292 -128.925
  1202 441.839 -13.6373 -7.99064
  1203 441.890 -13.5821 7.99403
  1204 572.061 -2.99833 2.36731
  1205 543.420 -7.49595 5.37135
  1206 31.1533 40.2878 30.2765
  1207 588.351 -0.778419 2.00954
  1208 72.4301 93.5878 92.8012
  1209 531.328 -8.30025 -3.61614
  1210 -0.466468 -12.7571 -11.2232
  1211 379.037 -37.0405 -90.7097
  1212 378.062 -36.1539 89.8389
  1213 588.322 -1.14264 -2.24472
  1214 507.475 -26.7983 -4.17378
  1215 571.744 -2.76897 -2.37298
  1216 463.089 -14.8857 -4.71556
  1217 463.052 -14.8392 4.67488
  1218 535.221 -7.61286 2.58039
  1219 504.023 -22.9213 3.29992
  1220 485.745 -15.6732 1.37803
  1221 485.905 -15.7075 -1.32594
  1222 571.177 -2.85064 -1.92122
  1223 495.204 -52.3698 -88.9456
  1224 559.600 -3.84172 -1.90655
  1225 533.495 -8.51646 3.95340
  1226 379.685 -3.91911 -5.57898
  1227 379.755 -3.88207 5.55127
  1228 421.274 -6.03737 -3.00521
  1229 421.301 -5.99939 2.99276
  1230 672.285 105.387 28.3804
  1231 565.700 -43.6850 16.8981
  1232 389.676 -2.07651 148.331
  1233 320.438 -0.458546 5.26762
  1234 320.178 -0.463853 -5.31469
  1235 538.150 -10.0587 32.1676
  1236 514.226 -8.10022 0.489801
  1237 514.241 -8.07592 -0.489617
  1238 590.799 114.315 10.8312
  1239 537.189 -56.4005 71.4883
  1240 319.885 -4.30921 19.1070
  1241 319.586 -4.33951 -19.2330
  1242 513.665 -12.7704 2.71276
  1243 513.549 -12.8621 -2.60542
  1244 529.427 -14.9098 -8.56812
  1245 491.807 0.135436 15.5699
  1246 834.081 207.611 -72.3544
  1247 539.735 -19.9416 -27.7395
  1248 96.4127 22.1491 55.4105
  1249 557.154 -29.8662 38.2841
  1250 454.820 10.2550 -11.8830
  1251 36.6382 25.7650 21.1393
  1252 727.388 83.7066 -13.4478
  1253 544.691 -24.9057 -39.1960
  1254 456.853 6.75344 18.2205
  1255 314.157 -19.3235 60.9190
  1256 552.411 -42.9242 21.4276
  1257 793.525 156.968 56.1286
  1258 189.706 27.3132 104.658
  1259 554.550 -6.89896 -13.5877
  1260 1044.31 11.8274 -10.3413
  1261 1077.36 16.0587 45.8131
  1262 1147.81 38.3832 -109.361
  1263 539.490 -17.0042 -35.1087
  1264 539.052 -24.7736 29.2620
  1265 547.225 -39.1065 26.3911
  1266 -15.9886 2.00126 10.0141
  1267 -14.4986 1.64906 -10.9614
  1268 531.898 -58.9554 -35.1531
  1269 544.123 -55.2017 -51.2177
  1270 426.137 2.84852 -7.53760
  1271 529.507 -59.9721 50.9144
  1272 566.449 -27.0177 -38.7283
  1273 12.5884 17.5484 3.28798
  1274 463.570 -8.49912 1.55361
  1275 463.600 -8.55422 -1.55767
  1276 561.600 -4.80416 9.12008
  1277 540.425 -9.63728 -6.30725
  1278 510.112 -55.6677 -19.8706
  1279 468.068 -25.1114 9.23566
  1280 465.794 -24.7477 -9.85111
  1281 546.374 -11.7886 22.0570
  1282 560.124 -20.7162 -45.3588
  1283 37.9832 26.8612 -20.6602
</Section>

newXOutput 75

<Section columns = "stress_xx | stress_yy | stress_xy">
  1 604.803 -0.259649 1.10272
  2 604.800 -0.247006 -1.10523
  3 343.549 -0.0731672 -0.397167
  4 -4.29152 -4.23126 -6.17342
  5 1060.46 440.335 345.575
  6 1050.88 455.524 -343.129
  7 -4.98894 -4.00821 6.58613
  8 343.458 -0.0742890 0.396247
  9 608.751 -1.07272 0.313308
  10 607.635 -1.67066 -0.354186
  11 606.529 -1.17158 1.21454
  12 605.393 -1.56270 0.243044
  13 602.916 -1.33633 1.90894
  14 600.639 -1.33921 1.33318
  15 595.045 -1.17825 2.77062
  16 586.809 -0.902883 4.10683
  17 579.522 -0.914410 4.62728
  18 568.504 -1.19533 5.65383
  19 552.975 -0.167630 8.43753
  20 538.637 -0.877197 8.08821
  21 522.007 -1.09073 11.4848
  22 498.022 0.761744 10.0594
  23 480.425 1.22130 11.9505
  24 457.445 2.01476 9.40371
  25 441.442 2.21976 9.50613
  26 418.275 3.01174 4.86223
  27 413.345 4.72587 5.23174
  28 410.356 3.92980 -1.55272
  29 414.386 2.37241 -3.38001
  30 421.832 2.23679 -4.15399
  31 439.200 2.76949 -8.27280
  32 456.076 2.19059 -10.4147
  33 480.632 0.557672 -12.3172
  34 500.241 -0.223027 -11.1365
  35 520.972 -0.861190 -10.8661
  36 539.652 -0.691597 -7.62670
  37 555.537 -0.748131 -6.46923
  38 568.507 -1.17637 -5.37839
  39 580.009 -0.871971 -3.67674
  40 587.043 -1.06734 -3.86921
  41 593.848 -1.25838 -2.81294
  42 600.161 -1.47121 -1.14606
  43 603.357 -1.20040 -1.40817
  44 604.902 -0.791861 -0.842769
  45 603.366 -0.519728 -0.772185
  46 608.181 -1.66614 0.257595
  47 608.904 -1.10973 -0.322594
  48 590.490 -0.721565 -0.683740
  49 578.230 -2.81003 -1.29051
  50 563.116 -4.04667 -0.757338
  51 544.594 -5.81182 -1.06093
  52 526.917 -6.29824 -1.27455
  53 507.964 -7.68683 -1.22772
  54 491.110 -8.43482 -0.616037
  55 476.322 -9.27827 -0.147475
  56 459.228 -7.65659 -0.126068
  57 439.518 -7.07405 -0.329362
  58 420.545 -5.50791 -0.00757793
  59 402.596 -3.43532 0.0500496
  60 385.572 -2.39284 0.110598
  61 370.696 -1.15524 0.223088
  62 355.560 -0.255100 -0.447527
  63 343.680 0.494436 0.654327
  64 338.275 1.27664 0.471871
  65 341.694 0.0433626 1.06068
  66 337.366 -0.130741 1.29346
  67 333.236 -0.214251 1.60799
  68 327.696 0.0120359 2.06491
  69 320.723 0.0105146 2.57918
  70 315.356 -0.338267 4.87764
  71 300.824 0.436222 5.30775
  72 290.460 -0.00330772 6.02469
  73 275.033 -0.232838 6.84910
  74 257.325 -0.410400 8.32072
  75 235.164 -0.0720636 10.1053
  76 208.153 0.142119 11.1764
  77 184.517 -0.191929 15.9923
  78 138.359 1.45058 15.1680
  79 106.540 1.24790 16.0774
  80 68.0664 -0.335758 17.9422
  81 35.7717 2.85999 18.8077
  82 -1.17061 4.35225 11.5879
  83 -28.4572 4.44028 4.46660
  84 -28.6900 4.36827 -1.02112
  85 -28.3400 3.66810 -8.36450
  86 -16.7753 -1.03694 -8.09551
  87 -1.95831 -16.1016 -8.97148
  88 1.74518 -29.4407 -11.0398
  89 4.61465 -45.5203 -5.59523
  90 10.1074 -44.6248 1.71833
  91 21.1746 -4.17200 29.4209
  92 62.0181 106.416 95.6449
  93 351.876 349.742 311.160
  94 1287.54 194.316 213.140
  95 1164.80 27.6745 68.8105
  96 1086.97 11.6210 21.0581
  97 1058.31 9.94576 1.58012
  98 1073.76 13.1370 -18.3501
  99 1162.76 25.9547 -54.5231
  100 1359.18 93.7163 -182.208
  101 210.221 360.354 -261.508
  102 46.3885 80.7527 -79.9384
  103 23.1894 -1.84356 -31.5880
  104 9.48829 -44.2473 -6.43378
  105 2.84595 -34.3066 6.35427
  106 3.45905 -37.1927 9.51335
  107 0.220072 -13.8487 9.94623
  108 -17.5297 -0.611934 7.64844
  109 -29.2323 2.75472 7.26419
  110 -30.2410 5.29815 1.17523
  111 -29.3458 4.35833 -4.18612
  112 -3.26164 4.45992 -10.8913
  113 33.9553 2.88405 -17.9522
  114 66.2181 -0.0266881 -17.6496
  115 104.624 1.34807 -16.1064
  116 136.619 1.48708 -15.2767
  117 183.170 -0.198527 -16.1179
  118 207.002 0.156305 -11.2778
  119 234.156 -0.0688314 -10.2255
  120 256.815 -0.457834 -8.37646
  121 274.332 -0.218865 -6.86353
  122 289.925 0.0151890 -6.08273
  123 300.383 0.431378 -5.36121
  124 315.034 -0.341863 -4.92286
  125 320.461 0.00817728 -2.60680
  126 327.493 0.00978492 -2.08754
  127 333.077 -0.218001 -1.62586
  128 337.239 -0.133957 -1.30588
  129 341.586 0.0406569 -1.06855
  130 338.176 1.27543 -0.475479
  131 343.586 0.493801 -0.656612
  132 355.470 -0.258140 0.446438
  133 370.613 -1.16289 -0.225825
  134 385.499 -2.40953 -0.113777
  135 402.540 -3.45848 -0.0530920
  136 420.510 -5.54134 0.00452133
  137 439.507 -7.11654 0.326919
  138 459.244 -7.70601 0.123441
  139 476.359 -9.33416 0.146188
  140 491.163 -8.49080 0.617818
  141 508.042 -7.73778 1.23349
  142 526.987 -6.33305 1.29528
  143 544.651 -5.84300 1.16166
  144 563.220 -3.84693 0.773835
  145 578.628 -2.74415 1.26153
  146 590.603 -0.813809 0.672796
  147 532.874 -50.1027 -0.0864121
  148 532.401 -49.4212 0.272548
  149 562.271 80.5805 -25.7157
  150 596.020 35.0830 53.4842
  151 451.886 -43.7808 -101.785
  152 455.616 -43.6974 98.6227
  153 442.636 -18.4628 13.1681
  154 442.661 -18.7099 -13.1729
  155 629.753 22.9295 -38.8754
  156 531.493 -19.3388 9.57052
  157 531.262 -18.8883 -9.45734
  158 686.780 152.022 5.34827
  159 545.877 -0.856095 -53.1835
  160 406.816 -31.5438 -45.9120
  161 406.855 -31.2919 45.5400
  162 546.321 -12.4586 47.6026
  163 522.016 38.2602 32.1569
  164 217.795 34.1555 -121.639
  165 240.770 32.4260 128.056
  166 662.197 8.39145 -0.414053
  167 546.795 -21.1472 -32.2622
  168 721.094 158.307 1.55649
  169 493.749 -14.0153 -1.14716
  170 493.652 -13.9795 1.18462
  171 551.131 -7.07670 -4.10432
  172 552.734 -6.40704 3.51979
  173 393.355 -5.37992 -7.52399
  174 393.413 -5.32648 7.49096
  175 588.184 -14.4602 129.525
  176 506.116 21.2500 -34.6914
  177 332.787 -24.7009 -72.7634
  178 333.760 -24.5249 72.3281
  179 374.718 -11.8923 -24.0516
  180 374.763 -11.7610 23.8923
  181 549.259 -14.6349 27.4557
  182 500.324 -34.2138 -3.64886
  183 498.645 -33.9599 4.39238
  184 565.647 -54.9438 -13.6185
  185 568.698 -52.3465 6.65091
  186 778.985 183.813 -31.6839
  187 573.018 91.6363 23.9719
  188 572.506 35.1616 -54.4517
  189 585.561 -3.56708 -149.746
  190 566.405 -32.1661 -36.3619
  191 571.362 -23.0284 43.4925
  192 477.653 -54.1565 51.1577
  193 477.703 -53.7598 -51.0199
  194 513.903 6.69005 41.5269
  195 238.577 -6.09927 -89.2912
  196 239.121 -6.57401 88.7814
  197 874.464 130.340 19.1929
  198 537.014 -32.1067 18.8268
  199 556.074 -10.4991 -17.5756
  200 445.423 -10.7260 -6.20021
  201 445.438 -10.6773 6.18406
  202 536.501 -7.02051 -36.8482
  203 609.450 89.3090 -42.7958
  204 514.066 46.3575 -6.42728
  205 338.495 -11.6071 33.4774
  206 338.000 -11.6387 -33.7033
  207 563.258 -6.60292 9.29500
  208 552.147 10.4011 54.7798
  209 450.491 -32.4028 -23.2154
  210 447.646 -30.6696 23.6465
  211 647.777 96.1975 37.6901
  212 754.975 107.080 24.5409
  213 54.4727 41.6536 -36.0943
  214 50.4651 38.5014 30.7931
  215 314.861 91.1342 211.715
  216 531.731 -35.4029 -13.6967
  217 565.092 -6.33564 -8.38288
  218 508.449 4.64002 -38.2686
  219 361.622 -3.37122 -10.7144
  220 361.741 -3.33416 10.6313
  221 480.488 -22.3980 -6.10493
  222 480.715 -22.5463 5.83836
  223 540.704 -7.36008 31.2183
  224 616.997 -35.5594 18.7746
  225 618.352 125.524 -12.2057
  226 484.946 -46.6088 -25.4141
  227 609.499 -10.6502 32.0459
  228 521.125 -9.06482 1.16390
  229 521.125 -8.99617 -1.16277
  230 481.565 -46.3928 26.2534
  231 549.891 -35.0478 29.2370
  232 763.106 103.201 -56.0350
  233 174.326 103.665 -155.493
  234 472.637 16.9227 8.35548
  235 554.905 48.9006 46.2734
  236 587.913 -4.20089 -47.2134
  237 550.508 -19.9377 -44.1128
  238 300.428 -9.37350 -41.6950
  239 301.410 -9.23640 41.5851
  240 551.095 -6.83084 -23.8496
  241 524.877 -13.5472 4.63752
  242 524.635 -13.5366 -4.44669
  243 115.441 10.0681 -57.9083
  244 117.113 8.81821 57.6973
  245 581.555 -51.0167 -49.1568
  246 574.839 -2.43283 1.12285
  247 575.386 -2.47511 -1.26941
  248 542.581 45.0468 -42.5121
  249 481.320 9.55035 25.2136
  250 975.983 156.235 105.253
  251 967.302 110.144 -65.4125
  252 712.120 152.340 0.452949
  253 445.116 -21.7145 134.666
  254 409.349 -14.4109 -140.649
  255 471.503 -9.68742 -2.44439
  256 471.465 -9.63159 2.42998
  257 395.404 -10.2357 15.0154
  258 395.390 -10.3717 -15.1330
  259 563.230 -6.35435 14.3322
  260 547.598 -39.1272 -23.3723
  261 364.113 -0.552612 -2.55450
  262 364.204 -0.542161 2.54096
  263 540.788 -22.1137 -18.8576
  264 236.441 -7.59315 -58.0355
  265 237.384 -7.61605 57.6497
  266 547.906 -23.9175 34.8172
  267 420.351 -44.6166 81.9703
  268 421.338 -45.4112 -81.7144
  269 479.082 18.6789 -11.7381
  270 413.576 -6.11561 -5.08862
  271 413.619 -6.07712 5.07184
  272 517.178 -1.20698 30.4976
  273 614.818 112.005 29.5278
  274 337.077 -3.88396 17.8989
  275 336.830 -3.91481 -18.0364
  276 561.555 -47.0976 14.8000
  277 519.812 -58.5263 -56.6397
  278 577.267 -3.14075 4.19993
  279 408.263 -23.7002 -31.6007
  280 407.615 -23.4445 31.4960
  281 701.839 80.4318 188.690
  282 341.412 -27.6689 97.2919
  283 548.158 76.8204 -2.71938
  284 684.439 76.9495 -21.5043
  285 519.772 -40.1681 3.52221
  286 520.341 -60.1045 51.3712
  287 342.368 -27.2374 -98.3179
  288 64.9887 80.4101 74.3271
  289 540.883 -22.1807 19.2209
  290 704.369 93.6070 15.0882
  291 581.444 -2.80979 -3.64350
  292 533.390 18.8104 -48.9575
  293 523.687 -29.6834 9.08079
  294 513.017 -43.2231 4.31842
  295 531.665 24.5202 47.2419
  296 558.974 -47.0890 -12.8618
  297 788.003 152.155 -14.7850
  298 523.550 -28.5434 -8.66100
  299 427.847 126.803 -257.181
  300 534.325 -56.7293 -13.9838
  301 530.645 -58.2911 19.9779
  302 394.157 -35.3400 -64.2887
  303 360.726 -1.23235 -5.51497
  304 360.833 -1.21063 5.47716
  305 394.353 -35.3771 63.9653
  306 566.476 -0.994794 -54.4386
  307 608.143 -25.2018 -19.5807
  308 467.811 -27.8766 -13.1440
  309 467.551 -27.9428 13.3674
  310 553.233 -47.6333 89.0126
  311 555.389 -4.62307 18.0379
  312 668.320 4.74717 35.8364
  313 459.046 -16.0067 -7.41245
  314 459.083 -15.9609 7.37841
  315 420.384 -10.6448 -10.1493
  316 420.397 -10.5507 10.1380
  317 476.676 6.63134 -24.3716
  318 603.062 44.2514 -51.6390
  319 919.741 249.820 -121.863
  320 547.791 -5.26766 -1.30496
  321 547.509 -5.20116 1.34949
  322 298.159 -1.11841 121.444
  323 417.822 -18.5243 -21.2721
  324 417.092 -18.4731 21.3301
  325 298.098 -1.84249 -120.978
  326 576.910 67.9740 -44.6791
  327 640.834 32.1024 36.4454
  328 552.918 -39.4202 -98.4371
  329 512.292 -19.8883 3.19312
  330 511.795 -19.7558 -2.98453
  331 544.974 -11.6667 -8.73308
  332 517.494 -0.920354 -28.5045
  333 576.442 2.35417 52.9950
  334 572.606 -4.29178 -9.79678
  335 351.792 -20.8965 48.8866
  336 351.408 -21.0054 -49.2306
  337 538.373 -1.17195 50.6295
  338 339.561 -2.57352 -10.6950
  339 339.773 -2.55002 10.6081
  340 549.186 -12.9524 14.2742
  341 659.537 134.139 -20.3380
  342 544.757 -11.7419 9.09100
  343 583.155 73.0160 44.7261
  344 557.302 -10.4699 51.8402
  345 445.000 -8.21170 2.36376
  346 444.996 -8.25739 -2.37649
  347 529.479 -1.82993 -44.9930
  348 695.486 145.816 11.0514
  349 582.403 106.153 0.924314
  350 355.958 41.1417 -179.466
  351 39.8858 16.2545 -26.1771
  352 43.4018 17.6090 28.0145
  353 -0.962063 4.59835 9.97062
  354 1.06115 2.87997 -10.4863
  355 996.505 69.2222 23.3646
  356 482.099 -38.8633 -15.7743
  357 549.546 -12.5387 -13.9139
  358 498.007 -8.97887 0.212146
  359 497.951 -8.91353 -0.216329
  360 535.455 59.1701 -23.0498
  361 455.842 -46.1370 42.1592
  362 41.6740 62.5089 -47.0748
  363 456.207 -46.1094 -42.8600
  364 542.138 61.6577 24.5183
  365 549.156 -14.8898 -26.0647
  366 581.195 -32.6156 -29.9788
  367 622.476 130.401 8.36825
  368 582.289 -36.5834 23.8962
  369 249.691 -5.98631 38.7891
  370 248.309 -5.86849 -39.0102
  371 143.187 3.22865 -54.5133
  372 144.542 2.69545 54.2816
  373 483.668 1.86802 24.5933
  374 892.488 264.701 108.427
  375 566.495 -3.83986 -12.7212
  376 445.056 -37.1348 -32.4898
  377 444.742 -37.0583 32.4498
  378 546.586 -12.7838 -33.5974
  379 617.959 -29.8451 -0.822795
  380 482.083 -38.8358 16.1880
  381 674.572 6.61034 -61.3447
  382 393.254 -2.95570 -2.07593
  383 393.319 -2.93171 2.06436
  384 538.784 -3.22055 -21.7362
  385 298.055 -4.08613 -25.2370
  386 298.220 -4.22282 24.9499
  387 640.191 82.0004 -42.3623
  388 348.117 24.3581 167.097
  389 503.447 -26.3846 0.121249
  390 503.929 -26.3446 -0.139639
  391 592.306 99.7638 -28.0629
  392 559.134 -16.6966 -48.8105
  393 557.776 -57.1938 50.4846
  394 469.917 -12.4282 -3.89683
  395 469.872 -12.3763 3.86750
  396 538.947 -41.6683 14.6232
  397 577.599 -3.01066 7.22049
  398 368.816 -12.9999 -29.9338
  399 368.967 -13.0068 29.7038
  400 549.655 18.5189 -54.1244
  401 517.059 -11.5220 1.69011
  402 517.031 -11.5530 -1.63022
  403 536.677 -6.39587 41.0656
  404 503.945 36.9946 11.1860
  405 554.496 -23.5943 42.1977
  406 795.406 165.605 32.1902
  407 273.733 -14.6571 -77.9504
  408 274.458 -14.6571 77.3997
  409 123.364 65.0641 -95.1586
  410 588.804 -2.06441 1.84505
  411 310.811 -2.42866 -16.0004
  412 311.196 -2.37734 15.8762
  413 546.923 -14.4496 32.7967
  414 496.440 -53.7597 29.2084
  415 557.590 -7.36779 6.14958
  416 571.457 28.9732 56.0349
  417 128.931 69.2783 98.8874
  418 497.139 -53.4332 -27.0955
  419 513.400 -47.6302 -7.95659
  420 174.819 -3.47895 -49.1419
  421 175.998 -3.59975 48.8261
  422 395.717 -32.0749 -117.302
  423 587.850 -8.93008 45.9030
  424 394.371 -32.5055 116.329
  425 543.958 -30.7069 -26.2965
  426 510.481 34.7195 -24.3847
  427 543.999 -23.7336 25.1694
  428 581.525 -2.93385 -4.72028
  429 18.9678 21.0383 10.6546
  430 121.122 142.245 139.525
  431 526.678 -1.91372 21.1063
  432 448.415 6.45466 10.7441
  433 455.540 7.79008 -14.5350
  434 388.692 -6.09774 -10.6001
  435 388.743 -6.02255 10.5409
  436 536.290 -41.6329 -13.1449
  437 543.336 -10.7398 -45.7814
  438 450.593 8.81636 -3.94533
  439 794.481 189.869 44.2254
  440 115.127 37.0626 -71.5291
  441 126.474 33.9953 76.1507
  442 502.979 -18.0078 0.527845
  443 502.800 -17.9760 -0.404867
  444 669.336 146.457 -1.48558
  445 411.187 179.105 262.870
  446 639.315 -8.44885 -3.30331
  447 375.784 -19.1270 -40.6011
  448 375.969 -19.0045 40.2888
  449 379.520 -8.10433 16.2950
  450 379.440 -8.15976 -16.4247
  451 507.272 11.5272 -39.4852
  452 591.533 -1.13787 -1.18937
  453 494.382 23.0271 22.2936
  454 617.008 76.0979 47.0509
  455 514.562 -38.1480 -1.83847
  456 557.322 -7.04327 -5.99101
  457 583.748 -2.68780 4.34344
  458 589.763 -1.23098 0.675773
  459 590.175 -1.35241 -0.470521
  460 338.281 -0.509334 4.00629
  461 338.112 -0.517447 -4.04252
  462 561.501 -35.8946 31.8089
  463 511.963 20.4456 38.2550
  464 532.973 2.23750 -49.5057
  465 552.935 -11.9887 19.0593
  466 781.942 141.012 -161.691
  467 554.871 -30.9750 -36.3281
  468 7.45839 10.8508 5.63898
  469 7.32305 11.1090 -2.88547
  470 443.544 -24.7014 18.8503
  471 442.143 -24.3518 -18.5937
  472 680.922 15.6754 89.2232
  473 193.088 181.601 -201.545
  474 548.618 -1.80006 16.1804
  475 615.555 -35.4972 -52.5675
  476 337.065 -18.9987 56.4384
  477 663.860 117.902 -29.3414
  478 546.980 -29.8012 30.1737
  479 462.397 -21.8087 -10.1158
  480 462.797 -21.4591 10.0960
  481 483.559 2.70579 -21.6935
  482 336.049 -18.9148 -56.7480
  483 494.844 0.371508 21.7387
  484 469.292 -53.7923 -73.9406
  485 468.148 -53.8740 74.2623
  486 563.626 -3.95509 14.0816
  487 518.030 49.0226 4.61659
  488 516.597 10.1360 181.281
  489 762.577 153.816 -0.956987
  490 528.807 -9.30500 2.37290
  491 528.827 -9.27380 -2.49053
  492 413.214 -7.04895 -6.92284
  493 413.252 -6.99434 6.90204
  494 219.804 9.50097 102.682
  495 549.602 -26.6626 -35.8057
  496 499.522 -11.0565 -0.442961
  497 499.472 -11.0237 0.450136
  498 436.535 -45.9814 60.4483
  499 223.905 12.6408 -105.217
  500 549.640 -44.9578 -15.1617
  501 10.3496 3.83277 2.76679
  502 487.546 25.5550 1.65569
  503 530.488 -6.58300 -0.741214
  504 530.483 -6.66321 0.715985
  505 436.731 -45.8881 -60.8932
  506 616.049 -31.1335 65.6444
  507 614.356 22.3493 47.2721
  508 565.362 -4.29740 -2.84975
  509 547.974 -45.5737 15.4533
  510 354.026 -0.234100 -0.756733
  511 354.119 -0.231276 0.751734
  512 548.203 -21.2173 -38.6318
  513 534.220 39.6182 41.6565
  514 607.029 15.0467 -46.7704
  515 351.861 -0.452138 -2.26418
  516 351.965 -0.445256 2.25099
  517 1037.85 150.116 -133.345
  518 555.140 65.9826 36.4922
  519 565.800 -4.01245 2.52011
  520 514.485 -48.6945 9.21418
  521 436.787 -14.1358 10.6038
  522 436.773 -14.2361 -10.5823
  523 595.619 -36.4691 10.8085
  524 574.658 -11.6479 -48.9446
  525 643.156 126.044 25.4940
  526 537.502 9.33613 51.3834
  527 538.350 -10.7520 5.19348
  528 522.470 -56.0428 -71.9427
  529 544.619 -13.6459 38.4584
  530 1024.22 47.2326 -18.6049
  531 591.025 -44.7223 3.91348
  532 561.868 -4.20163 -0.580877
  533 562.006 -4.43673 0.476237
  534 1034.91 69.3840 64.8477
  535 524.816 -0.0830350 43.7111
  536 724.606 123.917 -4.88441
  537 548.193 -15.2329 -18.2995
  538 257.688 -2.28109 -17.2362
  539 258.411 -2.16987 17.0729
  540 375.473 -35.0329 -81.6093
  541 375.806 -34.4498 81.0363
  542 538.046 -10.3335 -5.16312
  543 586.659 21.5066 -54.0002
  544 516.037 -35.0881 3.83138
  545 557.470 63.8563 -37.7802
  546 557.959 -6.77927 18.9296
  547 693.050 36.6375 -14.6535
  548 480.238 -16.3935 -3.88583
  549 480.108 -16.3474 3.85257
  550 519.519 -24.6166 6.37884
  551 757.872 152.850 -18.8127
  552 549.219 24.0636 53.3182
  553 236.818 60.6716 151.182
  554 525.195 -31.4067 122.605
  555 686.547 37.2596 -136.022
  556 561.340 46.4281 -49.4432
  557 494.508 -43.0246 -106.549
  558 536.112 -58.9166 -24.2850
  559 558.621 -56.8196 -34.0943
  560 75.6707 100.269 -94.8014
  561 561.861 -7.52009 -11.1514
  562 839.465 162.779 -49.8352
  563 522.169 -23.6634 -7.44884
  564 526.133 -17.3646 6.17868
  565 525.657 -16.9878 -5.87440
  566 371.820 -1.93304 -5.05116
  567 371.907 -1.90825 5.02289
  568 56.9774 5.33714 -30.5688
  569 59.7286 5.60817 31.2454
  570 277.464 -12.6202 -59.3270
  571 279.464 -12.6934 59.2681
  572 533.442 -29.0661 -15.7350
  573 542.119 -59.1639 26.0403
  574 557.160 -53.1138 -0.872212
  575 461.521 -8.13935 -2.00454
  576 461.500 -8.08746 1.99552
  577 435.894 -45.9019 -91.0964
  578 485.352 -40.0741 112.504
  579 425.755 -43.2010 91.5504
  580 549.802 -12.3075 -49.0775
  581 352.417 -5.55505 18.0971
  582 352.246 -5.61071 -18.2297
  583 527.165 29.3372 -41.9071
  584 526.986 -0.935139 -19.1495
  585 654.903 141.015 -11.1595
  586 432.724 -6.37568 -1.87341
  587 432.743 -6.33751 1.86589
  588 558.402 -1.74588 -10.5820
  589 392.241 -12.8100 -20.3608
  590 392.267 -12.7715 20.2028
  591 317.846 14.1003 144.114
  592 543.496 -25.2075 -25.4041
  593 307.748 -16.5704 103.732
  594 534.141 -27.8335 16.1663
  595 560.570 -8.29539 12.3877
  596 552.946 -5.54194 -2.45202
  597 397.410 -4.66164 -4.80137
  598 397.469 -4.62574 4.78098
  599 628.640 124.771 -23.2533
  600 307.518 -15.9915 -104.081
  601 532.321 -23.2562 -12.6849
  602 482.437 -9.06554 -1.13915
  603 482.391 -9.00564 1.13499
  604 889.065 119.165 -21.4733
  605 328.306 -1.96038 9.91841
  606 328.036 -1.97885 -10.0012
  607 501.710 11.7480 36.0915
  608 702.722 60.9840 -1.16558
  609 338.165 1.74230 -142.916
  610 177.642 4.02721 -78.7339
  611 179.015 3.07825 78.3235
  612 425.710 -24.3752 25.5878
  613 429.909 -25.0948 -24.9507
  614 713.649 144.334 7.00138
  615 550.833 -5.72647 2.16457
  616 481.582 13.9015 -21.8737
  617 593.932 106.159 22.2124
  618 592.013 110.124 -14.7854
  619 486.433 -26.7978 -6.13363
  620 489.977 -26.2220 4.43480
  621 347.293 76.4506 -204.255
  622 421.746 -14.0541 -14.4318
  623 421.791 -13.9012 14.3921
  624 1033.77 212.050 159.868
  625 548.693 -18.1302 41.9353
  626 320.873 -10.9717 -37.9755
  627 833.808 204.075 140.908
  628 321.584 -10.9164 37.8516
  629 520.591 -19.6152 -142.469
  630 378.293 -1.66630 -1.85728
  631 378.372 -1.65214 1.84936
  632 465.698 4.38553 19.1020
  633 216.742 -3.09080 -34.0317
  634 217.826 -3.09954 33.7871
  635 480.343 -33.7452 12.5058
  636 502.620 -40.1073 -5.71900
  637 587.064 -1.46262 -4.06474
  638 343.697 -0.472677 3.00047
  639 343.560 -0.481627 -3.02693
  640 455.000 -10.1628 -3.27945
  641 454.990 -10.1123 3.26034
  642 516.555 -57.5565 72.5690
  643 595.613 66.4490 -48.9720
  644 401.519 -18.2594 -26.1919
  645 401.265 -17.9581 26.0196
  646 471.840 -33.6227 -16.3691
  647 736.475 159.526 7.66387
  648 553.995 -53.7838 3.82372
  649 484.160 -11.6723 -2.12353
  650 484.094 -11.6227 2.12146
  651 660.057 72.8421 34.0457
  652 555.779 -8.31230 -20.5601
  653 497.487 -0.500586 -17.6783
  654 234.243 -8.03063 -74.8448
  655 234.900 -8.23785 74.2770
  656 470.373 -40.2649 -25.1763
  657 701.279 153.005 -0.0143415
  658 548.213 74.1021 -16.4406
  659 369.696 -3.13633 -9.18064
  660 369.790 -3.09366 9.11718
  661 508.758 -14.5736 -0.901331
  662 508.854 -14.5814 0.999064
  663 931.018 121.184 53.6291
  664 594.325 -1.83105 1.01280
  665 577.250 -2.49187 7.13040
  666 575.295 -2.50175 -8.46962
  667 547.630 -51.1273 4.23846
  668 410.152 -4.56722 -2.39680
  669 410.199 -4.53732 2.38785
  670 587.939 93.8235 34.3806
  671 748.149 165.689 -13.4700
  672 415.794 -30.4005 -37.0958
  673 415.710 -30.1164 36.9309
  674 514.906 -52.9981 -14.1987
  675 545.595 32.5065 -50.2669
  676 640.428 2.01797 16.8854
  677 432.859 -7.86508 -4.96957
  678 432.881 -7.81956 4.95298
  679 374.400 -32.5988 -73.6564
  680 542.572 -52.5916 0.646357
  681 453.100 -50.2072 66.6617
  682 219.169 68.6104 -146.040
  683 424.972 -39.0249 51.4406
  684 512.926 0.149946 16.2415
  685 374.765 -32.2379 73.1979
  686 532.026 -23.6863 12.8411
  687 425.065 -38.8503 -51.8702
  688 441.453 6.01584 4.02436
  689 342.094 -8.82865 27.1393
  690 341.802 -8.83300 -27.3082
  691 453.264 -51.5035 -67.3791
  692 557.920 -36.9388 -30.7039
  693 512.512 -7.53506 -0.283260
  694 512.594 -7.60517 0.285020
  695 569.673 -36.5170 30.0369
  696 518.675 -54.1910 16.3431
  697 628.663 57.8231 45.8313
  698 568.599 -10.8120 50.7849
  699 547.183 -19.8679 30.3447
  700 526.880 43.4826 -31.7915
  701 628.815 105.445 36.4430
  702 543.811 -7.63464 -30.2017
  703 540.420 -18.1971 14.6748
  704 562.446 87.7379 8.85736
  705 550.436 -9.54219 25.9582
  706 175.880 120.345 153.440
  707 511.715 -58.9579 -43.3251
  708 592.356 10.6845 51.2349
  709 596.832 -18.5572 -34.7257
  710 592.167 -1.00854 2.15341
  711 546.443 -19.0461 -23.4952
  712 512.545 -59.4140 39.6626
  713 972.884 86.3008 -14.3574
  714 315.432 -1.24045 10.3662
  715 315.080 -1.25343 -10.4536
  716 553.013 -10.4324 -10.4705
  717 595.462 -0.787592 -2.12646
  718 469.591 -40.9264 25.3005
  719 561.301 -21.0613 45.8045
  720 839.617 206.039 -71.1388
  721 532.071 -38.6305 12.4099
  722 587.626 -38.8716 -15.4664
  723 540.597 -17.7291 -14.4307
  724 594.712 -1.26824 -0.596589
  725 549.452 -0.0992869 53.7529
  726 26.3356 28.1581 34.7890
  727 611.893 -22.5927 -95.1913
  728 668.014 40.6124 18.6229
  729 558.209 -57.2287 30.9435
  730 405.734 -9.41481 11.7624
  731 405.721 -9.54040 -11.8099
  732 509.277 273.735 -275.660
  733 569.855 -37.8955 -27.4216
  734 439.833 2.61683 -7.70006
  735 506.456 2.95237 35.0330
  736 550.860 -27.7462 36.3376
  737 527.986 -44.4953 4.33000
  738 546.095 -50.0390 -78.0293
  739 524.928 -41.5339 -5.45283
  740 616.093 -29.4293 -1.32679
  741 567.994 -5.04237 6.02169
  742 510.367 -30.6264 1.92971
  743 912.625 182.309 -98.6215
  744 542.701 -14.8526 11.4666
  745 540.182 8.93774 -52.7157
  746 457.608 -4.86732 159.704
  747 577.255 46.4052 53.2653
  748 496.794 -38.9449 8.17551
  749 387.404 -30.0766 -54.0310
  750 387.469 -30.0047 53.6296
  751 531.137 59.7874 -7.37528
  752 537.936 -6.27521 46.7198
  753 542.929 -13.0252 -39.4059
  754 510.927 -31.2706 -2.06735
  755 494.417 -44.1124 15.6618
  756 566.612 93.0729 -9.90952
  757 527.357 -45.6509 -2.25994
  758 528.767 -33.5461 12.2609
  759 534.604 -7.28949 1.68545
  760 534.903 -7.10892 -1.66661
  761 718.552 156.628 0.802591
  762 586.062 -50.0083 -22.4102
  763 548.061 -17.0399 23.4717
  764 568.067 -5.04110 -5.42436
  765 577.106 3.76249 -53.5253
  766 653.258 35.0943 -27.8000
  767 332.264 -0.233120 -4.89446
  768 332.477 -0.228881 4.85132
  769 5.15286 -8.77345 -6.05770
  770 559.694 -0.770890 9.77365
  771 517.014 -0.687525 -38.5769
  772 532.488 -5.00450 33.6683
  773 478.920 62.3463 232.169
  774 605.556 123.550 -1.19586
  775 432.934 -30.5082 29.4416
  776 81.6908 1.60569 -29.8650
  777 83.7443 1.16329 30.1715
  778 528.183 -3.73286 -38.1346
  779 434.011 -30.7972 -29.4498
  780 564.793 -5.52655 4.43592
  781 297.569 -12.3913 50.5692
  782 295.145 -12.3427 -50.5599
  783 542.642 -14.4365 -11.1560
  784 354.813 -8.57123 -23.6915
  785 354.988 -8.51941 23.5044
  786 564.406 -5.63950 -14.0415
  787 436.730 -11.4132 -8.49833
  788 436.753 -11.3455 8.50277
  789 615.462 -3.80036 -34.4297
  790 557.027 -5.89634 -53.6129
  791 292.533 -1.75452 -13.1344
  792 293.050 -1.73797 12.9947
  793 17.9096 7.17602 -18.7269
  794 20.3041 7.58248 19.6607
  795 459.129 2.30613 -13.8566
  796 507.990 -57.0628 -33.0545
  797 -5.64821 -3.83769 9.93698
  798 -5.02045 -4.66352 -9.97128
  799 528.241 -10.9427 3.75708
  800 571.669 -44.8189 -13.4837
  801 593.394 87.6684 -39.9840
  802 567.019 -4.99860 -4.23156
  803 1179.47 241.915 -221.387
  804 528.129 -10.9146 -3.70285
  805 790.118 149.426 13.5638
  806 566.684 16.4861 -56.0530
  807 623.394 47.2535 -47.1543
  808 112.555 -1.29867 -27.3734
  809 114.364 -1.45125 27.3303
  810 361.126 -4.94003 14.1707
  811 360.994 -4.97879 -14.2810
  812 347.106 -0.713998 2.67927
  813 346.991 -0.721783 -2.69760
  814 631.837 106.173 -35.9657
  815 381.695 -2.17665 -4.02983
  816 381.772 -2.15241 4.01116
  817 539.546 -5.42410 -48.8230
  818 763.385 83.8203 74.0494
  819 489.908 11.2654 -30.4027
  820 176.047 -1.51356 29.0824
  821 174.731 -1.52807 -29.2925
  822 616.672 19.3701 168.208
  823 552.538 -10.5160 10.8051
  824 501.026 33.5508 -12.6498
  825 238.316 -0.304034 19.6752
  826 237.224 -0.197290 -19.8066
  827 353.316 -1.63295 -6.99586
  828 353.450 -1.60951 6.94015
  829 64.3373 56.8280 50.8699
  830 520.436 12.6002 44.8960
  831 577.065 84.5204 -34.5930
  832 618.096 71.8388 -47.4665
  833 411.910 -15.1427 -18.6305
  834 411.697 -15.0408 18.6177
  835 641.388 135.462 15.9836
  836 550.626 -5.05393 -0.487375
  837 550.669 -5.01759 0.575061
  838 547.407 -16.6457 -30.8141
  839 461.234 -30.3785 18.1182
  840 505.048 -56.7230 33.1176
  841 589.262 -48.2579 51.0709
  842 457.815 -13.1319 -5.55165
  843 457.818 -13.0907 5.52280
  844 524.146 48.7251 20.4738
  845 494.036 6.99946 -32.7710
  846 136.904 170.177 159.565
  847 495.895 -43.7415 -14.4683
  848 497.782 -22.2170 -1.05140
  849 498.042 -22.2758 1.01853
  850 547.467 -8.13783 51.0797
  851 541.415 -35.7093 -21.3085
  852 485.480 -31.9050 -8.75680
  853 1073.01 34.7159 -52.1260
  854 462.038 -43.3665 33.7961
  855 461.641 -43.9116 -34.2993
  856 546.406 -6.65221 25.6337
  857 812.990 211.899 -53.5043
  858 434.680 -39.0421 -41.2921
  859 477.903 -53.6206 40.1135
  860 434.609 -38.5882 40.9563
  861 470.440 -18.7633 -6.63256
  862 470.440 -18.7104 6.59515
  863 72.9633 29.9529 44.0512
  864 586.898 43.8461 -53.5406
  865 452.491 -17.3989 -9.57215
  866 452.581 -17.2333 9.60218
  867 447.494 -7.31689 -1.17678
  868 447.493 -7.27182 1.17051
  869 489.302 -9.88416 -0.794783
  870 489.247 -9.82647 0.789618
  871 402.839 -7.57403 -10.1217
  872 402.881 -7.49347 10.0867
  873 453.928 -23.5164 -14.0567
  874 453.994 -23.3715 14.1193
  875 11.7205 -1.01083 -7.30130
  876 677.190 127.201 24.4316
  877 583.143 -20.6150 -41.2878
  878 477.453 -52.8328 -40.4888
  879 514.862 -16.7691 2.89406
  880 514.646 -16.6096 -2.76654
  881 561.741 0.620380 54.8077
  882 605.381 -43.1232 -30.7754
  883 533.627 40.5929 -202.131
  884 250.593 -4.52285 101.121
  885 -6.51772 5.83982 -7.84443
  886 -5.39091 6.60556 8.55975
  887 72.5975 31.8470 -45.0163
  888 547.496 -16.0390 18.1374
  889 573.692 -4.09324 -7.55027
  890 516.883 -49.9874 88.7101
  891 250.024 -4.29531 -101.493
  892 575.967 -47.4066 7.88559
  893 636.575 -17.5195 79.1926
  894 474.550 1.98860 14.6626
  895 539.159 51.3334 34.6987
  896 295.995 -16.5172 73.9313
  897 294.895 -16.6482 -74.3795
  898 354.460 -16.4128 -41.5813
  899 367.401 -18.5044 -128.404
  900 577.690 -13.6853 47.2679
  901 786.413 187.575 36.2056
  902 580.973 22.2612 54.6014
  903 549.038 -11.9249 -28.2674
  904 374.855 -16.5733 131.560
  905 696.382 129.096 -15.8028
  906 72.4495 60.8413 -62.2990
  907 511.591 -0.956390 -15.4923
  908 354.824 -16.2841 41.2461
  909 429.600 -9.23976 7.42394
  910 429.577 -9.29694 -7.43651
  911 542.167 -35.5142 22.1074
  912 560.133 -4.03928 1.56191
  913 414.071 3.53115 -158.968
  914 589.237 -1.47106 3.55568
  915 585.562 -1.23073 -4.64506
  916 449.487 4.05951 -12.7900
  917 568.256 -2.38978 -8.61323
  918 430.450 -19.7120 -17.5643
  919 430.735 -19.4299 17.6233
  920 -13.1423 5.49069 -7.42512
  921 -18.5978 3.31571 8.04754
  922 560.098 -3.77978 -1.61784
  923 192.993 -4.49062 68.3449
  924 191.945 -4.10657 -68.7055
  925 602.566 87.6178 41.9757
  926 1048.75 19.0480 15.9522
  927 568.462 63.0900 45.0267
  928 636.015 -21.7626 26.5489
  929 557.247 -31.2061 36.3363
  930 692.401 144.763 -12.1237
  931 440.682 2.09742 9.65355
  932 535.694 -12.9576 -6.44746
  933 559.165 30.1060 -54.5769
  934 667.921 20.9700 -4.43381
  935 523.241 -32.3578 -9.05540
  936 276.916 -1.43362 -14.6548
  937 277.157 -1.38213 14.4603
  938 551.179 -13.2364 -21.6262
  939 19.9448 24.7683 6.89414
  940 529.258 -54.9040 -9.30620
  941 466.778 14.2178 -1.31621
  942 688.471 150.342 -8.01898
  943 112.375 83.3171 -101.301
  944 532.500 -3.98272 -30.1663
  945 375.283 -5.95020 -13.3350
  946 375.364 -5.88324 13.2370
  947 3.69256 -14.5385 10.8734
  948 365.443 -26.7756 -59.6500
  949 539.439 -31.3338 -20.8111
  950 346.346 0.753008 -1.12981
  951 346.445 0.755935 1.12350
  952 548.331 66.4874 -27.6619
  953 579.485 -2.10068 -0.711013
  954 579.523 -2.12034 0.952878
  955 365.627 -26.7122 59.2821
  956 547.217 -0.862764 -11.8085
  957 625.273 4.64941 32.7557
  958 555.421 -8.22943 8.21820
  959 93.6801 22.7029 -54.7633
  960 574.707 -3.81293 6.80075
  961 527.546 4.40097 47.8702
  962 556.213 76.8383 24.5871
  963 554.684 6.44313 -55.6834
  964 386.937 -20.2443 -36.0306
  965 595.107 -21.2805 33.3363
  966 387.194 -20.1761 35.7001
  967 19.2017 20.3548 -3.65406
  968 70.0582 11.2553 40.2221
  969 319.623 -5.38183 24.4142
  970 319.258 -5.38148 -24.5345
  971 536.077 -13.1817 6.85749
  972 579.944 100.334 13.4329
  973 296.541 26.5533 -151.159
  974 484.647 -30.0424 7.84725
  975 455.087 -47.3301 -49.7264
  976 659.655 126.050 26.6930
  977 508.717 -9.23913 0.0337446
  978 508.693 -9.19434 -0.0391206
  979 555.407 -10.6090 -15.2342
  980 519.506 45.0554 -18.8761
  981 1128.36 342.300 229.997
  982 113.390 5.90477 -52.0399
  983 114.966 4.89491 52.1358
  984 8.45533 -7.46084 4.37500
  985 520.624 29.0801 38.7481
  986 455.027 -47.6297 49.3885
  987 561.180 -26.6742 -41.8862
  988 610.095 49.8418 51.9720
  989 582.965 -47.0807 -61.5709
  990 848.509 178.178 61.7499
  991 499.953 -8.31876 -0.466756
  992 499.890 -8.25693 0.466297
  993 582.524 -23.9602 38.9131
  994 41.3775 75.1050 73.8504
  995 271.353 -5.46631 34.8418
  996 270.575 -5.39505 -35.1785
  997 320.878 -15.2795 47.8331
  998 319.825 -15.0353 -47.9874
  999 360.254 -14.4260 34.6138
  1000 393.855 -2.90731 -1.78897
  1001 393.919 -2.88701 1.78269
  1002 939.605 309.760 -200.306
  1003 863.222 216.838 93.0692
  1004 359.967 -14.4922 -34.8750
  1005 599.762 -2.87413 43.1245
  1006 541.640 56.2276 -33.3331
  1007 382.846 -33.1921 106.606
  1008 488.528 -57.7829 -59.1468
  1009 557.739 -4.75305 -17.0532
  1010 255.820 16.8191 123.571
  1011 327.993 -24.9751 85.1236
  1012 499.184 25.9040 -24.3739
  1013 564.608 -11.3061 -51.4913
  1014 696.129 304.513 312.330
  1015 473.469 14.8150 17.4456
  1016 635.656 135.760 -1.95702
  1017 463.470 18.8304 -180.265
  1018 475.594 -49.7782 -34.8480
  1019 595.682 -0.867380 -1.71582
  1020 578.632 53.1030 -51.8441
  1021 347.708 -2.05687 8.91430
  1022 347.544 -2.07735 -8.98773
  1023 13.1856 11.3301 -20.6220
  1024 387.540 -17.2187 -30.1181
  1025 327.582 -25.2920 -85.7171
  1026 387.281 -17.1889 29.8203
  1027 552.372 -16.9463 47.6491
  1028 496.380 -30.5426 -3.60161
  1029 523.566 9.78622 -46.4707
  1030 539.011 67.2688 9.73845
  1031 716.285 46.4633 33.3951
  1032 546.136 -41.6178 20.5862
  1033 350.936 -27.6749 -65.2615
  1034 519.633 18.6064 -43.6317
  1035 385.951 -32.7739 -107.104
  1036 733.869 157.854 -4.16529
  1037 506.448 33.5146 22.1746
  1038 629.510 -3.40835 -23.6744
  1039 478.512 -49.8195 32.3735
  1040 547.064 -17.5176 36.5052
  1041 542.936 -28.8179 25.0846
  1042 539.942 -27.3163 21.4621
  1043 663.995 84.9732 -35.2429
  1044 540.826 -8.81888 37.6905
  1045 487.845 -57.9425 58.2217
  1046 520.668 -21.4351 5.80171
  1047 351.161 -27.7363 64.9403
  1048 490.228 -35.8659 -9.39109
  1049 289.373 -14.2016 -91.0037
  1050 408.440 -42.2250 72.7155
  1051 549.879 -3.88625 -19.9718
  1052 537.029 -6.09481 -43.1197
  1053 465.973 -36.4884 -21.9053
  1054 289.854 -14.5835 90.3456
  1055 503.980 1.35340 -30.4397
  1056 376.889 -24.5020 -46.4406
  1057 671.893 142.121 16.3004
  1058 154.928 24.7096 -87.8284
  1059 1116.35 78.7268 105.818
  1060 273.329 19.5564 -129.129
  1061 539.603 -44.7847 -11.1356
  1062 377.007 -24.3040 46.0961
  1063 499.116 5.51534 34.1735
  1064 285.743 -5.56031 28.8635
  1065 285.620 -5.69558 -29.1357
  1066 547.479 -15.3375 -44.2692
  1067 577.170 -3.27764 2.55775
  1068 568.679 -1.41743 8.66760
  1069 564.887 18.6868 56.0169
  1070 530.088 -3.98125 40.6589
  1071 407.970 44.1071 194.711
  1072 599.140 -0.607923 0.771775
  1073 570.062 77.0186 35.8048
  1074 486.803 7.30851 29.5380
  1075 575.000 -2.34051 8.26133
  1076 379.009 -3.79527 -7.54445
  1077 379.086 -3.75324 7.50291
  1078 244.081 -6.71658 -48.2307
  1079 244.956 -6.96039 47.9387
  1080 488.423 24.7025 12.4287
  1081 717.603 41.5956 -59.6592
  1082 659.634 1.39401 -105.748
  1083 535.245 -0.527803 -12.3328
  1084 408.537 -42.5327 -73.2377
  1085 466.960 -34.7100 19.8195
  1086 538.097 -1.27699 12.8574
  1087 560.394 -40.8512 -24.6274
  1088 359.633 -0.685431 4.43432
  1089 359.533 -0.698540 -4.45810
  1090 538.595 -46.0660 11.1194
  1091 512.610 -10.7482 0.557955
  1092 512.523 -10.7615 -0.530113
  1093 499.194 -50.1114 21.7975
  1094 637.222 -20.1834 -12.6581
  1095 300.433 -0.488852 -8.19549
  1096 300.884 -0.471790 8.11725
  1097 437.782 -28.1072 -122.739
  1098 468.307 -11.1378 3.25718
  1099 468.344 -11.1920 -3.27919
  1100 281.500 154.506 214.038
  1101 642.648 53.1618 -40.8664
  1102 98.8130 47.0740 -67.7135
  1103 555.657 -8.65841 -7.92534
  1104 153.147 51.3737 -100.836
  1105 316.257 -19.5311 -61.8065
  1106 598.939 -0.849181 0.536453
  1107 599.128 -0.808597 -0.384284
  1108 548.406 -31.4702 -30.8425
  1109 485.394 -54.7019 -80.1886
  1110 155.065 21.0381 83.6885
  1111 597.135 59.0261 49.8929
  1112 540.090 -5.89311 -0.616869
  1113 540.160 -5.89485 0.663689
  1114 586.584 -37.2386 97.6034
  1115 612.759 121.865 18.9301
  1116 370.160 -8.54513 -18.9592
  1117 370.260 -8.50926 18.8416
  1118 278.499 31.2586 152.698
  1119 522.198 2.77847 -44.9005
  1120 166.702 52.8074 108.124
  1121 659.840 -10.2872 -37.1038
  1122 655.344 143.501 5.42480
  1123 453.129 -35.4239 26.0338
  1124 425.516 2.47308 -1.88471
  1125 569.289 -5.26858 10.3208
  1126 587.894 -0.908788 3.99843
  1127 137.753 0.192124 -24.4137
  1128 139.405 0.132293 24.2603
  1129 472.753 8.21081 -21.9367
  1130 482.218 -14.1608 -2.95911
  1131 482.120 -14.1043 2.94632
  1132 51.7626 89.6366 -78.7706
  1133 81.0466 187.717 -153.384
  1134 488.030 -19.0102 2.99166
  1135 488.200 -18.9974 -3.02423
  1136 503.370 -12.2940 0.439336
  1137 503.300 -12.2746 -0.403264
  1138 135.012 85.8299 109.336
  1139 403.003 -4.74541 -3.72628
  1140 403.058 -4.71367 3.71162
  1141 504.046 38.3580 -0.498259
  1142 625.366 85.2060 -224.059
  1143 609.581 104.707 -32.4973
  1144 555.333 -21.4533 -44.7151
  1145 546.827 -27.4451 -31.5864
  1146 453.334 -35.7420 -26.4450
  1147 461.113 1.62513 13.5395
  1148 514.465 32.3065 -32.4222
  1149 507.716 27.5518 31.0326
  1150 520.340 -20.8297 -5.67536
  1151 497.602 -29.9445 3.21439
  1152 454.242 -28.9513 -19.8521
  1153 538.922 -3.23565 23.9213
  1154 933.874 94.0139 13.0015
  1155 542.222 -11.6414 43.5192
  1156 545.368 35.8396 48.3213
  1157 501.482 -49.1790 -17.1429
  1158 66.6861 10.3177 -38.8446
  1159 510.869 -23.6896 -3.30078
  1160 348.742 -0.445532 -0.243902
  1161 348.834 -0.443472 0.241874
  1162 618.379 -16.3900 19.5769
  1163 589.083 -49.6958 26.0363
  1164 842.726 150.059 38.1777
  1165 212.081 -0.352696 -20.1887
  1166 213.216 -0.308592 20.0507
  1167 458.837 -9.22778 -2.51701
  1168 458.821 -9.17613 2.50218
  1169 512.276 -45.0919 -4.56972
  1170 429.082 2.08654 6.18490
  1171 524.353 -37.3501 8.23508
  1172 31.3399 37.2088 -19.7858
  1173 97.6806 47.7716 66.1517
  1174 353.460 -19.6245 118.544
  1175 607.709 115.116 -23.2431
  1176 576.972 -1.69791 -6.53945
  1177 601.333 -1.06434 0.317470
  1178 601.848 -1.40897 -0.177085
  1179 361.615 -0.713959 -0.759812
  1180 361.704 -0.707961 0.755166
  1181 560.286 35.7928 54.5777
  1182 819.554 138.882 -2.97638
  1183 577.894 95.1450 -24.1050
  1184 431.014 -32.0550 121.972
  1185 351.598 -18.9193 -118.303
  1186 392.561 -25.7776 -41.8296
  1187 536.495 -15.2828 8.97578
  1188 745.060 165.094 11.9782
  1189 392.617 -25.6351 41.5311
  1190 547.376 -9.94090 6.78777
  1191 495.215 18.6828 29.6664
  1192 542.250 16.8773 52.6551
  1193 764.812 170.477 22.4346
  1194 459.629 -11.8887 4.64296
  1195 459.645 -11.9390 -4.66951
  1196 554.790 -10.7458 15.8456
  1197 337.823 -3.40586 13.8903
  1198 337.594 -3.43913 -14.0026
  1199 542.371 -7.77214 -2.77418
  1200 225.377 135.355 -207.769
  1201 469.828 -26.6719 -130.673
  1202 447.635 -13.8070 -8.12881
  1203 447.687 -13.7513 8.13228
  1204 579.254 -3.04770 2.38052
  1205 550.329 -7.60575 5.39717
  1206 31.6041 40.9139 30.7711
  1207 595.726 -0.792729 2.02281
  1208 73.4294 94.9496 94.1479
  1209 538.105 -8.41982 -3.62311
  1210 -0.464705 -12.9094 -11.3591
  1211 383.996 -37.5275 -91.9399
  1212 383.012 -36.6298 91.0586
  1213 595.696 -1.16105 -2.26049
  1214 514.002 -27.1438 -4.14313
  1215 578.936 -2.81577 -2.38392
  1216 469.120 -15.0749 -4.81727
  1217 469.083 -15.0281 4.77608
  1218 542.036 -7.72402 2.58253
  1219 510.511 -23.2178 3.26683
  1220 492.027 -15.8771 1.44408
  1221 492.189 -15.9114 -1.39157
  1222 578.360 -2.89869 -1.92936
  1223 501.513 -53.0467 -90.1869
  1224 566.665 -3.90504 -1.91205
  1225 540.296 -8.63857 3.96413
  1226 384.808 -3.96198 -5.66221
  1227 384.879 -3.92458 5.63426
  1228 426.851 -6.11033 -3.05538
  1229 426.880 -6.07204 3.04282
  1230 680.804 106.746 28.5383
  1231 572.898 -44.2489 16.9588
  1232 394.697 -2.11345 150.324
  1233 324.880 -0.461563 5.33989
  1234 324.618 -0.466922 -5.38739
  1235 545.077 -10.1929 32.4843
  1236 520.814 -8.21566 0.478020
  1237 520.830 -8.19113 -0.477848
  1238 598.445 115.768 10.9358
  1239 543.996 -57.1215 72.5240
  1240 324.278 -4.35969 19.3638
  1241 323.976 -4.39025 -19.4909
  1242 520.253 -12.9430 2.69994
  1243 520.137 -13.0360 -2.59160
  1244 536.196 -15.1113 -8.60965
  1245 498.292 0.138654 15.7369
  1246 844.485 210.216 -73.3824
  1247 546.654 -20.2048 -27.9860
  1248 97.7987 22.4365 56.2130
  1249 564.281 -30.2546 38.6199
  1250 460.914 10.4046 -12.0154
  1251 37.2013 26.1174 21.4867
  1252 736.441 84.8549 -13.8677
  1253 551.680 -25.2303 -39.5600
  1254 462.968 6.85392 18.4243
  1255 318.394 -19.5715 61.7379
  1256 559.464 -43.4784 21.5550
  1257 803.337 159.117 57.1302
  1258 192.286 27.6573 106.109
  1259 561.607 -6.99890 -13.7002
  1260 1056.79 11.9751 -10.4586
  1261 1090.17 16.2446 46.3208
  1262 1161.36 38.8095 -110.592
  1263 546.423 -17.2291 -35.4433
  1264 545.962 -25.0979 29.5164
  1265 554.223 -39.6126 26.5849
  1266 -16.1887 2.03318 10.1341
  1267 -14.6779 1.67728 -11.0954
  1268 538.672 -59.7134 -35.7280
  1269 551.023 -55.9093 -52.0037
  1270 431.927 2.89256 -7.62243
  1271 536.243 -60.7414 51.6879
  1272 573.684 -27.3681 -39.0629
  1273 12.8074 17.7989 3.38466
  1274 469.610 -8.61017 1.57761
  1275 469.640 -8.66578 -1.58173
  1276 568.721 -4.87711 9.19046
  1277 547.305 -9.77381 -6.33725
  1278 516.651 -56.3805 -20.2378
  1279 474.150 -25.4284 9.41632
  1280 471.850 -25.0597 -10.0373
  1281 553.363 -11.9489 22.2553
  1282 567.297 -20.9863 -45.7836
  1283 38.5655 27.2286 -21.0065
</Section>

newXOutput 76

<Section columns = "stress_xx | stress_yy | stress_xy">
  1 612.216 -0.267915 1.11345
  2 612.212 -0.255008 -1.11597
  3 348.257 -0.0722554 -0.400947
  4 -4.34832 -4.28663 -6.25528
  5 1072.42 446.031 349.730
  6 1062.74 461.386 -347.175
  7 -5.05519 -4.06006 6.67430
  8 348.164 -0.0733863 0.400024
  9 616.201 -1.08816 0.315471
  10 615.077 -1.69378 -0.360401
  11 613.968 -1.18993 1.22416
  12 612.826 -1.58537 0.241067
  13 610.338 -1.35649 1.92389
  14 608.049 -1.35902 1.34122
  15 602.415 -1.19547 2.79350
  16 594.112 -0.919187 4.14166
  17 586.768 -0.929409 4.66865
  18 575.655 -1.21202 5.70659
  19 559.984 -0.172868 8.51916
  20 545.514 -0.889249 8.16894
  21 528.721 -1.10387 11.6026
  22 504.501 0.770523 10.1650
  23 486.724 1.23816 12.0780
  24 463.507 2.04099 9.50593
  25 447.336 2.25272 9.61037
  26 423.925 3.05288 4.91607
  27 418.941 4.78981 5.29044
  28 415.919 3.98514 -1.57045
  29 419.992 2.40947 -3.41728
  30 427.517 2.26921 -4.20012
  31 445.069 2.80764 -8.36402
  32 462.123 2.22089 -10.5277
  33 486.931 0.568165 -12.4497
  34 506.739 -0.224095 -11.2534
  35 527.675 -0.871329 -10.9775
  36 546.536 -0.701386 -7.70327
  37 562.571 -0.759596 -6.53228
  38 575.656 -1.19306 -5.42899
  39 587.258 -0.885458 -3.70873
  40 594.347 -1.08489 -3.90165
  41 601.207 -1.27718 -2.83596
  42 607.565 -1.49246 -1.15227
  43 610.783 -1.21827 -1.41819
  44 612.332 -0.805498 -0.847402
  45 610.775 -0.531328 -0.776559
  46 615.627 -1.68857 0.262733
  47 616.355 -1.12545 -0.324799
  48 597.767 -0.739859 -0.690434
  49 585.389 -2.85715 -1.30510
  50 570.125 -4.11190 -0.763157
  51 551.416 -5.89966 -1.06993
  52 533.556 -6.39136 -1.28390
  53 514.404 -7.79398 -1.23731
  54 497.371 -8.54851 -0.618588
  55 482.426 -9.39786 -0.144942
  56 465.148 -7.75370 -0.122798
  57 445.227 -7.16086 -0.329249
  58 426.051 -5.57273 -0.00373449
  59 407.912 -3.47287 0.0535545
  60 390.709 -2.41691 0.114228
  61 375.678 -1.16410 0.227396
  62 360.388 -0.254788 -0.451513
  63 348.387 0.501679 0.663473
  64 342.924 1.29161 0.479465
  65 346.371 0.0450676 1.07610
  66 341.988 -0.130683 1.31275
  67 337.803 -0.215116 1.63180
  68 332.191 0.0138035 2.09449
  69 325.128 0.0116944 2.61539
  70 319.684 -0.340035 4.94304
  71 304.972 0.442094 5.37830
  72 294.474 -0.00237381 6.10299
  73 278.850 -0.234467 6.93866
  74 260.916 -0.414013 8.42899
  75 238.471 -0.0718077 10.2369
  76 211.115 0.144596 11.3233
  77 187.165 -0.192447 16.2035
  78 140.414 1.46848 15.3714
  79 108.171 1.26321 16.2935
  80 69.1732 -0.342160 18.1879
  81 36.4249 2.89469 19.0713
  82 -1.04316 4.40807 11.7619
  83 -28.7342 4.49795 4.54736
  84 -29.0111 4.42840 -1.01171
  85 -28.6964 3.72007 -8.46322
  86 -16.9905 -1.04627 -8.19700
  87 -1.97963 -16.3081 -9.08549
  88 1.77384 -29.8095 -11.1730
  89 4.68195 -46.0534 -5.64247
  90 10.2493 -45.0752 1.78561
  91 21.4635 -3.95932 29.8762
  92 62.8195 108.202 96.9699
  93 355.976 354.602 314.986
  94 1302.21 196.608 215.472
  95 1178.26 27.9952 69.5415
  96 1099.69 11.7617 21.2818
  97 1070.76 10.0694 1.59484
  98 1086.37 13.2962 -18.5501
  99 1176.23 26.2635 -55.1057
  100 1374.47 94.8228 -184.149
  101 212.718 365.463 -264.770
  102 46.9860 82.2992 -81.0752
  103 23.5087 -1.59884 -32.0976
  104 9.62291 -44.6764 -6.57408
  105 2.89297 -34.6943 6.40459
  106 3.51136 -37.6621 9.62566
  107 0.225550 -14.0234 10.0731
  108 -17.7554 -0.614788 7.74305
  109 -29.5996 2.79381 7.34851
  110 -30.5807 5.37060 1.16718
  111 -29.6302 4.41439 -4.26356
  112 -3.15641 4.51711 -11.0563
  113 34.5905 2.91901 -18.2046
  114 67.3069 -0.0291227 -17.8913
  115 106.236 1.36456 -16.3226
  116 138.656 1.50537 -15.4812
  117 185.804 -0.199130 -16.3303
  118 209.953 0.158953 -11.4257
  119 237.453 -0.0685763 -10.3584
  120 260.401 -0.462012 -8.48518
  121 278.142 -0.220286 -6.95313
  122 293.934 0.0163414 -6.16160
  123 304.526 0.437206 -5.43226
  124 319.359 -0.343663 -4.98869
  125 324.863 0.00933563 -2.64326
  126 331.986 0.0115308 -2.11732
  127 337.642 -0.218903 -1.64983
  128 341.859 -0.133932 -1.32527
  129 346.261 0.0423372 -1.08403
  130 342.824 1.29039 -0.483100
  131 348.292 0.501041 -0.665777
  132 360.296 -0.257853 0.450421
  133 375.593 -1.17181 -0.230151
  134 390.635 -2.43373 -0.117428
  135 407.855 -3.49620 -0.0566157
  136 426.016 -5.60643 0.000656075
  137 445.216 -7.20371 0.326787
  138 465.165 -7.80355 0.120142
  139 482.464 -9.45427 0.143634
  140 497.425 -8.60501 0.620379
  141 514.484 -7.84541 1.24314
  142 533.628 -6.42647 1.30483
  143 551.474 -5.93111 1.17169
  144 570.231 -3.90966 0.779758
  145 585.791 -2.79044 1.27577
  146 597.882 -0.833266 0.679356
  147 539.600 -50.7367 0.0372177
  148 539.120 -50.0463 0.151138
  149 569.475 81.6063 -25.9773
  150 603.545 35.5255 53.9925
  151 457.607 -44.3465 -103.159
  152 461.386 -44.2609 99.9583
  153 448.365 -18.6890 13.3792
  154 448.390 -18.9387 -13.3839
  155 637.625 23.2287 -39.1704
  156 538.203 -19.5910 9.61123
  157 537.969 -19.1352 -9.49786
  158 695.437 153.895 5.35432
  159 552.831 -0.865834 -53.7245
  160 412.101 -31.9353 -46.5419
  161 412.141 -31.6808 46.1660
  162 553.262 -12.6201 48.0720
  163 528.756 38.7614 32.5001
  164 220.687 34.5776 -123.288
  165 243.940 32.8293 129.787
  166 670.381 8.52804 -0.625159
  167 553.710 -21.4211 -32.5506
  168 730.106 160.285 1.73764
  169 500.040 -14.1963 -1.20326
  170 499.942 -14.1604 1.24098
  171 558.032 -7.18015 -4.11876
  172 559.649 -6.50241 3.53103
  173 398.563 -5.44042 -7.63492
  174 398.622 -5.38648 7.60163
  175 595.414 -14.5975 131.279
  176 512.678 21.5354 -35.0638
  177 337.171 -25.0171 -73.7290
  178 338.156 -24.8390 73.2895
  179 379.685 -12.0341 -24.3801
  180 379.729 -11.9014 24.2194
  181 556.198 -14.8276 27.7028
  182 506.685 -34.6435 -3.78302
  183 504.989 -34.3863 4.53387
  184 572.726 -55.6392 -13.9363
  185 575.819 -53.0091 6.88404
  186 788.635 186.111 -32.2446
  187 580.349 92.7952 24.2126
  188 579.779 35.6094 -54.9961
  189 592.740 -3.55811 -151.746
  190 573.539 -32.5771 -36.6647
  191 578.563 -23.3247 43.8802
  192 483.721 -54.8418 51.8934
  193 483.770 -54.4395 -51.7544
  194 520.535 6.78222 41.9667
  195 241.784 -6.19119 -90.4886
  196 242.333 -6.67109 89.9734
  197 885.148 131.910 19.4371
  198 543.798 -32.5165 18.9474
  199 563.068 -10.6418 -17.7226
  200 451.191 -10.8576 -6.30619
  201 451.207 -10.8085 6.28988
  202 543.343 -7.11184 -37.2180
  203 617.170 90.4360 -43.1942
  204 520.727 46.9653 -6.49521
  205 343.023 -11.7472 33.9225
  206 342.523 -11.7791 -34.1505
  207 570.302 -6.69858 9.36070
  208 559.181 10.5350 55.3400
  209 456.289 -32.8037 -23.5719
  210 453.416 -31.0486 24.0053
  211 655.917 97.4132 37.9835
  212 764.223 108.529 25.1069
  213 55.2593 42.2217 -36.6561
  214 51.1971 39.0263 31.2767
  215 318.855 92.3294 214.489
  216 538.452 -35.8528 -13.7540
  217 572.153 -6.42717 -8.44159
  218 515.024 4.70664 -38.6751
  219 366.476 -3.40742 -10.8621
  220 366.597 -3.37000 10.7783
  221 486.632 -22.6782 -6.24211
  222 486.862 -22.8287 5.97236
  223 547.585 -7.45647 31.5267
  224 624.650 -35.9933 19.1835
  225 626.219 127.089 -12.3115
  226 491.118 -47.1928 -25.8236
  227 617.120 -10.7837 32.2663
  228 527.707 -9.19035 1.15276
  229 527.706 -9.12097 -1.15167
  230 487.701 -46.9743 26.6713
  231 556.831 -35.4960 29.4668
  232 772.384 104.629 -56.9936
  233 176.628 105.033 -157.604
  234 478.851 17.1578 8.44801
  235 562.001 49.5261 46.7511
  236 595.315 -4.25569 -47.6386
  237 557.482 -20.1946 -44.5331
  238 304.487 -9.48848 -42.2414
  239 305.481 -9.34988 42.1308
  240 558.065 -6.92401 -24.0747
  241 531.506 -13.7276 4.64049
  242 531.261 -13.7171 -4.44787
  243 117.080 10.1906 -58.7202
  244 118.769 8.92518 58.5056
  245 588.783 -51.6556 -49.9186
  246 581.969 -2.47674 1.12468
  247 582.520 -2.51965 -1.27366
  248 549.543 45.6283 -42.9566
  249 487.622 9.68663 25.4878
  250 987.720 158.113 106.530
  251 978.914 111.469 -66.1903
  252 721.064 154.210 0.504911
  253 450.730 -21.9982 136.458
  254 414.542 -14.6104 -142.513
  255 477.555 -9.81140 -2.49517
  256 477.517 -9.75510 2.48056
  257 400.619 -10.3568 15.2312
  258 400.604 -10.4941 -15.3499
  259 570.297 -6.44452 14.4535
  260 554.507 -39.6256 -23.5295
  261 369.022 -0.555030 -2.59142
  262 369.114 -0.544488 2.57777
  263 547.613 -22.4009 -18.9954
  264 239.677 -7.69163 -58.8041
  265 240.630 -7.71478 58.4145
  266 554.836 -24.2260 35.1300
  267 425.739 -45.1890 83.0799
  268 426.736 -45.9936 -82.8203
  269 485.363 18.9366 -11.8659
  270 419.006 -6.18679 -5.16432
  271 419.049 -6.14798 5.14739
  272 523.837 -1.21936 30.8152
  273 622.625 113.408 29.7965
  274 341.627 -3.92752 18.1374
  275 341.377 -3.95865 -18.2762
  276 568.612 -47.6967 14.8363
  277 526.344 -59.2694 -57.4673
  278 584.437 -3.19254 4.22513
  279 413.589 -23.9902 -32.0421
  280 412.935 -23.7317 31.9364
  281 710.250 81.6395 191.184
  282 345.859 -28.0337 98.5904
  283 555.207 77.8033 -2.74673
  284 692.940 77.9536 -21.5509
  285 526.353 -40.6752 3.45745
  286 526.884 -60.8668 52.1331
  287 346.824 -27.5973 -99.6274
  288 65.8877 81.5325 75.4080
  289 547.709 -22.4684 19.3619
  290 713.093 94.8217 15.0460
  291 588.652 -2.85630 -3.66545
  292 540.233 19.0578 -49.4704
  293 530.314 -30.0613 9.09759
  294 519.519 -43.7677 4.47749
  295 538.495 24.8401 47.7395
  296 566.002 -47.6872 -12.8773
  297 797.778 154.005 -15.0155
  298 530.176 -28.9072 -8.67590
  299 433.088 128.494 -260.478
  300 541.052 -57.4468 -14.2863
  301 537.329 -59.0290 20.3527
  302 399.271 -35.7863 -65.1538
  303 365.587 -1.24339 -5.59320
  304 365.695 -1.22147 5.55506
  305 399.471 -35.8241 64.8269
  306 573.651 -1.00807 -54.9730
  307 615.732 -25.5161 -19.6486
  308 473.810 -28.2223 -13.3740
  309 473.548 -28.2895 13.6007
  310 560.113 -48.2261 90.2586
  311 562.405 -4.68771 18.2075
  312 676.541 4.86286 36.4850
  313 464.959 -16.2049 -7.54759
  314 464.997 -16.1588 7.51318
  315 425.879 -10.7722 -10.3041
  316 425.892 -10.6772 10.2927
  317 482.928 6.72653 -24.6362
  318 610.670 44.8136 -52.1215
  319 930.919 252.919 -123.475
  320 554.648 -5.34903 -1.30669
  321 554.364 -5.28164 1.35171
  322 302.053 -1.15296 123.067
  323 423.269 -18.7493 -21.5816
  324 422.531 -18.6980 21.6406
  325 301.991 -1.88760 -122.595
  326 584.258 68.8374 -45.1254
  327 648.832 32.5185 36.7025
  328 559.784 -39.9082 -99.8010
  329 518.787 -20.1441 3.16478
  330 518.285 -20.0104 -2.95406
  331 551.823 -11.8261 -8.78125
  332 524.156 -0.930019 -28.8007
  333 583.726 2.38073 53.5033
  334 579.758 -4.35529 -9.87673
  335 356.444 -21.1555 49.5390
  336 356.055 -21.2655 -49.8864
  337 545.249 -1.18482 51.1495
  338 344.160 -2.60098 -10.8400
  339 344.374 -2.57725 10.7524
  340 556.094 -13.1268 14.3787
  341 667.858 135.814 -20.4698
  342 551.605 -11.9019 9.14241
  343 590.575 73.9392 45.1685
  344 564.368 -10.6056 52.3484
  345 450.767 -8.31293 2.40722
  346 450.763 -8.35900 -2.42009
  347 536.261 -1.85090 -45.4576
  348 704.211 147.634 11.0451
  349 589.851 107.490 0.933007
  350 360.481 41.6567 -181.826
  351 40.5085 16.4670 -26.5793
  352 44.0676 17.8399 28.4397
  353 -0.944027 4.67467 10.0703
  354 1.09928 2.93728 -10.5939
  355 1008.38 70.0514 23.6297
  356 488.252 -39.3485 -16.0562
  357 556.456 -12.7082 -14.0153
  358 504.342 -9.09972 0.198759
  359 504.286 -9.03374 -0.203036
  360 542.351 59.9339 -23.2918
  361 461.678 -46.7160 42.7675
  362 42.2685 63.4185 -47.7948
  363 462.045 -46.6874 -43.4760
  364 549.109 62.4514 24.7752
  365 556.091 -15.0862 -26.2961
  366 588.490 -33.0307 -30.1904
  367 630.394 132.025 8.43881
  368 589.589 -37.0491 24.0311
  369 253.126 -6.06000 39.2996
  370 251.729 -5.94064 -39.5226
  371 145.225 3.26534 -55.2550
  372 146.594 2.72592 55.0205
  373 489.993 1.90194 24.8583
  374 903.319 268.053 109.978
  375 573.607 -3.89600 -12.8350
  376 450.783 -37.5957 -32.9651
  377 450.467 -37.5188 32.9246
  378 553.511 -12.9517 -33.9165
  379 625.637 -30.2139 -1.01173
  380 488.235 -39.3211 16.4752
  381 682.831 6.75331 -62.3058
  382 398.469 -2.98690 -2.11039
  383 398.535 -2.96271 2.09873
  384 545.651 -3.26442 -21.9528
  385 302.120 -4.13391 -25.5663
  386 302.286 -4.27242 25.2761
  387 648.233 83.0410 -42.7105
  388 352.559 24.6615 169.308
  389 509.845 -26.7179 0.0443892
  390 510.333 -26.6776 -0.0628314
  391 599.857 101.021 -28.3315
  392 566.211 -16.9114 -49.2776
  393 564.740 -57.9146 51.2529
  394 475.950 -12.5850 -3.98006
  395 475.905 -12.5327 3.95035
  396 545.751 -42.1969 14.6801
  397 584.798 -3.05638 7.27723
  398 373.705 -13.1555 -30.3370
  399 373.857 -13.1627 30.1048
  400 556.669 18.7586 -54.6812
  401 523.601 -11.6771 1.67022
  402 523.572 -11.7086 -1.60987
  403 543.523 -6.47955 41.4799
  404 510.495 37.4856 11.3077
  405 561.509 -23.8982 42.5869
  406 805.263 167.629 32.6710
  407 277.395 -14.8504 -78.9873
  408 278.129 -14.8502 78.4308
  409 125.051 65.9184 -96.5004
  410 596.077 -2.10049 1.85395
  411 315.051 -2.45454 -16.2101
  412 315.440 -2.40268 16.0847
  413 553.850 -14.6385 33.1041
  414 502.738 -54.4372 29.6766
  415 564.564 -7.47418 6.18233
  416 578.714 29.3411 56.5973
  417 130.680 70.1879 100.270
  418 503.444 -54.1057 -27.5369
  419 519.902 -48.2300 -8.16593
  420 177.282 -3.52683 -49.8012
  421 178.473 -3.64898 49.4819
  422 400.776 -32.4994 -118.867
  423 595.245 -9.04624 46.3104
  424 399.418 -32.9339 117.883
  425 550.830 -31.0999 -26.5025
  426 517.098 35.1800 -24.6459
  427 550.870 -24.0408 25.3742
  428 588.744 -2.98092 -4.75178
  429 19.2481 21.3764 10.8700
  430 122.732 144.227 141.449
  431 533.432 -1.93756 21.3215
  432 454.376 6.55115 10.8629
  433 461.574 7.90403 -14.6944
  434 393.844 -6.16673 -10.7527
  435 393.895 -6.09080 10.6929
  436 543.063 -42.1607 -13.1856
  437 550.247 -10.8792 -46.2368
  438 456.576 8.94606 -3.98852
  439 804.305 192.241 44.9428
  440 116.728 37.5391 -72.5459
  441 128.218 34.4317 77.2239
  442 509.372 -18.2387 0.475481
  443 509.190 -18.2068 -0.351318
  444 677.798 148.261 -1.49045
  445 416.149 181.593 266.238
  446 647.247 -8.53417 -3.15228
  447 380.729 -19.3617 -41.1479
  448 380.917 -19.2380 40.8326
  449 384.557 -8.19856 16.5224
  450 384.476 -8.25449 -16.6533
  451 513.841 11.6860 -39.9072
  452 598.830 -1.16094 -1.19367
  453 500.824 23.3394 22.5358
  454 624.794 77.0580 47.4798
  455 521.085 -38.6295 -1.76027
  456 564.291 -7.14590 -6.02355
  457 590.988 -2.73177 4.37227
  458 597.035 -1.25625 0.678054
  459 597.451 -1.37934 -0.471034
  460 342.893 -0.512936 4.06215
  461 342.721 -0.521127 -4.09870
  462 568.574 -36.3533 32.0582
  463 518.586 20.7191 38.6643
  464 539.797 2.26923 -50.0183
  465 559.896 -12.1504 19.2179
  466 791.280 143.017 -163.919
  467 561.876 -31.3716 -36.6415
  468 7.62392 10.9994 5.75559
  469 7.48384 11.2638 -2.96706
  470 449.274 -25.0054 19.1426
  471 447.858 -24.6508 -18.8812
  472 689.227 15.9712 90.5264
  473 195.529 184.092 -204.202
  474 555.578 -1.82707 16.3380
  475 623.159 -35.9229 -53.3920
  476 341.531 -19.2360 57.1864
  477 672.198 119.389 -29.5358
  478 553.889 -30.1835 30.4243
  479 468.343 -22.0785 -10.2964
  480 468.747 -21.7250 10.2766
  481 489.883 2.74538 -21.9264
  482 340.503 -19.1507 -57.4987
  483 501.283 0.381354 21.9697
  484 475.242 -54.4786 -74.9650
  485 474.084 -54.5614 75.2931
  486 570.713 -4.01171 14.2088
  487 524.736 49.6638 4.66654
  488 522.975 10.3046 183.658
  489 772.083 155.688 -0.968422
  490 535.471 -9.43446 2.36833
  491 535.492 -9.40290 -2.48738
  492 418.636 -7.13126 -7.02886
  493 418.675 -7.07617 7.00791
  494 222.743 9.60671 104.076
  495 556.550 -27.0054 -36.1240
  496 505.874 -11.2025 -0.477870
  497 505.824 -11.1695 0.485017
  498 442.134 -46.5630 61.2830
  499 226.893 12.7847 -106.644
  500 556.565 -45.5292 -15.2130
  501 10.5095 3.94242 2.74932
  502 493.919 25.9020 1.67469
  503 537.165 -6.67969 -0.737934
  504 537.161 -6.76076 0.712396
  505 442.330 -46.4681 -61.7333
  506 623.654 -31.4974 66.6274
  507 622.063 22.6329 47.6816
  508 572.403 -4.36548 -2.86049
  509 554.878 -46.1523 15.5088
  510 358.836 -0.233760 -0.768548
  511 358.930 -0.230910 0.763512
  512 555.142 -21.4909 -38.9909
  513 541.087 40.1312 42.0952
  514 614.651 15.2391 -47.1786
  515 356.640 -0.454717 -2.29609
  516 356.746 -0.447772 2.28279
  517 1050.19 151.910 -134.903
  518 562.251 66.8245 36.8697
  519 572.845 -4.07754 2.52888
  520 520.999 -49.3083 9.44003
  521 442.457 -14.3080 10.7744
  522 442.442 -14.4092 -10.7525
  523 603.057 -36.9297 10.7742
  524 581.906 -11.7991 -49.3990
  525 651.289 127.617 25.6962
  526 544.380 9.45917 51.9169
  527 545.121 -10.8999 5.20894
  528 529.018 -56.7548 -72.9635
  529 551.531 -13.8241 38.8297
  530 1036.36 47.8013 -18.8204
  531 598.397 -45.2846 4.12473
  532 568.866 -4.26915 -0.579214
  533 569.006 -4.50705 0.473235
  534 1047.17 70.2048 65.5861
  535 531.554 -0.0808106 44.1654
  536 733.574 125.525 -4.70615
  537 555.099 -15.4351 -18.4437
  538 261.266 -2.30793 -17.4603
  539 261.996 -2.19535 17.2953
  540 380.344 -35.4833 -82.7003
  541 380.683 -34.8928 82.1207
  542 544.814 -10.4764 -5.17921
  543 594.071 21.7791 -54.5184
  544 522.577 -35.5316 3.77911
  545 564.607 64.6728 -38.1680
  546 564.987 -6.87413 19.0998
  547 701.578 37.1556 -15.0577
  548 486.382 -16.6004 -3.98206
  549 486.251 -16.5540 3.94829
  550 526.097 -24.9311 6.37427
  551 767.211 154.825 -19.2917
  552 556.233 24.3731 53.8699
  553 239.904 61.4545 153.214
  554 531.729 -31.7936 124.258
  555 694.856 37.8466 -137.883
  556 568.503 47.0222 -49.9486
  557 500.708 -43.5735 -107.994
  558 542.853 -59.6627 -24.7179
  559 565.603 -57.5382 -34.6596
  560 76.6946 101.700 -96.1440
  561 568.896 -7.62746 -11.2344
  562 849.787 164.767 -50.5196
  563 528.777 -23.9675 -7.45850
  564 532.780 -17.5917 6.18834
  565 532.298 -17.2106 -5.88126
  566 376.803 -1.95153 -5.12415
  567 376.892 -1.92651 5.09565
  568 57.8790 5.40256 -31.0038
  569 60.6608 5.67736 31.6890
  570 281.207 -12.7804 -60.1110
  571 283.231 -12.8547 60.0524
  572 540.184 -29.4386 -15.8266
  573 548.926 -59.9134 26.4979
  574 564.153 -53.7874 -1.02696
  575 467.466 -8.24276 -2.03948
  576 467.445 -8.19042 2.03035
  577 441.447 -46.4932 -92.3284
  578 491.449 -40.5866 114.023
  579 431.192 -43.7587 92.7865
  580 556.783 -12.4663 -49.5611
  581 357.146 -5.61836 18.3421
  582 356.973 -5.67457 -18.4759
  583 533.952 29.7225 -42.3509
  584 533.742 -0.947557 -19.3446
  585 663.192 142.761 -11.2361
  586 438.361 -6.45205 -1.90306
  587 438.380 -6.41357 1.89546
  588 565.454 -1.77088 -10.6831
  589 397.410 -12.9624 -20.6468
  590 397.437 -12.9237 20.4872
  591 321.951 14.2622 146.032
  592 550.361 -25.5325 -25.6093
  593 311.779 -16.7979 105.119
  594 540.890 -28.1901 16.2640
  595 567.596 -8.41187 12.4826
  596 559.859 -5.62657 -2.45841
  597 402.666 -4.71375 -4.87400
  598 402.726 -4.67754 4.85345
  599 636.614 126.329 -23.4487
  600 311.547 -16.2126 -105.471
  601 539.046 -23.5568 -12.7522
  602 488.607 -9.18408 -1.16340
  603 488.560 -9.12363 1.15916
  604 899.890 120.600 -21.7444
  605 332.772 -1.98162 10.0504
  606 332.499 -2.00026 -10.1340
  607 508.222 11.9093 36.4795
  608 711.381 61.8113 -0.943938
  609 342.515 1.74397 -144.813
  610 180.079 4.06620 -79.8072
  611 181.468 3.10648 79.3914
  612 431.237 -24.6739 25.9589
  613 435.482 -25.4023 -25.3157
  614 722.546 146.155 6.89670
  615 557.724 -5.81339 2.16797
  616 487.887 14.0961 -22.1114
  617 601.507 107.494 22.4253
  618 599.571 111.507 -14.9279
  619 492.642 -27.1333 -6.28110
  620 496.226 -26.5513 4.56186
  621 351.672 77.4423 -206.928
  622 427.248 -14.2231 -14.6476
  623 427.294 -14.0686 14.6076
  624 1046.12 214.598 161.791
  625 555.646 -18.3648 42.3336
  626 325.185 -11.1049 -38.4757
  627 843.794 206.874 142.972
  628 325.904 -11.0491 38.3509
  629 527.056 -19.8493 -144.367
  630 383.353 -1.68124 -1.88396
  631 383.433 -1.66695 1.87598
  632 471.839 4.45065 19.3103
  633 219.771 -3.12882 -34.4783
  634 220.866 -3.13770 34.2313
  635 486.480 -34.1663 12.7406
  636 509.004 -40.6108 -5.88661
  637 594.348 -1.48691 -4.09516
  638 348.377 -0.476109 3.04367
  639 348.239 -0.485148 -3.07036
  640 460.873 -10.2896 -3.34324
  641 460.863 -10.2387 3.32391
  642 523.042 -58.2878 73.5944
  643 603.162 67.2908 -49.4443
  644 406.780 -18.4806 -26.5582
  645 406.523 -18.1759 26.3841
  646 477.880 -34.0404 -16.6477
  647 745.679 161.493 7.86481
  648 560.952 -54.4653 4.01210
  649 490.347 -11.8232 -2.18175
  650 490.281 -11.7733 2.17957
  651 668.297 73.7750 34.2663
  652 562.783 -8.42683 -20.7443
  653 503.954 -0.503292 -17.8653
  654 237.422 -8.14062 -75.8428
  655 238.086 -8.35005 75.2689
  656 476.387 -40.7671 -25.5712
  657 710.105 154.880 -0.0250810
  658 555.259 75.0507 -16.6108
  659 374.645 -3.16957 -9.30967
  660 374.740 -3.12649 9.24565
  661 515.212 -14.7643 -0.863904
  662 515.309 -14.7719 0.962507
  663 942.276 122.638 54.2792
  664 601.645 -1.86095 1.01732
  665 584.455 -2.53003 7.18874
  666 582.486 -2.53890 -8.54296
  667 554.521 -51.7756 4.15446
  668 415.547 -4.61921 -2.43297
  669 415.595 -4.58907 2.42395
  670 595.431 95.0058 34.7168
  671 757.475 167.736 -13.7603
  672 421.192 -30.7757 -37.6147
  673 421.108 -30.4887 37.4482
  674 521.420 -53.6662 -14.4894
  675 552.577 32.9261 -50.7899
  676 648.384 2.05690 16.9000
  677 438.494 -7.95979 -5.05083
  678 438.516 -7.91391 5.03409
  679 379.274 -33.0143 -74.6397
  680 549.404 -53.2577 0.787466
  681 458.876 -50.8460 67.5846
  682 222.042 69.4898 -148.008
  683 430.452 -39.5148 52.1529
  684 519.548 0.152251 16.4104
  685 379.644 -32.6491 74.1764
  686 538.747 -23.9918 12.9092
  687 430.545 -39.3376 -52.5872
  688 447.339 6.10525 4.06877
  689 346.681 -8.93318 27.5012
  690 346.385 -8.93739 -27.6715
  691 459.040 -52.1586 -68.3112
  692 564.953 -37.4103 -30.9429
  693 519.001 -7.64136 -0.275659
  694 519.084 -7.71219 0.277403
  695 576.837 -36.9834 30.2568
  696 525.229 -54.8752 16.6636
  697 636.556 58.5566 46.2201
  698 575.785 -10.9531 51.2689
  699 554.100 -20.1267 30.6145
  700 533.674 44.0496 -32.1283
  701 636.763 106.768 36.7586
  702 550.717 -7.73530 -30.4964
  703 547.234 -18.4359 14.7729
  704 569.659 88.8525 8.94795
  705 557.396 -9.66978 26.2000
  706 178.184 121.948 155.519
  707 518.166 -59.7049 -43.9820
  708 599.819 10.8177 51.7094
  709 604.312 -18.7918 -34.9874
  710 599.481 -1.02830 2.16615
  711 553.338 -19.2956 -23.6904
  712 519.010 -60.1664 40.2731
  713 984.537 87.3405 -14.5271
  714 319.740 -1.25332 10.5037
  715 319.384 -1.26642 -10.5920
  716 559.951 -10.5760 -10.5407
  717 602.809 -0.803543 -2.14008
  718 475.598 -41.4372 25.6971
  719 568.394 -21.3328 46.2305
  720 849.802 208.726 -72.3012
  721 538.796 -39.1206 12.4482
  722 594.978 -39.3635 -15.4948
  723 547.412 -17.9624 -14.5269
  724 602.034 -1.29164 -0.596952
  725 556.445 -0.101492 54.2968
  726 26.7038 28.6788 35.3295
  727 619.419 -22.8382 -96.5393
  728 676.302 41.1526 18.6411
  729 565.192 -57.9513 31.4717
  730 411.067 -9.52587 11.9364
  731 411.054 -9.65274 -11.9843
  732 515.286 277.486 -279.171
  733 577.018 -38.3784 -27.6099
  734 445.701 2.66234 -7.78532
  735 513.011 2.99587 35.4045
  736 557.822 -28.1029 36.6583
  737 534.659 -45.0577 4.26616
  738 552.901 -50.6712 -79.1335
  739 531.568 -42.0592 -5.40810
  740 623.754 -29.7917 -1.16584
  741 575.078 -5.11859 6.05867
  742 516.843 -31.0132 1.86510
  743 923.732 184.526 -99.8642
  744 549.534 -15.0507 11.5369
  745 547.087 9.05595 -53.2614
  746 463.339 -4.91914 161.816
  747 584.588 46.9935 53.7978
  748 503.113 -39.4336 8.37032
  749 392.458 -30.4524 -54.7587
  750 392.524 -30.3800 54.3531
  751 537.990 60.5617 -7.45236
  752 544.799 -6.35665 47.1926
  753 549.828 -13.1940 -39.7901
  754 517.410 -31.6662 -2.00363
  755 500.705 -44.6656 15.9530
  756 573.874 94.2522 -10.0078
  757 534.023 -46.2282 -2.17021
  758 535.454 -33.9727 12.3066
  759 541.326 -7.39509 1.68340
  760 541.628 -7.21242 -1.66426
  761 727.560 158.555 0.722643
  762 593.361 -50.6364 -22.8474
  763 554.975 -17.2638 23.6694
  764 575.148 -5.11771 -5.45556
  765 584.399 3.80875 -54.0395
  766 661.390 35.5585 -27.9424
  767 336.798 -0.233253 -4.96110
  768 337.013 -0.228974 4.91756
  769 5.23502 -8.84365 -6.10064
  770 566.761 -0.784586 9.86610
  771 523.673 -0.690926 -38.9803
  772 539.294 -5.06906 34.0092
  773 484.809 63.2159 235.171
  774 613.278 125.094 -1.20765
  775 438.533 -30.8847 29.8693
  776 82.9467 1.62325 -30.2790
  777 85.0219 1.17537 30.5894
  778 534.948 -3.77959 -38.5259
  779 439.621 -31.1768 -29.8782
  780 571.834 -5.60989 4.45797
  781 301.574 -12.5464 51.2352
  782 299.122 -12.4971 -51.2246
  783 549.472 -14.6296 -11.2240
  784 359.554 -8.67154 -24.0095
  785 359.731 -8.61928 23.8207
  786 571.487 -5.72096 -14.1614
  787 442.402 -11.5514 -8.63569
  788 442.426 -11.4831 8.64024
  789 623.156 -3.84298 -34.6762
  790 564.094 -5.97254 -54.1446
  791 296.553 -1.77439 -13.3062
  792 297.076 -1.75765 13.1650
  793 18.2705 7.26943 -19.0066
  794 20.6915 7.68155 19.9531
  795 465.203 2.34020 -14.0071
  796 514.411 -57.7838 -33.5791
  797 -5.71300 -3.87930 10.0575
  798 -5.08036 -4.71875 -10.0955
  799 534.903 -11.0922 3.75894
  800 578.840 -45.3879 -13.4979
  801 600.939 88.7754 -40.3705
  802 574.083 -5.07489 -4.25322
  803 1193.14 244.858 -223.945
  804 534.789 -11.0639 -3.70446
  805 799.919 151.241 13.7744
  806 573.876 16.6962 -56.6136
  807 631.222 47.8562 -47.5630
  808 114.237 -1.31714 -27.7455
  809 116.064 -1.47155 27.7021
  810 365.964 -4.99620 14.3650
  811 365.831 -5.03531 -14.4764
  812 351.832 -0.719946 2.71684
  813 351.715 -0.727807 -2.73533
  814 639.818 107.509 -36.2716
  815 386.787 -2.19811 -4.08863
  816 386.864 -2.17366 4.06981
  817 546.428 -5.49265 -49.3190
  818 772.631 85.0273 75.2213
  819 496.298 11.4235 -30.7313
  820 178.561 -1.53280 29.4694
  821 177.231 -1.54751 -29.6817
  822 624.181 19.6959 170.435
  823 559.473 -10.6607 10.8774
  824 507.543 33.9981 -12.7860
  825 241.642 -0.305563 19.9319
  826 240.539 -0.197464 -20.0645
  827 358.089 -1.64884 -7.09340
  828 358.224 -1.62517 7.03719
  829 65.2407 57.6113 51.6314
  830 527.140 12.7696 45.3716
  831 584.432 85.5911 -34.9383
  832 625.893 72.7497 -47.8985
  833 417.298 -15.3249 -18.9000
  834 417.083 -15.2222 18.8874
  835 649.517 137.145 16.1069
  836 557.510 -5.13279 -0.487156
  837 557.554 -5.09593 0.575774
  838 554.330 -16.8642 -31.0954
  839 467.158 -30.7554 18.4123
  840 511.437 -57.4397 33.6401
  841 596.577 -48.8558 51.8628
  842 463.716 -13.2949 -5.65727
  843 463.720 -13.2534 5.62810
  844 530.917 49.3602 20.6925
  845 500.466 7.09932 -33.1231
  846 138.668 172.649 161.718
  847 502.198 -44.2897 -14.7452
  848 504.118 -22.4983 -1.13216
  849 504.381 -22.5583 1.09869
  850 554.429 -8.24337 51.5903
  851 548.252 -36.1648 -21.4502
  852 491.677 -32.3032 -8.94422
  853 1085.63 35.1239 -52.7077
  854 467.953 -43.9088 34.2984
  855 467.550 -44.4601 -34.8077
  856 553.338 -6.74082 25.8820
  857 822.999 214.573 -54.3745
  858 440.281 -39.5288 -41.8766
  859 483.984 -54.2963 40.7094
  860 440.211 -39.0697 41.5369
  861 476.476 -18.9971 -6.76565
  862 476.477 -18.9440 6.72776
  863 74.0082 30.3472 44.7057
  864 594.333 44.4028 -54.0632
  865 458.331 -17.6134 -9.73732
  866 458.422 -17.4461 9.76774
  867 453.289 -7.40756 -1.19760
  868 453.288 -7.36211 1.19126
  869 495.544 -10.0147 -0.826920
  870 495.488 -9.95653 0.821630
  871 408.146 -7.66191 -10.2698
  872 408.189 -7.58057 10.2344
  873 459.776 -23.8058 -14.2878
  874 459.844 -23.6596 14.3515
  875 11.8962 -0.926222 -7.46308
  876 685.680 128.804 24.5577
  877 590.474 -20.8788 -41.6390
  878 483.527 -53.4981 -41.0888
  879 521.384 -16.9874 2.87011
  880 521.166 -16.8263 -2.74147
  881 568.867 0.626364 55.3522
  882 612.891 -43.6552 -31.3276
  883 540.176 41.1807 -204.767
  884 253.926 -4.59794 102.481
  885 -6.51307 5.91745 -7.98066
  886 -5.37465 6.69382 8.70471
  887 73.6408 32.2659 -45.6865
  888 554.393 -16.2515 18.2785
  889 580.844 -4.15590 -7.60610
  890 523.356 -50.6225 89.9367
  891 253.350 -4.36858 -102.857
  892 583.179 -48.0087 7.82759
  893 644.394 -17.6915 80.3500
  894 480.786 2.01720 14.8209
  895 546.089 51.9958 35.0637
  896 299.938 -16.7312 74.9104
  897 298.824 -16.8639 -75.3631
  898 359.160 -16.6136 -42.1351
  899 372.115 -18.7590 -130.114
  900 584.971 -13.8627 47.7001
  901 796.095 189.979 36.8962
  902 588.326 22.5416 55.1346
  903 555.983 -12.0830 -28.5308
  904 379.656 -16.8011 133.311
  905 705.077 130.735 -15.8027
  906 73.4645 61.6686 -63.2189
  907 518.199 -0.966405 -15.6534
  908 359.528 -16.4837 41.7966
  909 435.197 -9.35120 7.54197
  910 435.174 -9.40886 -7.55464
  911 549.013 -35.9670 22.2581
  912 567.117 -4.10541 1.56476
  913 419.299 3.56659 -161.065
  914 596.541 -1.49510 3.58140
  915 592.843 -1.25152 -4.68225
  916 455.459 4.11901 -12.9304
  917 575.395 -2.42247 -8.69310
  918 436.042 -19.9523 -17.8296
  919 436.329 -19.6671 17.8897
  920 -13.2800 5.56977 -7.49805
  921 -18.8091 3.36361 8.13334
  922 567.081 -3.84248 -1.62212
  923 195.651 -4.55629 69.2675
  924 194.592 -4.16791 -69.6321
  925 610.210 88.7213 42.3733
  926 1061.11 19.2761 16.1245
  927 575.715 63.8918 45.4840
  928 643.878 -22.0094 27.0634
  929 564.280 -31.6059 36.6472
  930 701.091 146.572 -12.1278
  931 446.563 2.13293 9.75987
  932 542.441 -13.1329 -6.46957
  933 566.289 30.4920 -55.1347
  934 676.184 21.2721 -4.27776
  935 529.865 -32.7688 -9.06660
  936 280.739 -1.44943 -14.8450
  937 280.981 -1.39734 14.6484
  938 558.126 -13.4133 -21.8106
  939 20.2484 25.1288 7.05059
  940 535.934 -55.5979 -9.54643
  941 472.930 14.4194 -1.33060
  942 697.137 152.204 -8.02043
  943 113.904 84.4428 -102.732
  944 539.305 -4.03423 -30.4718
  945 380.283 -6.01778 -13.5209
  946 380.365 -5.95016 13.4219
  947 3.75623 -14.7035 10.9901
  948 370.237 -27.1112 -60.4445
  949 546.253 -31.7348 -20.9544
  950 351.075 0.763609 -1.14624
  951 351.175 0.766558 1.13988
  952 555.372 67.3402 -27.9487
  953 586.656 -2.13945 -0.715868
  954 586.695 -2.15923 0.960129
  955 370.423 -27.0474 60.0728
  956 554.168 -0.877547 -11.9245
  957 633.078 4.71377 32.9746
  958 562.379 -8.34592 8.26858
  959 95.0175 22.9924 -55.5496
  960 581.867 -3.87175 6.84958
  961 534.317 4.46298 48.3711
  962 563.347 77.8179 24.8413
  963 561.739 6.52638 -56.2480
  964 392.018 -20.4918 -36.5211
  965 602.564 -21.5527 33.5812
  966 392.278 -20.4232 36.1872
  967 19.4997 20.6534 -3.76522
  968 71.0989 11.3972 40.8026
  969 323.946 -5.44478 24.7362
  970 323.576 -5.44426 -24.8575
  971 542.828 -13.3592 6.88354
  972 587.361 101.600 13.5659
  973 300.377 26.8767 -153.173
  974 490.836 -30.4180 8.02028
  975 460.904 -47.9261 -50.4318
  976 667.963 127.628 26.8786
  977 515.166 -9.36453 0.0121559
  978 515.143 -9.31933 -0.0176602
  979 562.384 -10.7540 -15.3543
  980 526.225 45.6458 -19.0774
  981 1141.47 346.526 232.799
  982 115.026 5.97449 -52.7625
  983 116.619 4.95228 52.8591
  984 8.57819 -7.46625 4.48628
  985 527.342 29.4639 39.1614
  986 460.845 -48.2298 50.0901
  987 568.265 -27.0161 -42.2631
  988 617.782 50.4710 52.4520
  989 590.199 -47.6647 -62.4909
  990 858.935 180.358 62.5892
  991 506.309 -8.43176 -0.480091
  992 506.245 -8.36933 0.479598
  993 589.844 -24.2675 39.2358
  994 41.9324 76.3224 74.9169
  995 275.069 -5.53266 35.2976
  996 274.283 -5.46050 -35.6376
  997 325.169 -15.4684 48.4654
  998 324.104 -15.2208 -48.6209
  999 365.032 -14.6015 35.0792
  1000 399.078 -2.93766 -1.81401
  1001 399.143 -2.91719 1.80767
  1002 950.713 313.761 -202.969
  1003 873.802 219.516 94.3404
  1004 364.742 -14.6682 -35.3429
  1005 607.290 -2.91253 43.4888
  1006 548.600 56.9519 -33.6813
  1007 387.771 -33.6284 108.029
  1008 494.708 -58.5165 -59.9911
  1009 564.775 -4.81910 -17.2127
  1010 259.187 17.0152 125.234
  1011 332.300 -25.3003 86.2579
  1012 505.677 26.2522 -24.6374
  1013 571.751 -11.4525 -51.9865
  1014 704.204 308.714 316.235
  1015 479.691 15.0211 17.6371
  1016 643.731 137.446 -1.97334
  1017 469.242 19.0868 -182.630
  1018 481.655 -50.4029 -35.3730
  1019 603.023 -0.885744 -1.72610
  1020 585.985 53.7777 -52.3612
  1021 352.410 -2.07788 9.03612
  1022 352.244 -2.09855 -9.11022
  1023 13.3786 11.6333 -20.9741
  1024 392.638 -17.4277 -30.5305
  1025 331.883 -25.6212 -86.8576
  1026 392.377 -17.3978 30.2297
  1027 559.374 -17.1652 48.1086
  1028 502.700 -30.9263 -3.72753
  1029 530.300 9.91796 -46.9601
  1030 545.953 68.1340 9.84032
  1031 725.046 47.1390 34.0477
  1032 553.025 -42.1471 20.7090
  1033 355.548 -28.0249 -66.1307
  1034 526.333 18.8543 -44.0955
  1035 390.910 -33.2056 -108.532
  1036 743.058 159.785 -4.25653
  1037 513.022 33.9592 22.4143
  1038 637.351 -3.43936 -23.7797
  1039 484.609 -50.4454 32.8703
  1040 553.993 -17.7456 36.8466
  1041 549.794 -29.1873 25.2798
  1042 546.762 -27.6670 21.6197
  1043 672.293 86.0589 -35.4809
  1044 547.707 -8.93446 38.0640
  1045 494.020 -58.6780 59.0540
  1046 527.257 -21.7114 5.79866
  1047 355.776 -28.0874 65.8066
  1048 496.475 -36.3136 -9.59366
  1049 293.204 -14.3945 -92.2155
  1050 413.706 -42.7631 73.6990
  1051 556.845 -3.94097 -20.1644
  1052 543.880 -6.17361 -43.5561
  1053 471.942 -36.9424 -22.2538
  1054 293.691 -14.7807 91.5505
  1055 510.509 1.37547 -30.7622
  1056 381.835 -24.8053 -47.0663
  1057 680.364 143.883 16.3942
  1058 157.050 25.0160 -89.0429
  1059 1129.41 79.6432 107.002
  1060 276.906 19.7845 -130.859
  1061 546.411 -45.3527 -11.1456
  1062 381.956 -24.6052 46.7183
  1063 505.598 5.59515 34.5397
  1064 289.645 -5.62789 29.2416
  1065 289.523 -5.76473 -29.5167
  1066 554.426 -15.5356 -44.6999
  1067 584.332 -3.33114 2.56836
  1068 575.823 -1.44017 8.74674
  1069 572.062 18.9231 56.5802
  1070 536.873 -4.03178 41.0754
  1071 413.091 44.6829 197.258
  1072 606.512 -0.620564 0.774286
  1073 577.346 77.9959 36.1671
  1074 493.161 7.41294 29.8577
  1075 582.195 -2.37510 8.33464
  1076 384.064 -3.83588 -7.65218
  1077 384.141 -3.79345 7.61029
  1078 247.431 -6.80141 -48.8662
  1079 248.315 -7.04839 48.5715
  1080 494.805 25.0374 12.5642
  1081 726.347 42.2091 -60.6202
  1082 667.679 1.48484 -107.236
  1083 542.084 -0.536410 -12.4567
  1084 413.802 -43.0745 -74.2273
  1085 472.943 -35.1420 20.1417
  1086 544.965 -1.29487 12.9861
  1087 567.449 -41.3720 -24.7876
  1088 364.491 -0.689666 4.49558
  1089 364.389 -0.702898 -4.51957
  1090 545.392 -46.6502 11.1290
  1091 519.102 -10.8931 0.533502
  1092 519.014 -10.9066 -0.505484
  1093 505.529 -50.7414 22.1720
  1094 645.105 -20.4180 -13.0043
  1095 304.563 -0.493929 -8.30310
  1096 305.018 -0.476688 8.22412
  1097 443.322 -28.4779 -124.377
  1098 474.324 -11.2789 3.32571
  1099 474.361 -11.3335 -3.34801
  1100 285.051 156.568 216.838
  1101 650.688 53.8446 -41.1823
  1102 100.190 47.6944 -68.6929
  1103 562.616 -8.78016 -7.97333
  1104 155.224 52.0308 -102.234
  1105 320.467 -19.7779 -62.6244
  1106 606.297 -0.866380 0.540420
  1107 606.487 -0.825298 -0.386724
  1108 555.333 -31.8734 -31.0970
  1109 491.518 -55.4002 -81.2998
  1110 157.190 21.2991 84.8456
  1111 604.695 59.7723 50.3714
  1112 546.867 -5.98221 -0.617373
  1113 546.938 -5.98389 0.664636
  1114 593.827 -37.6798 98.9687
  1115 620.556 123.388 19.1020
  1116 375.088 -8.64516 -19.2195
  1117 375.190 -8.60902 19.1010
  1118 282.116 31.6445 154.737
  1119 528.911 2.81886 -45.3709
  1120 168.944 53.4863 109.614
  1121 667.958 -10.3772 -37.7599
  1122 663.645 145.272 5.46299
  1123 458.953 -35.8634 26.4292
  1124 431.236 2.51388 -1.90556
  1125 576.410 -5.34412 10.4035
  1126 595.197 -0.926025 4.02958
  1127 139.782 0.193102 -24.7401
  1128 141.451 0.132616 24.5850
  1129 478.965 8.32989 -22.1761
  1130 488.384 -14.3407 -3.03716
  1131 488.285 -14.2838 3.02412
  1132 52.4588 91.1215 -79.9134
  1133 82.0935 190.563 -155.470
  1134 494.259 -19.2505 3.08489
  1135 494.430 -19.2372 -3.11805
  1136 509.764 -12.4554 0.406649
  1137 509.694 -12.4360 -0.370336
  1138 136.828 86.9710 110.859
  1139 408.321 -4.79899 -3.78250
  1140 408.377 -4.76699 3.76772
  1141 510.597 38.8665 -0.503098
  1142 632.905 86.4564 -226.962
  1143 617.324 106.024 -32.7947
  1144 562.359 -21.7291 -45.1348
  1145 553.739 -27.7981 -31.8577
  1146 459.159 -36.1850 -26.8459
  1147 467.210 1.65091 13.6872
  1148 521.121 32.7335 -32.7693
  1149 514.299 27.9185 31.3669
  1150 526.926 -21.0989 -5.67151
  1151 503.935 -30.3213 3.33478
  1152 460.088 -29.3086 -20.1626
  1153 545.790 -3.27933 24.1596
  1154 945.149 95.1410 13.1531
  1155 549.120 -11.7922 43.9501
  1156 552.351 36.3007 48.8245
  1157 507.844 -49.7965 -17.4607
  1158 67.6879 10.4469 -39.4070
  1159 517.351 -23.9919 -3.26557
  1160 353.500 -0.447893 -0.248065
  1161 353.594 -0.445814 0.246023
  1162 626.085 -16.5924 19.6375
  1163 596.417 -50.3176 26.5209
  1164 853.093 151.876 38.6879
  1165 215.079 -0.354559 -20.4532
  1166 216.225 -0.309897 20.3139
  1167 464.752 -9.34374 -2.56534
  1168 464.736 -9.29166 2.55032
  1169 518.768 -45.6595 -4.73248
  1170 434.841 2.11992 6.25381
  1171 530.989 -37.8232 8.22860
  1172 31.7973 37.7505 -20.1320
  1173 99.0377 48.4030 67.1063
  1174 358.023 -19.8933 120.122
  1175 615.445 116.558 -23.4575
  1176 584.187 -1.72276 -6.59803
  1177 608.716 -1.08100 0.318139
  1178 609.235 -1.42966 -0.176402
  1179 366.502 -0.718040 -0.771365
  1180 366.593 -0.711991 0.766684
  1181 567.426 36.2491 55.1365
  1182 829.666 140.554 -3.01326
  1183 585.281 96.3471 -24.3440
  1184 436.482 -32.4755 123.600
  1185 356.139 -19.1804 -119.878
  1186 397.694 -26.0953 -42.3995
  1187 543.256 -15.4859 9.01905
  1188 754.318 167.183 12.3248
  1189 397.750 -25.9516 42.0980
  1190 554.245 -10.0795 6.82043
  1191 501.664 18.9370 29.9879
  1192 549.185 17.0969 53.2022
  1193 774.321 172.586 22.8556
  1194 465.552 -12.0370 4.73059
  1195 465.568 -12.0877 -4.75746
  1196 561.763 -10.8931 15.9713
  1197 342.392 -3.44386 14.0776
  1198 342.160 -3.47746 -14.1910
  1199 549.177 -7.88386 -2.77688
  1200 228.277 137.139 -210.516
  1201 475.727 -27.0142 -132.420
  1202 453.425 -13.9762 -8.26757
  1203 453.477 -13.9202 8.27112
  1204 586.432 -3.09723 2.39331
  1205 557.224 -7.71568 5.42195
  1206 32.0555 41.5417 31.2676
  1207 603.084 -0.807115 2.03576
  1208 74.4286 96.3131 95.4963
  1209 544.870 -8.53948 -3.62916
  1210 -0.462735 -13.0611 -11.4944
  1211 388.949 -38.0140 -93.1696
  1212 387.955 -37.1051 92.2779
  1213 603.054 -1.17951 -2.27594
  1214 520.519 -27.4888 -4.11055
  1215 586.114 -2.86276 -2.39439
  1216 475.143 -15.2638 -4.91976
  1217 475.106 -15.2167 4.87807
  1218 548.839 -7.83530 2.58394
  1219 516.988 -23.5138 3.23202
  1220 498.300 -16.0807 1.51116
  1221 498.463 -16.1151 -1.45823
  1222 585.527 -2.94691 -1.93710
  1223 507.810 -53.7225 -91.4286
  1224 573.715 -3.96857 -1.91710
  1225 547.084 -8.76076 3.97391
  1226 389.928 -4.00457 -5.74555
  1227 390.001 -3.96683 5.71738
  1228 432.424 -6.18304 -3.10574
  1229 432.453 -6.14444 3.09306
  1230 689.305 108.103 28.6909
  1231 580.082 -44.8119 17.0156
  1232 399.710 -2.15059 152.315
  1233 329.322 -0.464502 5.41213
  1234 329.057 -0.469913 -5.46007
  1235 551.993 -10.3270 32.7982
  1236 527.391 -8.33115 0.465842
  1237 527.406 -8.30640 -0.465682
  1238 606.079 117.219 11.0394
  1239 550.789 -57.8413 73.5610
  1240 328.671 -4.40995 19.6203
  1241 328.365 -4.44077 -19.7486
  1242 526.831 -13.1154 2.68603
  1243 526.713 -13.2099 -2.57671
  1244 542.953 -15.3127 -8.64951
  1245 504.770 0.141903 15.9028
  1246 854.863 212.814 -74.4108
  1247 553.561 -20.4677 -28.2295
  1248 99.1862 22.7236 57.0166
  1249 571.395 -30.6424 38.9514
  1250 467.004 10.5544 -12.1471
  1251 37.7659 26.4698 21.8355
  1252 745.471 86.0033 -14.2928
  1253 558.656 -25.5544 -39.9200
  1254 469.080 6.95458 18.6269
  1255 322.629 -19.8191 62.5563
  1256 566.503 -44.0317 21.6786
  1257 813.123 161.266 58.1367
  1258 194.865 28.0006 107.561
  1259 568.651 -7.09893 -13.8111
  1260 1069.23 12.1225 -10.5753
  1261 1102.94 16.4297 46.8258
  1262 1174.85 39.2335 -111.816
  1263 553.344 -17.4538 -35.7744
  1264 552.860 -25.4217 29.7675
  1265 561.208 -40.1179 26.7749
  1266 -16.3884 2.06521 10.2537
  1267 -14.8567 1.70563 -11.2289
  1268 545.433 -60.4701 -36.3048
  1269 557.908 -56.6157 -52.7915
  1270 437.715 2.93672 -7.70681
  1271 542.966 -61.5094 52.4631
  1272 580.905 -27.7179 -39.3930
  1273 13.0276 18.0496 3.48264
  1274 475.642 -8.72106 1.60165
  1275 475.672 -8.77716 -1.60583
  1276 575.827 -4.95021 9.25964
  1277 554.172 -9.91040 -6.36602
  1278 523.179 -57.0920 -20.6071
  1279 480.223 -25.7448 9.59814
  1280 477.897 -25.3710 -10.2247
  1281 560.339 -12.1092 22.4511
  1282 574.456 -21.2559 -46.2038
  1283 39.1493 27.5960 -21.3544
</Section>

newXOutput 77

<Section columns = "stress_xx | stress_yy | stress_xy">
  1 619.610 -0.276277 1.12410
  2 619.605 -0.263105 -1.12661
  3 352.965 -0.0712999 -0.404691
  4 -4.40508 -4.34194 -6.33710
  5 1084.32 451.721 353.872
  6 1074.55 467.240 -351.207
  7 -5.12141 -4.11185 6.76245
  8 352.871 -0.0724399 0.403766
  9 623.633 -1.10362 0.317590
  10 622.501 -1.71691 -0.366642
  11 621.388 -1.20832 1.23363
  12 620.242 -1.60807 0.238981
  13 617.742 -1.37669 1.93861
  14 615.441 -1.37885 1.34906
  15 609.769 -1.21272 2.81606
  16 601.400 -0.935579 4.17605
  17 594.000 -0.944465 4.70956
  18 582.793 -1.22871 5.75883
  19 566.981 -0.178176 8.60006
  20 552.381 -0.901303 8.24903
  21 535.426 -1.11698 11.7196
  22 510.973 0.779267 10.2699
  23 493.017 1.25504 12.2048
  24 469.564 2.06720 9.60756
  25 453.226 2.28575 9.71403
  26 429.573 3.09403 4.96961
  27 424.536 4.85377 5.34885
  28 421.481 4.04054 -1.58811
  29 425.597 2.44666 -3.45435
  30 433.201 2.30169 -4.24601
  31 450.935 2.84580 -8.45474
  32 468.166 2.25121 -10.6400
  33 493.224 0.578728 -12.5813
  34 513.230 -0.225117 -11.3694
  35 534.369 -0.881435 -11.0880
  36 553.410 -0.711185 -7.77924
  37 569.592 -0.771093 -6.59478
  38 582.792 -1.20976 -5.47909
  39 594.492 -0.898984 -3.74033
  40 601.636 -1.10251 -3.93367
  41 608.549 -1.29601 -2.85865
  42 614.952 -1.51373 -1.15828
  43 618.191 -1.23617 -1.42802
  44 619.745 -0.819193 -0.851892
  45 618.166 -0.543022 -0.780806
  46 623.056 -1.71099 0.267901
  47 623.787 -1.14118 -0.326959
  48 605.027 -0.758326 -0.697070
  49 592.532 -2.90444 -1.31961
  50 577.119 -4.17733 -0.768878
  51 558.225 -5.98767 -1.07880
  52 540.184 -6.48460 -1.29309
  53 520.834 -7.90116 -1.24675
  54 503.623 -8.66213 -0.621013
  55 488.521 -9.51728 -0.142314
  56 471.062 -7.85063 -0.119424
  57 450.930 -7.24744 -0.329039
  58 431.553 -5.63730 0.000192007
  59 413.224 -3.51019 0.0571181
  60 395.843 -2.44078 0.117903
  61 380.659 -1.17281 0.231729
  62 365.215 -0.254390 -0.455453
  63 353.095 0.508935 0.672622
  64 347.574 1.30652 0.487081
  65 351.048 0.0467983 1.09154
  66 346.611 -0.130583 1.33206
  67 342.371 -0.215933 1.65565
  68 336.687 0.0156081 2.12408
  69 329.533 0.0128986 2.65162
  70 324.014 -0.341738 5.00840
  71 309.121 0.447965 5.44881
  72 298.490 -0.00141607 6.18121
  73 282.668 -0.236058 7.02813
  74 264.509 -0.417577 8.53714
  75 241.781 -0.0715197 10.3684
  76 214.080 0.147088 11.4701
  77 189.817 -0.192910 16.4145
  78 142.473 1.48635 15.5746
  79 109.807 1.27849 16.5095
  80 70.2846 -0.348600 18.4336
  81 37.0823 2.92930 19.3351
  82 -0.912152 4.46382 11.9364
  83 -29.0085 4.55555 4.62862
  84 -29.3305 4.48855 -1.00172
  85 -29.0521 3.77209 -8.56158
  86 -17.2054 -1.05549 -8.29829
  87 -2.00083 -16.5143 -9.19930
  88 1.80263 -30.1776 -11.3059
  89 4.74937 -46.5843 -5.68900
  90 10.3914 -45.5217 1.85398
  91 21.7524 -3.74004 30.3328
  92 63.6198 109.996 98.2954
  93 360.060 359.464 318.801
  94 1316.82 198.893 217.792
  95 1191.67 28.3146 70.2681
  96 1112.37 11.9021 21.5043
  97 1083.17 10.1928 1.60942
  98 1098.94 13.4550 -18.7491
  99 1189.64 26.5712 -55.6850
  100 1389.68 95.9257 -186.078
  101 215.207 370.576 -268.024
  102 47.5827 83.8564 -82.2130
  103 23.8281 -1.34751 -32.6091
  104 9.75767 -45.1014 -6.71568
  105 2.94021 -35.0800 6.45402
  106 3.56380 -38.1307 9.73755
  107 0.231090 -14.1979 10.1997
  108 -17.9808 -0.617507 7.83743
  109 -29.9663 2.83293 7.43247
  110 -30.9188 5.44307 1.15853
  111 -29.9118 4.47039 -4.34152
  112 -3.04746 4.57422 -11.2218
  113 35.2300 2.95388 -18.4573
  114 68.4003 -0.0316000 -18.1331
  115 107.853 1.38101 -16.5388
  116 140.698 1.52361 -15.6856
  117 188.443 -0.199678 -16.5426
  118 212.907 0.161617 -11.5735
  119 240.753 -0.0682902 -10.4911
  120 263.989 -0.466139 -8.59377
  121 281.953 -0.221669 -7.04263
  122 297.944 0.0175169 -6.24037
  123 308.671 0.443034 -5.50326
  124 323.685 -0.345398 -5.05447
  125 329.265 0.0105186 -2.67973
  126 336.479 0.0133139 -2.14712
  127 342.208 -0.219757 -1.67383
  128 346.481 -0.133864 -1.34469
  129 350.936 0.0440436 -1.09954
  130 347.472 1.30530 -0.490743
  131 352.998 0.508294 -0.674943
  132 365.122 -0.257479 0.454357
  133 380.572 -1.18058 -0.234502
  134 395.768 -2.45773 -0.121123
  135 413.166 -3.53371 -0.0601978
  136 431.517 -5.67127 -0.00329192
  137 450.919 -7.29064 0.326557
  138 471.078 -7.90090 0.116738
  139 488.559 -9.57420 0.140985
  140 503.678 -8.71916 0.622816
  141 520.915 -7.95306 1.25263
  142 540.256 -6.52002 1.31422
  143 558.284 -6.01939 1.18160
  144 577.226 -3.97259 0.785583
  145 592.939 -2.83690 1.28993
  146 605.143 -0.852894 0.685858
  147 546.313 -51.3696 0.163606
  148 545.827 -50.6703 0.0269635
  149 576.668 82.6304 -26.2369
  150 611.056 35.9673 54.4959
  151 463.318 -44.9115 -104.533
  152 467.147 -44.8237 101.294
  153 454.087 -18.9147 13.5909
  154 454.112 -19.1670 -13.5956
  155 645.480 23.5278 -39.4601
  156 544.901 -19.8429 9.65000
  157 544.664 -19.3819 -9.53647
  158 704.078 155.763 5.35889
  159 559.774 -0.875496 -54.2613
  160 417.380 -32.3260 -47.1719
  161 417.422 -32.0688 46.7920
  162 560.192 -12.7814 48.5374
  163 535.487 39.2623 32.8411
  164 223.578 34.9988 -124.937
  165 247.107 33.2318 131.518
  166 678.547 8.66530 -0.840863
  167 560.612 -21.6947 -32.8356
  168 739.100 162.260 1.92227
  169 506.322 -14.3771 -1.26021
  170 506.222 -14.3410 1.29819
  171 564.918 -7.28374 -4.13232
  172 566.550 -6.59794 3.54151
  173 403.768 -5.50063 -7.74602
  174 403.827 -5.44619 7.71245
  175 602.628 -14.7333 133.034
  176 519.233 21.8207 -35.4339
  177 341.552 -25.3328 -74.6941
  178 342.549 -25.1527 74.2503
  179 384.648 -12.1755 -24.7086
  180 384.693 -12.0414 24.5465
  181 563.124 -15.0202 27.9471
  182 513.037 -35.0723 -3.91901
  183 511.322 -34.8120 4.67713
  184 579.790 -56.3335 -14.2570
  185 582.925 -53.6706 7.12036
  186 798.262 188.404 -32.8081
  187 587.668 93.9522 24.4515
  188 587.039 36.0566 -55.5360
  189 599.900 -3.54771 -153.745
  190 580.661 -32.9875 -36.9632
  191 585.750 -23.6206 44.2633
  192 489.780 -55.5258 52.6300
  193 489.826 -55.1180 -52.4897
  194 527.160 6.87445 42.4037
  195 244.990 -6.28334 -91.6856
  196 245.545 -6.76836 91.1650
  197 895.804 133.475 19.6810
  198 550.571 -32.9258 19.0650
  199 570.049 -10.7845 -17.8676
  200 456.953 -10.9889 -6.41261
  201 456.969 -10.9395 6.39614
  202 550.174 -7.20308 -37.5848
  203 624.876 91.5611 -43.5885
  204 527.381 47.5727 -6.56270
  205 347.550 -11.8870 34.3674
  206 347.044 -11.9190 -34.5974
  207 577.333 -6.79437 9.42511
  208 566.203 10.6688 55.8961
  209 462.080 -33.2036 -23.9293
  210 459.178 -31.4267 24.3649
  211 664.042 98.6269 38.2720
  212 773.447 109.979 25.6779
  213 56.0472 42.7900 -37.2197
  214 51.9302 39.5514 31.7620
  215 322.843 93.5236 217.259
  216 545.163 -36.3021 -13.8084
  217 579.199 -6.51879 -8.49913
  218 521.592 4.77335 -39.0789
  219 371.329 -3.44340 -11.0099
  220 371.452 -3.40563 10.9254
  221 492.768 -22.9578 -6.38044
  222 493.001 -23.1106 6.10753
  223 554.454 -7.55278 31.8325
  224 632.287 -36.4260 19.5959
  225 634.074 128.652 -12.4160
  226 497.282 -47.7756 -26.2345
  227 624.727 -10.9169 32.4818
  228 534.277 -9.31590 1.14104
  229 534.276 -9.24579 -1.14000
  230 493.828 -47.5547 27.0904
  231 563.759 -35.9435 29.6928
  232 781.638 106.058 -57.9565
  233 178.929 106.399 -159.715
  234 485.059 17.3931 8.54005
  235 569.086 50.1507 47.2254
  236 602.702 -4.31036 -48.0588
  237 564.444 -20.4512 -44.9493
  238 308.546 -9.60317 -42.7872
  239 309.550 -9.46307 42.6761
  240 565.023 -7.01719 -24.2976
  241 538.124 -13.9078 4.64217
  242 537.875 -13.8974 -4.44779
  243 118.721 10.3127 -59.5327
  244 120.428 9.03186 59.3145
  245 595.996 -52.2933 -50.6826
  246 589.083 -2.52086 1.12624
  247 589.638 -2.56440 -1.27763
  248 556.495 46.2091 -43.3980
  249 493.918 9.82309 25.7604
  250 999.421 159.985 107.802
  251 990.490 112.789 -66.9655
  252 729.990 156.075 0.557862
  253 456.335 -22.2817 138.249
  254 419.726 -14.8101 -144.376
  255 483.598 -9.93517 -2.54632
  256 483.560 -9.87841 2.53150
  257 405.829 -10.4775 15.4473
  258 405.814 -10.6162 -15.5671
  259 577.351 -6.53477 14.5733
  260 561.403 -40.1233 -23.6832
  261 373.930 -0.557330 -2.62838
  262 374.024 -0.546698 2.61462
  263 554.427 -22.6878 -19.1305
  264 242.913 -7.78999 -59.5723
  265 243.876 -7.81339 59.1788
  266 561.753 -24.5340 35.4392
  267 431.120 -45.7605 84.1894
  268 432.126 -46.5752 -83.9261
  269 491.639 19.1945 -11.9929
  270 424.431 -6.25769 -5.24013
  271 424.475 -6.21856 5.22306
  272 530.488 -1.23163 31.1306
  273 630.420 114.809 30.0622
  274 346.176 -3.97087 18.3757
  275 345.923 -4.00227 -18.5157
  276 575.656 -48.2949 14.8689
  277 532.863 -60.0114 -58.2962
  278 591.592 -3.24452 4.24965
  279 418.909 -24.2794 -32.4836
  280 418.248 -24.0182 32.3770
  281 718.636 82.8500 193.676
  282 350.301 -28.3984 99.8884
  283 562.246 78.7848 -2.77386
  284 701.422 78.9570 -21.5920
  285 532.922 -41.1814 3.39022
  286 533.415 -61.6280 52.8964
  287 351.276 -27.9571 -100.936
  288 66.7871 82.6556 76.4906
  289 554.524 -22.7557 19.5003
  290 721.798 96.0354 14.9984
  291 595.845 -2.90298 -3.68680
  292 547.068 19.3050 -49.9798
  293 536.930 -30.4387 9.11207
  294 526.010 -44.3112 4.63874
  295 545.315 25.1597 48.2338
  296 573.018 -48.2844 -12.8892
  297 807.530 155.850 -15.2466
  298 536.791 -29.2705 -8.68857
  299 438.316 130.184 -263.771
  300 547.767 -58.1631 -14.5913
  301 544.001 -59.7657 20.7298
  302 404.380 -36.2317 -66.0186
  303 370.447 -1.25431 -5.67147
  304 370.557 -1.23217 5.63301
  305 404.584 -36.2704 65.6884
  306 580.814 -1.02128 -55.5027
  307 623.305 -25.8298 -19.7121
  308 479.801 -28.5672 -13.6051
  309 479.537 -28.6353 13.8351
  310 566.978 -48.8177 91.5053
  311 569.408 -4.75238 18.3755
  312 684.743 4.97987 37.1373
  313 470.864 -16.4026 -7.68344
  314 470.903 -16.3563 7.64866
  315 431.368 -10.8992 -10.4592
  316 431.381 -10.8034 10.4478
  317 489.175 6.82185 -24.8993
  318 618.265 45.3750 -52.5990
  319 942.066 256.012 -125.087
  320 561.491 -5.43058 -1.30809
  321 561.204 -5.36229 1.35360
  322 305.943 -1.18798 124.690
  323 428.710 -18.9737 -21.8916
  324 427.965 -18.9222 21.9516
  325 305.881 -1.93319 -124.211
  326 591.596 69.6995 -45.5679
  327 656.814 32.9343 36.9542
  328 566.635 -40.3951 -101.166
  329 525.272 -20.3996 3.13490
  330 524.765 -20.2647 -2.92207
  331 558.659 -11.9856 -8.82792
  332 530.809 -0.939618 -29.0948
  333 590.997 2.40724 54.0067
  334 586.896 -4.41892 -9.95554
  335 361.092 -21.4139 50.1911
  336 360.698 -21.5249 -50.5418
  337 552.115 -1.19760 51.6656
  338 348.758 -2.62826 -10.9851
  339 348.975 -2.60432 10.8967
  340 562.989 -13.3012 14.4814
  341 676.165 137.485 -20.5984
  342 558.440 -12.0620 9.19226
  343 597.983 74.8608 45.6071
  344 571.421 -10.7412 52.8521
  345 456.528 -8.41391 2.45092
  346 456.524 -8.46035 -2.46393
  347 543.033 -1.87177 -45.9189
  348 712.919 149.448 11.0353
  349 597.289 108.825 0.941606
  350 364.996 42.1707 -184.184
  351 41.1331 16.6792 -26.9827
  352 44.7352 18.0707 28.8660
  353 -0.925218 4.75134 10.1690
  354 1.13800 2.99505 -10.7007
  355 1020.22 70.8782 23.8936
  356 494.395 -39.8328 -16.3395
  357 563.354 -12.8778 -14.1149
  358 510.668 -9.22050 0.185029
  359 510.610 -9.15389 -0.189400
  360 549.239 60.6969 -23.5321
  361 467.506 -47.2938 43.3764
  362 42.8636 64.3296 -48.5167
  363 467.875 -47.2643 -44.0927
  364 556.071 63.2441 25.0304
  365 563.014 -15.2825 -26.5248
  366 595.770 -33.4451 -30.3975
  367 638.300 133.646 8.50838
  368 596.874 -37.5141 24.1619
  369 256.562 -6.13349 39.8097
  370 255.151 -6.01260 -40.0344
  371 147.265 3.30187 -55.9967
  372 148.648 2.75626 55.7595
  373 496.313 1.93607 25.1216
  374 914.120 271.399 111.531
  375 580.705 -3.95222 -12.9475
  376 456.503 -38.0555 -33.4411
  377 456.184 -37.9784 33.4002
  378 560.426 -13.1194 -34.2324
  379 633.298 -30.5818 -1.20465
  380 494.378 -39.8053 16.7640
  381 691.068 6.89764 -63.2698
  382 403.681 -3.01787 -2.14497
  383 403.748 -2.99349 2.13323
  384 552.507 -3.30829 -22.1677
  385 306.185 -4.18151 -25.8952
  386 306.352 -4.32183 25.6020
  387 656.261 84.0802 -43.0535
  388 356.994 24.9642 171.518
  389 516.233 -27.0506 -0.0341610
  390 516.727 -27.0100 0.0156717
  391 607.396 102.277 -28.5975
  392 573.277 -17.1260 -49.7403
  393 571.689 -58.6341 52.0230
  394 481.975 -12.7414 -4.06393
  395 481.929 -12.6888 4.03385
  396 552.542 -42.7246 14.7338
  397 591.982 -3.10219 7.33308
  398 378.590 -13.3106 -30.7401
  399 378.745 -13.3182 30.5056
  400 563.672 18.9980 -55.2340
  401 530.131 -11.8322 1.64941
  402 530.102 -11.8643 -1.58860
  403 550.359 -6.56314 41.8911
  404 517.038 37.9764 11.4287
  405 568.510 -24.2018 42.9720
  406 815.097 169.648 33.1526
  407 281.055 -15.0436 -80.0236
  408 281.797 -15.0432 79.4613
  409 126.738 66.7721 -97.8434
  410 603.333 -2.13672 1.86250
  411 319.291 -2.48025 -16.4196
  412 319.685 -2.42785 16.2930
  413 560.764 -14.8273 33.4085
  414 509.026 -55.1135 30.1463
  415 571.524 -7.58069 6.21400
  416 585.959 29.7084 57.1551
  417 132.430 71.0968 101.655
  418 509.739 -54.7770 -27.9800
  419 526.392 -48.8287 -8.37749
  420 179.747 -3.57473 -50.4602
  421 180.949 -3.69820 50.1376
  422 405.827 -32.9236 -120.431
  423 602.626 -9.16222 46.7129
  424 404.458 -33.3620 119.437
  425 557.690 -31.4923 -26.7051
  426 523.708 35.6402 -24.9054
  427 557.729 -24.3476 25.5760
  428 595.947 -3.02813 -4.78258
  429 19.5290 21.7159 11.0872
  430 124.342 146.209 143.375
  431 540.176 -1.96135 21.5351
  432 460.334 6.64787 10.9812
  433 467.604 8.01819 -14.8530
  434 398.992 -6.23540 -10.9053
  435 399.044 -6.15873 10.8451
  436 549.824 -42.6877 -13.2233
  437 557.146 -11.0184 -46.6884
  438 462.554 9.07601 -4.03146
  439 814.107 194.609 45.6627
  440 118.330 38.0149 -73.5639
  441 129.963 34.8675 78.2981
  442 515.754 -18.4693 0.421846
  443 515.571 -18.4374 -0.296508
  444 686.246 150.061 -1.49498
  445 421.095 184.082 269.601
  446 655.162 -8.61870 -2.99686
  447 385.671 -19.5958 -41.6946
  448 385.861 -19.4710 41.3761
  449 389.591 -8.29243 16.7499
  450 389.509 -8.34883 -16.8820
  451 520.401 11.8448 -40.3267
  452 606.109 -1.18417 -1.19773
  453 507.260 23.6517 22.7766
  454 632.567 78.0164 47.9039
  455 527.597 -39.1102 -1.67982
  456 571.246 -7.24867 -6.05505
  457 598.213 -2.77591 4.40047
  458 604.291 -1.28169 0.680191
  459 604.710 -1.40644 -0.471424
  460 347.504 -0.516460 4.11803
  461 347.330 -0.524730 -4.15490
  462 575.634 -36.8112 32.3035
  463 525.201 20.9925 39.0711
  464 546.611 2.30103 -50.5273
  465 566.844 -12.3120 19.3744
  466 800.589 145.024 -166.148
  467 568.870 -31.7675 -36.9509
  468 7.79105 11.1480 5.87320
  469 7.64616 11.4188 -3.04970
  470 454.998 -25.3087 19.4357
  471 453.566 -24.9491 -19.1694
  472 697.511 16.2691 91.8315
  473 197.965 186.585 -206.856
  474 562.527 -1.85413 16.4941
  475 630.744 -36.3473 -54.2190
  476 345.995 -19.4728 57.9339
  477 680.521 120.874 -29.7255
  478 560.785 -30.5652 30.6714
  479 474.280 -22.3477 -10.4780
  480 474.689 -21.9903 10.4580
  481 496.201 2.78504 -22.1580
  482 344.955 -19.3860 -58.2489
  483 507.716 0.391312 22.1993
  484 481.182 -55.1640 -75.9898
  485 480.011 -55.2477 76.3243
  486 577.787 -4.06840 14.3347
  487 531.434 50.3045 4.71619
  488 529.338 10.4740 186.033
  489 781.569 157.556 -0.979822
  490 542.123 -9.56395 2.36298
  491 542.144 -9.53203 -2.48344
  492 424.054 -7.21325 -7.13512
  493 424.093 -7.15767 7.11401
  494 225.680 9.71189 105.470
  495 563.486 -27.3477 -36.4385
  496 512.216 -11.3484 -0.513388
  497 512.166 -11.3152 0.520504
  498 447.725 -47.1436 62.1179
  499 229.880 12.9279 -108.070
  500 563.477 -46.0997 -15.2609
  501 10.6699 4.05350 2.73049
  502 500.286 26.2491 1.69361
  503 543.831 -6.77651 -0.734372
  504 543.827 -6.85844 0.708526
  505 447.922 -47.0470 -62.5735
  506 631.241 -31.8598 67.6125
  507 629.755 22.9161 48.0859
  508 579.430 -4.43375 -2.87064
  509 561.770 -46.7300 15.5609
  510 363.645 -0.233339 -0.780393
  511 363.741 -0.230464 0.775319
  512 562.070 -21.7640 -39.3464
  513 547.946 40.6438 42.5310
  514 622.258 15.4313 -47.5816
  515 361.420 -0.457214 -2.32801
  516 361.527 -0.450205 2.31460
  517 1062.49 153.697 -136.455
  518 569.352 67.6652 37.2444
  519 579.875 -4.14283 2.53711
  520 527.501 -49.9209 9.66807
  521 448.120 -14.4797 10.9454
  522 448.104 -14.5819 -10.9232
  523 610.479 -37.3895 10.7359
  524 589.142 -11.9501 -49.8487
  525 659.408 129.186 25.8952
  526 551.248 9.58215 52.4466
  527 551.880 -11.0477 5.22323
  528 535.553 -57.4657 -73.9853
  529 558.432 -14.0022 39.1976
  530 1048.45 48.3684 -19.0351
  531 605.754 -45.8458 4.33951
  532 575.850 -4.33687 -0.577351
  533 575.991 -4.57757 0.470036
  534 1059.39 71.0229 66.3214
  535 538.283 -0.0784933 44.6166
  536 742.521 127.131 -4.52249
  537 561.991 -15.6371 -18.5857
  538 264.845 -2.33467 -17.6842
  539 265.582 -2.22072 17.5175
  540 385.211 -35.9330 -83.7908
  541 385.555 -35.3352 83.2046
  542 551.568 -10.6194 -5.19414
  543 601.470 22.0513 -55.0317
  544 529.106 -35.9743 3.72457
  545 571.734 65.4882 -38.5529
  546 572.001 -6.96905 19.2680
  547 710.086 37.6743 -15.4665
  548 492.516 -16.8068 -4.07920
  549 492.385 -16.7603 4.04492
  550 532.665 -25.2452 6.36772
  551 776.528 156.797 -19.7755
  552 563.236 24.6822 54.4176
  553 242.988 62.2364 155.245
  554 538.249 -32.1795 125.912
  555 703.142 38.4356 -139.745
  556 575.655 47.6156 -50.4501
  557 506.897 -44.1217 -109.440
  558 549.581 -60.4076 -25.1531
  559 572.571 -58.2555 -35.2271
  560 77.7183 103.132 -97.4880
  561 575.918 -7.73493 -11.3160
  562 860.083 166.749 -51.2040
  563 535.373 -24.2711 -7.46617
  564 539.415 -17.8185 6.19640
  565 538.928 -17.4331 -5.88655
  566 381.786 -1.96984 -5.19722
  567 381.876 -1.94459 5.16848
  568 58.7837 5.46783 -31.4393
  569 61.5961 5.74639 32.1331
  570 284.950 -12.9404 -60.8945
  571 286.997 -13.0158 60.8362
  572 546.914 -29.8105 -15.9154
  573 555.721 -60.6617 26.9579
  574 571.133 -54.4600 -1.18490
  575 473.403 -8.34599 -2.07458
  576 473.382 -8.29321 2.06533
  577 446.991 -47.0838 -93.5602
  578 497.534 -41.0983 115.541
  579 436.621 -44.3158 94.0223
  580 563.752 -12.6250 -50.0405
  581 361.874 -5.68139 18.5871
  582 361.699 -5.73815 -18.7221
  583 540.730 30.1076 -42.7919
  584 540.489 -0.959970 -19.5383
  585 671.467 144.504 -11.3111
  586 443.991 -6.52817 -1.93279
  587 444.011 -6.48938 1.92512
  588 572.494 -1.79591 -10.7831
  589 402.575 -13.1144 -20.9329
  590 402.602 -13.0754 20.7718
  591 326.050 14.4234 147.949
  592 557.215 -25.8570 -25.8113
  593 315.808 -17.0254 106.505
  594 547.628 -28.5462 16.3590
  595 574.610 -8.52843 12.5759
  596 566.758 -5.71138 -2.46423
  597 407.919 -4.76559 -4.94677
  598 407.979 -4.72907 4.92606
  599 644.574 127.883 -23.6414
  600 315.572 -16.4339 -106.860
  601 545.759 -23.8570 -12.8171
  602 494.767 -9.30249 -1.18783
  603 494.720 -9.24149 1.18352
  604 910.686 122.031 -22.0151
  605 337.238 -2.00272 10.1824
  606 336.962 -2.02154 -10.2667
  607 514.727 12.0707 36.8651
  608 720.020 62.6388 -0.717019
  609 346.860 1.74513 -146.710
  610 182.517 4.10483 -80.8806
  611 183.920 3.13438 80.4595
  612 436.758 -24.9719 26.3304
  613 441.049 -25.7092 -25.6811
  614 731.425 147.972 6.78760
  615 564.602 -5.90049 2.17083
  616 494.186 14.2909 -22.3477
  617 609.071 108.826 22.6363
  618 607.117 112.887 -15.0690
  619 498.841 -27.4682 -6.42993
  620 502.466 -26.8799 4.69034
  621 356.042 78.4331 -209.599
  622 432.744 -14.3916 -14.8637
  623 432.792 -14.2356 14.8235
  624 1058.42 217.139 163.708
  625 562.588 -18.5990 42.7280
  626 329.496 -11.2377 -38.9756
  627 853.748 209.673 145.039
  628 330.223 -11.1814 38.8499
  629 533.507 -20.0827 -146.265
  630 388.410 -1.69599 -1.91067
  631 388.491 -1.68159 1.90262
  632 477.975 4.51590 19.5174
  633 222.802 -3.16675 -34.9246
  634 223.908 -3.17577 34.6751
  635 492.607 -34.5865 12.9768
  636 515.379 -41.1134 -6.05617
  637 601.617 -1.51130 -4.12504
  638 353.057 -0.479473 3.08692
  639 352.917 -0.488598 -3.11383
  640 466.739 -10.4161 -3.40743
  641 466.729 -10.3648 3.38788
  642 529.516 -59.0180 74.6207
  643 610.697 68.1313 -49.9122
  644 412.036 -18.7012 -26.9247
  645 411.777 -18.3931 26.7487
  646 483.912 -34.4572 -16.9274
  647 754.865 163.456 8.06783
  648 567.897 -55.1457 4.20351
  649 496.526 -11.9740 -2.24059
  650 496.459 -11.9236 2.23829
  651 676.519 74.7068 34.4815
  652 569.774 -8.54140 -20.9265
  653 510.413 -0.505903 -18.0511
  654 240.601 -8.25062 -76.8403
  655 241.271 -8.46225 76.2604
  656 482.393 -41.2682 -25.9672
  657 718.914 156.750 -0.0360571
  658 562.295 75.9981 -16.7798
  659 379.591 -3.20259 -9.43877
  660 379.688 -3.15910 9.37418
  661 521.655 -14.9548 -0.825420
  662 521.753 -14.9622 0.924883
  663 953.501 124.087 54.9273
  664 608.948 -1.89095 1.02165
  665 591.645 -2.56829 7.24624
  666 589.661 -2.57612 -8.61540
  667 561.400 -52.4228 4.06732
  668 420.938 -4.67095 -2.46922
  669 420.987 -4.64057 2.46012
  670 602.912 96.1860 35.0499
  671 766.781 169.779 -14.0529
  672 426.584 -31.1501 -38.1338
  673 426.500 -30.8601 37.9657
  674 527.922 -54.3330 -14.7823
  675 559.548 33.3452 -51.3091
  676 656.323 2.09621 16.9098
  677 444.124 -8.05421 -5.13237
  678 444.146 -8.00797 5.11548
  679 384.143 -33.4292 -75.6226
  680 556.223 -53.9227 0.931513
  681 464.644 -51.4838 68.5079
  682 224.912 70.3681 -149.976
  683 435.925 -40.0038 52.8655
  684 526.162 0.154562 16.5780
  685 384.519 -33.0597 75.1544
  686 545.457 -24.2969 12.9749
  687 436.017 -39.8240 -53.3043
  688 453.223 6.19485 4.11294
  689 351.266 -9.03734 27.8628
  690 350.968 -9.04142 -28.0346
  691 464.807 -52.8126 -69.2436
  692 571.973 -37.8811 -31.1780
  693 525.479 -7.74771 -0.267818
  694 525.563 -7.81926 0.269544
  695 583.987 -37.4491 30.4725
  696 531.773 -55.5583 16.9863
  697 644.433 59.2890 46.6036
  698 582.957 -11.0941 51.7484
  699 561.004 -20.3853 30.8812
  700 540.459 44.6161 -32.4628
  701 644.697 108.089 37.0702
  702 557.612 -7.83589 -30.7885
  703 554.036 -18.6745 14.8689
  704 576.863 89.9654 9.03786
  705 564.344 -9.79732 26.4394
  706 180.485 123.551 157.597
  707 524.606 -60.4506 -44.6404
  708 607.269 10.9507 52.1789
  709 611.778 -19.0259 -35.2443
  710 606.778 -1.04818 2.17855
  711 560.222 -19.5448 -23.8829
  712 525.463 -60.9176 40.8852
  713 996.154 88.3773 -14.6961
  714 324.049 -1.26611 10.6412
  715 323.690 -1.27932 -10.7303
  716 566.876 -10.7197 -10.6094
  717 610.140 -0.819604 -2.15337
  718 481.596 -41.9470 26.0947
  719 575.473 -21.6040 46.6520
  720 859.958 211.411 -73.4676
  721 545.509 -39.6099 12.4835
  722 602.316 -39.8545 -15.5191
  723 554.215 -18.1955 -14.6209
  724 609.338 -1.31517 -0.597155
  725 563.427 -0.103678 54.8366
  726 27.0722 29.2029 35.8717
  727 626.926 -23.0821 -97.8886
  728 684.572 41.6928 18.6540
  729 572.161 -58.6725 32.0023
  730 416.395 -9.63653 12.1107
  731 416.382 -9.76467 -12.1590
  732 521.273 281.237 -282.676
  733 584.168 -38.8604 -27.7941
  734 451.566 2.70810 -7.87013
  735 519.558 3.03945 35.7736
  736 564.772 -28.4591 36.9751
  737 541.320 -45.6191 4.19961
  738 559.692 -51.3023 -80.2386
  739 538.197 -42.5836 -5.36077
  740 631.398 -30.1531 -1.00088
  741 582.147 -5.19496 6.09470
  742 523.309 -31.3993 1.79853
  743 934.808 186.736 -101.104
  744 556.353 -15.2487 11.6055
  745 553.983 9.17412 -53.8032
  746 469.059 -4.97061 163.927
  747 591.909 47.5809 54.3259
  748 509.423 -39.9214 8.56694
  749 397.506 -30.8274 -55.4861
  750 397.574 -30.7545 55.0765
  751 544.835 61.3352 -7.52890
  752 551.652 -6.43798 47.6618
  753 556.716 -13.3627 -40.1711
  754 523.882 -32.0611 -1.93792
  755 506.982 -45.2178 16.2459
  756 581.125 95.4294 -10.1053
  757 540.676 -46.8045 -2.07783
  758 542.129 -34.3987 12.3496
  759 548.036 -7.50080 1.68082
  760 548.341 -7.31604 -1.66137
  761 736.550 160.477 0.640708
  762 600.645 -51.2633 -23.2875
  763 561.877 -17.4875 23.8644
  764 582.214 -5.19448 -5.48586
  765 591.679 3.85496 -54.5488
  766 669.505 36.0226 -28.0794
  767 341.333 -0.233316 -5.02772
  768 341.550 -0.228997 4.98379
  769 5.31750 -8.91264 -6.14262
  770 573.814 -0.798357 9.95767
  771 530.323 -0.694179 -39.3810
  772 546.089 -5.13354 34.3475
  773 490.684 64.0861 238.168
  774 620.987 126.634 -1.21934
  775 444.126 -31.2603 30.2976
  776 84.2062 1.64072 -30.6932
  777 86.3030 1.18736 31.0075
  778 541.704 -3.82623 -38.9142
  779 445.224 -31.5555 -30.3071
  780 578.862 -5.69340 4.47920
  781 305.579 -12.7013 51.9005
  782 303.098 -12.6511 -51.8888
  783 556.290 -14.8226 -11.2902
  784 364.293 -8.77148 -24.3273
  785 364.472 -8.71878 24.1368
  786 578.554 -5.80253 -14.2799
  787 448.068 -11.6892 -8.77350
  788 448.092 -11.6203 8.77816
  789 630.835 -3.88530 -34.9178
  790 571.150 -6.04859 -54.6718
  791 300.575 -1.79417 -13.4778
  792 301.103 -1.77723 13.3352
  793 18.6343 7.36274 -19.2870
  794 21.0816 7.78053 20.2461
  795 471.272 2.37433 -14.1566
  796 520.820 -58.5035 -34.1053
  797 -5.77749 -3.92066 10.1777
  798 -5.14007 -4.77378 -10.2194
  799 541.553 -11.2416 3.75975
  800 585.997 -45.9559 -13.5082
  801 608.473 89.8805 -40.7534
  802 581.131 -5.15135 -4.27411
  803 1206.76 247.793 -226.492
  804 541.437 -11.2132 -3.70502
  805 809.698 153.051 13.9855
  806 581.057 16.9060 -57.1697
  807 639.035 48.4581 -47.9663
  808 115.923 -1.33563 -28.1177
  809 117.769 -1.49187 28.0738
  810 370.800 -5.05211 14.5594
  811 370.665 -5.09157 -14.6717
  812 356.557 -0.725807 2.75442
  813 356.438 -0.733745 -2.77307
  814 647.786 108.843 -36.5732
  815 391.876 -2.21938 -4.14750
  816 391.955 -2.19472 4.12853
  817 553.300 -5.56107 -49.8112
  818 781.851 86.2361 76.3966
  819 502.681 11.5817 -31.0580
  820 181.077 -1.55200 29.8562
  821 179.734 -1.56691 -30.0706
  822 631.671 20.0233 172.660
  823 566.395 -10.8055 10.9482
  824 514.053 34.4452 -12.9213
  825 244.970 -0.307026 20.1884
  826 243.856 -0.197575 -20.3222
  827 362.862 -1.66459 -7.19096
  828 362.998 -1.64069 7.13426
  829 66.1448 58.3950 52.3947
  830 533.836 12.9389 45.8441
  831 591.787 86.6601 -35.2807
  832 633.677 73.6592 -48.3257
  833 422.681 -15.5065 -19.1698
  834 422.465 -15.4030 19.1574
  835 657.632 138.824 16.2282
  836 564.380 -5.21184 -0.486793
  837 564.425 -5.17446 0.576338
  838 561.242 -17.0825 -31.3736
  839 473.074 -31.1315 18.7073
  840 517.815 -58.1552 34.1642
  841 603.877 -49.4523 52.6570
  842 469.610 -13.4575 -5.76352
  843 469.614 -13.4158 5.73403
  844 537.679 49.9948 20.9098
  845 506.890 7.19930 -33.4730
  846 140.430 175.125 163.870
  847 508.492 -44.8368 -15.0238
  848 510.443 -22.7792 -1.21435
  849 510.710 -22.8404 1.18026
  850 561.380 -8.34877 52.0967
  851 555.078 -36.6196 -21.5886
  852 497.863 -32.7006 -9.13310
  853 1098.21 35.5304 -53.2866
  854 473.858 -44.4500 34.8015
  855 473.449 -45.0075 -35.3170
  856 560.259 -6.82939 26.1281
  857 832.984 217.243 -55.2476
  858 445.875 -40.0144 -42.4615
  859 490.057 -54.9707 41.3065
  860 445.806 -39.5502 42.1180
  861 482.504 -19.2305 -6.89965
  862 482.504 -19.1770 6.86126
  863 75.0544 30.7411 45.3616
  864 601.755 44.9588 -54.5812
  865 464.163 -17.8274 -9.90323
  866 464.255 -17.6584 9.93403
  867 459.077 -7.49800 -1.21852
  868 459.076 -7.45218 1.21211
  869 501.777 -10.1452 -0.859505
  870 501.721 -10.0865 0.854090
  871 413.448 -7.74944 -10.4180
  872 413.492 -7.66732 10.3824
  873 465.618 -24.0944 -14.5197
  874 465.687 -23.9470 14.5844
  875 12.0725 -0.839178 -7.62639
  876 694.154 130.404 24.6792
  877 597.791 -21.1422 -41.9854
  878 489.592 -54.1623 -41.6898
  879 527.895 -17.2054 2.84479
  880 527.674 -17.0427 -2.71505
  881 575.981 0.632340 55.8923
  882 620.385 -44.1860 -31.8828
  883 546.709 41.7695 -207.400
  884 257.257 -4.67335 103.841
  885 -6.50611 5.99505 -8.11763
  886 -5.35617 6.78205 8.85039
  887 74.6855 32.6844 -46.3582
  888 561.277 -16.4638 18.4172
  889 587.981 -4.21870 -7.66092
  890 529.816 -51.2566 91.1638
  891 256.674 -4.44222 -104.221
  892 590.377 -48.6097 7.76590
  893 652.194 -17.8619 81.5091
  894 487.016 2.04583 14.9783
  895 553.011 52.6575 35.4264
  896 303.878 -16.9450 75.8888
  897 302.752 -17.0793 -76.3460
  898 363.857 -16.8140 -42.6887
  899 376.823 -19.0136 -131.822
  900 592.238 -14.0398 48.1276
  901 805.754 192.379 37.5909
  902 595.666 22.8216 55.6630
  903 562.916 -12.2411 -28.7915
  904 384.450 -17.0290 135.060
  905 713.755 132.371 -15.7978
  906 74.4803 62.4960 -64.1405
  907 524.799 -0.976353 -15.8133
  908 364.230 -16.6827 42.3468
  909 440.789 -9.46231 7.66035
  910 440.765 -9.52044 -7.67310
  911 555.847 -36.4192 22.4055
  912 574.087 -4.17176 1.56722
  913 424.516 3.60176 -163.160
  914 603.830 -1.51922 3.60664
  915 600.110 -1.27241 -4.71889
  916 461.427 4.17861 -13.0700
  917 582.521 -2.45518 -8.77215
  918 441.627 -20.1918 -18.0955
  919 441.918 -19.9037 18.1566
  920 -13.4166 5.64897 -7.57029
  921 -19.0194 3.41158 8.21856
  922 574.050 -3.90541 -1.62604
  923 198.309 -4.62206 70.1900
  924 197.239 -4.22938 -70.5585
  925 617.842 89.8229 42.7670
  926 1073.43 19.5036 16.2958
  927 582.957 64.6923 45.9378
  928 651.724 -22.2550 27.5814
  929 571.300 -32.0052 36.9539
  930 709.765 148.376 -12.1283
  931 452.440 2.16861 9.86560
  932 549.175 -13.3081 -6.49027
  933 573.402 30.8776 -55.6883
  934 684.428 21.5747 -4.11686
  935 536.477 -33.1791 -9.07534
  936 284.562 -1.46515 -15.0350
  937 284.807 -1.41247 14.8362
  938 565.060 -13.5902 -21.9926
  939 20.5528 25.4899 7.20860
  940 542.598 -56.2906 -9.78917
  941 479.078 14.6212 -1.34492
  942 705.787 154.062 -8.01951
  943 115.433 85.5685 -104.164
  944 546.100 -4.08567 -30.7749
  945 385.280 -6.08505 -13.7067
  946 385.364 -6.01679 13.6069
  947 3.82025 -14.8676 11.1060
  948 375.026 -27.4461 -61.2385
  949 553.055 -32.1353 -21.0947
  950 355.804 0.774220 -1.16268
  951 355.906 0.777189 1.15627
  952 562.403 68.1920 -28.2335
  953 593.811 -2.17843 -0.720621
  954 593.852 -2.19832 0.967258
  955 375.215 -27.3819 60.8631
  956 561.107 -0.892402 -12.0395
  957 640.868 4.77825 33.1884
  958 569.324 -8.46250 8.31765
  959 96.3565 23.2815 -56.3369
  960 589.012 -3.93072 6.89748
  961 541.078 4.52506 48.8685
  962 570.471 78.7960 25.0936
  963 568.784 6.60958 -56.8081
  964 397.094 -20.7387 -37.0115
  965 610.006 -21.8245 33.8215
  966 397.358 -20.6696 36.6743
  967 19.7986 20.9526 -3.87789
  968 72.1418 11.5389 41.3840
  969 328.267 -5.50749 25.0579
  970 327.894 -5.50679 -25.1802
  971 549.568 -13.5368 6.90814
  972 594.767 102.864 13.6978
  973 304.209 27.1991 -155.186
  974 497.015 -30.7928 8.19473
  975 466.712 -48.5209 -51.1379
  976 676.256 129.202 27.0602
  977 521.605 -9.48990 -0.00989752
  978 521.581 -9.44428 0.00426387
  979 569.348 -10.8990 -15.4724
  980 532.935 46.2357 -19.2775
  981 1154.53 350.742 235.593
  982 116.665 6.04398 -53.4855
  983 118.273 5.00945 53.5828
  984 8.70127 -7.46928 4.59885
  985 534.053 29.8475 39.5722
  986 466.654 -48.8289 50.7924
  987 575.338 -27.3575 -42.6357
  988 625.454 51.0993 52.9268
  989 597.416 -48.2474 -63.4127
  990 869.335 182.531 63.4283
  991 512.655 -8.54473 -0.493571
  992 512.590 -8.48170 0.493044
  993 597.150 -24.5743 39.5539
  994 42.4871 77.5445 75.9848
  995 278.785 -5.59883 35.7530
  996 277.991 -5.52575 -36.0961
  997 329.459 -15.6568 49.0972
  998 328.382 -15.4058 -49.2539
  999 369.808 -14.7765 35.5443
  1000 404.298 -2.96779 -1.83905
  1001 404.364 -2.94716 1.83266
  1002 961.783 317.757 -205.630
  1003 884.356 222.187 95.6113
  1004 369.514 -14.8438 -35.8105
  1005 614.803 -2.95084 43.8480
  1006 555.550 57.6753 -34.0272
  1007 392.690 -34.0644 109.452
  1008 500.877 -59.2489 -60.8363
  1009 571.798 -4.88519 -17.3707
  1010 262.550 17.2105 126.897
  1011 336.603 -25.6252 87.3916
  1012 512.163 26.6003 -24.8993
  1013 578.881 -11.5988 -52.4771
  1014 712.248 312.915 320.132
  1015 485.908 15.2273 17.8276
  1016 651.792 139.128 -1.98944
  1017 475.002 19.3432 -184.993
  1018 487.707 -51.0264 -35.8991
  1019 610.347 -0.904244 -1.73610
  1020 593.325 54.4515 -52.8740
  1021 357.111 -2.09872 9.15793
  1022 356.943 -2.11959 -9.23268
  1023 13.5720 11.9401 -21.3280
  1024 397.733 -17.6361 -30.9429
  1025 336.180 -25.9500 -87.9975
  1026 397.469 -17.6062 30.6391
  1027 566.364 -17.3839 48.5639
  1028 509.009 -31.3093 -3.85511
  1029 537.025 10.0497 -47.4461
  1030 552.885 68.9982 9.94149
  1031 733.785 47.8159 34.7047
  1032 559.901 -42.6756 20.8284
  1033 360.156 -28.3742 -66.9993
  1034 533.024 19.1022 -44.5563
  1035 395.861 -33.6369 -109.959
  1036 752.229 161.711 -4.34851
  1037 519.588 34.4036 22.6525
  1038 645.175 -3.46992 -23.8800
  1039 490.696 -51.0701 33.3684
  1040 560.910 -17.9734 37.1846
  1041 556.640 -29.5563 25.4718
  1042 553.570 -28.0172 21.7743
  1043 680.574 87.1432 -35.7135
  1044 554.577 -9.04993 38.4344
  1045 500.185 -59.4124 59.8872
  1046 533.835 -21.9874 5.79385
  1047 360.388 -28.4378 66.6724
  1048 502.712 -36.7604 -9.79784
  1049 297.033 -14.5875 -93.4267
  1050 418.965 -43.3004 74.6824
  1051 563.800 -3.99574 -20.3551
  1052 550.719 -6.25230 -43.9891
  1053 477.904 -37.3954 -22.6034
  1054 297.526 -14.9779 92.7549
  1055 517.030 1.39763 -31.0827
  1056 386.778 -25.1078 -47.6918
  1057 688.820 145.642 16.4852
  1058 159.173 25.3216 -90.2578
  1059 1142.42 80.5561 108.180
  1060 280.480 20.0117 -132.589
  1061 553.208 -45.9197 -11.1525
  1062 386.901 -24.9057 47.3403
  1063 512.073 5.67509 34.9038
  1064 293.548 -5.69528 29.6194
  1065 293.425 -5.83368 -29.8973
  1066 561.362 -15.7334 -45.1267
  1067 591.478 -3.38482 2.57846
  1068 582.953 -1.46298 8.82504
  1069 579.224 19.1591 57.1389
  1070 543.648 -4.08222 41.4887
  1071 418.202 45.2582 199.801
  1072 613.867 -0.633296 0.776631
  1073 584.620 78.9718 36.5267
  1074 499.513 7.51750 30.1756
  1075 589.376 -2.40975 8.40711
  1076 389.115 -3.87625 -7.75999
  1077 389.194 -3.83341 7.71775
  1078 250.782 -6.88609 -49.5012
  1079 251.675 -7.13622 49.2039
  1080 501.180 25.3724 12.6989
  1081 735.067 42.8239 -61.5844
  1082 675.704 1.57746 -108.725
  1083 548.913 -0.545053 -12.5797
  1084 419.060 -43.6154 -75.2168
  1085 478.917 -35.5731 20.4650
  1086 551.821 -1.31276 13.1139
  1087 574.491 -41.8919 -24.9440
  1088 369.348 -0.693784 4.55685
  1089 369.245 -0.707138 -4.58104
  1090 552.176 -47.2334 11.1354
  1091 525.583 -11.0379 0.508373
  1092 525.494 -11.0517 -0.480183
  1093 511.853 -51.3702 22.5481
  1094 652.970 -20.6516 -13.3544
  1095 308.694 -0.498969 -8.41060
  1096 309.154 -0.481551 8.33089
  1097 448.852 -28.8483 -126.014
  1098 480.333 -11.4197 3.39474
  1099 480.370 -11.4748 -3.41733
  1100 288.595 158.630 219.636
  1101 658.711 54.5267 -41.4928
  1102 101.568 48.3144 -69.6737
  1103 569.561 -8.90199 -8.02005
  1104 157.300 52.6869 -103.633
  1105 324.674 -20.0242 -63.4417
  1106 613.637 -0.883693 0.544317
  1107 613.828 -0.842115 -0.389105
  1108 562.249 -32.2760 -31.3477
  1109 497.631 -56.0975 -82.4116
  1110 159.316 21.5595 86.0032
  1111 612.242 60.5174 50.8454
  1112 553.630 -6.07147 -0.617710
  1113 553.702 -6.07309 0.665414
  1114 601.054 -38.1196 100.335
  1115 628.340 124.907 19.2719
  1116 380.013 -8.74481 -19.4799
  1117 380.117 -8.70842 19.3603
  1118 285.730 32.0295 156.775
  1119 535.616 2.85933 -45.8382
  1120 171.186 54.1644 111.103
  1121 676.056 -10.4659 -38.4193
  1122 671.931 147.039 5.50038
  1123 464.770 -36.3020 26.8255
  1124 436.954 2.55485 -1.92630
  1125 583.516 -5.41974 10.4849
  1126 602.485 -0.943369 4.06023
  1127 141.815 0.194047 -25.0663
  1128 143.500 0.132908 24.9097
  1129 485.172 8.44915 -22.4141
  1130 494.541 -14.5202 -3.11601
  1131 494.441 -14.4629 3.10271
  1132 53.1548 92.6129 -81.0578
  1133 83.1389 193.416 -157.555
  1134 500.478 -19.4904 3.17923
  1135 500.651 -19.4766 -3.21300
  1136 516.148 -12.6167 0.373142
  1137 516.077 -12.5973 -0.336594
  1138 138.643 88.1115 112.384
  1139 413.635 -4.85230 -3.83883
  1140 413.692 -4.82005 3.82394
  1141 517.141 39.3747 -0.507896
  1142 640.423 87.7092 -229.862
  1143 625.053 107.338 -33.0889
  1144 569.373 -22.0045 -45.5503
  1145 560.638 -28.1507 -32.1255
  1146 464.976 -36.6271 -27.2478
  1147 473.303 1.67678 13.8340
  1148 527.768 33.1603 -33.1142
  1149 520.875 28.2851 31.6992
  1150 533.500 -21.3677 -5.66592
  1151 510.258 -30.6973 3.45683
  1152 465.926 -29.6650 -20.4741
  1153 552.647 -3.32300 24.3959
  1154 956.391 96.2647 13.3043
  1155 556.007 -11.9429 44.3775
  1156 559.324 36.7612 49.3243
  1157 514.196 -50.4129 -17.7804
  1158 68.6920 10.5758 -39.9703
  1159 523.821 -24.2937 -3.22863
  1160 358.259 -0.450170 -0.252246
  1161 358.354 -0.448071 0.250189
  1162 633.774 -16.7943 19.6935
  1163 603.735 -50.9381 27.0084
  1164 863.434 153.688 39.1977
  1165 218.079 -0.356349 -20.7174
  1166 219.237 -0.311129 20.5767
  1167 470.660 -9.45946 -2.61396
  1168 470.644 -9.40696 2.59876
  1169 525.249 -46.2261 -4.89743
  1170 440.598 2.15342 6.32236
  1171 537.614 -38.2955 8.21952
  1172 32.2555 38.2932 -20.4801
  1173 100.396 49.0339 68.0624
  1174 362.581 -20.1621 121.700
  1175 623.168 117.998 -23.6696
  1176 591.387 -1.74765 -6.65597
  1177 616.080 -1.09770 0.318732
  1178 616.603 -1.45038 -0.175656
  1179 371.389 -0.721993 -0.782941
  1180 371.481 -0.715894 0.778225
  1181 574.555 36.7048 55.6912
  1182 839.754 142.222 -3.05006
  1183 592.657 97.5472 -24.5810
  1184 441.940 -32.8957 125.228
  1185 360.673 -19.4416 -121.452
  1186 402.821 -26.4124 -42.9694
  1187 550.005 -15.6889 9.06062
  1188 763.555 169.269 12.6754
  1189 402.879 -26.2673 42.6649
  1190 561.101 -10.2181 6.85182
  1191 508.105 19.1913 30.3075
  1192 556.110 17.3163 53.7455
  1193 783.810 174.691 23.2790
  1194 471.467 -12.1850 4.81874
  1195 471.483 -12.2360 -4.84591
  1196 568.723 -11.0404 16.0951
  1197 346.960 -3.48167 14.2649
  1198 346.725 -3.51559 -14.3792
  1199 555.971 -7.99568 -2.77884
  1200 231.172 138.921 -213.260
  1201 481.616 -27.3560 -134.166
  1202 459.207 -14.1450 -8.40691
  1203 459.261 -14.0886 8.41054
  1204 593.593 -3.14692 2.40569
  1205 564.107 -7.82573 5.44569
  1206 32.5075 42.1713 31.7660
  1207 610.425 -0.821577 2.04842
  1208 75.4278 97.6784 96.8463
  1209 551.621 -8.65922 -3.63429
  1210 -0.460558 -13.2122 -11.6293
  1211 393.896 -38.4999 -94.3987
  1212 392.892 -37.5800 93.4967
  1213 610.394 -1.19803 -2.29107
  1214 527.026 -27.8332 -4.07605
  1215 593.275 -2.90993 -2.40440
  1216 481.158 -15.4522 -5.02303
  1217 481.121 -15.4049 4.98083
  1218 555.628 -7.94668 2.58464
  1219 523.454 -23.8093 3.19551
  1220 504.563 -16.2839 1.57924
  1221 504.728 -16.3184 -1.52591
  1222 592.678 -2.99531 -1.94447
  1223 514.094 -54.3973 -92.6706
  1224 580.750 -4.03230 -1.92171
  1225 553.859 -8.88303 3.98275
  1226 395.045 -4.04691 -5.82901
  1227 395.119 -4.00882 5.80061
  1228 437.991 -6.25550 -3.15627
  1229 438.020 -6.21660 3.14347
  1230 697.789 109.458 28.8383
  1231 587.251 -45.3741 17.0684
  1232 404.715 -2.18792 154.305
  1233 333.766 -0.467364 5.48435
  1234 333.497 -0.472826 -5.53272
  1235 558.898 -10.4610 33.1092
  1236 533.956 -8.44669 0.453270
  1237 533.972 -8.42172 -0.453123
  1238 613.702 118.667 11.1420
  1239 557.568 -58.5598 74.5990
  1240 333.063 -4.46000 19.8767
  1241 332.754 -4.49108 -20.0061
  1242 533.397 -13.2878 2.67104
  1243 533.277 -13.3836 -2.56075
  1244 549.697 -15.5140 -8.68771
  1245 511.241 0.145184 16.0677
  1246 865.215 215.407 -75.4396
  1247 560.456 -20.7303 -28.4700
  1248 100.575 23.0102 57.8211
  1249 578.496 -31.0297 39.2786
  1250 473.089 10.7044 -12.2780
  1251 38.3320 26.8222 22.1857
  1252 754.479 87.1518 -14.7231
  1253 565.620 -25.8780 -40.2760
  1254 475.187 7.05544 18.8284
  1255 326.861 -20.0662 63.3741
  1256 573.530 -44.5841 21.7984
  1257 822.884 163.415 59.1480
  1258 197.443 28.3431 109.013
  1259 575.681 -7.19907 -13.9204
  1260 1081.63 12.2695 -10.6915
  1261 1115.66 16.6140 47.3280
  1262 1188.30 39.6552 -113.035
  1263 560.253 -17.6783 -36.1022
  1264 559.746 -25.7452 30.0153
  1265 568.181 -40.6224 26.9611
  1266 -16.5875 2.09735 10.3729
  1267 -15.0349 1.73413 -11.3621
  1268 552.181 -61.2255 -36.8837
  1269 564.779 -57.3209 -53.5811
  1270 443.501 2.98100 -7.79074
  1271 549.676 -62.2761 53.2399
  1272 588.113 -28.0672 -39.7186
  1273 13.2489 18.3006 3.58190
  1274 481.666 -8.83177 1.62575
  1275 481.696 -8.88836 -1.62999
  1276 582.919 -5.02344 9.32762
  1277 561.026 -10.0470 -6.39356
  1278 529.695 -57.8022 -20.9784
  1279 486.288 -26.0604 9.78109
  1280 483.936 -25.6816 -10.4130
  1281 567.302 -12.2694 22.6447
  1282 581.603 -21.5252 -46.6195
  1283 39.7346 27.9633 -21.7038
</Section>

newXOutput 78

<Section columns = "stress_xx | stress_yy | stress_xy">
  1 626.986 -0.284735 1.13466
  2 626.981 -0.271296 -1.13715
  3 357.674 -0.0703010 -0.408400
  4 -4.46182 -4.39722 -6.41887
  5 1096.17 457.403 358.000
  6 1086.30 473.085 -355.223
  7 -5.18760 -4.16358 6.85058
  8 357.578 -0.0714500 0.407473
  9 631.046 -1.11908 0.319665
  10 629.906 -1.74005 -0.372909
  11 628.790 -1.22676 1.24296
  12 627.640 -1.63079 0.236789
  13 625.129 -1.39693 1.95310
  14 622.817 -1.39872 1.35668
  15 617.107 -1.22999 2.83831
  16 608.672 -0.952059 4.20999
  17 601.216 -0.959578 4.75000
  18 589.918 -1.24542 5.81054
  19 573.966 -0.183553 8.68023
  20 559.237 -0.913358 8.32847
  21 542.121 -1.13005 11.8357
  22 517.438 0.787975 10.3741
  23 499.304 1.27192 12.3307
  24 475.618 2.09338 9.70859
  25 459.113 2.31885 9.81712
  26 435.221 3.13519 5.02287
  27 430.130 4.91773 5.40697
  28 427.042 4.09599 -1.60569
  29 431.200 2.48396 -3.49121
  30 438.884 2.33421 -4.29165
  31 456.798 2.88399 -8.54498
  32 474.205 2.28155 -10.7516
  33 499.511 0.589360 -12.7122
  34 519.714 -0.226095 -11.4847
  35 541.054 -0.891508 -11.1978
  36 560.274 -0.720994 -7.85461
  37 576.600 -0.782619 -6.65673
  38 589.915 -1.22647 -5.52870
  39 601.712 -0.912546 -3.77155
  40 608.910 -1.12019 -3.96525
  41 615.875 -1.31488 -2.88102
  42 622.322 -1.53502 -1.16411
  43 625.581 -1.25411 -1.43767
  44 627.140 -0.832947 -0.856242
  45 625.539 -0.554808 -0.784925
  46 630.465 -1.73340 0.273101
  47 631.201 -1.15692 -0.329073
  48 612.270 -0.776964 -0.703649
  49 599.660 -2.95190 -1.33405
  50 584.099 -4.24295 -0.774504
  51 565.021 -6.07583 -1.08756
  52 546.799 -6.57798 -1.30210
  53 527.254 -8.00836 -1.25604
  54 509.866 -8.77570 -0.623316
  55 494.608 -9.63652 -0.139591
  56 476.967 -7.94737 -0.115945
  57 456.627 -7.33379 -0.328732
  58 437.050 -5.70163 0.00420082
  59 418.532 -3.54730 0.0607399
  60 400.974 -2.46445 0.121621
  61 385.637 -1.18136 0.236088
  62 370.042 -0.253906 -0.459347
  63 357.803 0.516203 0.681773
  64 352.225 1.32138 0.494720
  65 355.725 0.0485546 1.10699
  66 351.235 -0.130442 1.35141
  67 346.940 -0.216704 1.67954
  68 341.184 0.0174495 2.15371
  69 333.940 0.0141271 2.68786
  70 328.344 -0.343375 5.07373
  71 313.272 0.453837 5.51926
  72 302.508 -0.000434608 6.25932
  73 286.487 -0.237613 7.11750
  74 268.104 -0.421092 8.64515
  75 245.093 -0.0711997 10.4997
  76 217.048 0.149596 11.6168
  77 192.472 -0.193319 16.6254
  78 144.536 1.50417 15.7778
  79 111.448 1.29374 16.7254
  80 71.4004 -0.355077 18.6793
  81 37.7437 2.96382 19.5991
  82 -0.777584 4.51950 12.1114
  83 -29.2801 4.61310 4.71038
  84 -29.6482 4.54873 -0.991147
  85 -29.4071 3.82417 -8.65958
  86 -17.4200 -1.06460 -8.39938
  87 -2.02190 -16.7202 -9.31294
  88 1.83155 -30.5450 -11.4383
  89 4.81690 -47.1132 -5.73482
  90 10.5336 -45.9644 1.92344
  91 22.0413 -3.51417 30.7908
  92 64.4191 111.798 99.6211
  93 364.130 364.327 322.606
  94 1331.36 201.170 220.100
  95 1205.03 28.6328 70.9903
  96 1125.01 12.0421 21.7254
  97 1095.54 10.3159 1.62386
  98 1111.46 13.6133 -18.9470
  99 1203.00 26.8780 -56.2608
  100 1404.83 97.0250 -187.996
  101 217.687 375.693 -271.271
  102 48.1785 85.4242 -83.3517
  103 24.1476 -1.08959 -33.1226
  104 9.89259 -45.5220 -6.85859
  105 2.98766 -35.4639 6.50257
  106 3.61639 -38.5984 9.84903
  107 0.236692 -14.3720 10.3262
  108 -18.2058 -0.620092 7.93159
  109 -30.3322 2.87210 7.51609
  110 -31.2550 5.51556 1.14929
  111 -30.1906 4.52632 -4.42000
  112 -2.93482 4.63126 -11.3876
  113 35.8738 2.98865 -18.7102
  114 69.4984 -0.0341194 -18.3750
  115 109.475 1.39743 -16.7549
  116 142.744 1.54181 -15.8899
  117 191.084 -0.200173 -16.7547
  118 215.864 0.164296 -11.7212
  119 244.056 -0.0679731 -10.6236
  120 267.580 -0.470216 -8.70222
  121 285.765 -0.223015 -7.13203
  122 301.956 0.0187153 -6.31904
  123 312.817 0.448861 -5.57421
  124 328.011 -0.347066 -5.12021
  125 333.669 0.0117262 -2.71622
  126 340.973 0.0151339 -2.17694
  127 346.774 -0.220565 -1.69787
  128 351.102 -0.133754 -1.36414
  129 355.611 0.0457758 -1.11505
  130 352.122 1.32016 -0.498409
  131 357.705 0.515560 -0.684112
  132 369.947 -0.257018 0.458249
  133 385.550 -1.18919 -0.238878
  134 400.898 -2.48153 -0.124861
  135 418.474 -3.57100 -0.0638376
  136 437.013 -5.73587 -0.00732190
  137 456.615 -7.37733 0.326230
  138 476.984 -7.99805 0.113230
  139 494.647 -9.69394 0.138241
  140 509.921 -8.83325 0.625129
  141 527.335 -8.06074 1.26197
  142 546.873 -6.61370 1.32343
  143 565.080 -6.10783 1.19138
  144 584.208 -4.03571 0.791309
  145 600.071 -2.88354 1.30403
  146 612.388 -0.872691 0.692304
  147 553.015 -52.0014 0.292733
  148 552.522 -51.2932 -0.0999560
  149 583.851 83.6530 -26.4945
  150 618.554 36.4085 54.9944
  151 469.018 -45.4760 -105.907
  152 472.897 -45.3859 102.629
  153 459.803 -19.1397 13.8033
  154 459.828 -19.3947 -13.8078
  155 653.320 23.8267 -39.7446
  156 551.588 -20.0946 9.68686
  157 551.347 -19.6283 -9.57319
  158 712.702 157.627 5.36198
  159 566.707 -0.885080 -54.7941
  160 422.654 -32.7158 -47.8019
  161 422.697 -32.4559 47.4181
  162 567.111 -12.9425 48.9989
  163 542.210 39.7628 33.1800
  164 226.467 35.4190 -126.586
  165 250.272 33.6335 133.250
  166 686.694 8.80321 -1.06113
  167 567.503 -21.9680 -33.1174
  168 748.076 164.231 2.11037
  169 512.593 -14.5576 -1.31802
  170 512.493 -14.5214 1.35625
  171 571.791 -7.38746 -4.14502
  172 573.438 -6.69362 3.55121
  173 408.969 -5.56055 -7.85726
  174 409.029 -5.50561 7.82344
  175 609.823 -14.8676 134.788
  176 525.780 22.1060 -35.8018
  177 345.930 -25.6481 -75.6585
  178 346.939 -25.4659 75.2106
  179 389.608 -12.3164 -25.0371
  180 389.654 -12.1809 24.8736
  181 570.039 -15.2127 28.1886
  182 519.378 -35.5003 -4.05681
  183 517.646 -35.2368 4.82214
  184 586.840 -57.0266 -14.5806
  185 590.018 -54.3309 7.35984
  186 807.868 190.692 -33.3743
  187 594.977 95.1073 24.6884
  188 594.288 36.5032 -56.0716
  189 607.042 -3.53590 -155.743
  190 587.770 -33.3973 -37.2575
  191 592.925 -23.9161 44.6419
  192 495.828 -56.2088 53.3675
  193 495.873 -55.7953 -53.2259
  194 533.776 6.96672 42.8378
  195 248.195 -6.37569 -92.8823
  196 248.756 -6.86581 92.3563
  197 906.432 135.036 19.9243
  198 557.332 -33.3344 19.1797
  199 577.017 -10.9271 -18.0107
  200 462.708 -11.1198 -6.51946
  201 462.724 -11.0700 6.50284
  202 556.995 -7.29422 -37.9487
  203 632.570 92.6844 -43.9786
  204 534.027 48.1796 -6.62975
  205 352.075 -12.0264 34.8119
  206 351.564 -12.0585 -35.0440
  207 584.350 -6.89027 9.48823
  208 573.215 10.8024 56.4480
  209 467.864 -33.6027 -24.2875
  210 464.932 -31.8039 24.7252
  211 672.151 99.8387 38.5557
  212 782.647 111.428 26.2539
  213 56.8361 43.3583 -37.7850
  214 52.6646 40.0765 32.2489
  215 326.823 94.7169 220.027
  216 551.861 -36.7506 -13.8600
  217 586.231 -6.61053 -8.55549
  218 528.151 4.84017 -39.4801
  219 376.181 -3.47916 -11.1577
  220 376.305 -3.44103 11.0724
  221 498.895 -23.2369 -6.51990
  222 499.130 -23.3920 6.24385
  223 561.312 -7.64900 32.1357
  224 639.906 -36.8575 20.0117
  225 641.916 130.211 -12.5192
  226 503.435 -48.3573 -26.6467
  227 632.318 -11.0497 32.6925
  228 540.836 -9.44146 1.12876
  229 540.834 -9.37063 -1.12777
  230 499.946 -48.1339 27.5109
  231 570.675 -36.3904 29.9152
  232 790.867 107.487 -58.9235
  233 181.227 107.765 -161.826
  234 491.262 17.6285 8.63160
  235 576.161 50.7746 47.6962
  236 610.076 -4.36491 -48.4742
  237 571.394 -20.7074 -45.3616
  238 312.604 -9.71756 -43.3325
  239 313.619 -9.57597 43.2208
  240 571.969 -7.11038 -24.5184
  241 544.730 -14.0879 4.64258
  242 544.478 -14.0777 -4.44644
  243 120.364 10.4345 -60.3458
  244 122.087 9.13823 60.1239
  245 603.194 -52.9297 -51.4486
  246 596.182 -2.56520 1.12752
  247 596.741 -2.60937 -1.28134
  248 563.437 46.7893 -43.8364
  249 500.209 9.95971 26.0315
  250 1011.09 161.851 109.072
  251 1002.03 114.105 -67.7382
  252 738.900 157.936 0.611794
  253 461.929 -22.5649 140.039
  254 424.902 -15.0098 -146.238
  255 489.633 -10.0587 -2.59783
  256 489.594 -10.0015 2.58281
  257 411.036 -10.5977 15.6635
  258 411.020 -10.7378 -15.7844
  259 584.392 -6.62510 14.6915
  260 568.288 -40.6202 -23.8334
  261 378.837 -0.559513 -2.66537
  262 378.932 -0.548792 2.65151
  263 561.228 -22.9744 -19.2631
  264 246.150 -7.88823 -60.3400
  265 247.122 -7.91188 59.9426
  266 568.659 -24.8417 35.7449
  267 436.493 -46.3313 85.2987
  268 437.508 -47.1560 -85.0318
  269 497.909 19.4524 -12.1193
  270 429.851 -6.32830 -5.31607
  271 429.896 -6.28885 5.29885
  272 537.130 -1.24382 31.4438
  273 638.203 116.207 30.3248
  274 350.724 -4.01400 18.6138
  275 350.468 -4.04568 -18.7551
  276 582.687 -48.8921 14.8979
  277 539.370 -60.7522 -59.1264
  278 598.732 -3.29668 4.27350
  279 424.224 -24.5679 -32.9253
  280 423.557 -24.3039 32.8178
  281 726.996 84.0634 196.167
  282 354.739 -28.7628 101.186
  283 569.276 79.7650 -2.80078
  284 709.886 79.9597 -21.6276
  285 539.481 -41.6867 3.32055
  286 539.933 -62.3878 53.6611
  287 355.723 -28.3166 -102.244
  288 67.6869 83.7796 77.5748
  289 561.327 -23.0427 19.6361
  290 730.484 97.2479 14.9453
  291 603.023 -2.94983 -3.70759
  292 553.893 19.5520 -50.4857
  293 543.535 -30.8155 9.12425
  294 532.490 -44.8538 4.80218
  295 552.126 25.4791 48.7247
  296 580.020 -48.8806 -12.8977
  297 817.261 157.691 -15.4782
  298 543.394 -29.6332 -8.69901
  299 443.530 131.873 -267.059
  300 554.470 -58.8781 -14.8987
  301 550.661 -60.5011 21.1091
  302 409.483 -36.6763 -66.8831
  303 375.306 -1.26509 -5.74979
  304 375.417 -1.24275 5.71101
  305 409.690 -36.7159 66.5496
  306 587.965 -1.03444 -56.0278
  307 630.862 -26.1427 -19.7712
  308 485.784 -28.9114 -13.8372
  309 485.518 -28.9804 14.0706
  310 573.829 -49.4081 92.7529
  311 576.399 -4.81710 18.5419
  312 692.925 5.09819 37.7931
  313 476.762 -16.5998 -7.82000
  314 476.802 -16.5533 7.78486
  315 436.851 -11.0259 -10.6146
  316 436.865 -10.9291 10.6033
  317 495.416 6.91730 -25.1608
  318 625.847 45.9356 -53.0716
  319 953.183 259.098 -126.696
  320 568.321 -5.51231 -1.30914
  321 568.032 -5.44314 1.35514
  322 309.830 -1.22347 126.311
  323 434.146 -19.1974 -22.2019
  324 433.393 -19.1458 22.2629
  325 309.767 -1.97927 -125.826
  326 598.921 70.5602 -46.0069
  327 664.780 33.3497 37.2006
  328 573.471 -40.8809 -102.531
  329 531.746 -20.6548 3.10349
  330 531.233 -20.5186 -2.88857
  331 565.482 -12.1451 -8.87307
  332 537.454 -0.949150 -29.3869
  333 598.256 2.43369 54.5053
  334 594.020 -4.48265 -10.0332
  335 365.737 -21.6718 50.8427
  336 365.338 -21.7838 -51.1969
  337 558.971 -1.21028 52.1779
  338 353.356 -2.65538 -11.1301
  339 353.576 -2.63121 11.0409
  340 569.872 -13.4755 14.5821
  341 684.456 139.153 -20.7238
  342 565.262 -12.2220 9.24058
  343 605.379 75.7809 46.0420
  344 578.463 -10.8766 53.3514
  345 462.282 -8.51463 2.49484
  346 462.278 -8.56143 -2.50799
  347 549.796 -1.89253 -46.3769
  348 721.610 151.259 11.0221
  349 604.716 110.157 0.950112
  350 369.504 42.6837 -186.540
  351 41.7598 16.8913 -27.3872
  352 45.4048 18.3012 29.2933
  353 -0.905637 4.82836 10.2669
  354 1.17731 3.05327 -10.8067
  355 1032.02 71.7025 24.1564
  356 500.529 -40.3161 -16.6243
  357 570.238 -13.0473 -14.2125
  358 516.983 -9.34123 0.170958
  359 516.925 -9.27398 -0.175423
  360 556.117 61.4589 -23.7708
  361 473.325 -47.8706 43.9860
  362 43.4595 65.2422 -49.2406
  363 473.696 -47.8401 -44.7100
  364 563.024 64.0358 25.2838
  365 569.925 -15.4786 -26.7508
  366 603.036 -33.8589 -30.6003
  367 646.192 135.263 8.57697
  368 604.146 -37.9784 24.2883
  369 260.000 -6.20681 40.3193
  370 258.573 -6.08438 -40.5459
  371 149.308 3.33824 -56.7384
  372 150.704 2.78646 56.4985
  373 502.626 1.97040 25.3834
  374 924.891 274.740 113.085
  375 587.789 -4.00853 -13.0587
  376 462.215 -38.5143 -33.9177
  377 461.894 -38.4370 33.8763
  378 567.328 -13.2870 -34.5454
  379 640.942 -30.9487 -1.40153
  380 500.512 -40.2886 17.0541
  381 699.285 7.04334 -64.2365
  382 408.890 -3.04864 -2.17968
  383 408.958 -3.02407 2.16785
  384 559.352 -3.35217 -22.3807
  385 310.250 -4.22892 -26.2237
  386 310.418 -4.37105 25.9275
  387 664.273 85.1178 -43.3915
  388 361.422 25.2664 173.726
  389 522.611 -27.3827 -0.114388
  390 523.110 -27.3418 0.0958560
  391 614.923 103.530 -28.8610
  392 580.330 -17.3402 -50.1986
  393 578.625 -59.3522 52.7949
  394 487.992 -12.8976 -4.14842
  395 487.946 -12.8446 4.11797
  396 559.321 -43.2515 14.7844
  397 599.151 -3.14811 7.38805
  398 383.473 -13.4652 -31.1430
  399 383.630 -13.4731 30.9063
  400 570.665 19.2373 -55.7827
  401 536.650 -11.9872 1.62770
  402 536.620 -12.0198 -1.56645
  403 557.185 -6.64665 42.2990
  404 523.574 38.4669 11.5491
  405 575.498 -24.5050 43.3529
  406 824.910 171.662 33.6350
  407 284.715 -15.2366 -81.0594
  408 285.465 -15.2361 80.4913
  409 128.426 67.6251 -99.1875
  410 610.572 -2.17312 1.87072
  411 323.532 -2.50580 -16.6288
  412 323.929 -2.45286 16.5011
  413 567.668 -15.0158 33.7098
  414 515.303 -55.7886 30.6176
  415 578.470 -7.68731 6.24459
  416 593.192 30.0753 57.7085
  417 134.179 72.0050 103.040
  418 516.024 -55.4471 -28.4246
  419 532.872 -49.4263 -8.59124
  420 182.214 -3.62263 -51.1190
  421 183.428 -3.74743 50.7930
  422 410.872 -33.3475 -121.995
  423 609.994 -9.27801 47.1105
  424 409.490 -33.7898 120.989
  425 564.538 -31.8841 -26.9044
  426 530.309 36.1002 -25.1634
  427 564.576 -24.6541 25.7747
  428 603.135 -3.07549 -4.81271
  429 19.8104 22.0566 11.3062
  430 125.950 148.194 145.300
  431 546.911 -1.98509 21.7472
  432 466.287 6.74479 11.0988
  433 473.631 8.13254 -15.0107
  434 404.137 -6.30375 -11.0581
  435 404.190 -6.22635 10.9974
  436 556.573 -43.2137 -13.2579
  437 564.035 -11.1575 -47.1362
  438 468.530 9.20621 -4.07416
  439 823.885 196.971 46.3848
  440 119.933 38.4902 -74.5829
  441 131.708 35.3026 79.3732
  442 522.126 -18.6995 0.366949
  443 521.941 -18.6676 -0.240448
  444 694.679 151.856 -1.49918
  445 426.028 186.573 272.958
  446 663.059 -8.70246 -2.83707
  447 390.609 -19.8293 -42.2411
  448 390.802 -19.7033 41.9195
  449 394.623 -8.38592 16.9775
  450 394.539 -8.44279 -17.1108
  451 526.954 12.0037 -40.7435
  452 613.373 -1.20755 -1.20154
  453 513.689 23.9640 23.0159
  454 640.326 78.9732 48.3232
  455 534.098 -39.5901 -1.59714
  456 578.187 -7.35156 -6.08552
  457 605.422 -2.82019 4.42803
  458 611.530 -1.30730 0.682185
  459 611.952 -1.43372 -0.471693
  460 352.116 -0.519909 4.17391
  461 351.940 -0.528256 -4.21110
  462 582.681 -37.2685 32.5447
  463 531.808 21.2659 39.4753
  464 553.415 2.33288 -51.0326
  465 573.780 -12.4736 19.5286
  466 809.868 147.033 -168.377
  467 575.850 -32.1629 -37.2563
  468 7.95977 11.2967 5.99180
  469 7.81000 11.5739 -3.13338
  470 460.714 -25.6112 19.7295
  471 459.267 -25.2466 -19.4582
  472 705.773 16.5690 93.1386
  473 200.397 189.078 -209.508
  474 569.464 -1.88125 16.6489
  475 638.313 -36.7703 -55.0485
  476 350.456 -19.7090 58.6809
  477 688.827 122.356 -29.9106
  478 567.670 -30.9465 30.9149
  479 480.209 -22.6163 -10.6604
  480 480.624 -22.2549 10.6404
  481 502.513 2.82477 -22.3881
  482 349.404 -19.6209 -58.9986
  483 514.141 0.401382 22.4274
  484 487.112 -55.8483 -77.0149
  485 485.928 -55.9331 77.3559
  486 584.847 -4.12515 14.4592
  487 538.124 50.9446 4.76555
  488 535.686 10.6442 188.405
  489 791.034 159.419 -0.991189
  490 548.764 -9.69348 2.35686
  491 548.784 -9.66121 -2.47872
  492 429.467 -7.29492 -7.24161
  493 429.507 -7.23886 7.22034
  494 228.616 9.81651 106.865
  495 570.410 -27.6896 -36.7492
  496 518.548 -11.4942 -0.549510
  497 518.497 -11.4607 0.556593
  498 453.308 -47.7232 62.9531
  499 232.866 13.0705 -109.496
  500 570.377 -46.6693 -15.3053
  501 10.8307 4.16602 2.71030
  502 506.647 26.5961 1.71245
  503 550.484 -6.87345 -0.730530
  504 550.480 -6.95624 0.704377
  505 453.505 -47.6249 -63.4140
  506 638.810 -32.2209 68.5995
  507 637.432 23.1990 48.4850
  508 586.441 -4.50221 -2.88021
  509 568.650 -47.3068 15.6095
  510 368.454 -0.232838 -0.792266
  511 368.551 -0.229939 0.787156
  512 568.986 -22.0369 -39.6981
  513 554.795 41.1558 42.9639
  514 629.850 15.6234 -47.9795
  515 366.198 -0.459630 -2.35994
  516 366.307 -0.452558 2.34643
  517 1074.75 155.479 -138.002
  518 576.443 68.5046 37.6164
  519 586.890 -4.20833 2.54481
  520 533.993 -50.5324 9.89831
  521 453.777 -14.6510 11.1170
  522 453.761 -14.7541 -11.0945
  523 617.886 -37.8483 10.6935
  524 596.364 -12.1008 -50.2936
  525 667.513 130.752 26.0910
  526 558.105 9.70508 52.9727
  527 558.626 -11.1956 5.23634
  528 542.076 -58.1754 -75.0080
  529 565.322 -14.1801 39.5621
  530 1060.51 48.9339 -19.2489
  531 613.096 -46.4059 4.55781
  532 582.819 -4.40479 -0.575290
  533 582.962 -4.64828 0.466641
  534 1071.57 71.8383 67.0534
  535 545.003 -0.0760832 45.0647
  536 751.448 128.736 -4.33348
  537 568.872 -15.8390 -18.7254
  538 268.425 -2.36130 -17.9078
  539 269.170 -2.24600 17.7394
  540 390.071 -36.3822 -84.8808
  541 390.421 -35.7770 84.2881
  542 558.311 -10.7623 -5.20794
  543 608.855 22.3231 -55.5402
  544 535.625 -36.4163 3.66777
  545 578.851 66.3024 -38.9350
  546 579.003 -7.06403 19.4344
  547 718.573 38.1937 -15.8798
  548 498.642 -17.0128 -4.17724
  549 498.510 -16.9662 4.14246
  550 539.221 -25.5588 6.35921
  551 785.822 158.768 -20.2642
  552 570.228 24.9910 54.9615
  553 246.068 63.0175 157.276
  554 544.755 -32.5645 127.565
  555 711.404 39.0268 -141.607
  556 582.796 48.2081 -50.9479
  557 513.073 -44.6691 -110.885
  558 556.296 -61.1513 -25.5906
  559 579.525 -58.9715 -35.7969
  560 78.7419 104.566 -98.8331
  561 582.926 -7.84250 -11.3960
  562 870.355 168.727 -51.8883
  563 541.959 -24.5743 -7.47187
  564 546.038 -18.0450 6.20287
  565 545.546 -17.6554 -5.89029
  566 386.766 -1.98797 -5.27035
  567 386.857 -1.96250 5.24139
  568 59.6916 5.53292 -31.8753
  569 62.5344 5.81527 32.5776
  570 288.693 -13.1001 -61.6773
  571 290.762 -13.1766 61.6195
  572 553.632 -30.1819 -16.0016
  573 562.502 -61.4087 27.4201
  574 578.100 -55.1315 -1.34601
  575 479.333 -8.44902 -2.10983
  576 479.312 -8.39580 2.10047
  577 452.526 -47.6737 -94.7918
  578 503.607 -41.6093 117.059
  579 442.042 -44.8722 95.2579
  580 570.710 -12.7835 -50.5158
  581 366.600 -5.74413 18.8319
  582 366.422 -5.80143 -18.9681
  583 547.499 30.4925 -43.2300
  584 547.225 -0.972379 -19.7305
  585 679.727 146.243 -11.3844
  586 449.616 -6.60403 -1.96261
  587 449.637 -6.56494 1.95486
  588 579.522 -1.82097 -10.8823
  589 407.736 -13.2658 -21.2192
  590 407.764 -13.2267 21.0564
  591 330.145 14.5840 149.865
  592 564.056 -26.1811 -26.0103
  593 319.832 -17.2530 107.890
  594 554.353 -28.9019 16.4514
  595 581.609 -8.64506 12.6676
  596 573.643 -5.79636 -2.46949
  597 413.168 -4.81718 -5.01968
  598 413.229 -4.78035 4.99881
  599 652.520 129.434 -23.8314
  600 319.594 -16.6552 -108.249
  601 552.460 -24.1569 -12.8798
  602 500.918 -9.42076 -1.21244
  603 500.870 -9.35922 1.20806
  604 921.452 123.457 -22.2852
  605 341.704 -2.02371 10.3143
  606 341.425 -2.04269 -10.3993
  607 521.224 12.2322 37.2485
  608 728.638 63.4665 -0.484861
  609 351.198 1.74576 -148.606
  610 184.955 4.14308 -81.9541
  611 186.374 3.16196 81.5276
  612 442.272 -25.2691 26.7024
  613 446.610 -26.0152 -26.0470
  614 740.284 149.787 6.67412
  615 571.466 -5.98775 2.17315
  616 500.479 14.4858 -22.5827
  617 616.623 110.156 22.8452
  618 614.653 114.265 -15.2088
  619 505.032 -27.8024 -6.58012
  620 508.696 -27.2079 4.82024
  621 360.405 79.4229 -212.267
  622 438.236 -14.5596 -15.0803
  623 438.284 -14.4020 15.0397
  624 1070.69 219.673 165.620
  625 569.518 -18.8330 43.1187
  626 333.805 -11.3701 -39.4750
  627 863.673 212.472 147.108
  628 334.541 -11.3134 39.3484
  629 539.944 -20.3154 -148.162
  630 393.465 -1.71056 -1.93739
  631 393.547 -1.69605 1.92929
  632 484.106 4.58129 19.7233
  633 225.835 -3.20457 -35.3704
  634 226.952 -3.21374 35.1186
  635 498.726 -35.0059 13.2143
  636 521.743 -41.6149 -6.22766
  637 608.870 -1.53578 -4.15441
  638 357.737 -0.482768 3.13020
  639 357.595 -0.491979 -3.15734
  640 472.598 -10.5423 -3.47202
  641 472.588 -10.4907 3.45225
  642 535.978 -59.7470 75.6478
  643 618.220 68.9705 -50.3757
  644 417.288 -18.9212 -27.2914
  645 417.026 -18.6097 27.1136
  646 489.935 -34.8731 -17.2083
  647 764.031 165.415 8.27289
  648 574.828 -55.8250 4.39795
  649 502.695 -12.1245 -2.30004
  650 502.627 -12.0738 2.29761
  651 684.725 75.6375 34.6913
  652 576.752 -8.65599 -21.1066
  653 516.865 -0.508419 -18.2357
  654 243.780 -8.36064 -77.8374
  655 244.456 -8.57446 77.2514
  656 488.390 -41.7684 -26.3643
  657 727.707 158.615 -0.0472684
  658 569.322 76.9441 -16.9476
  659 384.536 -3.23540 -9.56792
  660 384.634 -3.19149 9.50278
  661 528.087 -15.1451 -0.785888
  662 528.187 -15.1523 0.886202
  663 964.695 125.533 55.5736
  664 616.234 -1.92104 1.02579
  665 598.820 -2.60664 7.30293
  666 596.823 -2.61340 -8.68693
  667 568.266 -53.0689 3.97704
  668 426.325 -4.72245 -2.50553
  669 426.374 -4.69184 2.49635
  670 610.381 97.3641 35.3801
  671 776.068 171.818 -14.3478
  672 431.970 -31.5236 -38.6532
  673 431.886 -31.2306 38.4835
  674 534.414 -54.9987 -15.0773
  675 566.510 33.7639 -51.8248
  676 664.245 2.13590 16.9149
  677 449.747 -8.14834 -5.21419
  678 449.770 -8.10174 5.19714
  679 389.008 -33.8434 -76.6051
  680 563.030 -54.5866 1.07848
  681 470.403 -52.1206 69.4315
  682 227.780 71.2451 -151.944
  683 441.392 -40.4918 53.5783
  684 532.768 0.156878 16.7445
  685 389.388 -33.4697 76.1320
  686 552.155 -24.6015 13.0384
  687 441.483 -40.3094 -54.0217
  688 459.103 6.28464 4.15687
  689 355.850 -9.14114 28.2242
  690 355.548 -9.14507 -28.3975
  691 470.565 -53.4657 -70.1762
  692 578.980 -38.3511 -31.4091
  693 531.946 -7.85411 -0.259736
  694 532.030 -7.92638 0.261446
  695 591.124 -37.9141 30.6839
  696 538.305 -56.2401 17.3112
  697 652.296 60.0204 46.9818
  698 590.118 -11.2348 52.2232
  699 567.896 -20.6436 31.1447
  700 547.236 45.1822 -32.7952
  701 652.618 109.408 37.3776
  702 564.496 -7.93641 -31.0781
  703 560.825 -18.9129 14.9626
  704 584.056 91.0766 9.12708
  705 571.280 -9.92481 26.6764
  706 182.785 125.153 159.675
  707 531.034 -61.1950 -45.3003
  708 614.705 11.0836 52.6434
  709 619.228 -19.2595 -35.4966
  710 614.059 -1.06819 2.19060
  711 567.093 -19.7938 -24.0726
  712 531.905 -61.6676 41.4989
  713 1007.73 89.4111 -14.8646
  714 328.359 -1.27880 10.7785
  715 327.995 -1.29211 -10.8684
  716 573.788 -10.8634 -10.6765
  717 617.453 -0.835773 -2.16635
  718 487.585 -42.4557 26.4935
  719 582.541 -21.8748 47.0692
  720 870.087 214.093 -74.6379
  721 552.210 -40.0984 12.5160
  722 609.639 -40.3446 -15.5394
  723 561.006 -18.4285 -14.7128
  724 616.626 -1.33883 -0.597200
  725 570.398 -0.105846 55.3721
  726 27.4409 29.7305 36.4156
  727 634.415 -23.3246 -99.2390
  728 692.824 42.2329 18.6617
  729 579.116 -59.3925 32.5353
  730 421.720 -9.74680 12.2852
  731 421.705 -9.87620 -12.3339
  732 527.240 284.989 -286.175
  733 591.305 -39.3417 -27.9743
  734 457.428 2.75410 -7.95448
  735 526.097 3.08312 36.1403
  736 571.710 -28.8148 37.2882
  737 547.969 -46.1795 4.13038
  738 566.470 -51.9324 -81.3446
  739 544.814 -43.1070 -5.31084
  740 639.025 -30.5137 -0.831924
  741 589.202 -5.27148 6.12978
  742 529.764 -31.7848 1.73000
  743 945.855 188.941 -102.342
  744 563.160 -15.4466 11.6721
  745 560.868 9.29225 -54.3412
  746 474.767 -5.02171 166.036
  747 599.218 48.1674 54.8497
  748 515.723 -40.4083 8.76535
  749 402.549 -31.2016 -56.2133
  750 402.619 -31.1282 55.7996
  751 551.671 62.1078 -7.60493
  752 558.494 -6.51921 48.1273
  753 563.593 -13.5312 -40.5486
  754 530.343 -32.4553 -1.87023
  755 513.249 -45.7689 16.5404
  756 588.366 96.6048 -10.2019
  757 547.319 -47.3798 -1.98282
  758 548.793 -34.8240 12.3900
  759 554.734 -7.60662 1.67773
  760 555.042 -7.41977 -1.65797
  761 745.523 162.395 0.556803
  762 607.914 -51.8890 -23.7306
  763 568.767 -17.7110 24.0569
  764 589.265 -5.27141 -5.51527
  765 598.946 3.90113 -55.0534
  766 677.603 36.4866 -28.2113
  767 345.867 -0.233310 -5.09432
  768 346.087 -0.228951 5.05001
  769 5.40028 -8.98042 -6.18362
  770 580.856 -0.812203 10.0484
  771 536.964 -0.697287 -39.7790
  772 552.875 -5.19794 34.6832
  773 496.544 64.9571 241.162
  774 628.685 128.172 -1.23094
  775 449.711 -31.6351 30.7265
  776 85.4694 1.65809 -31.1077
  777 87.5875 1.19927 31.4258
  778 548.449 -3.87276 -39.2997
  779 450.820 -31.9333 -30.7366
  780 585.875 -5.77706 4.49963
  781 309.583 -12.8558 52.5653
  782 307.074 -12.8049 -52.5523
  783 563.096 -15.0155 -11.3546
  784 369.031 -8.87104 -24.6450
  785 369.212 -8.81790 24.4528
  786 585.607 -5.88420 -14.3968
  787 453.728 -11.8266 -8.91174
  788 453.753 -11.7571 8.91651
  789 638.498 -3.92732 -35.1543
  790 578.194 -6.12452 -55.1947
  791 304.598 -1.81386 -13.6492
  792 305.131 -1.79673 13.5053
  793 19.0011 7.45596 -19.5681
  794 21.4745 7.87943 20.5397
  795 477.337 2.40854 -14.3053
  796 527.219 -59.2219 -34.6331
  797 -5.84169 -3.96176 10.2976
  798 -5.19958 -4.82861 -10.3430
  799 548.191 -11.3911 3.75953
  800 593.140 -46.5230 -13.5149
  801 615.994 90.9838 -41.1327
  802 588.165 -5.22797 -4.29425
  803 1220.32 250.720 -229.028
  804 548.074 -11.3626 -3.70456
  805 819.455 154.856 14.1972
  806 588.226 17.1155 -57.7212
  807 646.833 49.0592 -48.3645
  808 117.613 -1.35413 -28.4898
  809 119.476 -1.51219 28.4456
  810 375.635 -5.10777 14.7537
  811 375.498 -5.14757 -14.8670
  812 361.283 -0.731583 2.79202
  813 361.162 -0.739596 -2.81082
  814 655.739 110.174 -36.8708
  815 396.963 -2.24046 -4.20644
  816 397.043 -2.21559 4.18732
  817 560.161 -5.62934 -50.2996
  818 791.046 87.4467 77.5755
  819 509.058 11.7401 -31.3827
  820 183.596 -1.57116 30.2427
  821 182.241 -1.58627 -30.4593
  822 639.141 20.3523 174.884
  823 573.304 -10.9503 11.0173
  824 520.556 34.8921 -13.0559
  825 248.300 -0.308425 20.4446
  826 247.175 -0.197622 -20.5796
  827 367.633 -1.68019 -7.28854
  828 367.771 -1.65607 7.23136
  829 67.0497 59.1790 53.1596
  830 540.523 13.1082 46.3135
  831 599.131 87.7273 -35.6203
  832 641.447 74.5674 -48.7480
  833 428.060 -15.6876 -19.4399
  834 427.841 -15.5833 19.4277
  835 665.734 140.500 16.3474
  836 571.236 -5.29109 -0.486287
  837 571.282 -5.25318 0.576753
  838 568.142 -17.3007 -31.6487
  839 478.981 -31.5067 19.0033
  840 524.182 -58.8695 34.6898
  841 611.161 -50.0475 53.4533
  842 475.496 -13.6197 -5.87039
  843 475.501 -13.5779 5.84059
  844 544.433 50.6287 21.1257
  845 513.307 7.29941 -33.8209
  846 142.190 177.604 166.021
  847 514.776 -45.3829 -15.3042
  848 516.759 -23.0595 -1.29794
  849 517.029 -23.1220 1.26324
  850 568.320 -8.45403 52.5989
  851 561.892 -37.0736 -21.7238
  852 504.041 -33.0971 -9.32344
  853 1110.74 35.9355 -53.8628
  854 479.755 -44.9902 35.3055
  855 479.340 -45.5538 -35.8271
  856 567.168 -6.91792 26.3720
  857 842.945 219.908 -56.1236
  858 451.462 -40.4990 -43.0469
  859 496.119 -55.6439 41.9046
  860 451.393 -40.0298 42.6996
  861 488.523 -19.4633 -7.03454
  862 488.524 -19.4096 6.99567
  863 76.1020 31.1348 46.0189
  864 609.164 45.5139 -55.0946
  865 469.988 -18.0409 -10.0698
  866 470.081 -17.8702 10.1010
  867 464.858 -7.58823 -1.23954
  868 464.858 -7.54203 1.23306
  869 508.001 -10.2756 -0.892535
  870 507.944 -10.2163 0.886993
  871 418.747 -7.83662 -10.5664
  872 418.791 -7.75373 10.5306
  873 471.452 -24.3824 -14.7524
  874 471.522 -24.2337 14.8182
  875 12.2491 -0.749709 -7.79125
  876 702.611 132.001 24.7961
  877 605.094 -21.4051 -42.3271
  878 495.647 -54.8252 -42.2919
  879 534.395 -17.4232 2.81814
  880 534.172 -17.2588 -2.68730
  881 583.083 0.638311 56.4278
  882 627.862 -44.7154 -32.4409
  883 553.225 42.3593 -210.031
  884 260.586 -4.74910 105.201
  885 -6.49686 6.07261 -8.25535
  886 -5.33548 6.87026 8.99679
  887 75.7317 33.1027 -47.0313
  888 568.149 -16.6759 18.5537
  889 595.103 -4.28164 -7.71475
  890 536.263 -51.8897 92.3913
  891 259.996 -4.51622 -105.585
  892 597.560 -49.2098 7.70053
  893 659.975 -18.0306 82.6701
  894 493.241 2.07451 15.1348
  895 559.923 53.3183 35.7866
  896 307.817 -17.1585 76.8666
  897 306.678 -17.2944 -77.3283
  898 368.552 -17.0138 -43.2419
  899 381.525 -19.2683 -133.530
  900 599.493 -14.2167 48.5504
  901 815.390 194.776 38.2897
  902 602.994 23.1011 56.1866
  903 569.837 -12.3990 -29.0496
  904 389.237 -17.2570 136.809
  905 722.415 134.005 -15.7882
  906 75.4968 63.3235 -65.0639
  907 531.390 -0.986234 -15.9721
  908 368.929 -16.8812 42.8967
  909 446.375 -9.57308 7.77907
  910 446.351 -9.63167 -7.79190
  911 562.669 -36.8706 22.5496
  912 581.043 -4.23832 1.56930
  913 429.725 3.63664 -165.253
  914 611.103 -1.54343 3.63141
  915 607.361 -1.29339 -4.75498
  916 467.392 4.23833 -13.2088
  917 589.633 -2.48788 -8.85040
  918 447.205 -20.4308 -18.3618
  919 447.500 -20.1397 18.4240
  920 -13.5522 5.72829 -7.64184
  921 -19.2286 3.45964 8.30321
  922 581.004 -3.96856 -1.62958
  923 200.969 -4.68794 71.1124
  924 199.888 -4.29098 -71.4847
  925 625.461 90.9226 43.1568
  926 1085.71 19.7304 16.4662
  927 590.188 65.4916 46.3881
  928 659.551 -22.4993 28.1027
  929 578.308 -32.4039 37.2566
  930 718.421 150.177 -12.1253
  931 458.315 2.20446 9.97076
  932 555.897 -13.4833 -6.50959
  933 580.504 31.2626 -56.2378
  934 692.653 21.8779 -3.95116
  935 543.078 -33.5887 -9.08166
  936 288.387 -1.48079 -15.2247
  937 288.633 -1.42752 15.0238
  938 571.981 -13.7669 -22.1723
  939 20.8580 25.8516 7.36814
  940 549.250 -56.9821 -10.0344
  941 485.220 14.8232 -1.35916
  942 714.421 155.916 -8.01624
  943 116.963 86.6940 -105.598
  944 552.885 -4.13706 -31.0756
  945 390.275 -6.15201 -13.8927
  946 390.360 -6.08311 13.7920
  947 3.88461 -15.0309 11.2212
  948 379.811 -27.7804 -62.0320
  949 559.846 -32.5352 -21.2319
  950 360.534 0.784840 -1.17915
  951 360.637 0.787829 1.17269
  952 569.424 69.0426 -28.5163
  953 600.950 -2.21761 -0.725272
  954 600.992 -2.23762 0.974265
  955 380.003 -27.7158 61.6530
  956 568.036 -0.907327 -12.1535
  957 648.641 4.84288 33.3972
  958 576.255 -8.57917 8.36542
  959 97.6972 23.5701 -57.1253
  960 596.142 -3.98983 6.94445
  961 547.830 4.58721 49.3625
  962 577.585 79.7726 25.3441
  963 575.817 6.69272 -57.3640
  964 402.166 -20.9850 -37.5019
  965 617.434 -22.0958 34.0570
  966 402.433 -20.9154 37.1613
  967 20.0984 21.2524 -3.99207
  968 73.1869 11.6804 41.9662
  969 332.589 -5.56996 25.3794
  970 332.211 -5.56907 -25.5026
  971 556.295 -13.7142 6.93131
  972 602.163 104.126 13.8286
  973 308.035 27.5207 -157.198
  974 503.184 -31.1668 8.37057
  975 472.511 -49.1147 -51.8446
  976 684.533 130.774 27.2378
  977 528.034 -9.61522 -0.0324115
  978 528.009 -9.56921 0.0266474
  979 576.299 -11.0440 -15.5887
  980 539.638 46.8251 -19.4763
  981 1167.54 354.949 238.379
  982 118.305 6.11322 -54.2089
  983 119.930 5.06640 54.3068
  984 8.82455 -7.46995 4.71269
  985 540.755 30.2309 39.9804
  986 472.455 -49.4268 51.4953
  987 582.398 -27.6984 -43.0041
  988 633.113 51.7266 53.3965
  989 604.618 -48.8289 -64.3363
  990 879.710 184.699 64.2671
  991 518.991 -8.65766 -0.507195
  992 518.925 -8.59404 0.506635
  993 604.442 -24.8807 39.8674
  994 43.0415 78.7715 77.0541
  995 282.502 -5.66480 36.2080
  996 281.700 -5.59081 -36.5542
  997 333.747 -15.8448 49.7285
  998 332.658 -15.5904 -49.8863
  999 374.581 -14.9510 36.0092
  1000 409.514 -2.99770 -1.86410
  1001 409.582 -2.97692 1.85766
  1002 972.815 321.748 -208.288
  1003 894.883 224.852 96.8819
  1004 374.283 -15.0188 -36.2779
  1005 622.302 -2.98906 44.2023
  1006 562.491 58.3978 -34.3706
  1007 397.603 -34.5001 110.874
  1008 507.036 -59.9801 -61.6824
  1009 578.808 -4.95131 -17.5271
  1010 265.911 17.4050 128.560
  1011 340.903 -25.9498 88.5247
  1012 518.643 26.9483 -25.1597
  1013 585.998 -11.7448 -52.9631
  1014 720.261 317.118 324.020
  1015 492.119 15.4337 18.0170
  1016 659.840 140.806 -2.00531
  1017 480.750 19.5997 -187.355
  1018 493.749 -51.6486 -36.4263
  1019 617.654 -0.922879 -1.74584
  1020 600.654 55.1243 -53.3825
  1021 361.812 -2.11941 9.27971
  1022 361.642 -2.14046 -9.35511
  1023 13.7657 12.2507 -21.6837
  1024 402.823 -17.8439 -31.3553
  1025 340.474 -26.2785 -89.1369
  1026 402.557 -17.8140 31.0486
  1027 573.343 -17.6022 49.0150
  1028 515.308 -31.6915 -3.98432
  1029 543.741 10.1814 -47.9290
  1030 559.809 69.8612 10.0419
  1031 742.502 48.4940 35.3659
  1032 566.766 -43.2032 20.9443
  1033 364.761 -28.7229 -67.8675
  1034 539.707 19.3500 -45.0142
  1035 400.806 -34.0680 -111.386
  1036 761.381 163.632 -4.44123
  1037 526.147 34.8478 22.8893
  1038 652.984 -3.50003 -23.9756
  1039 496.774 -51.6936 33.8677
  1040 567.814 -18.2010 37.5191
  1041 563.474 -29.9247 25.6607
  1042 560.366 -28.3669 21.9260
  1043 688.839 88.2261 -35.9407
  1044 561.436 -9.16530 38.8017
  1045 506.339 -60.1456 60.7213
  1046 540.401 -22.2630 5.78729
  1047 364.996 -28.7876 67.5378
  1048 508.939 -37.2063 -10.0036
  1049 300.860 -14.7804 -94.6373
  1050 424.217 -43.8369 75.6656
  1051 570.743 -4.05056 -20.5442
  1052 557.549 -6.33089 -44.4188
  1053 483.857 -37.8475 -22.9540
  1054 301.358 -15.1751 93.9586
  1055 523.544 1.41988 -31.4010
  1056 391.717 -25.4097 -48.3171
  1057 697.260 147.397 16.5734
  1058 161.295 25.6266 -91.4734
  1059 1155.39 81.4656 109.352
  1060 284.051 20.2381 -134.318
  1061 559.992 -46.4857 -11.1563
  1062 391.841 -25.2055 47.9622
  1063 518.541 5.75515 35.2655
  1064 297.452 -5.76248 29.9968
  1065 297.328 -5.90243 -30.2776
  1066 568.285 -15.9310 -45.5497
  1067 598.609 -3.43868 2.58805
  1068 590.070 -1.48587 8.90250
  1069 586.375 19.3948 57.6932
  1070 550.413 -4.13257 41.8990
  1071 423.303 45.8330 202.343
  1072 621.204 -0.646116 0.778813
  1073 591.883 79.9460 36.8834
  1074 505.858 7.62220 30.4915
  1075 596.542 -2.44446 8.47874
  1076 394.165 -3.91636 -7.86789
  1077 394.245 -3.87312 7.82530
  1078 254.134 -6.97061 -50.1356
  1079 255.035 -7.22389 49.8359
  1080 507.549 25.7073 12.8329
  1081 743.764 43.4400 -62.5519
  1082 683.707 1.67188 -110.215
  1083 555.731 -0.553731 -12.7016
  1084 424.312 -44.1555 -76.2061
  1085 484.883 -36.0033 20.7894
  1086 558.667 -1.33067 13.2406
  1087 581.520 -42.4111 -25.0964
  1088 374.205 -0.697784 4.61812
  1089 374.100 -0.711259 -4.64251
  1090 558.949 -47.8157 11.1388
  1091 532.053 -11.1826 0.482572
  1092 531.963 -11.1967 -0.454214
  1093 518.168 -51.9979 22.9259
  1094 660.817 -20.8842 -13.7084
  1095 312.825 -0.503972 -8.51799
  1096 313.290 -0.486377 8.43755
  1097 454.372 -29.2184 -127.650
  1098 486.333 -11.5604 3.46428
  1099 486.370 -11.6158 -3.48715
  1100 292.132 160.691 222.431
  1101 666.718 55.2080 -41.7980
  1102 102.947 48.9340 -70.6560
  1103 576.492 -9.02388 -8.06550
  1104 159.376 53.3420 -105.032
  1105 328.880 -20.2701 -64.2584
  1106 620.960 -0.901118 0.548143
  1107 621.152 -0.859046 -0.391428
  1108 569.152 -32.6780 -31.5949
  1109 503.733 -56.7937 -83.5237
  1110 161.442 21.8193 87.1613
  1111 619.776 61.2612 51.3149
  1112 560.380 -6.16090 -0.617883
  1113 560.453 -6.16245 0.666022
  1114 608.264 -38.5578 101.702
  1115 636.113 126.423 19.4399
  1116 384.936 -8.84408 -19.7403
  1117 385.041 -8.80744 19.6196
  1118 289.339 32.4136 158.812
  1119 542.311 2.89988 -46.3023
  1120 173.427 54.8415 112.594
  1121 684.135 -10.5534 -39.0820
  1122 680.203 148.802 5.53697
  1123 470.579 -36.7396 27.2227
  1124 442.670 2.59600 -1.94692
  1125 590.608 -5.49543 10.5651
  1126 609.757 -0.960819 4.09039
  1127 143.851 0.194959 -25.3924
  1128 145.553 0.133171 25.2342
  1129 491.374 8.56860 -22.6508
  1130 500.689 -14.6994 -3.19565
  1131 500.589 -14.6418 3.18210
  1132 53.8505 94.1107 -82.2038
  1133 84.1828 196.276 -159.640
  1134 506.688 -19.7299 3.27468
  1135 506.863 -19.7155 -3.30905
  1136 522.522 -12.7779 0.338822
  1137 522.450 -12.7584 -0.302046
  1138 140.458 89.2515 113.909
  1139 418.945 -4.90536 -3.89527
  1140 419.003 -4.87285 3.88025
  1141 523.678 39.8827 -0.512653
  1142 647.919 88.9644 -232.758
  1143 632.771 108.651 -33.3798
  1144 576.374 -22.2795 -45.9616
  1145 567.525 -28.5028 -32.3898
  1146 470.786 -37.0682 -27.6504
  1147 479.391 1.70275 13.9799
  1148 534.408 33.5868 -33.4569
  1149 527.443 28.6516 32.0295
  1150 540.063 -21.6361 -5.65859
  1151 516.571 -31.0726 3.58052
  1152 471.756 -30.0206 -20.7863
  1153 559.494 -3.36667 24.6303
  1154 967.600 97.3850 13.4548
  1155 562.884 -12.0933 44.8012
  1156 566.287 37.2212 49.8205
  1157 520.537 -51.0281 -18.1018
  1158 69.6985 10.7045 -40.5344
  1159 530.281 -24.5951 -3.18999
  1160 363.017 -0.452363 -0.256442
  1161 363.114 -0.450246 0.254373
  1162 641.448 -16.9957 19.7449
  1163 611.038 -51.5574 27.4989
  1164 873.750 155.494 39.7071
  1165 221.083 -0.358065 -20.9813
  1166 222.251 -0.312288 20.8394
  1167 476.561 -9.57494 -2.66286
  1168 476.544 -9.52202 2.64749
  1169 531.720 -46.7916 -5.06456
  1170 446.353 2.18705 6.39056
  1171 544.227 -38.7671 8.20787
  1172 32.7144 38.8369 -20.8301
  1173 101.754 49.6645 69.0197
  1174 367.133 -20.4310 123.277
  1175 630.878 119.434 -23.8794
  1176 598.574 -1.77258 -6.71325
  1177 623.427 -1.11444 0.319251
  1178 623.954 -1.47112 -0.174848
  1179 376.274 -0.725817 -0.794539
  1180 376.368 -0.719669 0.789789
  1181 581.673 37.1598 56.2417
  1182 849.818 143.885 -3.08679
  1183 600.023 98.7453 -24.8160
  1184 447.390 -33.3156 126.854
  1185 365.202 -19.7029 -123.025
  1186 407.944 -26.7286 -43.5393
  1187 556.741 -15.8917 9.10051
  1188 772.772 171.351 13.0299
  1189 408.004 -26.5822 43.2318
  1190 567.944 -10.3568 6.88195
  1191 514.540 19.4456 30.6253
  1192 563.025 17.5356 54.2850
  1193 793.278 176.790 23.7049
  1194 477.375 -12.3327 4.90739
  1195 477.390 -12.3840 -4.93487
  1196 575.669 -11.1877 16.2170
  1197 351.527 -3.51929 14.4521
  1198 351.289 -3.55352 -14.5674
  1199 562.751 -8.10761 -2.78007
  1200 234.064 140.702 -216.003
  1201 487.493 -27.6973 -135.911
  1202 464.983 -14.3134 -8.54682
  1203 465.037 -14.2565 8.55053
  1204 600.739 -3.19677 2.41766
  1205 570.976 -7.93590 5.46841
  1206 32.9600 42.8027 32.2663
  1207 617.749 -0.836114 2.06077
  1208 76.4270 99.0456 98.1979
  1209 558.361 -8.77906 -3.63852
  1210 -0.458175 -13.3628 -11.7637
  1211 398.837 -38.9853 -95.6274
  1212 397.823 -38.0543 94.7151
  1213 617.718 -1.21660 -2.30588
  1214 533.521 -28.1770 -4.03963
  1215 600.421 -2.95726 -2.41395
  1216 487.165 -15.6402 -5.12707
  1217 487.128 -15.5927 5.08437
  1218 562.404 -8.05818 2.58464
  1219 529.910 -24.1044 3.15730
  1220 510.816 -16.4869 1.64831
  1221 510.983 -16.5215 -1.59459
  1222 599.814 -3.04388 -1.95144
  1223 520.367 -55.0710 -93.9129
  1224 587.770 -4.09623 -1.92588
  1225 560.621 -9.00537 3.99066
  1226 400.160 -4.08898 -5.91258
  1227 400.235 -4.05055 5.88396
  1228 443.553 -6.32771 -3.20698
  1229 443.582 -6.28851 3.19407
  1230 706.256 110.812 28.9804
  1231 594.407 -45.9353 17.1174
  1232 409.711 -2.22545 156.295
  1233 338.209 -0.470149 5.55654
  1234 337.938 -0.475662 -5.60534
  1235 565.791 -10.5948 33.4173
  1236 540.510 -8.56228 0.440308
  1237 540.525 -8.53709 -0.440174
  1238 621.312 120.112 11.2435
  1239 564.333 -59.2771 75.6382
  1240 337.455 -4.50984 20.1329
  1241 337.142 -4.54117 -20.2634
  1242 539.952 -13.4600 2.65498
  1243 539.831 -13.5572 -2.54373
  1244 556.430 -15.7152 -8.72426
  1245 517.704 0.148497 16.2314
  1246 875.542 217.994 -76.4687
  1247 567.339 -20.9926 -28.7075
  1248 101.966 23.2965 58.6266
  1249 585.584 -31.4164 39.6014
  1250 479.170 10.8547 -12.4082
  1251 38.8996 27.1745 22.5374
  1252 763.464 88.3005 -15.1586
  1253 572.573 -26.2012 -40.6281
  1254 481.289 7.15648 19.0288
  1255 331.091 -20.3129 64.1914
  1256 580.543 -45.1356 21.9144
  1257 832.618 165.564 60.1641
  1258 200.020 28.6849 110.465
  1259 582.698 -7.29931 -14.0280
  1260 1093.98 12.4162 -10.8071
  1261 1128.34 16.7975 47.8276
  1262 1201.69 40.0746 -114.247
  1263 567.150 -17.9025 -36.4267
  1264 566.620 -26.0682 30.2597
  1265 575.141 -41.1262 27.1434
  1266 -16.7861 2.12960 10.4916
  1267 -15.2127 1.76277 -11.4948
  1268 558.916 -61.9797 -37.4646
  1269 571.637 -58.0248 -54.3725
  1270 449.285 3.02540 -7.87422
  1271 556.372 -63.0415 54.0183
  1272 595.308 -28.4159 -40.0396
  1273 13.4714 18.5518 3.68244
  1274 487.682 -8.94232 1.64989
  1275 487.712 -8.99940 -1.65419
  1276 589.997 -5.09682 9.39442
  1277 567.867 -10.1838 -6.41989
  1278 536.200 -58.5112 -21.3518
  1279 492.344 -26.3754 9.96517
  1280 489.966 -25.9915 -10.6025
  1281 574.253 -12.4295 22.8359
  1282 588.738 -21.7941 -47.0306
  1283 40.3215 28.3306 -22.0548
</Section>

newXOutput 79

<Section columns = "stress_xx | stress_yy | stress_xy">
  1 634.345 -0.293289 1.14512
  2 634.338 -0.279580 -1.14761
  3 362.383 -0.0692591 -0.412074
  4 -4.51852 -4.45244 -6.50060
  5 1107.96 463.077 362.115
  6 1098.00 478.921 -359.225
  7 -5.25375 -4.21525 6.93868
  8 362.285 -0.0704169 0.411144
  9 638.440 -1.13456 0.321697
  10 637.294 -1.76318 -0.379201
  11 636.175 -1.24525 1.25215
  12 635.020 -1.65354 0.234492
  13 632.499 -1.41720 1.96736
  14 630.175 -1.41863 1.36410
  15 624.429 -1.24728 2.86025
  16 615.929 -0.968626 4.24348
  17 608.419 -0.974749 4.78999
  18 597.029 -1.26213 5.86174
  19 580.939 -0.188998 8.75969
  20 566.083 -0.925415 8.40727
  21 548.808 -1.14308 11.9510
  22 523.896 0.796648 10.4776
  23 505.585 1.28880 12.4559
  24 481.668 2.11954 9.80904
  25 464.998 2.35203 9.91963
  26 440.867 3.17637 5.07585
  27 435.724 4.98169 5.46479
  28 432.603 4.15150 -1.62320
  29 436.803 2.52139 -3.52788
  30 444.565 2.36679 -4.33706
  31 462.658 2.92219 -8.63472
  32 480.240 2.31191 -10.8626
  33 505.792 0.600061 -12.8423
  34 526.190 -0.227027 -11.5992
  35 547.731 -0.901547 -11.3067
  36 567.127 -0.730814 -7.92938
  37 583.597 -0.794177 -6.71815
  38 597.025 -1.24320 -5.57783
  39 608.917 -0.926146 -3.80239
  40 616.168 -1.13793 -3.99641
  41 623.184 -1.33379 -2.90307
  42 629.675 -1.55634 -1.16974
  43 632.954 -1.27207 -1.44712
  44 634.517 -0.846757 -0.860453
  45 632.895 -0.566685 -0.788919
  46 637.857 -1.75579 0.278331
  47 638.597 -1.17267 -0.331143
  48 619.496 -0.795772 -0.710172
  49 606.772 -2.99953 -1.34843
  50 591.064 -4.30876 -0.780036
  51 571.803 -6.16415 -1.09621
  52 553.403 -6.67148 -1.31095
  53 533.663 -8.11559 -1.26518
  54 516.098 -8.88922 -0.625496
  55 500.686 -9.75558 -0.136775
  56 482.866 -8.04392 -0.112362
  57 462.317 -7.41990 -0.328328
  58 442.541 -5.76572 0.00829120
  59 423.837 -3.58419 0.0644193
  60 406.103 -2.48792 0.125382
  61 390.615 -1.18975 0.240471
  62 374.868 -0.253336 -0.463196
  63 362.511 0.523483 0.690926
  64 356.877 1.33619 0.502382
  65 360.403 0.0503364 1.12246
  66 355.859 -0.130259 1.37078
  67 351.509 -0.217428 1.70345
  68 345.681 0.0193275 2.18335
  69 338.347 0.0153797 2.72412
  70 332.674 -0.344948 5.13902
  71 317.423 0.459708 5.58965
  72 306.526 0.000570495 6.33734
  73 290.309 -0.239130 7.20677
  74 271.700 -0.424560 8.75304
  75 248.408 -0.0708478 10.6308
  76 220.020 0.152120 11.7633
  77 195.130 -0.193675 16.8361
  78 146.603 1.52196 15.9809
  79 113.093 1.30896 16.9413
  80 72.5207 -0.361591 18.9252
  81 38.4094 2.99824 19.8633
  82 -0.639469 4.57511 12.2867
  83 -29.5490 4.67060 4.79265
  84 -29.9643 4.60894 -0.979997
  85 -29.7615 3.87631 -8.75722
  86 -17.6343 -1.07358 -8.50026
  87 -2.04283 -16.9257 -9.42638
  88 1.86059 -30.9116 -11.5703
  89 4.88456 -47.6400 -5.77992
  90 10.6759 -46.4033 1.99397
  91 22.3302 -3.28173 31.2501
  92 65.2173 113.608 100.947
  93 368.184 369.192 326.402
  94 1345.85 203.439 222.394
  95 1218.34 28.9499 71.7082
  96 1137.59 12.1817 21.9452
  97 1107.87 10.4388 1.63816
  98 1123.94 13.7713 -19.1439
  99 1216.31 27.1839 -56.8333
  100 1419.91 98.1207 -189.902
  101 220.159 380.813 -274.511
  102 48.7734 87.0025 -84.4914
  103 24.4672 -0.825085 -33.6380
  104 10.0276 -45.9385 -7.00280
  105 3.03532 -35.8458 6.55022
  106 3.66910 -39.0652 9.96010
  107 0.242356 -14.5458 10.4524
  108 -18.4306 -0.622542 8.02554
  109 -30.6973 2.91132 7.59936
  110 -31.5896 5.58807 1.13945
  111 -30.4665 4.58218 -4.49899
  112 -2.81849 4.68822 -11.5540
  113 36.5219 3.02333 -18.9633
  114 70.6012 -0.0366807 -18.6169
  115 111.101 1.41382 -16.9710
  116 144.795 1.55997 -16.0941
  117 193.729 -0.200612 -16.9667
  118 218.824 0.166991 -11.8688
  119 247.361 -0.0676251 -10.7560
  120 271.172 -0.474243 -8.81054
  121 289.580 -0.224323 -7.22134
  122 305.969 0.0199366 -6.39760
  123 316.964 0.454689 -5.64510
  124 332.339 -0.348670 -5.18591
  125 338.074 0.0129581 -2.75272
  126 345.468 0.0169908 -2.20678
  127 351.341 -0.221326 -1.72193
  128 355.725 -0.133603 -1.38362
  129 360.287 0.0475337 -1.13058
  130 356.772 1.33497 -0.506096
  131 362.412 0.522837 -0.693283
  132 374.772 -0.256472 0.462095
  133 390.526 -1.19764 -0.243279
  134 406.025 -2.50514 -0.128642
  135 423.778 -3.60806 -0.0675347
  136 442.504 -5.80021 -0.0114331
  137 462.306 -7.46379 0.325808
  138 482.882 -8.09502 0.109619
  139 500.725 -9.81350 0.135404
  140 516.154 -8.94727 0.627319
  141 533.745 -8.16843 1.27117
  142 553.477 -6.70750 1.33247
  143 571.864 -6.19642 1.20104
  144 591.174 -4.09904 0.796938
  145 607.187 -2.93035 1.31806
  146 619.616 -0.892656 0.698694
  147 559.706 -52.6322 0.424579
  148 559.206 -51.9151 -0.229601
  149 591.024 84.6741 -26.7501
  150 626.038 36.8489 55.4880
  151 474.710 -46.0397 -107.280
  152 478.638 -45.9474 103.964
  153 465.512 -19.3642 14.0163
  154 465.537 -19.6218 -14.0208
  155 661.144 24.1255 -40.0238
  156 558.262 -20.3460 9.72181
  157 558.019 -19.8745 -9.60803
  158 721.311 159.487 5.36361
  159 573.629 -0.894586 -55.3228
  160 427.922 -33.1047 -48.4319
  161 427.967 -32.8422 48.0443
  162 574.019 -13.1034 49.4564
  163 548.925 40.2628 33.5168
  164 229.354 35.8382 -128.235
  165 253.434 34.0342 134.980
  166 694.822 8.94179 -1.28594
  167 574.382 -22.2410 -33.3959
  168 757.033 166.197 2.30190
  169 518.855 -14.7379 -1.37666
  170 518.754 -14.7016 1.41514
  171 578.651 -7.49131 -4.15685
  172 580.311 -6.78945 3.56016
  173 414.167 -5.62017 -7.96867
  174 414.228 -5.56474 7.93458
  175 617.002 -15.0005 136.542
  176 532.319 22.3912 -36.1674
  177 350.304 -25.9629 -76.6224
  178 351.325 -25.7786 76.1702
  179 394.565 -12.4568 -25.3656
  180 394.612 -12.3200 25.2006
  181 576.941 -15.4050 28.4273
  182 525.710 -35.9274 -4.19641
  183 523.959 -35.6608 4.96889
  184 593.877 -57.7185 -14.9072
  185 597.096 -54.9901 7.60248
  186 817.452 192.976 -33.9431
  187 602.276 96.2604 24.9234
  188 601.525 36.9491 -56.6027
  189 614.166 -3.52267 -157.741
  190 594.866 -33.8064 -37.5475
  191 600.086 -24.2111 45.0160
  192 501.867 -56.8905 54.1057
  193 501.910 -56.4715 -53.9630
  194 540.383 7.05905 43.2692
  195 251.399 -6.46826 -94.0785
  196 251.965 -6.96345 93.5472
  197 917.032 136.593 20.1673
  198 564.081 -33.7424 19.2914
  199 583.972 -11.0698 -18.1518
  200 468.456 -11.2504 -6.62675
  201 468.473 -11.2003 6.60998
  202 563.806 -7.38527 -38.3098
  203 640.251 93.8057 -44.3646
  204 540.665 48.7860 -6.69636
  205 356.598 -12.1653 35.2561
  206 356.082 -12.1976 -35.4903
  207 591.353 -6.98628 9.55007
  208 580.215 10.9359 56.9957
  209 473.640 -34.0008 -24.6465
  210 470.680 -32.1803 25.0863
  211 680.245 101.049 38.8344
  212 791.825 112.877 26.8349
  213 57.6263 43.9268 -38.3520
  214 53.4001 40.6017 32.7374
  215 330.797 95.9092 222.793
  216 558.548 -37.1985 -13.9088
  217 593.249 -6.70236 -8.61069
  218 534.702 4.90707 -39.8788
  219 381.031 -3.51469 -11.3055
  220 381.157 -3.47622 11.2195
  221 505.012 -23.5154 -6.66050
  222 505.251 -23.6727 6.38130
  223 568.159 -7.74514 32.4363
  224 647.509 -37.2878 20.4308
  225 649.745 131.767 -12.6210
  226 509.579 -48.9379 -27.0603
  227 639.893 -11.1822 32.8984
  228 547.383 -9.56704 1.11593
  229 547.381 -9.49549 -1.11498
  230 506.054 -48.7120 27.9326
  231 577.578 -36.8366 30.1338
  232 800.071 108.918 -59.8947
  233 183.524 109.130 -163.937
  234 497.460 17.8640 8.72266
  235 583.226 51.3975 48.1636
  236 617.437 -4.41933 -48.8848
  237 578.333 -20.9633 -45.7699
  238 316.661 -9.83165 -43.8772
  239 317.688 -9.68859 43.7651
  240 578.904 -7.20357 -24.7370
  241 551.324 -14.2679 4.64173
  242 551.070 -14.2578 -4.44385
  243 122.008 10.5560 -61.1595
  244 123.749 9.24430 60.9340
  245 610.376 -53.5648 -52.2166
  246 603.265 -2.60976 1.12852
  247 603.829 -2.65455 -1.28478
  248 570.369 47.3688 -44.2718
  249 506.493 10.0965 26.3010
  250 1022.72 163.713 110.337
  251 1013.54 115.418 -68.5084
  252 747.792 159.793 0.666699
  253 467.513 -22.8479 141.828
  254 430.068 -15.2097 -148.099
  255 495.660 -10.1821 -2.64970
  256 495.621 -10.1244 2.63448
  257 416.238 -10.7176 15.8799
  258 416.222 -10.8590 -16.0019
  259 591.419 -6.71551 14.8081
  260 575.159 -41.1164 -23.9800
  261 383.743 -0.561580 -2.70240
  262 383.839 -0.550770 2.68843
  263 568.018 -23.2607 -19.3932
  264 249.387 -7.98636 -61.1071
  265 250.369 -8.01025 60.7059
  266 575.552 -25.1490 36.0471
  267 441.858 -46.9014 86.4079
  268 442.883 -47.7360 -86.1372
  269 504.173 19.7104 -12.2449
  270 435.267 -6.39863 -5.39212
  271 435.312 -6.35887 5.37476
  272 543.764 -1.25591 31.7548
  273 645.972 117.602 30.5845
  274 355.271 -4.05692 18.8518
  275 355.012 -4.08886 -18.9943
  276 589.705 -49.4883 14.9232
  277 545.864 -61.4918 -59.9578
  278 605.856 -3.34903 4.29669
  279 429.534 -24.8557 -33.3671
  280 428.861 -24.5890 33.2588
  281 735.330 85.2796 198.656
  282 359.172 -29.1269 102.482
  283 576.297 80.7437 -2.82748
  284 718.331 80.9616 -21.6578
  285 546.028 -42.1911 3.24844
  286 546.440 -63.1465 54.4272
  287 360.165 -28.6759 -103.552
  288 68.5870 84.9043 78.6608
  289 568.117 -23.3294 19.7694
  290 739.150 98.4593 14.8868
  291 610.184 -2.99685 -3.72779
  292 560.708 19.7989 -50.9882
  293 550.129 -31.1917 9.13413
  294 538.959 -45.3954 4.96777
  295 558.928 25.7982 49.2124
  296 587.010 -49.4758 -12.9026
  297 826.970 159.526 -15.7105
  298 549.986 -29.9954 -8.70725
  299 448.731 133.562 -270.343
  300 561.160 -59.5920 -15.2086
  301 557.309 -61.2352 21.4907
  302 414.581 -37.1202 -67.7474
  303 380.163 -1.27574 -5.82815
  304 380.276 -1.25320 5.78906
  305 414.791 -37.1605 67.4105
  306 595.104 -1.04754 -56.5483
  307 638.404 -26.4549 -19.8258
  308 491.758 -29.2548 -14.0704
  309 491.491 -29.3247 14.3071
  310 580.665 -49.9972 94.0012
  311 583.378 -4.88187 18.7066
  312 701.087 5.21782 38.4524
  313 482.652 -16.7966 -7.95726
  314 482.693 -16.7498 7.92176
  315 442.330 -11.1521 -10.7704
  316 442.344 -11.0544 10.7590
  317 501.652 7.01288 -25.4209
  318 633.415 46.4954 -53.5393
  319 964.268 262.177 -128.305
  320 575.137 -5.59423 -1.30987
  321 574.846 -5.52416 1.35636
  322 313.713 -1.25943 127.933
  323 439.576 -19.4206 -22.5126
  324 438.816 -19.3688 22.5746
  325 313.649 -2.02582 -127.441
  326 606.236 71.4196 -46.4422
  327 672.729 33.7649 37.4418
  328 580.291 -41.3656 -103.896
  329 538.209 -20.9095 3.07057
  330 537.691 -20.7722 -2.85357
  331 572.293 -12.3045 -8.91674
  332 544.089 -0.958616 -29.6769
  333 605.502 2.46008 54.9992
  334 601.129 -4.54648 -10.1097
  335 370.379 -21.9290 51.4941
  336 369.975 -22.0421 -51.8515
  337 565.816 -1.22287 52.6865
  338 357.953 -2.68231 -11.2750
  339 358.175 -2.65793 11.1850
  340 576.741 -13.6497 14.6809
  341 692.732 140.817 -20.8460
  342 572.072 -12.3820 9.28737
  343 612.764 76.6996 46.4731
  344 585.493 -11.0118 53.8463
  345 468.029 -8.61509 2.53900
  346 468.025 -8.66225 -2.55228
  347 556.548 -1.91318 -46.8316
  348 730.284 153.066 11.0054
  349 612.131 111.487 0.958523
  350 374.004 43.1957 -188.895
  351 42.3885 17.1032 -27.7929
  352 46.0762 18.5316 29.7218
  353 -0.885287 4.90573 10.3640
  354 1.21721 3.11195 -10.9118
  355 1043.78 72.5243 24.4180
  356 506.654 -40.7984 -16.9104
  357 577.110 -13.2168 -14.3083
  358 523.288 -9.46189 0.156549
  359 523.230 -9.39402 -0.161110
  360 562.986 62.2201 -24.0079
  361 479.136 -48.4462 44.5964
  362 44.0560 66.1563 -49.9664
  363 479.509 -48.4147 -45.3281
  364 569.967 64.8266 25.5355
  365 576.824 -15.6746 -26.9742
  366 610.289 -34.2719 -30.7987
  367 654.073 136.877 8.64459
  368 611.403 -38.4419 24.4106
  369 263.438 -6.27993 40.8284
  370 261.997 -6.15597 -41.0568
  371 151.353 3.37444 -57.4802
  372 152.762 2.81653 57.2375
  373 508.933 2.00493 25.6436
  374 935.632 278.076 114.640
  375 594.860 -4.06492 -13.1686
  376 467.919 -38.9721 -34.3951
  377 467.596 -38.8946 34.3532
  378 574.219 -13.4545 -34.8553
  379 648.569 -31.3148 -1.60234
  380 506.636 -40.7709 17.3457
  381 707.481 7.19041 -65.2059
  382 414.095 -3.07920 -2.21451
  383 414.165 -3.05443 2.20259
  384 566.186 -3.39606 -22.5921
  385 314.315 -4.27615 -26.5518
  386 314.485 -4.42009 26.2527
  387 672.270 86.1538 -43.7244
  388 365.844 25.5679 175.932
  389 528.979 -27.7142 -0.196279
  390 529.483 -27.6730 0.177708
  391 622.439 104.780 -29.1219
  392 587.371 -17.5542 -50.6526
  393 585.546 -60.0691 53.5687
  394 494.001 -13.0535 -4.23354
  395 493.954 -13.0001 4.20270
  396 566.088 -43.7775 14.8320
  397 606.305 -3.19413 7.44215
  398 388.353 -13.6194 -31.5457
  399 388.511 -13.6276 31.3069
  400 577.647 19.4763 -56.3274
  401 543.157 -12.1421 1.60510
  402 543.127 -12.1753 -1.54340
  403 563.999 -6.73007 42.7038
  404 530.102 38.9571 11.6687
  405 582.474 -24.8077 43.7298
  406 834.700 173.671 34.1182
  407 288.373 -15.4295 -82.0946
  408 289.131 -15.4288 81.5208
  409 130.114 68.4774 -100.533
  410 617.795 -2.20967 1.87861
  411 327.773 -2.53118 -16.8379
  412 328.174 -2.47771 16.7090
  413 574.559 -15.2042 34.0081
  414 521.570 -56.4625 31.0904
  415 585.403 -7.79405 6.27411
  416 600.413 30.4416 58.2574
  417 135.928 72.9124 104.425
  418 522.298 -56.1160 -28.8708
  419 539.340 -50.0228 -8.80717
  420 184.683 -3.67054 -51.7776
  421 185.909 -3.79665 51.4482
  422 415.908 -33.7713 -123.557
  423 617.347 -9.39361 47.5033
  424 414.515 -34.2174 122.541
  425 571.374 -32.2754 -27.1003
  426 536.903 36.5600 -25.4197
  427 571.410 -24.9602 25.9705
  428 610.307 -3.12299 -4.84215
  429 20.0925 22.3986 11.5268
  430 127.557 150.179 147.226
  431 553.637 -2.00878 21.9576
  432 472.238 6.84194 11.2157
  433 479.653 8.24710 -15.1675
  434 409.279 -6.37177 -11.2110
  435 409.333 -6.29365 11.1498
  436 563.311 -43.7389 -13.2895
  437 570.912 -11.2964 -47.5804
  438 474.501 9.33665 -4.11661
  439 833.641 199.329 47.1093
  440 121.537 38.9648 -75.6030
  441 133.454 35.7372 80.4493
  442 528.488 -18.9293 0.310804
  443 528.301 -18.8975 -0.183149
  444 703.096 153.648 -1.50305
  445 430.945 189.066 276.311
  446 670.939 -8.78543 -2.67294
  447 395.543 -20.0622 -42.7873
  448 395.739 -19.9351 42.4628
  449 399.651 -8.47904 17.2051
  450 399.566 -8.53638 -17.3396
  451 533.499 12.1626 -41.1578
  452 620.619 -1.23108 -1.20511
  453 520.111 24.2763 23.2539
  454 648.070 79.9285 48.7379
  455 540.589 -40.0691 -1.51223
  456 585.115 -7.45458 -6.11497
  457 612.616 -2.86462 4.45496
  458 618.753 -1.33307 0.684039
  459 619.177 -1.46116 -0.471842
  460 356.728 -0.523282 4.22981
  461 356.549 -0.531705 -4.26732
  462 589.715 -37.7251 32.7819
  463 538.407 21.5392 39.8771
  464 560.209 2.36479 -51.5343
  465 580.703 -12.6351 19.6808
  466 819.118 149.044 -170.606
  467 582.819 -32.5578 -37.5576
  468 8.13008 11.4454 6.11139
  469 7.97535 11.7290 -3.21810
  470 466.423 -25.9130 20.0240
  471 464.961 -25.5434 -19.7478
  472 714.013 16.8711 94.4476
  473 202.825 191.571 -212.158
  474 576.389 -1.90844 16.8023
  475 645.864 -37.1920 -55.8803
  476 354.915 -19.9448 59.4274
  477 697.118 123.835 -30.0913
  478 574.543 -31.3272 31.1549
  479 486.131 -22.8842 -10.8437
  480 486.550 -22.5190 10.8236
  481 508.819 2.86457 -22.6168
  482 353.851 -19.8553 -59.7477
  483 520.560 0.411563 22.6540
  484 493.032 -56.5317 -78.0405
  485 491.834 -56.6174 78.3880
  486 591.894 -4.18196 14.5823
  487 544.806 51.5842 4.81460
  488 542.019 10.8152 190.776
  489 800.480 161.277 -1.00252
  490 555.392 -9.82303 2.34996
  491 555.413 -9.79041 -2.47322
  492 434.875 -7.37627 -7.34832
  493 434.915 -7.31974 7.32690
  494 231.551 9.92059 108.259
  495 577.322 -28.0310 -37.0563
  496 524.870 -11.6398 -0.586230
  497 524.818 -11.6061 0.593277
  498 458.884 -48.3018 63.7885
  499 235.850 13.2125 -110.922
  500 577.264 -47.2380 -15.3463
  501 10.9921 4.27995 2.68876
  502 513.001 26.9432 1.73120
  503 557.125 -6.97052 -0.726412
  504 557.121 -7.05415 0.699952
  505 459.081 -48.2018 -64.2547
  506 646.362 -32.5805 69.5885
  507 645.094 23.4816 48.8789
  508 593.439 -4.57086 -2.88919
  509 575.516 -47.8826 15.6547
  510 373.262 -0.232258 -0.804167
  511 373.361 -0.229335 0.799022
  512 575.890 -22.3093 -40.0462
  513 561.635 41.6672 43.3939
  514 637.429 15.8153 -48.3724
  515 370.977 -0.461965 -2.39189
  516 371.087 -0.454831 2.37827
  517 1086.97 157.256 -139.543
  518 583.524 69.3429 37.9857
  519 593.890 -4.27404 2.55199
  520 540.473 -51.1428 10.1307
  521 459.428 -14.8218 11.2891
  522 459.411 -14.9258 -11.2662
  523 625.277 -38.3064 10.6472
  524 603.573 -12.2514 -50.7338
  525 675.604 132.316 26.2835
  526 564.953 9.82795 53.4950
  527 565.360 -11.3435 5.24830
  528 548.585 -58.8840 -76.0317
  529 572.200 -14.3578 39.9233
  530 1072.52 49.4977 -19.4620
  531 620.423 -46.9649 4.77960
  532 589.774 -4.47290 -0.573034
  533 589.919 -4.71917 0.463052
  534 1083.71 72.6510 67.7822
  535 551.713 -0.0735801 45.5096
  536 760.354 130.340 -4.13915
  537 575.739 -16.0408 -18.8629
  538 272.008 -2.38784 -18.1311
  539 272.759 -2.27118 17.9610
  540 394.927 -36.8307 -85.9703
  541 395.282 -36.2183 85.3712
  542 565.040 -10.9053 -5.22059
  543 616.228 22.5945 -56.0438
  544 542.132 -36.8574 3.60873
  545 585.957 67.1155 -39.3142
  546 585.993 -7.15907 19.5989
  547 727.040 38.7137 -16.2976
  548 504.760 -17.2185 -4.27619
  549 504.626 -17.1716 4.24089
  550 545.766 -25.8719 6.34875
  551 795.094 160.736 -20.7576
  552 577.210 25.2995 55.5014
  553 249.145 63.7976 159.306
  554 551.247 -32.9485 129.218
  555 719.644 39.6199 -143.469
  556 589.926 48.7999 -51.4420
  557 519.238 -45.2156 -112.330
  558 562.999 -61.8937 -26.0303
  559 586.465 -59.6864 -36.3690
  560 79.7653 106.001 -100.180
  561 589.920 -7.95017 -11.4747
  562 880.601 170.699 -52.5726
  563 548.533 -24.8771 -7.47561
  564 552.650 -18.2714 6.20777
  565 552.152 -17.8775 -5.89248
  566 391.744 -2.00592 -5.34356
  567 391.837 -1.98022 5.31437
  568 60.6027 5.59786 -32.3118
  569 63.4757 5.88398 33.0227
  570 292.435 -13.2595 -62.4596
  571 294.527 -13.3371 62.4022
  572 560.339 -30.5528 -16.0852
  573 569.271 -62.1545 27.8846
  574 585.053 -55.8018 -1.51025
  575 485.255 -8.55186 -2.14524
  576 485.234 -8.49822 2.13576
  577 458.053 -48.2629 -96.0232
  578 509.669 -42.1196 118.578
  579 447.455 -45.4280 96.4933
  580 577.656 -12.9417 -50.9870
  581 371.324 -5.80659 19.0767
  582 371.145 -5.86443 -19.2141
  583 554.259 30.8770 -43.6653
  584 553.952 -0.984784 -19.9212
  585 687.973 147.977 -11.4560
  586 455.235 -6.67964 -1.99250
  587 455.256 -6.64026 1.98468
  588 586.537 -1.84606 -10.9805
  589 412.893 -13.4167 -21.5056
  590 412.922 -13.3774 21.3413
  591 334.234 14.7438 151.780
  592 570.886 -26.5049 -26.2063
  593 323.854 -17.4807 109.275
  594 561.067 -29.2570 16.5412
  595 588.596 -8.76176 12.7578
  596 580.515 -5.88152 -2.47419
  597 418.413 -4.86850 -5.09272
  598 418.475 -4.83136 5.07170
  599 660.453 130.983 -24.0187
  600 323.612 -16.8766 -109.637
  601 559.149 -24.4564 -12.9403
  602 507.060 -9.53889 -1.23723
  603 507.012 -9.47681 1.23277
  604 932.190 124.880 -22.5548
  605 346.170 -2.04456 10.4460
  606 345.888 -2.06372 -10.5318
  607 527.714 12.3937 37.6294
  608 737.236 64.2944 -0.247501
  609 355.531 1.74588 -150.500
  610 187.394 4.18097 -83.0277
  611 188.828 3.18922 82.5958
  612 447.781 -25.5655 27.0748
  613 452.164 -26.3205 -26.4134
  614 749.125 151.598 6.55629
  615 578.316 -6.07518 2.17492
  616 506.766 14.6809 -22.8163
  617 624.164 111.484 23.0521
  618 622.176 115.641 -15.3472
  619 511.213 -28.1359 -6.73166
  620 514.916 -27.5353 4.95154
  621 364.759 80.4116 -214.933
  622 443.722 -14.7271 -15.2972
  623 443.770 -14.5680 15.2563
  624 1082.92 222.199 167.525
  625 576.436 -19.0667 43.5055
  626 338.114 -11.5021 -39.9740
  627 873.566 215.272 149.180
  628 338.857 -11.4450 39.8465
  629 546.367 -20.5472 -150.058
  630 398.518 -1.72496 -1.96414
  631 398.602 -1.71034 1.95597
  632 490.233 4.64682 19.9281
  633 228.870 -3.24229 -35.8158
  634 229.998 -3.25160 35.5616
  635 504.836 -35.4243 13.4533
  636 528.096 -42.1156 -6.40108
  637 616.107 -1.56035 -4.18325
  638 362.417 -0.485995 3.17351
  639 362.273 -0.495292 -3.20088
  640 478.449 -10.6683 -3.53699
  641 478.440 -10.6163 3.51701
  642 542.427 -60.4748 76.6757
  643 625.731 69.8083 -50.8349
  644 422.534 -19.1405 -27.6582
  645 422.270 -18.8257 27.4786
  646 495.950 -35.2880 -17.4904
  647 773.179 167.369 8.48000
  648 581.747 -56.5031 4.59538
  649 508.855 -12.2748 -2.36010
  650 508.787 -12.2238 2.35754
  651 692.914 76.5670 34.8956
  652 583.718 -8.77061 -21.2846
  653 523.310 -0.510841 -18.4191
  654 246.958 -8.47067 -78.8340
  655 247.641 -8.68667 78.2420
  656 494.377 -42.2674 -26.7624
  657 736.484 160.476 -0.0587132
  658 576.340 77.8889 -17.1142
  659 389.478 -3.26799 -9.69713
  660 389.578 -3.22367 9.63144
  661 534.509 -15.3352 -0.745318
  662 534.609 -15.3422 0.846473
  663 975.856 126.973 56.2181
  664 623.503 -1.95123 1.02974
  665 605.980 -2.64508 7.35879
  666 603.970 -2.65074 -8.75758
  667 575.119 -53.7140 3.88367
  668 431.707 -4.77371 -2.54191
  669 431.758 -4.74286 2.53266
  670 617.838 98.5402 35.7073
  671 785.335 173.852 -14.6449
  672 437.350 -31.8962 -39.1728
  673 437.266 -31.6003 39.0016
  674 540.894 -55.6632 -15.3744
  675 573.461 34.1821 -52.3368
  676 672.150 2.17598 16.9151
  677 455.365 -8.24217 -5.29627
  678 455.388 -8.19523 5.27907
  679 393.867 -34.2570 -77.5870
  680 569.824 -55.2493 1.22834
  681 476.153 -52.7564 70.3554
  682 230.646 72.1210 -153.911
  683 446.851 -40.9789 54.2913
  684 539.366 0.159199 16.9099
  685 394.253 -33.8790 77.1091
  686 558.841 -24.9058 13.0995
  687 446.942 -40.7939 -54.7392
  688 464.980 6.37462 4.20056
  689 360.432 -9.24458 28.5853
  690 360.127 -9.24837 -28.7601
  691 476.314 -54.1177 -71.1092
  692 585.975 -38.8205 -31.6362
  693 538.402 -7.96056 -0.251418
  694 538.487 -8.03354 0.253109
  695 598.247 -38.3784 30.8912
  696 544.825 -56.9208 17.6381
  697 660.143 60.7507 47.3549
  698 597.265 -11.3754 52.6933
  699 574.777 -20.9016 31.4051
  700 554.004 45.7477 -33.1254
  701 660.524 110.724 37.6811
  702 571.368 -8.03686 -31.3651
  703 567.602 -19.1510 15.0542
  704 591.239 92.1860 9.21561
  705 578.203 -10.0522 26.9109
  706 185.082 126.755 161.753
  707 537.451 -61.9383 -45.9616
  708 622.127 11.2162 53.1029
  709 626.664 -19.4927 -35.7442
  710 621.323 -1.08833 2.20231
  711 573.951 -20.0426 -24.2597
  712 538.335 -62.4163 42.1140
  713 1019.28 90.4420 -15.0325
  714 332.668 -1.29139 10.9158
  715 332.301 -1.30482 -11.0065
  716 580.686 -11.0071 -10.7421
  717 624.750 -0.852049 -2.17902
  718 493.566 -42.9634 26.8933
  719 589.595 -22.1452 47.4820
  720 880.187 216.773 -75.8121
  721 558.900 -40.5861 12.5456
  722 616.947 -40.8339 -15.5556
  723 567.785 -18.6612 -14.8025
  724 623.896 -1.36260 -0.597088
  725 577.357 -0.107993 55.9035
  726 27.8099 30.2614 36.9610
  727 641.886 -23.5656 -100.591
  728 701.058 42.7728 18.6641
  729 586.057 -60.1113 33.0707
  730 427.039 -9.85667 12.4600
  731 427.025 -9.98732 -12.5091
  732 533.186 288.741 -289.668
  733 598.428 -39.8223 -28.1503
  734 463.288 2.80033 -8.03839
  735 532.629 3.12688 36.5047
  736 578.636 -29.1700 37.5974
  737 554.607 -46.7390 4.05849
  738 573.233 -52.5613 -82.4516
  739 551.420 -43.6296 -5.25834
  740 646.636 -30.8733 -0.659006
  741 596.242 -5.34815 6.16392
  742 536.208 -32.1696 1.65954
  743 956.871 191.140 -103.577
  744 569.955 -15.6444 11.7370
  745 567.744 9.41035 -54.8754
  746 480.464 -5.07246 168.144
  747 606.515 48.7530 55.3691
  748 522.012 -40.8942 8.96555
  749 407.587 -31.5751 -56.9403
  750 407.659 -31.5012 56.5225
  751 558.498 62.8796 -7.68042
  752 565.325 -6.60033 48.5892
  753 570.458 -13.6995 -40.9228
  754 536.794 -32.8488 -1.80058
  755 519.506 -46.3190 16.8366
  756 595.597 97.7782 -10.2977
  757 553.949 -47.9542 -1.88520
  758 555.445 -35.2486 12.4277
  759 561.419 -7.71255 1.67411
  760 561.729 -7.52363 -1.65404
  761 754.477 164.308 0.470941
  762 615.167 -52.5135 -24.1765
  763 575.644 -17.9343 24.2467
  764 596.302 -5.34850 -5.54378
  765 606.201 3.94725 -55.5532
  766 685.683 36.9504 -28.3379
  767 350.401 -0.233234 -5.16090
  768 350.624 -0.228837 5.11621
  769 5.48337 -9.04700 -6.22365
  770 587.885 -0.826123 10.1382
  771 543.596 -0.700249 -40.1742
  772 559.650 -5.26226 35.0163
  773 502.390 65.8287 244.153
  774 636.370 129.706 -1.24244
  775 455.290 -32.0090 31.1559
  776 86.7361 1.67537 -31.5223
  777 88.8755 1.21110 31.8442
  778 555.185 -3.91920 -39.6823
  779 456.410 -32.3102 -31.1666
  780 592.874 -5.86088 4.51926
  781 313.585 -13.0101 53.2296
  782 311.049 -12.9583 -53.2153
  783 569.889 -15.2082 -11.4172
  784 373.766 -8.97022 -24.9626
  785 373.949 -8.91666 24.7686
  786 592.647 -5.96597 -14.5122
  787 459.381 -11.9635 -9.05041
  788 459.407 -11.8935 9.05529
  789 646.145 -3.96904 -35.3860
  790 585.227 -6.20032 -55.7131
  791 308.621 -1.83345 -13.8205
  792 309.160 -1.81613 13.6751
  793 19.3707 7.54910 -19.8497
  794 21.8702 7.97824 20.8340
  795 483.398 2.44282 -14.4531
  796 533.606 -59.9391 -35.1626
  797 -5.90560 -4.00260 10.4171
  798 -5.25889 -4.88324 -10.4664
  799 554.816 -11.5406 3.75827
  800 600.269 -47.0891 -13.5177
  801 623.503 92.0852 -41.5085
  802 595.185 -5.30475 -4.31364
  803 1233.83 253.640 -231.555
  804 554.698 -11.5119 -3.70307
  805 829.190 156.657 14.4093
  806 595.383 17.3248 -58.2682
  807 654.617 49.6596 -48.7574
  808 119.306 -1.37264 -28.8620
  809 121.188 -1.53252 28.8174
  810 380.468 -5.16317 14.9480
  811 380.329 -5.20331 -15.0623
  812 366.008 -0.737273 2.82963
  813 365.885 -0.745361 -2.84858
  814 663.678 111.503 -37.1643
  815 402.047 -2.26135 -4.26545
  816 402.128 -2.23628 4.24619
  817 567.011 -5.69747 -50.7843
  818 800.214 88.6591 78.7577
  819 515.428 11.8986 -31.7055
  820 186.118 -1.59029 30.6291
  821 184.750 -1.60560 -30.8478
  822 646.590 20.6828 177.106
  823 580.199 -11.0951 11.0849
  824 527.052 35.3388 -13.1896
  825 251.633 -0.309757 20.7004
  826 250.497 -0.197607 -20.8367
  827 372.403 -1.69565 -7.38615
  828 372.543 -1.67131 7.32849
  829 67.9553 59.9633 53.9263
  830 547.202 13.2776 46.7798
  831 606.464 88.7929 -35.9571
  832 649.203 75.4742 -49.1656
  833 433.433 -15.8681 -19.7102
  834 433.213 -15.7631 19.6983
  835 673.822 142.172 16.4644
  836 578.079 -5.37052 -0.485640
  837 578.125 -5.33209 0.577021
  838 575.029 -17.5186 -31.9209
  839 484.881 -31.8811 19.3003
  840 530.539 -59.5825 35.2171
  841 618.428 -50.6413 54.2517
  842 481.375 -13.7816 -5.97788
  843 481.380 -13.7395 5.94776
  844 551.179 51.2621 21.3403
  845 519.717 7.39963 -34.1666
  846 143.947 180.087 168.172
  847 521.049 -45.9279 -15.5862
  848 523.065 -23.3394 -1.38293
  849 523.337 -23.4030 1.34762
  850 575.249 -8.55913 53.0971
  851 568.694 -37.5270 -21.8557
  852 510.209 -33.4929 -9.51521
  853 1123.23 36.3393 -54.4362
  854 485.644 -45.5292 35.8104
  855 485.223 -46.0990 -36.3382
  856 574.066 -7.00641 26.6136
  857 852.882 222.568 -57.0024
  858 457.042 -40.9826 -43.6327
  859 502.173 -56.3159 42.5037
  860 456.973 -40.5084 43.2816
  861 494.534 -19.6957 -7.17031
  862 494.535 -19.6417 7.13095
  863 77.1508 31.5282 46.6776
  864 616.561 46.0683 -55.6033
  865 475.805 -18.2538 -10.2372
  866 475.900 -18.0815 10.2687
  867 470.632 -7.67823 -1.26065
  868 470.632 -7.63167 1.25410
  869 514.215 -10.4058 -0.926006
  870 514.158 -10.3461 0.920337
  871 424.041 -7.92344 -10.7151
  872 424.086 -7.83979 10.6789
  873 477.278 -24.6696 -14.9859
  874 477.349 -24.5198 15.0528
  875 12.4262 -0.657821 -7.95765
  876 711.051 133.595 24.9085
  877 612.383 -21.6676 -42.6642
  878 501.693 -55.4870 -42.8950
  879 540.884 -17.6407 2.79015
  880 540.659 -17.4747 -2.65823
  881 590.174 0.644277 56.9589
  882 635.323 -45.2436 -33.0021
  883 559.725 42.9500 -212.659
  884 263.913 -4.82518 106.560
  885 -6.48531 6.15014 -8.39380
  886 -5.31259 6.95844 9.14390
  887 76.7793 33.5206 -47.7058
  888 575.008 -16.8879 18.6879
  889 602.211 -4.34473 -7.76760
  890 542.697 -52.5218 93.6193
  891 263.317 -4.59058 -106.948
  892 604.729 -49.8089 7.63152
  893 667.737 -18.1978 83.8327
  894 499.461 2.10322 15.2904
  895 566.825 53.9785 36.1443
  896 311.754 -17.3718 77.8437
  897 310.602 -17.5093 -78.3098
  898 373.243 -17.2132 -43.7947
  899 386.219 -19.5231 -135.237
  900 606.734 -14.3933 48.9684
  901 825.002 197.170 38.9927
  902 610.308 23.3803 56.7056
  903 576.746 -12.5569 -29.3050
  904 394.017 -17.4850 138.557
  905 731.057 135.637 -15.7739
  906 76.5141 64.1510 -65.9891
  907 537.974 -0.996049 -16.1298
  908 373.625 -17.0792 43.4463
  909 451.955 -9.68351 7.89812
  910 451.930 -9.74256 -7.91103
  911 569.479 -37.3213 22.6904
  912 587.984 -4.30511 1.57100
  913 434.924 3.67125 -167.345
  914 618.360 -1.56773 3.65570
  915 614.596 -1.31445 -4.79052
  916 473.353 4.29815 -13.3468
  917 596.732 -2.52059 -8.92784
  918 452.778 -20.6691 -18.6287
  919 453.076 -20.3751 18.6920
  920 -13.6868 5.80773 -7.71271
  921 -19.4369 3.50776 8.38728
  922 587.944 -4.03193 -1.63276
  923 203.629 -4.75392 72.0345
  924 202.538 -4.35270 -72.4107
  925 633.067 92.0204 43.5427
  926 1097.95 19.9565 16.6355
  927 597.408 66.2897 46.8349
  928 667.361 -22.7425 28.6275
  929 585.304 -32.8020 37.5553
  930 727.061 151.974 -12.1187
  931 464.187 2.24048 10.0753
  932 562.607 -13.6584 -6.52752
  933 587.595 31.6472 -56.7831
  934 700.860 22.1817 -3.78069
  935 549.668 -33.9977 -9.08557
  936 292.214 -1.49634 -15.4142
  937 292.461 -1.44248 15.2112
  938 578.890 -13.9436 -22.3495
  939 21.1640 26.2139 7.52923
  940 555.890 -57.6724 -10.2821
  941 491.358 15.0255 -1.37332
  942 723.039 157.766 -8.01062
  943 118.492 87.8194 -107.033
  944 559.660 -4.18839 -31.3741
  945 395.267 -6.21866 -14.0787
  946 395.353 -6.14913 13.9771
  947 3.94930 -15.1935 11.3356
  948 384.592 -28.1141 -62.8251
  949 566.624 -32.9346 -21.3661
  950 365.264 0.795469 -1.19563
  951 365.368 0.798477 1.18912
  952 576.435 69.8920 -28.7970
  953 608.074 -2.25700 -0.729821
  954 608.116 -2.27710 0.981153
  955 384.787 -28.0490 62.4424
  956 574.952 -0.922324 -12.2666
  957 656.399 4.90764 33.6009
  958 583.172 -8.69591 8.41189
  959 99.0394 23.8583 -57.9147
  960 603.257 -4.04909 6.99051
  961 554.573 4.64944 49.8531
  962 584.689 80.7478 25.5928
  963 582.839 6.77582 -57.9155
  964 407.234 -21.2306 -37.9922
  965 624.847 -22.3667 34.2880
  966 407.505 -21.1606 37.6482
  967 20.3991 21.5527 -4.10776
  968 74.2343 11.8216 42.5493
  969 336.909 -5.63219 25.7005
  970 336.528 -5.63112 -25.8247
  971 563.010 -13.8916 6.95307
  972 609.547 105.385 13.9582
  973 311.857 27.8414 -159.210
  974 509.345 -31.5400 8.54782
  975 478.302 -49.7074 -52.5519
  976 692.795 132.342 27.4115
  977 534.451 -9.74051 -0.0553819
  978 534.426 -9.69409 0.0494863
  979 583.237 -11.1890 -15.7031
  980 546.333 47.4141 -19.6739
  981 1180.51 359.146 241.157
  982 119.948 6.18222 -54.9327
  983 121.588 5.12315 55.0312
  984 8.94803 -7.46826 4.82780
  985 547.448 30.6140 40.3860
  986 478.247 -50.0237 52.1987
  987 589.445 -28.0388 -43.3681
  988 640.758 52.3530 53.8611
  989 611.805 -49.4090 -65.2618
  990 890.058 186.862 65.1056
  991 525.316 -8.77055 -0.520963
  992 525.250 -8.70634 0.520367
  993 611.720 -25.1866 40.1762
  994 43.5957 80.0032 78.1248
  995 286.220 -5.73059 36.6625
  996 285.410 -5.65569 -37.0118
  997 338.033 -16.0324 50.3593
  998 336.932 -15.7745 -50.5183
  999 379.351 -15.1251 36.4739
  1000 414.728 -3.02740 -1.88916
  1001 414.797 -3.00646 1.88267
  1002 983.810 325.734 -210.944
  1003 905.383 227.511 98.1523
  1004 379.050 -15.1934 -36.7450
  1005 629.787 -3.02717 44.5516
  1006 569.423 59.1195 -34.7116
  1007 402.508 -34.9355 112.296
  1008 513.184 -60.7102 -62.5293
  1009 585.806 -5.01747 -17.6819
  1010 269.270 17.5988 130.223
  1011 345.199 -26.2740 89.6573
  1012 525.115 27.2963 -25.4185
  1013 593.104 -11.8906 -53.4445
  1014 728.243 321.321 327.899
  1015 498.325 15.6401 18.2054
  1016 667.875 142.480 -2.02096
  1017 486.485 19.8563 -189.714
  1018 499.782 -52.2697 -36.9545
  1019 624.944 -0.941647 -1.75530
  1020 607.971 55.7961 -53.8868
  1021 366.512 -2.13994 9.40147
  1022 366.340 -2.16117 -9.47752
  1023 13.9597 12.5649 -22.0410
  1024 407.909 -18.0512 -31.7676
  1025 344.765 -26.6066 -90.2756
  1026 407.641 -18.0212 31.4580
  1027 580.310 -17.8203 49.4619
  1028 521.598 -32.0730 -4.11517
  1029 550.448 10.3132 -48.4086
  1030 566.724 70.7232 10.1417
  1031 751.197 49.1734 36.0315
  1032 573.618 -43.7300 21.0567
  1033 369.362 -29.0711 -68.7352
  1034 546.381 19.5977 -45.4691
  1035 405.744 -34.4987 -112.812
  1036 770.514 165.549 -4.53468
  1037 532.698 35.2917 23.1248
  1038 660.775 -3.52969 -24.0663
  1039 502.842 -52.3160 34.3681
  1040 574.708 -18.4283 37.8502
  1041 570.296 -30.2926 25.8463
  1042 567.150 -28.7162 22.0748
  1043 697.087 89.3076 -36.1626
  1044 568.284 -9.28056 39.1660
  1045 512.482 -60.8776 61.5562
  1046 546.956 -22.5383 5.77899
  1047 369.600 -29.1368 68.4027
  1048 515.156 -37.6512 -10.2110
  1049 304.684 -14.9734 -95.8473
  1050 429.463 -44.3726 76.6486
  1051 577.674 -4.10542 -20.7315
  1052 564.367 -6.40938 -44.8451
  1053 489.801 -38.2985 -23.3057
  1054 305.188 -15.3722 95.1619
  1055 530.050 1.44223 -31.7173
  1056 396.651 -25.7109 -48.9421
  1057 705.684 149.148 16.6587
  1058 163.418 25.9309 -92.6894
  1059 1168.31 82.3717 110.519
  1060 287.619 20.4636 -136.047
  1061 566.764 -47.0509 -11.1570
  1062 396.777 -25.5047 48.5838
  1063 525.002 5.83533 35.6251
  1064 301.356 -5.82949 30.3739
  1065 301.231 -5.97099 -30.6574
  1066 575.198 -16.1283 -45.9689
  1067 605.724 -3.49272 2.59715
  1068 597.174 -1.50883 8.97914
  1069 593.515 19.6301 58.2431
  1070 557.168 -4.18283 42.3063
  1071 428.394 46.4073 204.882
  1072 628.524 -0.659024 0.780832
  1073 599.135 80.9188 37.2372
  1074 512.197 7.72702 30.8056
  1075 603.695 -2.47922 8.54953
  1076 399.211 -3.95621 -7.97586
  1077 399.293 -3.91258 7.93293
  1078 257.486 -7.05497 -50.7696
  1079 258.397 -7.31140 50.4673
  1080 513.912 26.0423 12.9661
  1081 752.438 44.0574 -63.5226
  1082 691.690 1.76808 -111.706
  1083 562.539 -0.562444 -12.8227
  1084 429.557 -44.6948 -77.1952
  1085 490.840 -36.4325 21.1149
  1086 565.503 -1.34859 13.3663
  1087 588.536 -42.9294 -25.2451
  1088 379.060 -0.701669 4.67940
  1089 378.953 -0.715263 -4.70398
  1090 565.709 -48.3969 11.1390
  1091 538.512 -11.3273 0.456105
  1092 538.421 -11.3416 -0.427584
  1093 524.471 -52.6244 23.3054
  1094 668.646 -21.1158 -14.0662
  1095 316.958 -0.508938 -8.62527
  1096 317.427 -0.491169 8.54411
  1097 459.883 -29.5884 -129.286
  1098 492.326 -11.7007 3.53430
  1099 492.363 -11.7565 -3.55747
  1100 295.663 162.752 225.223
  1101 674.710 55.8885 -42.0978
  1102 104.326 49.5531 -71.6398
  1103 583.409 -9.14585 -8.10970
  1104 161.452 53.9963 -106.432
  1105 333.083 -20.5155 -65.0745
  1106 628.265 -0.918655 0.551900
  1107 628.458 -0.876090 -0.393693
  1108 576.043 -33.0795 -31.8384
  1109 509.823 -57.4889 -84.6363
  1110 163.568 22.0785 88.3199
  1111 627.297 62.0039 51.7799
  1112 567.117 -6.25049 -0.617891
  1113 567.192 -6.25197 0.666462
  1114 615.457 -38.9944 103.070
  1115 643.872 127.936 19.6060
  1116 389.856 -8.94298 -20.0006
  1117 389.963 -8.90609 19.8790
  1118 292.945 32.7968 160.848
  1119 548.997 2.94050 -46.7632
  1120 175.667 55.5178 114.084
  1121 692.194 -10.6397 -39.7481
  1122 688.461 150.561 5.57277
  1123 476.380 -37.1763 27.6206
  1124 448.384 2.63732 -1.96744
  1125 597.686 -5.57121 10.6441
  1126 617.013 -0.978373 4.12007
  1127 145.892 0.195838 -25.7184
  1128 147.610 0.133404 25.5585
  1129 497.570 8.68823 -22.8861
  1130 506.828 -14.8783 -3.27607
  1131 506.727 -14.8204 3.26226
  1132 54.5459 95.6149 -83.3514
  1133 85.2252 199.142 -161.725
  1134 512.889 -19.9689 3.37123
  1135 513.065 -19.9539 -3.40621
  1136 528.885 -12.9389 0.303698
  1137 528.813 -12.9194 -0.266697
  1138 142.272 90.3909 115.436
  1139 424.251 -4.95817 -3.95181
  1140 424.310 -4.92540 3.93667
  1141 530.207 40.3903 -0.517371
  1142 655.392 90.2220 -235.651
  1143 640.475 109.961 -33.6675
  1144 583.364 -22.5541 -46.3688
  1145 574.401 -28.8544 -32.6506
  1146 476.587 -37.5083 -28.0539
  1147 485.475 1.72880 14.1251
  1148 541.040 34.0131 -33.7976
  1149 534.003 29.0179 32.3578
  1150 546.614 -21.9043 -5.64955
  1151 522.874 -31.4473 3.70583
  1152 477.579 -30.3754 -21.0994
  1153 566.329 -3.41033 24.8627
  1154 978.777 98.5020 13.6047
  1155 569.749 -12.2436 45.2214
  1156 573.240 37.6807 50.3133
  1157 526.868 -51.6422 -18.4251
  1158 70.7074 10.8329 -41.0994
  1159 536.730 -24.8960 -3.14964
  1160 367.776 -0.454472 -0.260656
  1161 367.874 -0.452337 0.258572
  1162 649.105 -17.1965 19.7917
  1163 618.325 -52.1755 27.9923
  1164 884.041 157.296 40.2162
  1165 224.089 -0.359707 -21.2450
  1166 225.268 -0.313374 21.1018
  1167 482.454 -9.69018 -2.71205
  1168 482.437 -9.63684 2.69650
  1169 538.180 -47.3560 -5.23386
  1170 452.105 2.22080 6.45840
  1171 550.828 -39.2378 8.19365
  1172 33.1742 39.3814 -21.1820
  1173 103.114 50.2946 69.9785
  1174 371.680 -20.7000 124.853
  1175 638.577 120.868 -24.0869
  1176 605.746 -1.79755 -6.76988
  1177 630.756 -1.13122 0.319697
  1178 631.287 -1.49189 -0.173977
  1179 381.159 -0.729513 -0.806159
  1180 381.254 -0.723317 0.801376
  1181 588.780 37.6142 56.7880
  1182 859.859 145.543 -3.12344
  1183 607.377 99.9413 -25.0490
  1184 452.830 -33.7351 128.480
  1185 369.726 -19.9644 -124.597
  1186 413.062 -27.0441 -44.1091
  1187 563.465 -16.0944 9.13874
  1188 781.969 173.430 13.3884
  1189 413.123 -26.8964 43.7987
  1190 574.775 -10.4955 6.91082
  1191 520.968 19.6999 30.9411
  1192 569.929 17.7547 54.8206
  1193 802.725 178.886 24.1331
  1194 483.275 -12.4800 4.99653
  1195 483.290 -12.5317 -5.02432
  1196 582.602 -11.3351 16.3369
  1197 356.093 -3.55671 14.6392
  1198 355.853 -3.59126 -14.7556
  1199 569.518 -8.21964 -2.78056
  1200 236.951 142.482 -218.744
  1201 493.358 -28.0382 -137.656
  1202 470.752 -14.4813 -8.68730
  1203 470.807 -14.4241 8.69109
  1204 607.869 -3.24678 2.42922
  1205 577.831 -8.04619 5.49011
  1206 33.4131 43.4359 32.7685
  1207 625.057 -0.850724 2.07282
  1208 77.4262 100.414 99.5511
  1209 565.087 -8.89897 -3.64184
  1210 -0.455586 -13.5128 -11.8977
  1211 403.772 -39.4702 -96.8556
  1212 402.748 -38.5281 95.9329
  1213 625.025 -1.23522 -2.32038
  1214 540.005 -28.5202 -4.00132
  1215 607.551 -3.00477 -2.42306
  1216 493.164 -15.8279 -5.23187
  1217 493.127 -15.7801 5.18866
  1218 569.168 -8.16977 2.58393
  1219 536.355 -24.3990 3.11741
  1220 517.060 -16.6896 1.71838
  1221 517.228 -16.7242 -1.66426
  1222 606.933 -3.09263 -1.95804
  1223 526.628 -55.7438 -95.1556
  1224 594.776 -4.16037 -1.92962
  1225 567.371 -9.12779 3.99765
  1226 405.272 -4.13079 -5.99626
  1227 405.348 -4.09203 5.96742
  1228 449.109 -6.39967 -3.25786
  1229 449.139 -6.36017 3.24483
  1230 714.705 112.163 29.1173
  1231 601.550 -46.4956 17.1626
  1232 414.699 -2.26316 158.283
  1233 342.653 -0.472858 5.62870
  1234 342.379 -0.478422 -5.67792
  1235 572.672 -10.7286 33.7227
  1236 547.052 -8.67792 0.426960
  1237 547.067 -8.65251 -0.426839
  1238 628.911 121.554 11.3441
  1239 571.084 -59.9930 76.6785
  1240 341.846 -4.55947 20.3889
  1241 341.531 -4.59105 -20.5205
  1242 546.495 -13.6321 2.63786
  1243 546.372 -13.7307 -2.52567
  1244 563.150 -15.9162 -8.75917
  1245 524.161 0.151841 16.3941
  1246 885.843 220.575 -77.4981
  1247 574.211 -21.2547 -28.9420
  1248 103.358 23.5823 59.4331
  1249 592.659 -31.8025 39.9200
  1250 485.247 11.0052 -12.5376
  1251 39.4686 27.5268 22.8904
  1252 772.427 89.4493 -15.5992
  1253 579.513 -26.5240 -40.9762
  1254 487.387 7.25771 19.2282
  1255 335.320 -20.5592 65.0081
  1256 587.543 -45.6863 22.0267
  1257 842.326 167.713 61.1849
  1258 202.597 29.0259 111.918
  1259 589.701 -7.39965 -14.1341
  1260 1106.29 12.5626 -10.9222
  1261 1140.97 16.9802 48.3244
  1262 1215.04 40.4918 -115.453
  1263 574.036 -18.1265 -36.7478
  1264 573.482 -26.3908 30.5009
  1265 582.088 -41.6292 27.3220
  1266 -16.9843 2.16197 10.6098
  1267 -15.3899 1.79155 -11.6271
  1268 565.638 -62.7326 -38.0475
  1269 578.480 -58.7275 -55.1656
  1270 455.066 3.06991 -7.95726
  1271 563.056 -63.8055 54.7982
  1272 602.489 -28.7641 -40.3562
  1273 13.6950 18.8032 3.78427
  1274 493.689 -9.05269 1.67408
  1275 493.720 -9.11026 -1.67845
  1276 597.061 -5.17034 9.46004
  1277 574.695 -10.3205 -6.44501
  1278 542.693 -59.2189 -21.7272
  1279 498.392 -26.6897 10.1504
  1280 495.988 -26.3007 -10.7930
  1281 581.192 -12.5896 23.0248
  1282 595.859 -22.0626 -47.4373
  1283 40.9098 28.6979 -22.4073
</Section>

newXOutput 80

<Section columns = "stress_xx | stress_yy | stress_xy">
  1 641.685 -0.301937 1.15550
  2 641.678 -0.287958 -1.15798
  3 367.092 -0.0681743 -0.415713
  4 -4.57518 -4.50762 -6.58229
  5 1119.71 468.745 366.217
  6 1109.65 484.750 -363.213
  7 -5.31987 -4.26686 7.02676
  8 366.993 -0.0693407 0.414781
  9 645.817 -1.15006 0.323686
  10 644.663 -1.78632 -0.385518
  11 643.541 -1.26378 1.26120
  12 642.383 -1.67632 0.232089
  13 639.851 -1.43752 1.98139
  14 637.517 -1.43856 1.37132
  15 631.734 -1.26461 2.88188
  16 623.171 -0.985280 4.27654
  17 615.607 -0.989976 4.82953
  18 604.128 -1.27886 5.91242
  19 587.900 -0.194512 8.83843
  20 572.919 -0.937473 8.48544
  21 555.485 -1.15608 12.0655
  22 530.347 0.805286 10.5803
  23 511.861 1.30570 12.5802
  24 487.713 2.14568 9.90891
  25 470.879 2.38527 10.0216
  26 446.511 3.21756 5.12853
  27 441.316 5.04565 5.52233
  28 438.162 4.20706 -1.64062
  29 442.404 2.55893 -3.56434
  30 450.245 2.39943 -4.38222
  31 468.516 2.96041 -8.72398
  32 486.272 2.34228 -10.9729
  33 512.068 0.610829 -12.9716
  34 532.659 -0.227916 -11.7130
  35 554.398 -0.911554 -11.4148
  36 573.969 -0.740644 -8.00357
  37 590.582 -0.805764 -6.77903
  38 604.121 -1.25995 -5.62648
  39 616.108 -0.939782 -3.83285
  40 623.411 -1.15575 -4.02715
  41 630.478 -1.35273 -2.92481
  42 637.011 -1.57768 -1.17517
  43 640.310 -1.29007 -1.45639
  44 641.877 -0.860625 -0.864525
  45 640.233 -0.578653 -0.792787
  46 645.230 -1.77818 0.283591
  47 645.974 -1.18843 -0.333168
  48 626.706 -0.814748 -0.716638
  49 613.867 -3.04734 -1.36274
  50 598.015 -4.37477 -0.785473
  51 578.572 -6.25263 -1.10474
  52 559.994 -6.76511 -1.31963
  53 540.061 -8.22283 -1.27417
  54 522.322 -9.00267 -0.627554
  55 506.755 -9.87447 -0.133865
  56 488.756 -8.14029 -0.108678
  57 468.002 -7.50578 -0.327829
  58 448.028 -5.82957 0.0124624
  59 429.138 -3.62086 0.0681557
  60 411.229 -2.51120 0.129186
  61 395.590 -1.19799 0.244880
  62 379.694 -0.252682 -0.467000
  63 367.220 0.530774 0.700081
  64 361.530 1.35094 0.510065
  65 365.081 0.0521434 1.13795
  66 360.484 -0.130035 1.39019
  67 356.078 -0.218106 1.72741
  68 350.179 0.0212419 2.21302
  69 342.755 0.0166565 2.76039
  70 337.006 -0.346455 5.20428
  71 321.576 0.465578 5.66000
  72 310.546 0.00159914 6.41526
  73 294.132 -0.240610 7.29595
  74 275.300 -0.427979 8.86080
  75 251.725 -0.0704639 10.7618
  76 222.994 0.154660 11.9097
  77 197.791 -0.193976 17.0466
  78 148.675 1.53971 16.1839
  79 114.742 1.32414 17.1571
  80 73.6455 -0.368142 19.1710
  81 39.0791 3.03258 20.1277
  82 -0.497818 4.63064 12.4624
  83 -29.8152 4.72803 4.87542
  84 -30.2787 4.66917 -0.968270
  85 -30.1152 3.92850 -8.85449
  86 -17.8483 -1.08245 -8.60094
  87 -2.06364 -17.1311 -9.53964
  88 1.88976 -31.2774 -11.7020
  89 4.95234 -48.1647 -5.82432
  90 10.8184 -46.8384 2.06559
  91 22.6192 -3.04275 31.7106
  92 66.0144 115.426 102.274
  93 372.222 374.059 330.187
  94 1360.27 205.700 224.677
  95 1231.60 29.2657 72.4217
  96 1150.13 12.3209 22.1637
  97 1120.15 10.5614 1.65233
  98 1136.38 13.9288 -19.3398
  99 1229.57 27.4889 -57.4025
  100 1434.92 99.2129 -191.797
  101 222.623 385.937 -277.742
  102 49.3675 88.5913 -85.6320
  103 24.7869 -0.554033 -34.1552
  104 10.1629 -46.3507 -7.14830
  105 3.08319 -36.2259 6.59700
  106 3.72196 -39.5312 10.0708
  107 0.248082 -14.7193 10.5785
  108 -18.6551 -0.624857 8.11926
  109 -31.0618 2.95058 7.68228
  110 -31.9224 5.66061 1.12903
  111 -30.7397 4.63797 -4.57849
  112 -2.69847 4.74511 -11.7207
  113 37.1742 3.05792 -19.2166
  114 71.7085 -0.0392832 -18.8588
  115 112.732 1.43016 -17.1869
  116 146.850 1.57809 -16.2982
  117 196.378 -0.200998 -17.1784
  118 221.788 0.169700 -12.0162
  119 250.669 -0.0672462 -10.8883
  120 274.767 -0.478221 -8.91873
  121 293.396 -0.225593 -7.31054
  122 309.984 0.0211807 -6.47607
  123 321.112 0.460517 -5.71593
  124 336.667 -0.350208 -5.25157
  125 342.479 0.0142143 -2.78923
  126 349.963 0.0188841 -2.23664
  127 355.908 -0.222040 -1.74603
  128 360.348 -0.133410 -1.40312
  129 364.963 0.0493172 -1.14613
  130 361.423 1.34972 -0.513805
  131 367.119 0.530127 -0.702456
  132 379.596 -0.255841 0.465896
  133 395.500 -1.20594 -0.247705
  134 411.150 -2.52854 -0.132464
  135 429.077 -3.64491 -0.0712884
  136 447.990 -5.86432 -0.0156248
  137 467.990 -7.55001 0.325290
  138 488.773 -8.19180 0.105906
  139 506.795 -9.93287 0.132474
  140 522.378 -9.06123 0.629387
  141 540.144 -8.27613 1.28021
  142 560.070 -6.80142 1.34134
  143 578.634 -6.28517 1.21057
  144 598.126 -4.16256 0.802470
  145 614.287 -2.97733 1.33202
  146 626.828 -0.912787 0.705028
  147 566.384 -53.2619 0.559124
  148 565.877 -52.5359 -0.361951
  149 598.186 85.6936 -27.0037
  150 633.509 37.2887 55.9766
  151 480.391 -46.6028 -108.653
  152 484.369 -46.5082 105.299
  153 471.214 -19.5881 14.2300
  154 471.239 -19.8483 -14.2343
  155 668.953 24.4241 -40.2979
  156 564.925 -20.5972 9.75487
  157 564.679 -20.1205 -9.64102
  158 729.904 161.342 5.36380
  159 580.540 -0.904012 -55.8474
  160 433.184 -33.4928 -49.0620
  161 433.230 -33.2277 48.6705
  162 580.916 -13.2641 49.9100
  163 555.631 40.7625 33.8514
  164 232.240 36.2564 -129.884
  165 256.594 34.4341 136.711
  166 702.931 9.08102 -1.51525
  167 581.249 -22.5136 -33.6711
  168 765.972 168.160 2.49684
  169 525.107 -14.9180 -1.43614
  170 525.005 -14.8815 1.47486
  171 585.497 -7.59529 -4.16783
  172 587.172 -6.88544 3.56835
  173 419.361 -5.67950 -8.08022
  174 419.423 -5.62358 8.04587
  175 624.162 -15.1320 138.296
  176 538.851 22.6764 -36.5307
  177 354.675 -26.2772 -77.5856
  178 355.708 -26.0909 77.1293
  179 399.518 -12.5967 -25.6940
  180 399.567 -12.4587 25.5276
  181 583.831 -15.5972 28.6634
  182 532.031 -36.3538 -4.33779
  183 530.262 -36.0840 5.11735
  184 600.899 -58.4092 -15.2367
  185 604.161 -55.6482 7.84823
  186 827.014 195.256 -34.5145
  187 609.563 97.4116 25.1564
  188 608.750 37.3945 -57.1295
  189 621.273 -3.50803 -159.737
  190 601.949 -34.2149 -37.8334
  191 607.235 -24.5057 45.3856
  192 507.896 -57.5712 54.8448
  193 507.937 -57.1465 -54.7008
  194 546.982 7.15142 43.6977
  195 254.603 -6.56105 -95.2744
  196 255.174 -7.06127 94.7378
  197 927.605 138.145 20.4098
  198 570.819 -34.1497 19.4002
  199 590.914 -11.2124 -18.2909
  200 474.197 -11.3807 -6.73447
  201 474.215 -11.3302 6.71755
  202 570.605 -7.47621 -38.6679
  203 647.918 94.9252 -44.7465
  204 547.296 49.3920 -6.76252
  205 361.120 -12.3038 35.7001
  206 360.598 -12.3363 -35.9363
  207 598.342 -7.08241 9.61064
  208 587.205 11.0693 57.5394
  209 479.408 -34.3980 -25.0063
  210 476.420 -32.5558 25.4482
  211 688.323 102.256 39.1083
  212 800.979 114.327 27.4209
  213 58.4176 44.4953 -38.9208
  214 54.1367 41.1270 33.2275
  215 334.764 97.1007 225.556
  216 565.223 -37.6456 -13.9549
  217 600.253 -6.79429 -8.66473
  218 541.246 4.97408 -40.2749
  219 385.879 -3.55001 -11.4533
  220 386.007 -3.51119 11.3665
  221 511.121 -23.7933 -6.80221
  222 511.363 -23.9529 6.51988
  223 574.996 -7.84119 32.7344
  224 655.094 -37.7169 20.8534
  225 657.562 133.320 -12.7215
  226 515.713 -49.5173 -27.4751
  227 647.454 -11.3144 33.0995
  228 553.918 -9.69263 1.10253
  229 553.917 -9.62036 -1.10163
  230 512.153 -49.2890 28.3556
  231 584.470 -37.2822 30.3488
  232 809.250 110.349 -60.8699
  233 185.820 110.494 -166.047
  234 503.653 18.0997 8.81324
  235 590.280 52.0197 48.6276
  236 624.784 -4.47363 -49.2905
  237 585.260 -21.2188 -46.1742
  238 320.718 -9.94545 -44.4215
  239 321.755 -9.80092 44.3088
  240 585.826 -7.29677 -24.9535
  241 557.907 -14.4477 4.63962
  242 557.650 -14.4379 -4.44003
  243 123.654 10.6771 -61.9739
  244 125.412 9.35008 61.7447
  245 617.542 -54.1987 -52.9867
  246 610.332 -2.65452 1.12924
  247 610.901 -2.69995 -1.28795
  248 577.292 47.9477 -44.7042
  249 512.772 10.2334 26.5689
  250 1034.31 165.568 111.599
  251 1025.01 116.726 -69.2759
  252 756.667 161.645 0.722569
  253 473.087 -23.1306 143.616
  254 435.227 -15.4096 -149.959
  255 501.679 -10.3053 -2.70192
  256 501.639 -10.2471 2.68649
  257 421.437 -10.8370 16.0965
  258 421.420 -10.9798 -16.2196
  259 598.433 -6.80600 14.9232
  260 582.019 -41.6117 -24.1232
  261 388.647 -0.563530 -2.73946
  262 388.745 -0.552634 2.72539
  263 574.795 -23.5466 -19.5207
  264 252.625 -8.08437 -61.8737
  265 253.616 -8.10851 61.4687
  266 582.434 -25.4559 36.3458
  267 447.216 -47.4706 87.5169
  268 448.250 -48.3152 -87.2425
  269 510.432 19.9686 -12.3697
  270 440.678 -6.46867 -5.46829
  271 440.724 -6.42861 5.45079
  272 550.388 -1.26790 32.0637
  273 653.728 118.995 30.8412
  274 359.817 -4.09962 19.0896
  275 359.556 -4.13183 -19.2334
  276 596.709 -50.0836 14.9449
  277 552.346 -62.2303 -60.7904
  278 612.965 -3.40155 4.31923
  279 434.838 -25.1427 -33.8092
  280 434.159 -24.8733 33.7000
  281 743.639 86.4986 201.142
  282 363.600 -29.4908 103.779
  283 583.308 81.7211 -2.85398
  284 726.758 81.9627 -21.6826
  285 552.564 -42.6946 3.17392
  286 552.934 -63.9039 55.1946
  287 364.603 -29.0349 -104.859
  288 69.4875 86.0297 79.7484
  289 574.896 -23.6157 19.9000
  290 747.796 99.6696 14.8229
  291 617.330 -3.04403 -3.74743
  292 567.514 20.0457 -51.4873
  293 556.711 -31.5672 9.14175
  294 545.417 -45.9361 5.13550
  295 565.720 26.1170 49.6969
  296 593.986 -50.0701 -12.9040
  297 836.657 161.356 -15.9433
  298 556.567 -30.3569 -8.71330
  299 453.919 135.250 -273.621
  300 567.838 -60.3046 -15.5209
  301 563.945 -61.9681 21.8745
  302 419.672 -37.5632 -68.6114
  303 385.019 -1.28626 -5.90656
  304 385.134 -1.26351 5.86716
  305 419.886 -37.6045 68.2711
  306 602.230 -1.06057 -57.0642
  307 645.930 -26.7664 -19.8761
  308 497.724 -29.5975 -14.3047
  309 497.456 -29.6683 14.5447
  310 587.486 -50.5850 95.2503
  311 590.345 -4.94667 18.8697
  312 709.230 5.33876 39.1152
  313 488.534 -16.9929 -8.09522
  314 488.576 -16.9459 8.05935
  315 447.803 -11.2779 -10.9265
  316 447.818 -11.1793 10.9150
  317 507.883 7.10859 -25.6794
  318 640.969 47.0544 -54.0021
  319 975.323 265.249 -129.911
  320 581.941 -5.67632 -1.31027
  321 581.647 -5.60536 1.35724
  322 317.592 -1.29584 129.553
  323 445.001 -19.6431 -22.8237
  324 444.234 -19.5913 22.8866
  325 317.527 -2.07286 -129.055
  326 613.538 72.2777 -46.8739
  327 680.662 34.1797 37.6776
  328 587.098 -41.8491 -105.262
  329 544.661 -21.1640 3.03614
  330 544.138 -21.0254 -2.81708
  331 579.091 -12.4640 -8.95893
  332 550.716 -0.968017 -29.9650
  333 612.735 2.48641 55.4884
  334 608.224 -4.61042 -10.1852
  335 375.018 -22.1857 52.1450
  336 374.609 -22.2998 -52.5057
  337 572.651 -1.23535 53.1913
  338 362.550 -2.70908 -11.4199
  339 362.774 -2.68447 11.3292
  340 583.598 -13.8239 14.7779
  341 700.993 142.479 -20.9650
  342 578.869 -12.5420 9.33265
  343 620.137 77.6167 46.9005
  344 592.511 -11.1468 54.3369
  345 473.770 -8.71530 2.58338
  346 473.766 -8.76281 -2.59679
  347 563.291 -1.93373 -47.2831
  348 738.942 154.870 10.9854
  349 619.536 112.815 0.966841
  350 378.497 43.7068 -191.247
  351 43.0192 17.3149 -28.1997
  352 46.7495 18.7618 30.1514
  353 -0.864170 4.98344 10.4601
  354 1.25770 3.17109 -11.0160
  355 1055.50 73.3437 24.6785
  356 512.769 -41.2798 -17.1980
  357 583.969 -13.3863 -14.4022
  358 529.584 -9.58248 0.141804
  359 529.525 -9.51400 -0.146462
  360 569.847 62.9804 -24.2434
  361 484.938 -49.0208 45.2074
  362 44.6532 67.0719 -50.6941
  363 485.314 -48.9883 -45.9468
  364 576.901 65.6164 25.7854
  365 583.710 -15.8705 -27.1949
  366 617.527 -34.6843 -30.9928
  367 661.940 138.487 8.71124
  368 618.646 -38.9046 24.5287
  369 266.877 -6.35287 41.3372
  370 265.421 -6.22738 -41.5674
  371 153.401 3.41049 -58.2219
  372 154.823 2.84646 57.9766
  373 515.234 2.03965 25.9022
  374 946.342 281.405 116.196
  375 601.917 -4.12140 -13.2772
  376 473.616 -39.4289 -34.8730
  377 473.291 -39.3512 34.8307
  378 581.098 -13.6218 -35.1622
  379 656.181 -31.6799 -1.80707
  380 512.752 -41.2522 17.6386
  381 715.656 7.33884 -66.1781
  382 419.298 -3.10954 -2.24946
  383 419.368 -3.08459 2.23746
  384 573.010 -3.43994 -22.8017
  385 318.380 -4.32320 -26.8796
  386 318.551 -4.46895 26.5775
  387 680.251 87.1883 -44.0522
  388 370.259 25.8687 178.138
  389 535.336 -28.0451 -0.279820
  390 535.846 -28.0037 0.261214
  391 629.943 106.029 -29.3803
  392 594.400 -17.7678 -51.1022
  393 592.453 -60.7847 54.3442
  394 500.001 -13.2090 -4.31926
  395 499.954 -13.1553 4.28806
  396 572.843 -44.3026 14.8764
  397 613.444 -3.24025 7.49538
  398 393.229 -13.7730 -31.9483
  399 393.390 -13.7816 31.7073
  400 584.619 19.7151 -56.8680
  401 549.654 -12.2970 1.58161
  402 549.624 -12.3307 -1.51948
  403 570.804 -6.81341 43.1053
  404 536.624 39.4472 11.7877
  405 589.439 -25.1101 44.1026
  406 844.468 175.675 34.6021
  407 292.029 -15.6222 -83.1292
  408 292.796 -15.6214 82.5498
  409 131.802 69.3290 -101.879
  410 625.002 -2.24638 1.88617
  411 332.014 -2.55639 -17.0467
  412 332.419 -2.50239 16.9167
  413 581.439 -15.3924 34.3033
  414 527.827 -57.1352 31.5647
  415 592.321 -7.90090 6.30258
  416 607.622 30.8074 58.8018
  417 137.677 73.8192 105.812
  418 528.562 -56.7837 -29.3185
  419 545.798 -50.6182 -9.02527
  420 187.155 -3.71845 -52.4360
  421 188.392 -3.84588 52.1033
  422 420.938 -34.1947 -125.119
  423 624.687 -9.50902 47.8912
  424 419.533 -34.6446 124.093
  425 578.197 -32.6661 -27.2930
  426 543.490 37.0195 -25.6745
  427 578.233 -25.2659 26.1633
  428 617.464 -3.17064 -4.87091
  429 20.3750 22.7420 11.7492
  430 129.163 152.165 149.153
  431 560.352 -2.03243 22.1664
  432 478.185 6.93929 11.3321
  433 485.671 8.36186 -15.3235
  434 414.417 -6.43948 -11.3641
  435 414.473 -6.36063 11.3023
  436 570.036 -44.2632 -13.3182
  437 577.779 -11.4351 -48.0208
  438 480.469 9.46733 -4.15883
  439 843.375 201.683 47.8360
  440 123.142 39.4388 -76.6242
  441 135.200 36.1712 81.5263
  442 534.839 -19.1588 0.253418
  443 534.650 -19.1270 -0.124622
  444 711.499 155.435 -1.50660
  445 435.849 191.559 279.659
  446 678.802 -8.86762 -2.50450
  447 400.473 -20.2945 -43.3334
  448 400.671 -20.1663 43.0058
  449 404.677 -8.57179 17.4328
  450 404.590 -8.62960 -17.5684
  451 540.036 12.3216 -41.5694
  452 627.849 -1.25476 -1.20843
  453 526.527 24.5887 23.4905
  454 655.801 80.8822 49.1478
  455 547.068 -40.5472 -1.42513
  456 592.029 -7.55773 -6.14340
  457 619.794 -2.90921 4.48126
  458 625.958 -1.35902 0.685752
  459 626.386 -1.48877 -0.471872
  460 361.339 -0.526579 4.28573
  461 361.158 -0.535078 -4.32354
  462 596.736 -38.1810 33.0150
  463 544.998 21.8124 40.2763
  464 566.993 2.39676 -52.0325
  465 587.613 -12.7966 19.8307
  466 828.338 151.058 -172.836
  467 589.775 -32.9520 -37.8551
  468 8.30197 11.5941 6.23196
  469 8.14222 11.8843 -3.30387
  470 472.126 -26.2141 20.3192
  471 470.649 -25.8395 -20.0380
  472 722.232 17.1751 95.7584
  473 205.248 194.066 -214.806
  474 583.303 -1.93568 16.9543
  475 653.397 -37.6123 -56.7146
  476 359.370 -20.1801 60.1733
  477 705.393 125.312 -30.2674
  478 581.403 -31.7073 31.3915
  479 492.044 -23.1515 -11.0279
  480 492.468 -22.7825 11.0077
  481 515.119 2.90444 -22.8441
  482 358.295 -20.0892 -60.4962
  483 526.971 0.421855 22.8793
  484 498.943 -57.2140 -79.0664
  485 497.731 -57.3008 79.4205
  486 598.928 -4.23883 14.7041
  487 551.480 52.2232 4.86337
  488 548.337 10.9870 193.144
  489 809.905 163.130 -1.01382
  490 562.008 -9.95262 2.34231
  491 562.029 -9.91965 -2.46696
  492 440.278 -7.45731 -7.45525
  493 440.320 -7.40031 7.43368
  494 234.484 10.0241 109.653
  495 584.221 -28.3719 -37.3596
  496 531.182 -11.7853 -0.623543
  497 531.130 -11.7515 0.630551
  498 464.451 -48.8795 64.6240
  499 238.833 13.3538 -112.349
  500 584.138 -47.8058 -15.3840
  501 11.1540 4.39530 2.66587
  502 519.350 27.2903 1.74987
  503 563.754 -7.06770 -0.722020
  504 563.750 -7.15218 0.695254
  505 464.648 -48.7777 -65.0955
  506 653.896 -32.9387 70.5795
  507 652.741 23.7638 49.2676
  508 600.421 -4.63969 -2.89760
  509 582.371 -48.4575 15.6966
  510 378.070 -0.231600 -0.816096
  511 378.170 -0.228653 0.810916
  512 582.783 -22.5814 -40.3907
  513 568.466 42.1781 43.8209
  514 644.992 16.0070 -48.7602
  515 375.755 -0.464219 -2.42386
  516 375.867 -0.457023 2.41013
  517 1099.15 159.027 -141.078
  518 590.595 70.1800 38.3523
  519 600.876 -4.33995 2.55864
  520 546.942 -51.7521 10.3653
  521 465.072 -14.9921 11.4617
  522 465.055 -15.0970 -11.4385
  523 632.654 -38.7636 10.5968
  524 610.770 -12.4017 -51.1694
  525 683.680 133.876 26.4728
  526 571.791 9.95078 54.0136
  527 572.081 -11.4914 5.25912
  528 555.082 -59.5915 -77.0563
  529 579.067 -14.5354 40.2811
  530 1084.49 50.0599 -19.6742
  531 627.735 -47.5229 5.00487
  532 596.714 -4.54121 -0.570583
  533 596.861 -4.79025 0.459271
  534 1095.81 73.4610 68.5079
  535 558.414 -0.0709842 45.9514
  536 769.240 131.941 -3.93954
  537 582.594 -16.2425 -18.9981
  538 275.592 -2.41428 -18.3541
  539 276.350 -2.29627 18.1824
  540 399.777 -37.2787 -87.0593
  541 400.137 -36.6590 86.4538
  542 571.757 -11.0484 -5.23212
  543 623.588 22.8655 -56.5426
  544 548.628 -37.2978 3.54746
  545 593.053 67.9275 -39.6906
  546 592.969 -7.25416 19.7615
  547 735.486 39.2344 -16.7199
  548 510.868 -17.4238 -4.37602
  549 510.733 -17.3768 4.34022
  550 552.300 -26.1845 6.33636
  551 804.345 162.702 -21.2557
  552 584.182 25.6076 56.0374
  553 252.218 64.5767 161.336
  554 557.725 -33.3316 130.870
  555 727.860 40.2151 -145.331
  556 597.045 49.3910 -51.9323
  557 525.390 -45.7614 -113.775
  558 569.689 -62.6348 -26.4722
  559 593.391 -60.4000 -36.9432
  560 80.7886 107.439 -101.527
  561 596.901 -8.05794 -11.5519
  562 890.821 172.666 -53.2567
  563 555.096 -25.1795 -7.47742
  564 559.251 -18.4975 6.21110
  565 558.747 -18.0994 -5.89314
  566 396.721 -2.02369 -5.41683
  567 396.815 -1.99777 5.38742
  568 61.5168 5.66264 -32.7488
  569 64.4199 5.95254 33.4681
  570 296.176 -13.4187 -63.2413
  571 298.290 -13.4974 63.1843
  572 567.034 -30.9232 -16.1661
  573 576.027 -62.8991 28.3514
  574 591.993 -56.4710 -1.67762
  575 491.169 -8.65451 -2.18080
  576 491.148 -8.60045 2.17121
  577 463.572 -48.8513 -97.2544
  578 515.719 -42.6292 120.095
  579 452.859 -45.9831 97.7284
  580 584.591 -13.0997 -51.4542
  581 376.047 -5.86877 19.3214
  582 375.865 -5.92714 -19.4599
  583 561.010 31.2613 -44.0977
  584 560.670 -0.997185 -20.1105
  585 696.204 149.708 -11.5260
  586 460.849 -6.75501 -2.02248
  587 460.870 -6.71533 2.01458
  588 593.539 -1.87117 -11.0778
  589 418.047 -13.5672 -21.7921
  590 418.076 -13.5276 21.6262
  591 338.318 14.9029 153.695
  592 577.703 -26.8282 -26.3992
  593 327.871 -17.7085 110.660
  594 567.769 -29.6116 16.6283
  595 595.568 -8.87853 12.8465
  596 587.373 -5.96685 -2.47833
  597 423.655 -4.91955 -5.16590
  598 423.718 -4.88212 5.14472
  599 668.373 132.528 -24.2033
  600 327.626 -17.0982 -111.024
  601 565.827 -24.7555 -12.9985
  602 513.193 -9.65688 -1.26219
  603 513.145 -9.59427 1.25766
  604 942.898 126.298 -22.8239
  605 350.636 -2.06529 10.5777
  606 350.351 -2.08462 -10.6642
  607 534.196 12.5553 38.0081
  608 745.813 65.1224 -0.00497503
  609 359.857 1.74548 -152.394
  610 189.833 4.21849 -84.1014
  611 191.282 3.21616 83.6641
  612 453.283 -25.8612 27.4476
  613 457.712 -26.6250 -26.7802
  614 757.948 153.406 6.43414
  615 585.153 -6.16278 2.17616
  616 513.048 14.8762 -23.0485
  617 631.693 112.809 23.2570
  618 629.689 117.013 -15.4844
  619 517.385 -28.4688 -6.88452
  620 521.127 -27.8621 5.08424
  621 369.105 81.3993 -217.597
  622 449.202 -14.8941 -15.5144
  623 449.252 -14.7334 15.4733
  624 1095.10 224.717 169.425
  625 583.342 -19.3001 43.8886
  626 342.421 -11.6338 -40.4725
  627 883.429 218.073 151.254
  628 343.173 -11.5762 40.3441
  629 552.775 -20.7783 -151.953
  630 403.569 -1.73918 -1.99091
  631 403.653 -1.72445 1.98268
  632 496.354 4.71248 20.1317
  633 231.907 -3.27990 -36.2609
  634 233.046 -3.28937 36.0043
  635 510.936 -35.8419 13.6935
  636 534.440 -42.6152 -6.57640
  637 623.329 -1.58500 -4.21158
  638 367.096 -0.489153 3.21687
  639 366.951 -0.498535 -3.24445
  640 484.294 -10.7940 -3.60235
  641 484.284 -10.7416 3.58215
  642 548.864 -61.2015 77.7045
  643 633.228 70.6449 -51.2898
  644 427.776 -19.3593 -28.0252
  645 427.510 -19.0411 27.8437
  646 501.956 -35.7021 -17.7736
  647 782.308 169.319 8.68911
  648 588.652 -57.1801 4.79578
  649 515.006 -12.4249 -2.42075
  650 514.937 -12.3736 2.41807
  651 701.087 77.4954 35.0947
  652 590.671 -8.88526 -21.4605
  653 529.748 -0.513169 -18.6013
  654 250.137 -8.58072 -79.8301
  655 250.826 -8.79889 79.2322
  656 500.356 -42.7655 -27.1617
  657 745.244 162.332 -0.0703901
  658 583.348 78.8323 -17.2796
  659 394.419 -3.30036 -9.82638
  660 394.520 -3.25565 9.76016
  661 540.920 -15.5251 -0.703717
  662 541.022 -15.5319 0.805704
  663 986.986 128.410 56.8606
  664 630.755 -1.98151 1.03351
  665 613.126 -2.68361 7.41385
  666 611.102 -2.68816 -8.82735
  667 581.960 -54.3580 3.78720
  668 437.085 -4.82473 -2.57835
  669 437.136 -4.79366 2.56903
  670 625.284 99.7142 36.0316
  671 794.582 175.881 -14.9443
  672 442.724 -32.2679 -39.6926
  673 442.640 -31.9692 39.5199
  674 547.363 -56.3265 -15.6736
  675 580.402 34.5998 -52.8452
  676 680.037 2.21644 16.9107
  677 460.977 -8.33570 -5.37862
  678 461.001 -8.28842 5.36127
  679 398.721 -34.6699 -78.5685
  680 576.606 -55.9110 1.38107
  681 481.894 -53.3912 71.2795
  682 233.508 72.9956 -155.878
  683 452.304 -41.4651 55.0045
  684 545.954 0.161525 17.0741
  685 399.113 -34.2877 78.0858
  686 565.515 -25.2097 13.1584
  687 452.395 -41.2775 -55.4569
  688 470.855 6.46478 4.24402
  689 365.013 -9.34766 28.9463
  690 364.704 -9.35129 -29.1225
  691 482.054 -54.7687 -72.0425
  692 592.957 -39.2891 -31.8594
  693 544.847 -8.06706 -0.242865
  694 544.933 -8.14075 0.244536
  695 605.357 -38.8420 31.0944
  696 551.334 -57.6003 17.9672
  697 667.976 61.4800 47.7227
  698 604.400 -11.5158 53.1590
  699 581.645 -21.1594 31.6624
  700 560.764 46.3126 -33.4535
  701 668.417 112.038 37.9805
  702 578.229 -8.13723 -31.6497
  703 574.367 -19.3890 15.1437
  704 598.412 93.2937 9.30347
  705 585.115 -10.1796 27.1430
  706 187.378 128.356 163.831
  707 543.856 -62.6803 -46.6244
  708 629.536 11.3487 53.5575
  709 634.086 -19.7253 -35.9871
  710 628.570 -1.10858 2.21369
  711 580.798 -20.2912 -24.4441
  712 544.754 -63.1637 42.7307
  713 1030.79 91.4699 -15.1998
  714 336.978 -1.30390 11.0529
  715 336.607 -1.31743 -11.1444
  716 587.572 -11.1508 -10.8061
  717 632.030 -0.868432 -2.19137
  718 499.538 -43.4701 27.2942
  719 596.638 -22.4152 47.8905
  720 890.260 219.451 -76.9901
  721 565.578 -41.0730 12.5725
  722 624.241 -41.3222 -15.5678
  723 574.551 -18.8937 -14.8901
  724 631.150 -1.38650 -0.596821
  725 584.306 -0.110119 56.4306
  726 28.1791 30.7956 37.5081
  727 649.339 -23.8051 -101.943
  728 709.274 43.3127 18.6614
  729 592.985 -60.8287 33.6084
  730 432.355 -9.96615 12.6350
  731 432.340 -10.0980 -12.6845
  732 539.111 292.493 -293.155
  733 605.538 -40.3021 -28.3223
  734 469.144 2.84680 -8.12186
  735 539.153 3.17072 36.8667
  736 585.549 -29.5248 37.9028
  737 561.233 -47.2975 3.98395
  738 579.982 -53.1892 -83.5595
  739 558.014 -44.1513 -5.20329
  740 654.231 -31.2319 -0.482150
  741 603.268 -5.42497 6.19712
  742 542.642 -32.5536 1.58715
  743 967.857 193.332 -104.810
  744 576.737 -15.8422 11.8001
  745 574.609 9.52841 -55.4057
  746 486.149 -5.12285 170.251
  747 613.800 49.3378 55.8843
  748 528.292 -41.3791 9.16751
  749 412.621 -31.9478 -57.6670
  750 412.694 -31.8735 57.2452
  751 565.316 63.6505 -7.75540
  752 572.146 -6.68134 49.0475
  753 577.313 -13.8676 -41.2937
  754 543.234 -33.2416 -1.72899
  755 525.753 -46.8680 17.1345
  756 602.818 98.9497 -10.3927
  757 560.568 -48.5275 -1.78498
  758 562.085 -35.6726 12.4629
  759 568.092 -7.81858 1.66998
  760 568.405 -7.62760 -1.64960
  761 763.414 166.217 0.383139
  762 622.405 -53.1368 -24.6254
  763 582.509 -18.1574 24.4338
  764 603.324 -5.42575 -5.57142
  765 613.443 3.99333 -56.0482
  766 693.747 37.4141 -28.4593
  767 354.936 -0.233090 -5.22747
  768 355.161 -0.228653 5.18241
  769 5.56677 -9.11239 -6.26273
  770 594.901 -0.840117 10.2271
  771 550.220 -0.703066 -40.5667
  772 566.415 -5.32649 35.3469
  773 508.222 66.7009 247.139
  774 644.044 131.237 -1.25385
  775 460.863 -32.3820 31.5857
  776 88.0064 1.69256 -31.9372
  777 90.1669 1.22284 32.2629
  778 561.911 -3.96554 -40.0622
  779 461.993 -32.6862 -31.5971
  780 599.858 -5.94485 4.53811
  781 317.587 -13.1640 53.8933
  782 315.023 -13.1114 -53.8777
  783 576.669 -15.4009 -11.4780
  784 378.499 -9.06903 -25.2800
  785 378.684 -9.01504 25.0843
  786 599.673 -6.04784 -14.6261
  787 465.029 -12.1001 -9.18950
  788 465.055 -12.0296 9.19450
  789 653.778 -4.01046 -35.6127
  790 592.247 -6.27598 -56.2272
  791 312.645 -1.85295 -13.9915
  792 313.190 -1.83544 13.8448
  793 19.7433 7.64215 -20.1320
  794 22.2686 8.07696 21.1289
  795 489.455 2.47716 -14.6001
  796 539.982 -60.6551 -35.6936
  797 -5.96922 -4.04319 10.5362
  798 -5.31800 -4.93768 -10.5895
  799 561.431 -11.6900 3.75599
  800 607.385 -47.6543 -13.5169
  801 631.000 93.1847 -41.8808
  802 602.190 -5.38169 -4.33229
  803 1247.29 256.551 -234.071
  804 561.311 -11.6612 -3.70058
  805 838.903 158.452 14.6218
  806 602.528 17.5338 -58.8107
  807 662.385 50.2591 -49.1452
  808 121.003 -1.39116 -29.2341
  809 122.903 -1.55286 29.1891
  810 385.298 -5.21832 15.1423
  811 385.158 -5.25880 -15.2576
  812 370.733 -0.742878 2.86725
  813 370.609 -0.751041 -2.88635
  814 671.603 112.829 -37.4537
  815 407.128 -2.28206 -4.32453
  816 407.211 -2.25678 4.30512
  817 573.851 -5.76547 -51.2653
  818 809.358 89.8732 79.9434
  819 521.792 12.0572 -32.0264
  820 188.644 -1.60938 31.0152
  821 187.263 -1.62489 -31.2360
  822 654.020 21.0149 179.327
  823 587.081 -11.2399 11.1509
  824 533.541 35.7854 -13.3225
  825 254.967 -0.311025 20.9561
  826 253.821 -0.197529 -21.0935
  827 377.172 -1.71096 -7.48379
  828 377.314 -1.68640 7.42565
  829 68.8616 60.7479 54.6947
  830 553.872 13.4468 47.2432
  831 613.786 89.8566 -36.2910
  832 656.944 76.3796 -49.5784
  833 438.802 -16.0481 -19.9809
  834 438.579 -15.9423 19.9691
  835 681.896 143.840 16.5794
  836 584.908 -5.45014 -0.484853
  837 584.955 -5.41119 0.577143
  838 581.905 -17.7363 -32.1901
  839 490.773 -32.2547 19.5982
  840 536.884 -60.2943 35.7458
  841 625.680 -51.2338 55.0523
  842 487.247 -13.9431 -6.08597
  843 487.252 -13.9008 6.05553
  844 557.916 51.8949 21.5535
  845 526.121 7.49999 -34.5101
  846 145.702 182.574 170.322
  847 527.313 -46.4719 -15.8700
  848 529.361 -23.6187 -1.46931
  849 529.636 -23.6837 1.43338
  850 582.166 -8.66410 53.5912
  851 575.483 -37.9797 -21.9845
  852 516.368 -33.8878 -9.70841
  853 1135.67 36.7416 -55.0069
  854 491.524 -46.0672 36.3162
  855 491.097 -46.6431 -36.8500
  856 580.953 -7.09486 26.8531
  857 862.795 225.224 -57.8839
  858 462.615 -41.4652 -44.2189
  859 508.216 -56.9868 43.1039
  860 462.547 -40.9860 43.8641
  861 500.536 -19.9276 -7.30695
  862 500.538 -19.8733 7.26711
  863 78.2010 31.9213 47.3376
  864 623.946 46.6218 -56.1075
  865 481.615 -18.4663 -10.4052
  866 481.712 -18.2923 10.4372
  867 476.400 -7.76800 -1.28185
  868 476.400 -7.72109 1.27524
  869 520.420 -10.5359 -0.959913
  870 520.362 -10.4757 0.954115
  871 429.332 -8.00991 -10.8638
  872 429.378 -7.92550 10.8274
  873 483.097 -24.9562 -15.2202
  874 483.169 -24.8051 15.2882
  875 12.6036 -0.563521 -8.12557
  876 719.475 135.187 25.0163
  877 619.659 -21.9297 -42.9966
  878 507.729 -56.1475 -43.4991
  879 547.362 -17.8579 2.76085
  880 547.135 -17.6904 -2.62786
  881 597.252 0.650242 57.4854
  882 642.767 -45.7705 -33.5661
  883 566.209 43.5417 -215.284
  884 267.238 -4.90158 107.919
  885 -6.47147 6.22764 -8.53298
  886 -5.28749 7.04659 9.29173
  887 77.8282 33.9383 -48.3817
  888 581.855 -17.0998 18.8199
  889 609.305 -4.40796 -7.81946
  890 549.119 -53.1529 94.8477
  891 266.636 -4.66529 -108.311
  892 611.884 -50.4070 7.55888
  893 675.481 -18.3633 84.9971
  894 505.675 2.13198 15.4450
  895 573.718 54.6378 36.4997
  896 315.689 -17.5849 78.8202
  897 314.524 -17.7239 -79.2907
  898 377.932 -17.4120 -44.3472
  899 390.908 -19.7780 -136.943
  900 613.962 -14.5697 49.3818
  901 834.591 199.560 39.6997
  902 617.611 23.6590 57.2199
  903 583.644 -12.7147 -29.5579
  904 398.790 -17.7131 140.304
  905 739.681 137.265 -15.7549
  906 77.5321 64.9786 -66.9161
  907 544.548 -1.00580 -16.2864
  908 378.318 -17.2767 43.9955
  909 457.530 -9.79361 8.01750
  910 457.504 -9.85310 -8.03048
  911 576.277 -37.7713 22.8280
  912 594.911 -4.37210 1.57232
  913 440.113 3.70557 -169.436
  914 625.601 -1.59211 3.67953
  915 621.817 -1.33559 -4.82552
  916 479.311 4.35808 -13.4841
  917 603.817 -2.55330 -9.00450
  918 458.345 -20.9067 -18.8961
  919 458.647 -20.6098 18.9604
  920 -13.8205 5.88729 -7.78289
  921 -19.6441 3.55597 8.47078
  922 594.870 -4.09552 -1.63558
  923 206.290 -4.82001 72.9565
  924 205.188 -4.41455 -73.3365
  925 640.660 93.1163 43.9247
  926 1110.15 20.1820 16.8040
  927 604.617 67.0866 47.2781
  928 675.152 -22.9844 29.1556
  929 592.287 -33.1996 37.8499
  930 735.684 153.768 -12.1087
  931 470.056 2.27667 10.1793
  932 569.305 -13.8335 -6.54407
  933 594.675 32.0313 -57.3242
  934 709.048 22.4859 -3.60548
  935 556.247 -34.4059 -9.08709
  936 296.042 -1.51180 -15.6034
  937 296.290 -1.45735 15.3984
  938 585.787 -14.1202 -22.5245
  939 21.4709 26.5768 7.69185
  940 562.518 -58.3615 -10.5323
  941 497.492 15.2279 -1.38741
  942 731.640 159.611 -8.00268
  943 120.021 88.9447 -108.469
  944 566.424 -4.23965 -31.6703
  945 400.257 -6.28501 -14.2647
  946 400.344 -6.21484 14.1623
  947 4.01434 -15.3552 11.4492
  948 389.369 -28.4470 -63.6177
  949 573.390 -33.3333 -21.4973
  950 369.993 0.806106 -1.21213
  951 370.100 0.809134 1.20557
  952 583.437 70.7404 -29.0757
  953 615.181 -2.29658 -0.734270
  954 615.225 -2.31679 0.987921
  955 389.567 -28.3816 63.2314
  956 581.858 -0.937391 -12.3786
  957 664.141 4.97255 33.7997
  958 590.076 -8.81274 8.45708
  959 100.383 24.1461 -58.7052
  960 610.358 -4.10848 7.03566
  961 561.307 4.71175 50.3404
  962 591.783 81.7216 25.8397
  963 589.849 6.85887 -58.4627
  964 412.298 -21.4756 -38.4825
  965 632.246 -22.6371 34.5143
  966 412.572 -21.4051 38.1351
  967 20.7008 21.8536 -4.22495
  968 75.2838 11.9625 43.1332
  969 341.229 -5.69419 26.0214
  970 340.844 -5.69292 -26.1465
  971 569.712 -14.0689 6.97342
  972 616.921 106.643 14.0867
  973 315.675 28.1613 -161.220
  974 515.496 -31.9125 8.72644
  975 484.084 -50.2990 -53.2597
  976 701.042 133.908 27.5813
  977 540.858 -9.86575 -0.0788045
  978 540.833 -9.81894 0.0727765
  979 590.161 -11.3340 -15.8157
  980 553.019 48.0026 -19.8702
  981 1193.42 363.334 243.927
  982 121.593 6.25099 -55.6568
  983 123.249 5.17969 55.7559
  984 9.07172 -7.46423 4.94419
  985 554.133 30.9969 40.7890
  986 484.031 -50.6196 52.9027
  987 596.480 -28.3787 -43.7279
  988 648.388 52.9783 54.3207
  989 618.975 -49.9878 -66.1891
  990 900.381 189.019 65.9439
  991 531.632 -8.88340 -0.534871
  992 531.565 -8.81861 0.534241
  993 618.985 -25.4920 40.4806
  994 44.1497 81.2396 79.1969
  995 289.939 -5.79618 37.1165
  996 289.120 -5.72037 -37.4688
  997 342.318 -16.2195 50.9897
  998 341.205 -15.9582 -51.1498
  999 384.118 -15.2987 36.9384
  1000 419.938 -3.05689 -1.91423
  1001 420.008 -3.03579 1.90769
  1002 994.767 329.716 -213.598
  1003 915.856 230.164 99.4223
  1004 383.813 -15.3675 -37.2120
  1005 637.258 -3.06518 44.8960
  1006 576.345 59.8403 -35.0503
  1007 407.408 -35.3705 113.717
  1008 519.322 -61.4391 -63.3770
  1009 592.792 -5.08365 -17.8352
  1010 272.626 17.7918 131.885
  1011 349.491 -26.5979 90.7892
  1012 531.581 27.6442 -25.6758
  1013 600.197 -12.0362 -53.9214
  1014 736.195 325.524 331.770
  1015 504.526 15.8467 18.3927
  1016 675.896 144.151 -2.03639
  1017 492.208 20.1130 -192.071
  1018 505.806 -52.8897 -37.4838
  1019 632.217 -0.960548 -1.76450
  1020 615.276 56.4668 -54.3869
  1021 371.211 -2.16030 9.52321
  1022 371.037 -2.18173 -9.59990
  1023 14.1541 12.8827 -22.4002
  1024 412.992 -18.2579 -32.1800
  1025 349.051 -26.9344 -91.4137
  1026 412.721 -18.2278 31.8674
  1027 587.265 -18.0381 49.9047
  1028 527.878 -32.4538 -4.24763
  1029 557.146 10.4449 -48.8850
  1030 573.629 71.5840 10.2408
  1031 759.869 49.8540 36.7014
  1032 580.458 -44.2560 21.1658
  1033 373.959 -29.4186 -69.6024
  1034 553.046 19.8453 -45.9211
  1035 410.676 -34.9292 -114.237
  1036 779.629 167.461 -4.62885
  1037 539.242 35.7354 23.3588
  1038 668.551 -3.55888 -24.1522
  1039 508.901 -52.9371 34.8698
  1040 581.589 -18.6554 38.1780
  1041 577.107 -30.6600 26.0288
  1042 573.922 -29.0649 22.2207
  1043 705.318 90.3876 -36.3792
  1044 575.122 -9.39572 39.5271
  1045 518.615 -61.6084 62.3920
  1046 553.500 -22.8132 5.76897
  1047 374.200 -29.4854 69.2672
  1048 521.364 -38.0952 -10.4199
  1049 308.506 -15.1663 -97.0566
  1050 434.701 -44.9075 77.6313
  1051 584.594 -4.16032 -20.9171
  1052 571.176 -6.48776 -45.2681
  1053 495.737 -38.7487 -23.6583
  1054 309.015 -15.5693 96.3645
  1055 536.548 1.46466 -32.0316
  1056 401.581 -26.0114 -49.5669
  1057 714.093 150.896 16.7412
  1058 165.542 26.2345 -93.9060
  1059 1181.18 83.2743 111.680
  1060 291.183 20.6882 -137.775
  1061 573.524 -47.6151 -11.1546
  1062 401.710 -25.8032 49.2053
  1063 531.455 5.91564 35.9824
  1064 305.260 -5.89631 30.7505
  1065 305.135 -6.03935 -31.0369
  1066 582.099 -16.3253 -46.3843
  1067 612.824 -3.54693 2.60575
  1068 604.264 -1.53188 9.05495
  1069 600.643 19.8650 58.7885
  1070 563.914 -4.23300 42.7105
  1071 433.476 46.9812 207.419
  1072 635.827 -0.672019 0.782690
  1073 606.376 81.8900 37.5883
  1074 518.529 7.83197 31.1178
  1075 610.833 -2.51405 8.61950
  1076 404.256 -3.99581 -8.08391
  1077 404.338 -3.95179 8.04064
  1078 260.840 -7.13917 -51.4030
  1079 261.759 -7.39875 51.0983
  1080 520.269 26.3772 13.0985
  1081 761.089 44.6761 -64.4965
  1082 699.651 1.86607 -113.198
  1083 569.337 -0.571191 -12.9427
  1084 434.795 -45.2333 -78.1841
  1085 496.789 -36.8609 21.4415
  1086 572.328 -1.36652 13.4909
  1087 595.539 -43.4470 -25.3899
  1088 383.914 -0.705438 4.74067
  1089 383.806 -0.719149 -4.76545
  1090 572.457 -48.9773 11.1362
  1091 544.960 -11.4719 0.428979
  1092 544.868 -11.4865 -0.400298
  1093 530.765 -53.2497 23.6865
  1094 676.458 -21.3464 -14.4278
  1095 321.091 -0.513868 -8.73245
  1096 321.565 -0.495925 8.65057
  1097 465.385 -29.9581 -130.921
  1098 498.310 -11.8408 3.60482
  1099 498.347 -11.8970 -3.62828
  1100 299.187 164.811 228.013
  1101 682.685 56.5683 -42.3923
  1102 105.707 50.1719 -72.6249
  1103 590.314 -9.26787 -8.15264
  1104 163.528 54.6495 -107.833
  1105 337.284 -20.7605 -65.8901
  1106 635.553 -0.936302 0.555588
  1107 635.747 -0.893246 -0.395901
  1108 582.922 -33.4804 -32.0783
  1109 515.903 -58.1832 -85.7494
  1110 165.695 22.3371 89.4790
  1111 634.806 62.7455 52.2404
  1112 573.842 -6.34024 -0.617738
  1113 573.917 -6.34164 0.666736
  1114 622.633 -39.4296 104.438
  1115 651.620 129.447 19.7702
  1116 394.774 -9.04151 -20.2610
  1117 394.882 -9.00438 20.1383
  1118 296.546 33.1791 162.883
  1119 555.675 2.98121 -47.2210
  1120 177.907 56.1932 115.576
  1121 700.234 -10.7246 -40.4175
  1122 696.705 152.316 5.60778
  1123 482.174 -37.6120 28.0194
  1124 454.096 2.67881 -1.98784
  1125 604.750 -5.64706 10.7219
  1126 624.254 -0.996032 4.14926
  1127 147.936 0.196684 -26.0442
  1128 149.670 0.133608 25.8828
  1129 503.761 8.80805 -23.1201
  1130 512.959 -15.0569 -3.35727
  1131 512.856 -14.9986 3.34319
  1132 55.2411 97.1255 -84.5005
  1133 86.2661 202.016 -163.809
  1134 519.080 -20.2076 3.46886
  1135 519.258 -20.1920 -3.50445
  1136 535.238 -13.0997 0.267775
  1137 535.165 -13.0802 -0.230555
  1138 144.085 91.5298 116.963
  1139 429.553 -5.01071 -4.00845
  1140 429.613 -4.97770 3.99320
  1141 536.730 40.8977 -0.522049
  1142 662.844 91.4819 -238.540
  1143 648.167 111.268 -33.9520
  1144 590.342 -22.8283 -46.7717
  1145 581.264 -29.2055 -32.9080
  1146 482.381 -37.9474 -28.4582
  1147 491.554 1.75494 14.2694
  1148 547.664 34.4391 -34.1361
  1149 540.555 29.3840 32.6841
  1150 553.155 -22.1721 -5.63880
  1151 529.168 -31.8212 3.83274
  1152 483.394 -30.7293 -21.4133
  1153 573.154 -3.45399 25.0933
  1154 989.922 99.6156 13.7541
  1155 576.603 -12.3937 45.6381
  1156 580.183 38.1396 50.8026
  1157 533.189 -52.2551 -18.7502
  1158 71.7186 10.9611 -41.6652
  1159 543.169 -25.1965 -3.10761
  1160 372.534 -0.456500 -0.264885
  1161 372.634 -0.454346 0.262789
  1162 656.747 -17.3968 19.8340
  1163 625.597 -52.7923 28.4885
  1164 894.307 159.093 40.7249
  1165 227.097 -0.361276 -21.5084
  1166 228.288 -0.314388 21.3640
  1167 488.339 -9.80518 -2.76153
  1168 488.323 -9.75144 2.74579
  1169 544.628 -47.9195 -5.40531
  1170 457.856 2.25467 6.52589
  1171 557.419 -39.7077 8.17690
  1172 33.6348 39.9268 -21.5358
  1173 104.474 50.9244 70.9386
  1174 376.220 -20.9691 126.428
  1175 646.263 122.300 -24.2921
  1176 612.904 -1.82256 -6.82588
  1177 638.068 -1.14804 0.320069
  1178 638.603 -1.51269 -0.173045
  1179 386.042 -0.733083 -0.817801
  1180 386.139 -0.726840 0.812985
  1181 595.876 38.0680 57.3303
  1182 869.875 147.196 -3.16002
  1183 614.720 101.135 -25.2800
  1184 458.261 -34.1543 130.106
  1185 374.244 -20.2259 -126.169
  1186 418.176 -27.3589 -44.6788
  1187 570.177 -16.2970 9.17530
  1188 791.146 175.505 13.7507
  1189 418.238 -27.2099 44.3655
  1190 581.592 -10.6342 6.93845
  1191 527.389 19.9542 31.2551
  1192 576.824 17.9736 55.3525
  1193 812.152 180.976 24.5637
  1194 489.167 -12.6270 5.08617
  1195 489.182 -12.6791 -5.11426
  1196 589.523 -11.4825 16.4549
  1197 360.659 -3.59394 14.8262
  1198 360.416 -3.62880 -14.9436
  1199 576.272 -8.33176 -2.78033
  1200 239.835 144.261 -221.483
  1201 499.213 -28.3786 -139.400
  1202 476.514 -14.6488 -8.82834
  1203 476.570 -14.5912 8.83222
  1204 614.984 -3.29694 2.44039
  1205 584.674 -8.15659 5.51080
  1206 33.8667 44.0708 33.2726
  1207 632.348 -0.865408 2.08458
  1208 78.4252 101.785 100.906
  1209 571.801 -9.01897 -3.64426
  1210 -0.452793 -13.6622 -12.0312
  1211 408.700 -39.9545 -98.0832
  1212 407.667 -39.0014 97.1503
  1213 632.316 -1.25390 -2.33456
  1214 546.479 -28.8629 -3.96114
  1215 614.665 -3.05245 -2.43171
  1216 499.154 -16.0152 -5.33742
  1217 499.117 -15.9671 5.29371
  1218 575.919 -8.28147 2.58253
  1219 542.789 -24.6931 3.07586
  1220 523.295 -16.8919 1.78942
  1221 523.464 -16.9266 -1.73492
  1222 614.038 -3.14154 -1.96426
  1223 532.877 -56.4155 -96.3985
  1224 601.767 -4.22471 -1.93294
  1225 574.108 -9.25028 4.00373
  1226 410.381 -4.17234 -6.08006
  1227 410.459 -4.13324 6.05100
  1228 454.660 -6.47138 -3.30891
  1229 454.691 -6.43159 3.29577
  1230 723.137 113.512 29.2491
  1231 608.678 -47.0551 17.2040
  1232 419.679 -2.30107 160.269
  1233 347.097 -0.475490 5.70083
  1234 346.820 -0.481104 -5.75047
  1235 579.543 -10.8622 34.0253
  1236 553.583 -8.79360 0.413228
  1237 553.598 -8.76798 -0.413121
  1238 636.499 122.994 11.4436
  1239 577.822 -60.7076 77.7199
  1240 346.237 -4.60889 20.6446
  1241 345.918 -4.64071 -20.7774
  1242 553.027 -13.8041 2.61969
  1243 552.903 -13.9041 -2.50656
  1244 569.858 -16.1172 -8.79247
  1245 530.610 0.155216 16.5557
  1246 896.118 223.150 -78.5279
  1247 581.070 -21.5165 -29.1735
  1248 104.751 23.8678 60.2406
  1249 599.722 -32.1881 40.2342
  1250 491.320 11.1558 -12.6664
  1251 40.0391 27.8791 23.2449
  1252 781.367 90.5982 -16.0449
  1253 586.441 -26.8463 -41.3205
  1254 493.480 7.35912 19.4264
  1255 339.545 -20.8050 65.8242
  1256 594.531 -46.2361 22.1353
  1257 852.009 169.861 62.2104
  1258 205.173 29.3661 113.371
  1259 596.691 -7.50009 -14.2385
  1260 1118.56 12.7086 -11.0367
  1261 1153.55 17.1621 48.8186
  1262 1228.33 40.9067 -116.654
  1263 580.910 -18.3503 -37.0657
  1264 580.332 -26.7131 30.7388
  1265 589.023 -42.1314 27.4969
  1266 -17.1820 2.19445 10.7277
  1267 -15.5667 1.82047 -11.7589
  1268 572.348 -63.4843 -38.6323
  1269 585.310 -59.4289 -55.9605
  1270 460.845 3.11455 -8.03985
  1271 569.727 -64.5683 55.5798
  1272 609.657 -29.1117 -40.6684
  1273 13.9198 19.0549 3.88737
  1274 499.688 -9.16290 1.69833
  1275 499.719 -9.22094 -1.70275
  1276 604.111 -5.24399 9.52449
  1277 581.510 -10.4573 -6.46893
  1278 549.175 -59.9254 -22.1047
  1279 504.430 -27.0033 10.3367
  1280 502.001 -26.6093 -10.9845
  1281 588.118 -12.7497 23.2114
  1282 602.968 -22.3307 -47.8394
  1283 41.4996 29.0651 -22.7613
</Section>

newXOutput 81

<Section columns = "stress_xx | stress_yy | stress_xy">
  1 649.007 -0.310678 1.16579
  2 648.999 -0.296426 -1.16826
  3 371.802 -0.0670470 -0.419317
  4 -4.63182 -4.56275 -6.66394
  5 1131.40 474.404 370.306
  6 1121.24 490.570 -367.185
  7 -5.38596 -4.31841 7.11481
  8 371.702 -0.0682219 0.418384
  9 653.175 -1.16556 0.325633
  10 652.014 -1.80946 -0.391860
  11 650.890 -1.28235 1.27010
  12 649.728 -1.69911 0.229584
  13 647.186 -1.45787 1.99520
  14 644.842 -1.45852 1.37833
  15 639.023 -1.28195 2.90321
  16 630.398 -1.00202 4.30915
  17 622.781 -1.00526 4.86861
  18 611.213 -1.29560 5.96260
  19 594.850 -0.200094 8.91647
  20 579.744 -0.949533 8.56297
  21 562.154 -1.16904 12.1791
  22 536.790 0.813889 10.6824
  23 518.131 1.32260 12.7038
  24 493.754 2.17179 10.0082
  25 476.758 2.41858 10.1229
  26 452.154 3.25875 5.18094
  27 446.907 5.10962 5.57959
  28 443.721 4.26267 -1.65797
  29 448.004 2.59659 -3.60060
  30 455.922 2.43211 -4.42714
  31 474.371 2.99864 -8.81275
  32 492.299 2.37267 -11.0825
  33 518.337 0.621665 -13.1001
  34 539.121 -0.228760 -11.8260
  35 561.056 -0.921529 -11.5221
  36 580.801 -0.750484 -8.07716
  37 597.555 -0.817381 -6.83937
  38 611.205 -1.27672 -5.67465
  39 623.285 -0.953455 -3.86294
  40 630.639 -1.17362 -4.05748
  41 637.756 -1.37170 -2.94623
  42 644.331 -1.59905 -1.18042
  43 647.649 -1.30809 -1.46547
  44 649.219 -0.874549 -0.868460
  45 647.553 -0.590710 -0.796532
  46 652.585 -1.80056 0.288881
  47 653.333 -1.20419 -0.335149
  48 633.899 -0.833890 -0.723049
  49 620.948 -3.09530 -1.37698
  50 604.951 -4.44096 -0.790817
  51 585.328 -6.34126 -1.11315
  52 566.574 -6.85886 -1.32814
  53 546.448 -8.33009 -1.28301
  54 528.535 -9.11606 -0.629492
  55 512.816 -9.99317 -0.130864
  56 494.640 -8.23648 -0.104892
  57 473.680 -7.59143 -0.327236
  58 453.510 -5.89318 0.0167137
  59 434.435 -3.65732 0.0719487
  60 416.352 -2.53428 0.133032
  61 400.564 -1.20607 0.249312
  62 384.519 -0.251943 -0.470760
  63 371.929 0.538078 0.709238
  64 366.183 1.36565 0.517770
  65 369.759 0.0539757 1.15345
  66 365.109 -0.129769 1.40962
  67 360.648 -0.218738 1.75139
  68 354.677 0.0231923 2.24271
  69 347.164 0.0179571 2.79667
  70 341.338 -0.347899 5.26949
  71 325.730 0.471448 5.73029
  72 314.568 0.00265124 6.49309
  73 297.957 -0.242053 7.38503
  74 278.901 -0.431351 8.96844
  75 255.045 -0.0700482 10.8927
  76 225.971 0.157216 12.0560
  77 200.456 -0.194224 17.2570
  78 150.751 1.55742 16.3869
  79 116.396 1.33929 17.3728
  80 74.7747 -0.374728 19.4169
  81 39.7529 3.06682 20.3923
  82 -0.352638 4.68610 12.6386
  83 -30.0787 4.78541 4.95869
  84 -30.5914 4.72943 -0.955968
  85 -30.4682 3.98076 -8.95140
  86 -18.0620 -1.09121 -8.70142
  87 -2.08432 -17.3361 -9.65271
  88 1.91905 -31.6425 -11.8332
  89 5.02024 -48.6873 -5.86800
  90 10.9610 -47.2696 2.13827
  91 22.9081 -2.79724 32.1725
  92 66.8104 117.251 103.600
  93 376.246 378.927 333.962
  94 1374.62 207.954 226.947
  95 1244.80 29.5803 73.1311
  96 1162.63 12.4598 22.3809
  97 1132.39 10.6838 1.66637
  98 1148.77 14.0859 -19.5346
  99 1242.78 27.7929 -57.9685
  100 1449.86 100.302 -193.680
  101 225.079 391.065 -280.967
  102 49.9608 90.1906 -86.7735
  103 25.1067 -0.276451 -34.6743
  104 10.2982 -46.7588 -7.29510
  105 3.13127 -36.6040 6.64289
  106 3.77495 -39.9964 10.1810
  107 0.253869 -14.8925 10.7044
  108 -18.8794 -0.627039 8.21275
  109 -31.4256 2.98988 7.76485
  110 -32.2535 5.73316 1.11801
  111 -31.0100 4.69370 -4.65850
  112 -2.57479 4.80193 -11.8878
  113 37.8308 3.09242 -19.4701
  114 72.8205 -0.0419267 -19.1008
  115 114.368 1.44647 -17.4028
  116 148.909 1.59618 -16.5022
  117 199.030 -0.201330 -17.3900
  118 224.754 0.172426 -12.1634
  119 253.979 -0.0668365 -11.0203
  120 278.363 -0.482148 -9.02678
  121 297.214 -0.226827 -7.39964
  122 314.000 0.0224475 -6.55443
  123 325.261 0.466345 -5.78670
  124 340.995 -0.351682 -5.31719
  125 346.885 0.0154947 -2.82574
  126 354.459 0.0208139 -2.26652
  127 360.476 -0.222708 -1.77016
  128 364.971 -0.133176 -1.42266
  129 369.640 0.0511260 -1.16169
  130 366.074 1.36443 -0.521535
  131 371.826 0.537428 -0.711630
  132 384.420 -0.255125 0.469653
  133 400.472 -1.21409 -0.252155
  134 416.272 -2.55175 -0.136329
  135 434.373 -3.68154 -0.0750982
  136 453.471 -5.92817 -0.0198963
  137 473.667 -7.63599 0.324677
  138 494.656 -8.28839 0.102091
  139 512.856 -10.0521 0.129452
  140 528.592 -9.17513 0.631335
  141 546.533 -8.38385 1.28910
  142 566.651 -6.89547 1.35004
  143 585.391 -6.37406 1.21999
  144 605.064 -4.22628 0.807907
  145 621.371 -3.02448 1.34592
  146 634.023 -0.933082 0.711306
  147 573.050 -53.8905 0.696350
  148 572.536 -53.1557 -0.496988
  149 605.338 86.7116 -27.2554
  150 640.967 37.7278 56.4605
  151 486.063 -47.1653 -110.026
  152 490.091 -47.0683 106.634
  153 476.909 -19.8115 14.4443
  154 476.934 -20.0742 -14.4485
  155 676.745 24.7225 -40.5669
  156 571.576 -20.8481 9.78606
  157 571.327 -20.3662 -9.67215
  158 738.482 163.193 5.36254
  159 587.440 -0.913357 -56.3680
  160 438.441 -33.8801 -49.6921
  161 438.488 -33.6123 49.2968
  162 587.801 -13.4246 50.3596
  163 562.328 41.2618 34.1839
  164 235.124 36.6737 -131.532
  165 259.751 34.8332 138.442
  166 711.022 9.22092 -1.74904
  167 588.104 -22.7859 -33.9431
  168 774.892 170.119 2.69516
  169 531.350 -15.0978 -1.49644
  170 531.246 -15.0612 1.53541
  171 592.330 -7.69939 -4.17795
  172 594.019 -6.98157 3.57579
  173 424.552 -5.73853 -8.19192
  174 424.615 -5.68214 8.15732
  175 631.306 -15.2621 140.049
  176 545.376 22.9616 -36.8919
  177 359.044 -26.5912 -78.5482
  178 360.088 -26.4028 78.0879
  179 404.469 -12.7362 -26.0224
  180 404.518 -12.5968 25.8546
  181 590.709 -15.7892 28.8967
  182 538.342 -36.7794 -4.48094
  183 536.556 -36.5064 5.26753
  184 607.908 -59.0987 -15.5690
  185 611.212 -56.3052 8.09709
  186 836.555 197.531 -35.0886
  187 616.840 98.5608 25.3875
  188 615.963 37.8392 -57.6519
  189 628.362 -3.49198 -161.733
  190 609.019 -34.6227 -38.1150
  191 614.370 -24.7999 45.7507
  192 513.916 -58.2506 55.5848
  193 513.954 -57.8203 -55.4395
  194 553.573 7.24383 44.1234
  195 257.805 -6.65404 -96.4698
  196 258.382 -7.15928 95.9279
  197 938.150 139.692 20.6519
  198 577.544 -34.5565 19.5061
  199 597.843 -11.3550 -18.4281
  200 479.932 -11.5106 -6.84261
  201 479.950 -11.4598 6.82554
  202 577.395 -7.56706 -39.0232
  203 655.573 96.0428 -45.1244
  204 553.919 49.9974 -6.82826
  205 365.639 -12.4419 36.1437
  206 365.112 -12.4746 -36.3819
  207 605.317 -7.17864 9.66995
  208 594.183 11.2026 58.0789
  209 485.169 -34.7944 -25.3670
  210 482.152 -32.9304 25.8107
  211 696.386 103.462 39.3773
  212 810.110 115.777 28.0117
  213 59.2100 45.0639 -39.4913
  214 54.8745 41.6524 33.7191
  215 338.725 98.2913 228.317
  216 571.887 -38.0920 -13.9981
  217 607.243 -6.88632 -8.71763
  218 547.781 5.04118 -40.6685
  219 390.726 -3.58510 -11.6011
  220 390.855 -3.54594 11.5136
  221 517.221 -24.0706 -6.94502
  222 517.466 -24.2326 6.65957
  223 581.821 -7.93716 33.0300
  224 662.664 -38.1448 21.2793
  225 665.367 134.869 -12.8207
  226 521.837 -50.0956 -27.8914
  227 655.000 -11.4462 33.2959
  228 560.442 -9.81823 1.08859
  229 560.440 -9.74526 -1.08774
  230 518.242 -49.8649 28.7799
  231 591.349 -37.7271 30.5602
  232 818.404 111.781 -61.8492
  233 188.114 111.857 -168.158
  234 509.841 18.3355 8.90334
  235 597.324 52.6410 49.0882
  236 632.117 -4.52780 -49.6915
  237 592.175 -21.4740 -46.5746
  238 324.774 -10.0590 -44.9651
  239 325.822 -9.91296 44.8520
  240 592.736 -7.38997 -25.1678
  241 564.478 -14.6275 4.63627
  242 564.218 -14.6178 -4.43497
  243 125.302 10.7980 -62.7888
  244 127.077 9.45556 62.5560
  245 624.693 -54.8313 -53.7588
  246 617.385 -2.69950 1.12970
  247 617.957 -2.74555 -1.29087
  248 584.206 48.5259 -45.1336
  249 519.045 10.3705 26.8352
  250 1045.87 167.418 112.857
  251 1036.44 118.031 -70.0410
  252 765.524 163.492 0.779397
  253 478.650 -23.4131 145.403
  254 440.376 -15.6097 -151.817
  255 507.689 -10.4282 -2.75449
  256 507.649 -10.3697 2.73886
  257 426.632 -10.9560 16.3133
  258 426.614 -11.1002 -16.4375
  259 605.433 -6.89656 15.0367
  260 588.866 -42.1063 -24.2628
  261 393.550 -0.565365 -2.77656
  262 393.650 -0.554383 2.76238
  263 581.560 -23.8322 -19.6457
  264 255.863 -8.18226 -62.6398
  265 256.864 -8.20664 62.2311
  266 589.304 -25.7624 36.6410
  267 452.566 -48.0391 88.6257
  268 453.610 -48.8936 -88.3476
  269 516.685 20.2269 -12.4939
  270 446.084 -6.53844 -5.54457
  271 446.131 -6.49808 5.52693
  272 557.004 -1.27980 32.3704
  273 661.472 120.385 31.0950
  274 364.362 -4.14212 19.3272
  275 364.098 -4.17458 -19.4722
  276 603.700 -50.6780 14.9630
  277 558.817 -62.9675 -61.6242
  278 620.058 -3.45426 4.34111
  279 440.137 -25.4290 -34.2514
  280 439.452 -25.1569 34.1413
  281 751.923 87.7203 203.627
  282 368.025 -29.8544 105.074
  283 590.309 82.6972 -2.88026
  284 735.166 82.9631 -21.7021
  285 559.089 -43.1973 3.09701
  286 559.416 -64.6601 55.9634
  287 369.036 -29.3938 -106.165
  288 70.3883 87.1560 80.8377
  289 581.662 -23.9018 20.0281
  290 756.423 100.879 14.7536
  291 624.461 -3.09137 -3.76651
  292 574.310 20.2923 -51.9830
  293 563.282 -31.9422 9.14710
  294 551.864 -46.4757 5.30535
  295 572.504 26.4355 50.1781
  296 600.949 -50.6634 -12.9020
  297 846.322 163.182 -16.1766
  298 563.136 -30.7180 -8.71718
  299 459.093 136.938 -276.895
  300 574.504 -61.0160 -15.8356
  301 570.569 -62.6998 22.2605
  302 424.758 -38.0055 -69.4750
  303 389.874 -1.29665 -5.98501
  304 389.990 -1.27370 5.94530
  305 424.976 -38.0476 69.1315
  306 609.345 -1.07354 -57.5756
  307 653.441 -27.0772 -19.9220
  308 503.682 -29.9394 -14.5400
  309 503.412 -30.0110 14.7833
  310 594.293 -51.1716 96.5001
  311 597.299 -5.01151 19.0312
  312 717.353 5.46101 39.7815
  313 494.409 -17.1888 -8.23386
  314 494.451 -17.1416 8.19762
  315 453.271 -11.4033 -11.0828
  316 453.287 -11.3039 11.0714
  317 514.107 7.20442 -25.9364
  318 648.510 47.6126 -54.4600
  319 986.348 268.315 -131.517
  320 588.730 -5.75859 -1.31034
  321 588.434 -5.68673 1.35779
  322 321.467 -1.33272 131.173
  323 450.420 -19.8650 -23.1351
  324 449.646 -19.8131 23.1990
  325 321.402 -2.12037 -130.669
  326 620.830 73.1346 -47.3020
  327 688.579 34.5942 37.9082
  328 593.889 -42.3316 -106.629
  329 551.103 -21.4180 3.00022
  330 550.575 -21.2783 -2.77911
  331 585.876 -12.6234 -8.99965
  332 557.334 -0.977352 -30.2510
  333 619.955 2.51270 55.9729
  334 615.305 -4.67447 -10.2595
  335 379.653 -22.4418 52.7956
  336 379.240 -22.5569 -53.1596
  337 579.476 -1.24774 53.6924
  338 367.146 -2.73567 -11.5647
  339 367.372 -2.71085 11.4732
  340 590.442 -13.9981 14.8729
  341 709.239 144.137 -21.0809
  342 585.654 -12.7020 9.37642
  343 627.498 78.5324 47.3242
  344 599.517 -11.2816 54.8231
  345 479.505 -8.81524 2.62798
  346 479.500 -8.86310 -2.64153
  347 570.025 -1.95418 -47.7313
  348 747.582 156.670 10.9620
  349 626.930 114.140 0.975066
  350 382.983 44.2168 -193.598
  351 43.6518 17.5265 -28.6077
  352 47.4247 18.9918 30.5821
  353 -0.842287 5.06150 10.5554
  354 1.29878 3.23067 -11.1194
  355 1067.19 74.1606 24.9378
  356 518.875 -41.7601 -17.4870
  357 590.815 -13.5557 -14.4943
  358 535.869 -9.70301 0.126728
  359 535.809 -9.63391 -0.131482
  360 576.699 63.7398 -24.4773
  361 490.732 -49.5942 45.8192
  362 45.2511 67.9890 -51.4237
  363 491.110 -49.5607 -46.5661
  364 583.826 66.4052 26.0336
  365 590.585 -16.0662 -27.4130
  366 624.752 -35.0960 -31.1827
  367 669.795 140.094 8.77693
  368 625.875 -39.3665 24.6426
  369 270.317 -6.42562 41.8455
  370 268.847 -6.29860 -42.0774
  371 155.450 3.44638 -58.9637
  372 156.885 2.87625 58.7157
  373 521.529 2.07458 26.1593
  374 957.023 284.729 117.753
  375 608.961 -4.17797 -13.3847
  376 479.306 -39.8846 -35.3516
  377 478.979 -39.8068 35.3089
  378 587.966 -13.7889 -35.4662
  379 663.776 -32.0441 -2.01567
  380 518.858 -41.7325 17.9329
  381 723.811 7.48863 -67.1530
  382 424.497 -3.13968 -2.28453
  383 424.568 -3.11455 2.27245
  384 579.823 -3.48383 -23.0097
  385 322.446 -4.37006 -27.2070
  386 322.618 -4.51763 26.9020
  387 688.218 88.2213 -44.3750
  388 374.667 26.1690 180.342
  389 541.683 -28.3754 -0.364996
  390 542.199 -28.3338 0.346360
  391 637.435 107.276 -29.6362
  392 601.417 -17.9811 -51.5475
  393 599.346 -61.4990 55.1215
  394 505.993 -13.3643 -4.40560
  395 505.946 -13.3103 4.37402
  396 579.586 -44.8269 14.9178
  397 620.569 -3.28646 7.54775
  398 398.103 -13.9261 -32.3506
  399 398.266 -13.9351 32.1076
  400 591.579 19.9537 -57.4047
  401 556.139 -12.4518 1.55723
  402 556.108 -12.4861 -1.49468
  403 577.598 -6.89667 43.5038
  404 543.138 39.9369 11.9059
  405 596.391 -25.4120 44.4714
  406 854.213 177.674 35.0868
  407 295.684 -15.8148 -84.1632
  408 296.459 -15.8138 83.5782
  409 133.490 70.1800 -103.227
  410 632.193 -2.28325 1.89340
  411 336.255 -2.58144 -17.2553
  412 336.664 -2.52692 17.1242
  413 588.307 -15.5804 34.5956
  414 534.073 -57.8067 32.0405
  415 599.226 -8.00786 6.33001
  416 614.820 31.1727 59.3418
  417 139.426 74.7252 107.200
  418 534.815 -57.4501 -29.7677
  419 552.245 -51.2126 -9.24551
  420 189.628 -3.76637 -53.0941
  421 190.877 -3.89510 52.7581
  422 425.960 -34.6180 -126.681
  423 632.014 -9.62424 48.2745
  424 424.544 -35.0716 125.644
  425 585.009 -33.0563 -27.4824
  426 550.069 37.4788 -25.9276
  427 585.044 -25.5713 26.3532
  428 624.605 -3.21843 -4.89900
  429 20.6582 23.0866 11.9733
  430 130.768 154.153 151.080
  431 567.059 -2.05603 22.3737
  432 484.128 7.03687 11.4478
  433 491.685 8.47681 -15.4785
  434 419.552 -6.50686 -11.5173
  435 419.609 -6.42730 11.4551
  436 576.750 -44.7866 -13.3439
  437 584.634 -11.5737 -48.4576
  438 486.433 9.59825 -4.20081
  439 853.086 204.031 48.5649
  440 124.748 39.9122 -77.6465
  441 136.948 36.6047 82.6043
  442 541.180 -19.3880 0.194804
  443 540.990 -19.3562 -0.0648763
  444 719.888 157.218 -1.50982
  445 440.738 194.055 283.001
  446 686.647 -8.94903 -2.33178
  447 405.399 -20.5263 -43.8792
  448 405.600 -20.3970 43.5487
  449 409.699 -8.66418 17.6605
  450 409.611 -8.72244 -17.7974
  451 546.565 12.4807 -41.9785
  452 635.063 -1.27859 -1.21152
  453 532.935 24.9010 23.7258
  454 663.518 81.8343 49.5531
  455 553.537 -41.0245 -1.33584
  456 598.929 -7.66100 -6.17082
  457 626.956 -2.95394 4.50695
  458 633.148 -1.38513 0.687326
  459 633.578 -1.51655 -0.471784
  460 365.951 -0.529802 4.34165
  461 365.768 -0.538376 -4.37977
  462 603.745 -38.6362 33.2441
  463 551.582 22.0856 40.6731
  464 573.768 2.42878 -52.5270
  465 594.511 -12.9581 19.9786
  466 837.530 153.074 -175.065
  467 596.719 -33.3457 -38.1486
  468 8.47544 11.7429 6.35352
  469 8.31058 12.0397 -3.39067
  470 477.821 -26.5144 20.6151
  471 476.329 -26.1349 -20.3289
  472 730.429 17.4813 97.0711
  473 207.667 196.561 -217.451
  474 590.206 -1.96297 17.1051
  475 660.913 -38.0313 -57.5512
  476 363.823 -20.4149 60.9187
  477 713.652 126.787 -30.4391
  478 588.252 -32.0870 31.6246
  479 497.950 -23.4182 -11.2130
  480 498.379 -23.0454 11.1927
  481 521.413 2.94438 -23.0700
  482 362.736 -20.3226 -61.2442
  483 533.376 0.432257 23.1030
  484 504.843 -57.8953 -80.0927
  485 503.619 -57.9831 80.4534
  486 605.949 -4.29577 14.8245
  487 558.147 52.8617 4.91183
  488 554.641 11.1595 195.511
  489 819.310 164.978 -1.02509
  490 568.613 -10.0822 2.33390
  491 568.634 -10.0489 -2.45995
  492 445.677 -7.53803 -7.56239
  493 445.719 -7.48056 7.54069
  494 237.417 10.1271 111.047
  495 591.109 -28.7124 -37.6593
  496 537.484 -11.9307 -0.661444
  497 537.431 -11.8966 0.668411
  498 470.011 -49.4561 65.4598
  499 241.815 13.4944 -113.775
  500 591.000 -48.3726 -15.4183
  501 11.3163 4.51207 2.64164
  502 525.692 27.6374 1.76845
  503 570.370 -7.16500 -0.717355
  504 570.367 -7.25032 0.690284
  505 470.209 -49.3527 -65.9365
  506 661.413 -33.2955 71.5724
  507 660.374 24.0456 49.6511
  508 607.389 -4.70870 -2.90544
  509 589.212 -49.0314 15.7351
  510 382.877 -0.230863 -0.828053
  511 382.979 -0.227892 0.822838
  512 589.663 -22.8532 -40.7315
  513 575.288 42.6885 44.2452
  514 652.542 16.1985 -49.1429
  515 380.532 -0.466392 -2.45583
  516 380.646 -0.459136 2.44201
  517 1111.29 160.793 -142.607
  518 597.655 71.0158 38.7162
  519 607.848 -4.40605 2.56477
  520 553.401 -52.3603 10.6020
  521 470.710 -15.1619 11.6349
  522 470.692 -15.2678 -11.6113
  523 640.016 -39.2199 10.5425
  524 617.953 -12.5518 -51.6003
  525 691.743 135.433 26.6589
  526 578.619 10.0736 54.5286
  527 578.790 -11.6393 5.26879
  528 561.566 -60.2979 -78.0817
  529 585.923 -14.7127 40.6357
  530 1096.42 50.6205 -19.8855
  531 635.032 -48.0798 5.23358
  532 603.640 -4.60971 -0.567940
  533 603.788 -4.86152 0.455300
  534 1107.87 74.2684 69.2304
  535 565.105 -0.0682954 46.3900
  536 778.107 133.541 -3.73469
  537 589.437 -16.4441 -19.1311
  538 279.177 -2.44061 -18.5769
  539 279.943 -2.32126 18.4035
  540 404.622 -37.7261 -88.1478
  541 404.987 -37.0991 87.5359
  542 578.462 -11.1914 -5.24253
  543 630.935 23.1362 -57.0367
  544 555.113 -37.7375 3.48399
  545 600.138 68.7383 -40.0641
  546 599.933 -7.34931 19.9222
  547 743.913 39.7558 -17.1465
  548 516.967 -17.6287 -4.47674
  549 516.831 -17.5815 4.44042
  550 558.823 -26.4967 6.32206
  551 813.573 164.665 -21.7585
  552 591.143 25.9153 56.5696
  553 255.289 65.3550 163.366
  554 564.190 -33.7138 132.522
  555 736.053 40.8124 -147.194
  556 604.154 49.9812 -52.4188
  557 531.531 -46.3063 -115.220
  558 576.367 -63.3748 -26.9164
  559 600.304 -61.1124 -37.5197
  560 81.8117 108.877 -102.876
  561 603.868 -8.16581 -11.6276
  562 901.017 174.628 -53.9408
  563 561.648 -25.4814 -7.47731
  564 565.840 -18.7234 6.21289
  565 565.331 -18.3211 -5.89228
  566 401.695 -2.04128 -5.49018
  567 401.791 -2.01514 5.46054
  568 62.4341 5.72725 -33.1862
  569 65.3671 6.02093 33.9141
  570 299.916 -13.5776 -64.0224
  571 302.053 -13.6574 63.9659
  572 573.717 -31.2930 -16.2444
  573 582.770 -63.6424 28.8203
  574 598.920 -57.1392 -1.84808
  575 497.076 -8.75697 -2.21650
  576 497.055 -8.70249 2.20680
  577 469.081 -49.4390 -98.4854
  578 521.758 -43.1381 121.613
  579 458.256 -46.5376 98.9632
  580 591.515 -13.2575 -51.9173
  581 380.768 -5.93067 19.5660
  582 380.584 -5.98957 -19.7057
  583 567.753 31.6453 -44.5273
  584 567.378 -1.00958 -20.2984
  585 704.422 151.436 -11.5943
  586 466.456 -6.83012 -2.05253
  587 466.478 -6.79015 2.04456
  588 600.529 -1.89632 -11.1742
  589 423.196 -13.7171 -22.0788
  590 423.227 -13.6774 21.9113
  591 342.397 15.0613 155.608
  592 584.509 -27.1511 -26.5891
  593 331.886 -17.9363 112.043
  594 574.459 -29.9657 16.7128
  595 602.527 -8.99536 12.9336
  596 594.217 -6.05234 -2.48192
  597 428.893 -4.97035 -5.23921
  598 428.957 -4.93262 5.21788
  599 676.279 134.070 -24.3853
  600 331.637 -17.3198 -112.411
  601 572.493 -25.0542 -13.0545
  602 519.317 -9.77473 -1.28734
  603 519.269 -9.71160 1.28272
  604 953.578 127.712 -23.0924
  605 355.101 -2.08590 10.7093
  606 354.814 -2.10539 -10.7965
  607 540.671 12.7169 38.3844
  608 754.371 65.9506 0.242681
  609 364.178 1.74457 -154.287
  610 192.273 4.25565 -85.1752
  611 193.737 3.24279 84.7325
  612 458.780 -26.1562 27.8208
  613 463.254 -26.9287 -27.1476
  614 766.752 155.212 6.30770
  615 591.977 -6.25054 2.17687
  616 519.323 15.0715 -23.2793
  617 639.210 114.131 23.4599
  618 637.190 118.384 -15.6203
  619 523.547 -28.8009 -7.03871
  620 527.329 -28.1882 5.21831
  621 373.444 82.3861 -220.258
  622 454.677 -15.0605 -15.7320
  623 454.728 -14.8984 15.6907
  624 1107.25 227.228 171.318
  625 590.237 -19.5332 44.2679
  626 346.727 -11.7651 -40.9707
  627 893.262 220.874 153.330
  628 347.487 -11.7071 40.8414
  629 559.170 -21.0086 -153.847
  630 408.617 -1.75322 -2.01771
  631 408.703 -1.73838 2.00942
  632 502.471 4.77828 20.3341
  633 234.947 -3.31742 -36.7055
  634 236.095 -3.32703 36.4466
  635 517.028 -36.2587 13.9351
  636 540.773 -43.1139 -6.75360
  637 630.535 -1.60975 -4.23940
  638 371.776 -0.492245 3.26026
  639 371.628 -0.501710 -3.28806
  640 490.131 -10.9194 -3.66809
  641 490.121 -10.8666 3.64768
  642 555.289 -61.9271 78.7340
  643 640.714 71.4802 -51.7404
  644 433.014 -19.5774 -28.3923
  645 432.745 -19.2559 28.2090
  646 507.953 -36.1153 -18.0579
  647 791.419 171.264 8.90023
  648 595.544 -57.8560 4.99914
  649 521.147 -12.5749 -2.48200
  650 521.078 -12.5231 2.47919
  651 709.242 78.4227 35.2884
  652 597.612 -8.99993 -21.6345
  653 536.179 -0.515404 -18.7823
  654 253.315 -8.69078 -80.8257
  655 254.011 -8.91110 80.2219
  656 506.327 -43.2625 -27.5620
  657 753.987 164.184 -0.0822973
  658 590.346 79.7745 -17.4438
  659 399.357 -3.33252 -9.95569
  660 399.460 -3.28740 9.88893
  661 547.321 -15.7148 -0.661096
  662 547.423 -15.7214 0.763904
  663 998.084 129.843 57.5013
  664 637.990 -2.01189 1.03708
  665 620.258 -2.72223 7.46810
  666 618.221 -2.72563 -8.89624
  667 588.788 -55.0009 3.68768
  668 442.459 -4.87551 -2.61486
  669 442.511 -4.84421 2.60546
  670 632.718 100.886 36.3529
  671 803.809 177.906 -15.2459
  672 448.092 -32.6388 -40.2127
  673 448.008 -32.3372 40.0384
  674 553.821 -56.9886 -15.9749
  675 587.333 35.0172 -53.3501
  676 687.908 2.25729 16.9015
  677 466.583 -8.42895 -5.46123
  678 466.607 -8.38133 5.44373
  679 403.570 -35.0822 -79.5494
  680 583.376 -56.5715 1.53666
  681 487.627 -54.0250 72.2040
  682 236.369 73.8691 -157.844
  683 457.750 -41.9504 55.7179
  684 552.535 0.163856 17.2371
  685 403.967 -34.6959 79.0620
  686 572.178 -25.5132 13.2150
  687 457.840 -41.7602 -56.1748
  688 476.726 6.55513 4.28723
  689 369.592 -9.45038 29.3070
  690 369.280 -9.45386 -29.4846
  691 487.786 -55.4188 -72.9760
  692 599.926 -39.7570 -32.0788
  693 551.281 -8.17360 -0.234078
  694 551.368 -8.24799 0.235729
  695 612.454 -39.3049 31.2934
  696 557.832 -58.2786 18.2984
  697 675.794 62.2082 48.0853
  698 611.523 -11.6560 53.6200
  699 588.502 -21.4169 31.9166
  700 567.514 46.8771 -33.7794
  701 676.296 113.350 38.2760
  702 585.079 -8.23754 -31.9317
  703 581.120 -19.6267 15.2310
  704 605.575 94.3996 9.39066
  705 592.015 -10.3070 27.3728
  706 189.671 129.956 165.908
  707 550.250 -63.4211 -47.2886
  708 636.931 11.4810 54.0071
  709 641.493 -19.9576 -36.2254
  710 635.801 -1.12895 2.22472
  711 587.632 -20.5395 -24.6259
  712 551.161 -63.9099 43.3489
  713 1042.26 92.4949 -15.3665
  714 341.288 -1.31631 11.1900
  715 340.914 -1.32995 -11.2822
  716 594.444 -11.2946 -10.8687
  717 639.293 -0.884921 -2.20341
  718 505.501 -43.9757 27.6962
  719 603.668 -22.6849 48.2947
  720 900.304 222.126 -78.1719
  721 572.244 -41.5591 12.5965
  722 631.520 -41.8098 -15.5760
  723 581.305 -19.1261 -14.9756
  724 638.387 -1.41051 -0.596401
  725 591.244 -0.112223 56.9537
  726 28.5485 31.3333 38.0568
  727 656.774 -24.0431 -103.297
  728 717.471 43.8525 18.6536
  729 599.899 -61.5449 34.1484
  730 437.666 -10.0752 12.8103
  731 437.650 -10.2084 -12.8602
  732 545.016 296.246 -296.636
  733 612.635 -40.7811 -28.4902
  734 474.997 2.89351 -8.20488
  735 545.668 3.21465 37.2263
  736 592.451 -29.8791 38.2044
  737 567.848 -47.8550 3.90679
  738 586.717 -53.8160 -84.6684
  739 564.597 -44.6721 -5.14570
  740 661.810 -31.5897 -0.301382
  741 610.280 -5.50194 6.22941
  742 549.065 -32.9370 1.51286
  743 978.813 195.519 -106.040
  744 583.507 -16.0397 11.8613
  745 581.464 9.64644 -55.9322
  746 491.824 -5.17289 172.356
  747 621.073 49.9216 56.3952
  748 534.562 -41.8632 9.37122
  749 417.649 -32.3197 -58.3935
  750 417.724 -32.2450 57.9677
  751 572.126 64.4206 -7.82986
  752 578.957 -6.76224 49.5022
  753 584.156 -14.0355 -41.6613
  754 549.663 -33.6337 -1.65547
  755 531.991 -47.4159 17.4340
  756 610.028 100.119 -10.4869
  757 567.176 -49.0999 -1.68218
  758 568.714 -36.0959 12.4955
  759 574.752 -7.92472 1.66534
  760 575.068 -7.73167 -1.64465
  761 772.333 168.121 0.293410
  762 629.628 -53.7589 -25.0772
  763 589.362 -18.3803 24.6184
  764 610.331 -5.50315 -5.59818
  765 620.672 4.03937 -56.5385
  766 701.793 37.8776 -28.5755
  767 359.471 -0.232876 -5.29402
  768 359.698 -0.228402 5.24858
  769 5.65047 -9.17657 -6.30084
  770 601.905 -0.854184 10.3152
  771 556.835 -0.705739 -40.9566
  772 573.170 -5.39065 35.6749
  773 514.039 67.5739 250.122
  774 651.706 132.765 -1.26516
  775 466.428 -32.7541 32.0161
  776 89.2802 1.70965 -32.3522
  777 91.4617 1.23451 32.6817
  778 568.628 -4.01178 -40.4392
  779 467.569 -33.0613 -32.0281
  780 606.828 -6.02898 4.55617
  781 321.588 -13.3176 54.5564
  782 318.996 -13.2642 -54.5396
  783 583.438 -15.5936 -11.5371
  784 383.230 -9.16746 -25.5972
  785 383.417 -9.11306 25.3998
  786 606.686 -6.12981 -14.7385
  787 470.670 -12.2363 -9.32902
  788 470.696 -12.1652 9.33412
  789 661.394 -4.05157 -35.8346
  790 599.256 -6.35151 -56.7369
  791 316.671 -1.87236 -14.1624
  792 317.220 -1.85465 14.0143
  793 20.1187 7.73510 -20.4149
  794 22.6698 8.17560 21.4244
  795 495.507 2.51157 -14.7462
  796 546.347 -61.3698 -36.2263
  797 -6.03255 -4.08352 10.6550
  798 -5.37691 -4.99192 -10.7124
  799 568.033 -11.8395 3.75269
  800 614.487 -48.2185 -13.5124
  801 638.485 94.2824 -42.2496
  802 609.180 -5.45878 -4.35021
  803 1260.69 259.455 -236.576
  804 567.912 -11.8105 -3.69707
  805 848.594 160.243 14.8349
  806 609.662 17.7426 -59.3487
  807 670.139 50.8580 -49.5279
  808 122.704 -1.40969 -29.6062
  809 124.622 -1.57320 29.5609
  810 390.127 -5.27321 15.3366
  811 389.985 -5.31403 -15.4528
  812 375.457 -0.748400 2.90489
  813 375.332 -0.756635 -2.92413
  814 679.514 114.153 -37.7391
  815 412.207 -2.30257 -4.38367
  816 412.291 -2.27710 4.36412
  817 580.681 -5.83332 -51.7425
  818 818.475 91.0892 81.1324
  819 528.150 12.2160 -32.3454
  820 191.172 -1.62843 31.4011
  821 189.778 -1.64414 -31.6240
  822 661.430 21.3486 181.547
  823 593.951 -11.3848 11.2154
  824 540.023 36.2318 -13.4546
  825 258.303 -0.312228 21.2114
  826 257.146 -0.197389 -21.3501
  827 381.941 -1.72613 -7.58144
  828 382.084 -1.70135 7.52283
  829 69.7686 61.5328 55.4647
  830 560.533 13.6161 47.7035
  831 621.097 90.9187 -36.6222
  832 664.672 77.2837 -49.9866
  833 444.165 -16.2276 -20.2518
  834 443.941 -16.1210 20.2403
  835 689.956 145.505 16.6923
  836 591.724 -5.52994 -0.483927
  837 591.772 -5.49047 0.577121
  838 588.769 -17.9539 -32.4563
  839 496.656 -32.6274 19.8971
  840 543.218 -61.0048 36.2761
  841 632.916 -51.8249 55.8550
  842 493.111 -14.1042 -6.19467
  843 493.116 -14.0617 6.16391
  844 564.644 52.5271 21.7654
  845 532.517 7.60046 -34.8516
  846 147.454 185.064 172.472
  847 533.566 -47.0148 -16.1554
  848 535.647 -23.8976 -1.55707
  849 535.925 -23.9638 1.52051
  850 589.073 -8.76891 54.0813
  851 582.261 -38.4317 -22.1100
  852 522.518 -34.2819 -9.90301
  853 1148.08 37.1426 -55.5749
  854 497.396 -46.6041 36.8228
  855 496.963 -47.1861 -37.3627
  856 587.828 -7.18326 27.0905
  857 872.684 227.875 -58.7683
  858 468.180 -41.9468 -44.8056
  859 514.250 -57.6564 43.7052
  860 468.113 -41.4626 44.4469
  861 506.530 -20.1589 -7.44447
  862 506.533 -20.1044 7.40414
  863 79.2525 32.3142 47.9990
  864 631.317 47.1745 -56.6071
  865 487.418 -18.6782 -10.5739
  866 487.516 -18.5026 10.6063
  867 482.161 -7.85756 -1.30315
  868 482.161 -7.81029 1.29648
  869 526.615 -10.6659 -0.994253
  870 526.556 -10.6052 0.988325
  871 434.618 -8.09604 -11.0128
  872 434.665 -8.01087 10.9761
  873 488.909 -25.2420 -15.4553
  874 488.982 -25.0898 15.5244
  875 12.7815 -0.466817 -8.29502
  876 727.882 136.776 25.1196
  877 626.921 -22.1913 -43.3244
  878 513.755 -56.8069 -44.1043
  879 553.830 -18.0750 2.73023
  880 553.600 -17.9059 -2.59619
  881 604.319 0.656206 58.0076
  882 650.195 -46.2961 -34.1331
  883 572.677 44.1344 -217.907
  884 270.562 -4.97831 109.278
  885 -6.45536 6.30511 -8.67290
  886 -5.26020 7.13472 9.44027
  887 78.8786 34.3557 -49.0591
  888 588.689 -17.3115 18.9496
  889 616.383 -4.47133 -7.87036
  890 555.528 -53.7830 96.0765
  891 269.954 -4.74035 -109.673
  892 619.025 -51.0041 7.48263
  893 683.205 -18.5272 86.1633
  894 511.884 2.16077 15.5987
  895 580.602 55.2964 36.8527
  896 319.622 -17.7977 79.7960
  897 318.444 -17.9383 -80.2708
  898 382.618 -17.6103 -44.8994
  899 395.590 -20.0330 -138.649
  900 621.177 -14.7458 49.7906
  901 844.157 201.948 40.4107
  902 624.901 23.9373 57.7296
  903 590.529 -12.8723 -29.8081
  904 403.556 -17.9413 142.050
  905 748.288 138.892 -15.7313
  906 78.5509 65.8062 -67.8448
  907 551.115 -1.01548 -16.4419
  908 383.008 -17.4737 44.5445
  909 463.098 -9.90337 8.13720
  910 463.073 -9.96331 -8.15026
  911 583.063 -38.2207 22.9624
  912 601.824 -4.43931 1.57327
  913 445.294 3.73962 -171.525
  914 632.826 -1.61657 3.70289
  915 629.022 -1.35683 -4.85998
  916 485.264 4.41811 -13.6206
  917 610.889 -2.58602 -9.08036
  918 463.905 -21.1437 -19.1640
  919 464.210 -20.8439 19.2294
  920 -13.9531 5.96697 -7.85239
  921 -19.8504 3.60425 8.55371
  922 601.782 -4.15932 -1.63803
  923 208.952 -4.88621 73.8784
  924 207.840 -4.47652 -74.2621
  925 648.241 94.2103 44.3029
  926 1122.30 20.4068 16.9715
  927 611.815 67.8823 47.7180
  928 682.926 -23.2251 29.6870
  929 599.258 -33.5966 38.1406
  930 744.290 155.559 -12.0952
  931 475.922 2.31302 10.2828
  932 575.990 -14.0085 -6.55927
  933 601.744 32.4150 -57.8613
  934 717.218 22.7908 -3.42555
  935 562.814 -34.8136 -9.08624
  936 299.870 -1.52717 -15.7924
  937 300.121 -1.47214 15.5854
  938 592.671 -14.2967 -22.6971
  939 21.7786 26.9404 7.85600
  940 569.135 -59.0494 -10.7849
  941 503.620 15.4306 -1.40142
  942 740.225 161.453 -7.99244
  943 121.550 90.0698 -109.907
  944 573.179 -4.29086 -31.9641
  945 405.244 -6.35105 -14.4508
  946 405.333 -6.28026 14.3475
  947 4.07971 -15.5162 11.5621
  948 394.142 -28.7794 -64.4098
  949 580.145 -33.7315 -21.6254
  950 374.723 0.816753 -1.22864
  951 374.831 0.819800 1.22204
  952 590.429 71.5876 -29.3525
  953 622.273 -2.33635 -0.738620
  954 622.317 -2.35666 0.994571
  955 394.343 -28.7135 64.0200
  956 588.752 -0.952527 -12.4898
  957 671.867 5.03760 33.9934
  958 596.967 -8.92964 8.50100
  959 101.729 24.4335 -59.4967
  960 617.444 -4.16802 7.07991
  961 568.031 4.77413 50.8243
  962 598.867 82.6939 26.0847
  963 596.849 6.94188 -59.0057
  964 417.357 -21.7199 -38.9726
  965 639.631 -22.9071 34.7361
  966 417.634 -21.6490 38.6219
  967 21.0034 22.1550 -4.34363
  968 76.3355 12.1032 43.7179
  969 345.548 -5.75594 26.3420
  970 345.160 -5.75448 -26.4680
  971 576.403 -14.2462 6.99237
  972 624.284 107.898 14.2141
  973 319.488 28.4803 -163.229
  974 521.638 -32.2843 8.90643
  975 489.858 -50.8895 -53.9681
  976 709.273 135.471 27.7472
  977 547.254 -9.99095 -0.102675
  978 547.229 -9.94375 0.0965139
  979 597.073 -11.4790 -15.9264
  980 559.698 48.5906 -20.0652
  981 1206.28 367.512 246.689
  982 123.241 6.31951 -56.3814
  983 124.913 5.23603 56.4810
  984 9.19562 -7.45785 5.06184
  985 560.809 31.3796 41.1895
  986 489.806 -51.2143 53.6074
  987 603.503 -28.7181 -44.0835
  988 656.005 53.6027 54.7752
  989 626.130 -50.5653 -67.1181
  990 910.678 191.171 66.7818
  991 537.937 -8.99621 -0.548920
  992 537.869 -8.93084 0.548254
  993 626.236 -25.7970 40.7804
  994 44.7034 82.4807 80.2704
  995 293.657 -5.86158 37.5700
  996 292.831 -5.78487 -37.9254
  997 346.601 -16.4062 51.6195
  998 345.476 -16.1415 -51.7807
  999 388.883 -15.4718 37.4027
  1000 425.145 -3.08616 -1.93930
  1001 425.216 -3.06492 1.93271
  1002 1005.69 333.692 -216.249
  1003 926.303 232.811 100.692
  1004 388.574 -15.5411 -37.6787
  1005 644.714 -3.10309 45.2356
  1006 583.258 60.5602 -35.3866
  1007 412.301 -35.8052 115.138
  1008 525.449 -62.1668 -64.2256
  1009 599.764 -5.14987 -17.9870
  1010 275.979 17.9841 133.546
  1011 353.780 -26.9215 91.9206
  1012 538.039 27.9920 -25.9316
  1013 607.278 -12.1815 -54.3937
  1014 744.117 329.729 335.632
  1015 510.722 16.0535 18.5790
  1016 683.904 145.819 -2.05160
  1017 497.919 20.3697 -194.427
  1018 511.820 -53.5084 -38.0142
  1019 639.474 -0.979579 -1.77343
  1020 622.569 57.1367 -54.8829
  1021 375.909 -2.18051 9.64493
  1022 375.733 -2.20212 -9.72225
  1023 14.3489 13.2042 -22.7610
  1024 418.070 -18.4640 -32.5923
  1025 353.335 -27.2619 -92.5511
  1026 417.797 -18.4339 32.2769
  1027 594.209 -18.2556 50.3433
  1028 534.147 -32.8338 -4.38169
  1029 563.835 10.5766 -49.3583
  1030 580.526 72.4438 10.3392
  1031 768.520 50.5358 37.3754
  1032 587.286 -44.7811 21.2714
  1033 378.553 -29.7655 -70.4691
  1034 559.703 20.0928 -46.3702
  1035 415.601 -35.3594 -115.662
  1036 788.726 169.368 -4.72373
  1037 545.779 36.1789 23.5914
  1038 676.310 -3.58762 -24.2334
  1039 514.951 -53.5572 35.3726
  1040 588.459 -18.8822 38.5024
  1041 583.905 -31.0268 26.2082
  1042 580.683 -29.4132 22.3638
  1043 713.532 91.4663 -36.5904
  1044 581.948 -9.51078 39.8853
  1045 524.737 -62.3381 63.2285
  1046 560.033 -23.0877 5.75723
  1047 378.797 -29.8335 70.1312
  1048 527.563 -38.5383 -10.6304
  1049 312.326 -15.3593 -98.2654
  1050 439.934 -45.4415 78.6139
  1051 591.502 -4.21527 -21.1010
  1052 577.974 -6.56604 -45.6878
  1053 501.665 -39.1978 -24.0121
  1054 312.840 -15.7664 97.5665
  1055 543.039 1.48718 -32.3438
  1056 406.507 -26.3112 -50.1915
  1057 722.487 152.640 16.8209
  1058 167.666 26.5375 -95.1230
  1059 1194.01 84.1737 112.835
  1060 294.745 20.9119 -139.502
  1061 580.273 -48.1783 -11.1492
  1062 406.638 -26.1010 49.8265
  1063 537.901 5.99607 36.3375
  1064 309.165 -5.96293 31.1268
  1065 309.039 -6.10751 -31.4159
  1066 588.988 -16.5221 -46.7960
  1067 619.909 -3.60131 2.61387
  1068 611.340 -1.55500 9.12994
  1069 607.759 20.0997 59.3295
  1070 570.649 -4.28308 43.1118
  1071 438.547 47.5546 209.954
  1072 643.113 -0.685100 0.784390
  1073 613.606 82.8597 37.9366
  1074 524.855 7.93706 31.4282
  1075 617.957 -2.54893 8.68865
  1076 409.298 -4.03517 -8.19204
  1077 409.381 -3.99076 8.14843
  1078 264.194 -7.22321 -52.0359
  1079 265.122 -7.48593 51.7287
  1080 526.619 26.7122 13.2301
  1081 769.717 45.2961 -65.4735
  1082 707.592 1.96583 -114.691
  1083 576.125 -0.579974 -13.0619
  1084 440.027 -45.7710 -79.1727
  1085 502.730 -37.2883 21.7691
  1086 579.143 -1.38447 13.6146
  1087 602.530 -43.9637 -25.5309
  1088 388.767 -0.709091 4.80195
  1089 388.658 -0.722920 -4.82692
  1090 579.194 -49.5566 11.1303
  1091 551.398 -11.6165 0.401200
  1092 551.305 -11.6313 -0.372363
  1093 537.048 -53.8739 24.0693
  1094 684.251 -21.5760 -14.7932
  1095 325.225 -0.518761 -8.83951
  1096 325.704 -0.500646 8.75693
  1097 470.877 -30.3275 -132.555
  1098 504.286 -11.9806 3.67583
  1099 504.324 -12.0372 -3.69957
  1100 302.704 166.870 230.800
  1101 690.644 57.2474 -42.6816
  1102 107.088 50.7902 -73.6115
  1103 597.204 -9.38997 -8.19435
  1104 165.604 55.3019 -109.234
  1105 341.483 -21.0051 -66.7051
  1106 642.824 -0.954059 0.559208
  1107 643.019 -0.910511 -0.398052
  1108 589.790 -33.8807 -32.3146
  1109 521.972 -58.8764 -86.8628
  1110 167.823 22.5952 90.6386
  1111 642.301 63.4858 52.6965
  1112 580.554 -6.43014 -0.617424
  1113 580.630 -6.43147 0.666846
  1114 629.793 -39.8632 105.808
  1115 659.355 130.954 19.9324
  1116 399.689 -9.13967 -20.5213
  1117 399.798 -9.10230 20.3977
  1118 300.144 33.5605 164.918
  1119 562.343 3.02199 -47.6757
  1120 180.146 56.8677 117.068
  1121 708.255 -10.8083 -41.0901
  1122 704.935 154.067 5.64201
  1123 487.960 -38.0467 28.4190
  1124 459.806 2.72048 -2.00814
  1125 611.800 -5.72299 10.7984
  1126 631.479 -1.01379 4.17798
  1127 149.984 0.197498 -26.3699
  1128 151.734 0.133783 26.2069
  1129 509.947 8.92806 -23.3527
  1130 519.080 -15.2352 -3.43923
  1131 518.977 -15.1766 3.42489
  1132 55.9360 98.6425 -85.6511
  1133 87.3055 204.896 -165.893
  1134 525.262 -20.4457 3.56757
  1135 525.441 -20.4296 -3.60377
  1136 541.581 -13.2604 0.231061
  1137 541.507 -13.2409 -0.193627
  1138 145.898 92.6681 118.491
  1139 434.852 -5.06300 -4.06518
  1140 434.912 -5.02974 4.04982
  1141 543.246 41.4049 -0.526689
  1142 670.274 92.7442 -241.426
  1143 655.847 112.574 -34.2332
  1144 597.307 -23.1022 -47.1706
  1145 588.115 -29.5562 -33.1619
  1146 488.167 -38.3856 -28.8634
  1147 497.629 1.78116 14.4128
  1148 554.279 34.8649 -34.4725
  1149 547.100 29.7500 33.0084
  1150 559.684 -22.4395 -5.62636
  1151 535.451 -32.1944 3.96126
  1152 489.201 -31.0824 -21.7279
  1153 579.969 -3.49764 25.3220
  1154 1001.03 100.726 13.9029
  1155 583.447 -12.5436 46.0513
  1156 587.116 38.5980 51.2885
  1157 539.499 -52.8668 -19.0771
  1158 72.7322 11.0890 -42.2319
  1159 549.597 -25.4965 -3.06390
  1160 377.293 -0.458445 -0.269130
  1161 377.393 -0.456273 0.267021
  1162 664.372 -17.5965 19.8718
  1163 632.853 -53.4078 28.9875
  1164 904.547 160.885 41.2332
  1165 230.109 -0.362771 -21.7716
  1166 231.310 -0.315329 21.6259
  1167 494.217 -9.91994 -2.81128
  1168 494.201 -9.86579 2.79537
  1169 551.066 -48.4819 -5.57888
  1170 463.604 2.28867 6.59303
  1171 563.998 -40.1769 8.15762
  1172 34.0961 40.4732 -21.8914
  1173 105.835 51.5538 71.9000
  1174 380.756 -21.2382 128.003
  1175 653.937 123.728 -24.4951
  1176 620.047 -1.84760 -6.88124
  1177 645.362 -1.16489 0.320369
  1178 645.900 -1.53351 -0.172053
  1179 390.925 -0.736526 -0.829465
  1180 391.023 -0.730236 0.824616
  1181 602.961 38.5212 57.8685
  1182 879.867 148.845 -3.19652
  1183 622.053 102.327 -25.5090
  1184 463.684 -34.5732 131.730
  1185 378.756 -20.4876 -127.740
  1186 423.284 -27.6729 -45.2485
  1187 576.877 -16.4995 9.21022
  1188 800.302 177.577 14.1168
  1189 423.348 -27.5227 44.9322
  1190 588.396 -10.7731 6.96485
  1191 533.803 20.2086 31.5673
  1192 583.708 18.1923 55.8805
  1193 821.558 183.062 24.9966
  1194 495.052 -12.7737 5.17629
  1195 495.067 -12.8261 -5.20469
  1196 596.430 -11.6298 16.5711
  1197 365.224 -3.63098 15.0132
  1198 364.978 -3.66615 -15.1315
  1199 583.014 -8.44398 -2.77939
  1200 242.715 146.039 -224.220
  1201 505.056 -28.7185 -141.144
  1202 482.269 -14.8159 -8.96994
  1203 482.326 -14.7579 8.97389
  1204 622.083 -3.34725 2.45115
  1205 591.503 -8.26710 5.53049
  1206 34.3209 44.7075 33.7787
  1207 639.622 -0.880164 2.09604
  1208 79.4243 103.158 102.262
  1209 578.503 -9.13904 -3.64580
  1210 -0.449794 -13.8110 -12.1643
  1211 413.623 -40.4383 -99.3103
  1212 412.579 -39.4743 98.3673
  1213 639.590 -1.27263 -2.34843
  1214 552.942 -29.2051 -3.91909
  1215 621.764 -3.10030 -2.43991
  1216 505.136 -16.2020 -5.44372
  1217 505.099 -16.1538 5.39951
  1218 582.657 -8.39328 2.58044
  1219 549.213 -24.9868 3.03265
  1220 529.519 -17.0940 1.86144
  1221 529.690 -17.1287 -1.80655
  1222 621.126 -3.19062 -1.97011
  1223 539.113 -57.0863 -97.6418
  1224 608.743 -4.28924 -1.93583
  1225 580.833 -9.37284 4.00890
  1226 415.487 -4.21364 -6.16396
  1227 415.566 -4.17421 6.13468
  1228 460.205 -6.54283 -3.36013
  1229 460.236 -6.50276 3.34688
  1230 731.552 114.860 29.3757
  1231 615.793 -47.6136 17.2416
  1232 424.651 -2.33917 162.255
  1233 351.542 -0.478047 5.77293
  1234 351.262 -0.483711 -5.82299
  1235 586.402 -10.9958 34.3251
  1236 560.102 -8.90932 0.399117
  1237 560.117 -8.88349 -0.399024
  1238 644.075 124.431 11.5421
  1239 584.546 -61.4210 78.7624
  1240 350.627 -4.65810 20.9002
  1241 350.305 -4.69017 -21.0340
  1242 559.548 -13.9760 2.60048
  1243 559.422 -14.0774 -2.48642
  1244 576.554 -16.3180 -8.82415
  1245 537.052 0.158623 16.7162
  1246 906.368 225.719 -79.5579
  1247 587.917 -21.7780 -29.4021
  1248 106.146 24.1528 61.0491
  1249 606.772 -32.5731 40.5443
  1250 497.388 11.3067 -12.7944
  1251 40.6110 28.2313 23.6007
  1252 790.286 91.7473 -16.4956
  1253 593.357 -27.1681 -41.6609
  1254 499.569 7.46072 19.6235
  1255 343.769 -21.0504 66.6398
  1256 601.505 -46.7850 22.2402
  1257 861.665 172.010 63.2405
  1258 207.748 29.7056 114.824
  1259 603.667 -7.60062 -14.3413
  1260 1130.79 12.8542 -11.1507
  1261 1166.09 17.3433 49.3102
  1262 1241.57 41.3194 -117.848
  1263 587.772 -18.5738 -37.3803
  1264 587.170 -27.0349 30.9735
  1265 595.945 -42.6329 27.6680
  1266 -17.3792 2.22704 10.8451
  1267 -15.7430 1.84953 -11.8904
  1268 579.044 -64.2347 -39.2192
  1269 592.126 -60.1292 -56.7572
  1270 466.621 3.15930 -8.12201
  1271 576.385 -65.3298 56.3629
  1272 616.812 -29.4588 -40.9762
  1273 14.1457 19.3068 3.99175
  1274 505.679 -9.27294 1.72261
  1275 505.710 -9.33145 -1.72710
  1276 611.146 -5.31778 9.58778
  1277 588.312 -10.5942 -6.49167
  1278 555.646 -60.6307 -22.4842
  1279 510.461 -27.3163 10.5240
  1280 508.006 -26.9172 -11.1771
  1281 595.031 -12.9097 23.3958
  1282 610.064 -22.5984 -48.2372
  1283 42.0908 29.4324 -23.1169
</Section>

newXOutput 82

<Section columns = "stress_xx | stress_yy | stress_xy">
  1 656.312 -0.319511 1.17599
  2 656.303 -0.304986 -1.17845
  3 376.512 -0.0658773 -0.422887
  4 -4.68842 -4.61783 -6.74554
  5 1143.03 480.057 374.381
  6 1132.78 496.381 -371.144
  7 -5.45202 -4.36991 7.20284
  8 376.410 -0.0670606 0.421952
  9 660.515 -1.18108 0.327538
  10 659.347 -1.83260 -0.398226
  11 658.221 -1.30097 1.27886
  12 657.055 -1.72194 0.226976
  13 654.504 -1.47826 2.00879
  14 652.150 -1.47852 1.38514
  15 646.296 -1.29932 2.92424
  16 637.609 -1.01885 4.34134
  17 629.940 -1.02060 4.90725
  18 618.284 -1.31235 6.01227
  19 601.788 -0.205744 8.99380
  20 586.558 -0.961594 8.63988
  21 568.813 -1.18196 12.2919
  22 543.227 0.822457 10.7839
  23 524.395 1.33951 12.8266
  24 499.792 2.19788 10.1069
  25 482.634 2.45196 10.2237
  26 457.796 3.29996 5.23306
  27 452.498 5.17360 5.63655
  28 449.279 4.31834 -1.67524
  29 453.604 2.63437 -3.63666
  30 461.598 2.46484 -4.47183
  31 480.222 3.03690 -8.90104
  32 498.322 2.40307 -11.1916
  33 524.601 0.632569 -13.2278
  34 545.575 -0.229560 -11.9382
  35 567.705 -0.931471 -11.6287
  36 587.622 -0.760334 -8.15018
  37 604.516 -0.829029 -6.89919
  38 618.274 -1.29350 -5.72235
  39 630.447 -0.967164 -3.89265
  40 637.851 -1.19157 -4.08738
  41 645.018 -1.39071 -2.96733
  42 651.633 -1.62044 -1.18549
  43 654.970 -1.32614 -1.47437
  44 656.544 -0.888528 -0.872259
  45 654.856 -0.602856 -0.800154
  46 659.923 -1.82292 0.294200
  47 660.674 -1.21997 -0.337087
  48 641.076 -0.853196 -0.729405
  49 628.012 -3.14343 -1.39115
  50 611.873 -4.50734 -0.796068
  51 592.071 -6.43004 -1.12146
  52 573.142 -6.95273 -1.33649
  53 552.825 -8.43736 -1.29170
  54 534.740 -9.22939 -0.631311
  55 518.869 -10.1117 -0.127772
  56 500.515 -8.33248 -0.101005
  57 479.352 -7.67685 -0.326548
  58 458.986 -5.95654 0.0210443
  59 439.728 -3.69356 0.0757975
  60 421.472 -2.55717 0.136920
  61 405.536 -1.21400 0.253769
  62 389.343 -0.251121 -0.474474
  63 376.639 0.545394 0.718397
  64 370.837 1.38030 0.525496
  65 374.437 0.0558329 1.16897
  66 369.734 -0.129463 1.42909
  67 365.218 -0.219324 1.77540
  68 359.176 0.0251788 2.27242
  69 351.574 0.0192816 2.83296
  70 345.671 -0.349279 5.33467
  71 329.885 0.477318 5.80053
  72 318.591 0.00372670 6.57082
  73 301.783 -0.243460 7.47401
  74 282.504 -0.434675 9.07595
  75 258.368 -0.0696008 11.0234
  76 228.952 0.159788 12.2021
  77 203.124 -0.194418 17.4672
  78 152.831 1.57510 16.5897
  79 118.055 1.35441 17.5885
  80 75.9084 -0.381350 19.6628
  81 40.4309 3.10097 20.6572
  82 -0.203941 4.74149 12.8152
  83 -30.3395 4.84273 5.04246
  84 -30.9025 4.78971 -0.943093
  85 -30.8205 4.03306 -9.04795
  86 -18.2754 -1.09985 -8.80170
  87 -2.10488 -17.5408 -9.76560
  88 1.94846 -32.0069 -11.9640
  89 5.08826 -49.2079 -5.91098
  90 11.1037 -47.6971 2.21203
  91 23.1971 -2.54523 32.6356
  92 67.6053 119.085 104.927
  93 380.255 383.796 337.728
  94 1388.92 210.200 229.205
  95 1257.95 29.8937 73.8361
  96 1175.08 12.5983 22.5967
  97 1144.58 10.8059 1.68027
  98 1161.11 14.2426 -19.7285
  99 1255.94 28.0960 -58.5311
  100 1464.73 101.387 -195.552
  101 227.526 396.196 -284.183
  102 50.5533 91.8003 -87.9159
  103 25.4266 0.00764100 -35.1953
  104 10.4337 -47.1626 -7.44317
  105 3.17956 -36.9802 6.68790
  106 3.82807 -40.4607 10.2908
  107 0.259718 -15.0654 10.8301
  108 -19.1033 -0.629088 8.30603
  109 -31.7887 3.02923 7.84708
  110 -32.5829 5.80573 1.10640
  111 -31.2776 4.74935 -4.73903
  112 -2.44744 4.85867 -12.0554
  113 38.4917 3.12682 -19.7238
  114 73.9371 -0.0446107 -19.3428
  115 116.008 1.46275 -17.6187
  116 150.973 1.61422 -16.7062
  117 201.685 -0.201607 -17.6014
  118 227.724 0.175167 -12.3105
  119 257.292 -0.0663959 -11.1523
  120 281.962 -0.486026 -9.13470
  121 301.033 -0.228024 -7.48863
  122 318.018 0.0237369 -6.63269
  123 329.412 0.472173 -5.85741
  124 345.325 -0.353091 -5.38276
  125 351.291 0.0167990 -2.86227
  126 358.956 0.0227797 -2.29641
  127 365.044 -0.223330 -1.79433
  128 369.594 -0.132900 -1.44222
  129 374.317 0.0529601 -1.17727
  130 370.727 1.37908 -0.529286
  131 376.534 0.544742 -0.720806
  132 389.243 -0.254325 0.473366
  133 405.443 -1.22207 -0.256628
  134 421.392 -2.57476 -0.140235
  135 439.666 -3.71795 -0.0789637
  136 458.947 -5.99178 -0.0242468
  137 479.339 -7.72173 0.323971
  138 500.532 -8.38479 0.0981756
  139 518.909 -10.1711 0.126339
  140 534.797 -9.28895 0.633163
  141 552.910 -8.49157 1.29785
  142 573.219 -6.98963 1.35858
  143 592.135 -6.46310 1.22929
  144 611.987 -4.29018 0.813248
  145 628.440 -3.07180 1.35975
  146 641.201 -0.953539 0.717530
  147 579.705 -54.5181 0.836237
  148 579.184 -53.7744 -0.634691
  149 612.480 87.7280 -27.5051
  150 648.412 38.1663 56.9395
  151 491.725 -47.7271 -111.399
  152 495.802 -47.6278 107.968
  153 482.598 -20.0343 14.6592
  154 482.622 -20.2995 -14.6633
  155 684.522 25.0208 -40.8307
  156 578.216 -21.0987 9.81538
  157 577.963 -20.6116 -9.70146
  158 747.043 165.040 5.35985
  159 594.330 -0.922622 -56.8846
  160 443.691 -34.2664 -50.3222
  161 443.740 -33.9961 49.9231
  162 594.675 -13.5849 50.8054
  163 569.018 41.7607 34.5142
  164 238.006 37.0900 -133.181
  165 262.906 35.2314 140.172
  166 719.095 9.36148 -1.98727
  167 594.948 -23.0580 -34.2119
  168 783.795 172.075 2.89683
  169 537.582 -15.2773 -1.55756
  170 537.478 -15.2406 1.59676
  171 599.149 -7.80362 -4.18724
  172 600.852 -7.07785 3.58249
  173 429.739 -5.79728 -8.30376
  174 429.803 -5.74041 8.26891
  175 638.432 -15.3907 141.803
  176 551.893 23.2466 -37.2508
  177 363.408 -26.9046 -79.5102
  178 364.465 -26.7142 79.0458
  179 409.417 -12.8753 -26.3507
  180 409.467 -12.7346 26.1816
  181 597.575 -15.9811 29.1274
  182 544.643 -37.2041 -4.62585
  183 542.839 -36.9280 5.41940
  184 614.902 -59.7871 -15.9042
  185 618.248 -56.9611 8.34904
  186 846.073 199.801 -35.6652
  187 624.107 99.7082 25.6168
  188 623.164 38.2834 -58.1699
  189 635.433 -3.47452 -163.727
  190 616.076 -35.0300 -38.3925
  191 621.493 -25.0937 46.1114
  192 519.925 -58.9290 56.3255
  193 519.962 -58.4931 -56.1791
  194 560.156 7.33630 44.5464
  195 261.007 -6.74725 -97.6649
  196 261.590 -7.25746 97.1178
  197 948.667 141.236 20.8936
  198 584.258 -34.9626 19.6092
  199 604.759 -11.4976 -18.5633
  200 485.660 -11.6401 -6.95117
  201 485.679 -11.5890 6.93395
  202 584.174 -7.65780 -39.3756
  203 663.214 97.1585 -45.4982
  204 560.534 50.6024 -6.89356
  205 370.157 -12.5797 36.5870
  206 369.624 -12.6124 -36.8272
  207 612.278 -7.27499 9.72801
  208 601.151 11.3358 58.6143
  209 490.923 -35.1898 -25.7284
  210 487.878 -33.3041 26.1740
  211 704.434 104.666 39.6416
  212 819.219 117.226 28.6074
  213 60.0036 45.6326 -40.0635
  214 55.6134 42.1779 34.2124
  215 342.678 99.4809 231.075
  216 578.539 -38.5376 -14.0387
  217 614.219 -6.97845 -8.76939
  218 554.309 5.10837 -41.0596
  219 395.571 -3.61998 -11.7489
  220 395.701 -3.58048 11.6607
  221 523.312 -24.3474 -7.08894
  222 523.560 -24.5116 6.80038
  223 588.636 -8.03305 33.3231
  224 670.216 -38.5715 21.7086
  225 673.159 136.416 -12.9185
  226 527.952 -50.6728 -28.3089
  227 662.530 -11.5777 33.4876
  228 566.955 -9.94384 1.07409
  229 566.953 -9.87016 -1.07330
  230 524.322 -50.4397 29.2053
  231 598.215 -38.1714 30.7680
  232 827.533 113.214 -62.8326
  233 190.405 113.219 -170.268
  234 516.023 18.5715 8.99295
  235 604.358 53.2615 49.5455
  236 639.437 -4.58184 -50.0878
  237 599.079 -21.7289 -46.9711
  238 328.830 -10.1722 -45.5083
  239 329.889 -10.0247 45.3946
  240 599.634 -7.48318 -25.3800
  241 571.038 -14.8071 4.63169
  242 570.775 -14.7976 -4.42870
  243 126.952 10.9184 -63.6044
  244 128.743 9.56075 63.3678
  245 631.829 -55.4627 -54.5330
  246 624.422 -2.74468 1.12989
  247 624.998 -2.79136 -1.29352
  248 591.109 49.1035 -45.5600
  249 525.311 10.5078 27.1001
  250 1057.40 169.263 114.112
  251 1047.85 119.332 -70.8035
  252 774.365 165.335 0.837173
  253 484.204 -23.6953 147.189
  254 445.517 -15.8098 -153.675
  255 513.691 -10.5510 -2.80741
  256 513.651 -10.4920 2.79158
  257 431.823 -11.0745 16.5303
  258 431.805 -11.2201 -16.6556
  259 612.420 -6.98720 15.1487
  260 595.702 -42.6002 -24.3990
  261 398.452 -0.567086 -2.81369
  262 398.553 -0.556019 2.79941
  263 588.314 -24.1175 -19.7682
  264 259.102 -8.28003 -63.4054
  265 260.113 -8.30465 62.9930
  266 596.161 -26.0685 36.9328
  267 457.909 -48.6069 89.7343
  268 458.962 -49.4713 -89.4525
  269 522.933 20.4852 -12.6173
  270 451.486 -6.60792 -5.62096
  271 451.534 -6.56726 5.60319
  272 563.611 -1.29161 32.6750
  273 669.203 121.772 31.3458
  274 368.907 -4.18440 19.5647
  275 368.640 -4.21712 -19.7109
  276 610.678 -51.2714 14.9775
  277 565.274 -63.7036 -62.4593
  278 627.137 -3.50713 4.36234
  279 445.431 -25.7145 -34.6937
  280 444.740 -25.4397 34.5828
  281 760.182 88.9449 206.110
  282 372.444 -30.2178 106.369
  283 597.302 83.6718 -2.90633
  284 743.556 83.9627 -21.7163
  285 565.603 -43.6990 3.01771
  286 565.886 -65.4151 56.7335
  287 373.465 -29.7524 -107.471
  288 71.2895 88.2830 81.9286
  289 588.417 -24.1875 20.1536
  290 765.031 102.087 14.6791
  291 631.575 -3.13887 -3.78503
  292 581.097 20.5387 -52.4752
  293 569.841 -32.3166 9.15022
  294 558.301 -47.0144 5.47731
  295 579.277 26.7539 50.6561
  296 607.899 -51.2558 -12.8965
  297 855.965 165.003 -16.4105
  298 569.694 -31.0784 -8.71890
  299 464.254 138.625 -280.165
  300 581.157 -61.7262 -16.1528
  301 577.180 -63.4303 22.6488
  302 429.839 -38.4470 -70.3384
  303 394.728 -1.30690 -6.06351
  304 394.845 -1.28377 6.02349
  305 430.060 -38.4900 69.9916
  306 616.447 -1.08644 -58.0825
  307 660.937 -27.3873 -19.9637
  308 509.631 -30.2805 -14.7763
  309 509.359 -30.3531 15.0230
  310 601.085 -51.7570 97.7507
  311 604.241 -5.07638 19.1910
  312 725.456 5.58457 40.4513
  313 500.276 -17.3842 -8.37318
  314 500.320 -17.3368 8.33658
  315 458.734 -11.5283 -11.2395
  316 458.750 -11.4280 11.2281
  317 520.326 7.30038 -26.1919
  318 656.037 48.1701 -54.9131
  319 997.342 271.374 -133.120
  320 595.507 -5.84103 -1.31009
  321 595.208 -5.76828 1.35802
  322 325.339 -1.37005 132.792
  323 455.834 -20.0863 -23.4469
  324 455.052 -20.0343 23.5118
  325 325.272 -2.16836 -132.281
  326 628.110 73.9901 -47.7266
  327 696.480 35.0084 38.1336
  328 600.665 -42.8130 -107.996
  329 557.534 -21.6717 2.96282
  330 557.001 -21.5309 -2.73968
  331 592.648 -12.7828 -9.03892
  332 563.943 -0.986622 -30.5350
  333 627.163 2.53893 56.4527
  334 622.371 -4.73861 -10.3327
  335 384.286 -22.6974 53.4458
  336 383.868 -22.8134 -53.8130
  337 586.290 -1.26004 54.1898
  338 371.741 -2.76209 -11.7095
  339 371.970 -2.73706 11.6173
  340 597.274 -14.1722 14.9661
  341 717.470 145.791 -21.1936
  342 592.426 -12.8619 9.41871
  343 634.847 79.4466 47.7442
  344 606.512 -11.4163 55.3050
  345 485.232 -8.91494 2.67281
  346 485.227 -8.96314 -2.68649
  347 576.748 -1.97452 -48.1762
  348 756.206 158.466 10.9352
  349 634.313 115.463 0.983198
  350 387.461 44.7259 -195.947
  351 44.2864 17.7378 -29.0168
  352 48.1017 19.2217 31.0139
  353 -0.819641 5.13991 10.6498
  354 1.34044 3.29071 -11.2220
  355 1078.84 74.9751 25.1960
  356 524.972 -42.2395 -17.7774
  357 597.648 -13.7250 -14.5846
  358 542.144 -9.82348 0.111322
  359 542.084 -9.75377 -0.116174
  360 583.541 64.4983 -24.7096
  361 496.518 -50.1666 46.4316
  362 45.8496 68.9075 -52.1553
  363 496.898 -50.1321 -47.1861
  364 590.742 67.1930 26.2801
  365 597.447 -16.2617 -27.6284
  366 631.963 -35.5070 -31.3682
  367 677.637 141.698 8.84166
  368 633.090 -39.8278 24.7524
  369 273.758 -6.49818 42.3533
  370 272.274 -6.36964 -42.5870
  371 157.502 3.48212 -59.7055
  372 158.950 2.90592 59.4547
  373 527.818 2.10971 26.4148
  374 967.675 288.048 119.311
  375 615.992 -4.23462 -13.4908
  376 484.988 -40.3394 -35.8309
  377 484.659 -40.2614 35.7877
  378 594.822 -13.9559 -35.7671
  379 671.354 -32.4075 -2.22813
  380 524.954 -42.2119 18.2287
  381 731.945 7.63978 -68.1305
  382 429.692 -3.16961 -2.31972
  383 429.765 -3.14429 2.30756
  384 586.626 -3.52773 -23.2159
  385 326.512 -4.41674 -27.5341
  386 326.685 -4.56612 27.2261
  387 696.169 89.2527 -44.6929
  388 379.068 26.4686 182.544
  389 548.020 -28.7051 -0.451796
  390 548.542 -28.6632 0.433133
  391 644.916 108.520 -29.8896
  392 608.422 -18.1941 -51.9884
  393 606.225 -62.2121 55.9005
  394 511.977 -13.5192 -4.49254
  395 511.930 -13.4649 4.46058
  396 586.318 -45.3503 14.9562
  397 627.679 -3.33277 7.59927
  398 402.974 -14.0788 -32.7529
  399 403.138 -14.0881 32.5077
  400 598.530 20.1921 -57.9374
  401 562.613 -12.6065 1.53199
  402 562.582 -12.6414 -1.46902
  403 584.382 -6.97984 43.8990
  404 549.645 40.4264 12.0235
  405 603.331 -25.7136 44.8362
  406 863.937 179.668 35.5722
  407 299.338 -16.0073 -85.1967
  408 300.121 -16.0061 84.6060
  409 135.178 71.0304 -104.576
  410 639.367 -2.32027 1.90030
  411 340.496 -2.60632 -17.4637
  412 340.910 -2.55128 17.3314
  413 595.163 -15.7683 34.8849
  414 540.309 -58.4770 32.5177
  415 606.118 -8.11492 6.35639
  416 622.006 31.5375 59.8773
  417 141.175 75.6306 108.589
  418 541.058 -58.1154 -30.2185
  419 558.681 -51.8058 -9.46789
  420 192.104 -3.81429 -53.7520
  421 193.364 -3.94432 53.4127
  422 430.974 -35.0410 -128.242
  423 639.326 -9.73927 48.6529
  424 429.547 -35.4983 127.194
  425 591.809 -33.4459 -27.6686
  426 556.640 37.9379 -26.1792
  427 591.842 -25.8763 26.5402
  428 631.731 -3.26637 -4.92643
  429 20.9419 23.4325 12.1992
  430 132.372 156.142 153.008
  431 573.756 -2.07958 22.5794
  432 490.068 7.13465 11.5629
  433 497.695 8.59196 -15.6327
  434 424.684 -6.57392 -11.6706
  435 424.742 -6.49366 11.6079
  436 583.452 -45.3092 -13.3666
  437 591.479 -11.7121 -48.8908
  438 492.393 9.72940 -4.24256
  439 862.774 206.375 49.2960
  440 126.354 40.3849 -78.6699
  441 138.695 37.0375 83.6832
  442 547.511 -19.6169 0.134972
  443 547.319 -19.5851 -0.00392285
  444 728.261 158.997 -1.51272
  445 445.612 196.551 286.339
  446 694.475 -9.02966 -2.15480
  447 410.322 -20.7575 -44.4249
  448 410.526 -20.6270 44.0913
  449 414.718 -8.75620 17.8883
  450 414.629 -8.81492 -18.0263
  451 553.087 12.6399 -42.3850
  452 642.259 -1.30258 -1.21437
  453 539.338 25.2133 23.9596
  454 671.222 82.7849 49.9537
  455 559.995 -41.5010 -1.24439
  456 605.815 -7.76439 -6.19724
  457 634.103 -2.99882 4.53202
  458 640.320 -1.41140 0.688762
  459 640.753 -1.54449 -0.471579
  460 370.562 -0.532949 4.39759
  461 370.377 -0.541598 -4.43601
  462 610.741 -39.0907 33.4693
  463 558.157 22.3587 41.0673
  464 580.532 2.46087 -53.0181
  465 601.396 -13.1195 20.1243
  466 846.693 155.092 -177.294
  467 603.651 -33.7388 -38.4381
  468 8.65049 11.8918 6.47606
  469 8.48045 12.1952 -3.47850
  470 483.510 -26.8140 20.9118
  471 482.003 -26.4295 -20.6205
  472 738.605 17.7894 98.3857
  473 210.082 199.056 -220.095
  474 597.097 -1.99033 17.2544
  475 668.412 -38.4489 -58.3901
  476 368.274 -20.6492 61.6636
  477 721.896 128.259 -30.6063
  478 595.088 -32.4661 31.8543
  479 503.848 -23.6843 -11.3989
  480 504.281 -23.3076 11.3786
  481 527.701 2.98439 -23.2946
  482 367.174 -20.5555 -61.9916
  483 539.774 0.442769 23.3253
  484 510.734 -58.5757 -81.1193
  485 509.496 -58.6645 81.4867
  486 612.957 -4.35276 14.9435
  487 564.805 53.4996 4.96001
  488 560.930 11.3329 197.875
  489 828.696 166.821 -1.03632
  490 575.205 -10.2119 2.32474
  491 575.226 -10.1782 -2.45218
  492 451.071 -7.61843 -7.66976
  493 451.114 -7.56051 7.64790
  494 240.348 10.2295 112.442
  495 597.985 -29.0524 -37.9554
  496 543.776 -12.0760 -0.699927
  497 543.722 -12.0417 0.706850
  498 475.563 -50.0318 66.2958
  499 244.795 13.6344 -115.201
  500 597.850 -48.9386 -15.4492
  501 11.4791 4.63025 2.61607
  502 532.028 27.9846 1.78696
  503 576.975 -7.26242 -0.712421
  504 576.972 -7.34857 0.685046
  505 475.761 -49.9266 -66.7777
  506 668.912 -33.6509 72.5672
  507 667.992 24.3272 50.0296
  508 614.343 -4.77789 -2.91272
  509 596.042 -49.6044 15.7703
  510 387.684 -0.230048 -0.840036
  511 387.787 -0.227054 0.834788
  512 596.532 -23.1246 -41.0688
  513 582.100 43.1983 44.6665
  514 660.077 16.3899 -49.5207
  515 385.309 -0.468486 -2.48782
  516 385.424 -0.461170 2.47389
  517 1123.39 162.553 -144.131
  518 604.705 71.8505 39.0775
  519 614.805 -4.47236 2.57039
  520 559.848 -52.9674 10.8408
  521 476.342 -15.3313 11.8085
  522 476.323 -15.4380 -11.7846
  523 647.363 -39.6754 10.4842
  524 625.124 -12.7016 -52.0266
  525 699.791 136.987 26.8419
  526 585.437 10.1963 55.0399
  527 585.486 -11.7872 5.27734
  528 568.038 -61.0031 -79.1081
  529 592.767 -14.8899 40.9869
  530 1108.32 51.1796 -20.0961
  531 642.314 -48.6356 5.46572
  532 610.551 -4.67840 -0.565106
  533 610.701 -4.93296 0.451140
  534 1119.88 75.0730 69.9498
  535 571.787 -0.0655137 46.8256
  536 786.953 135.140 -3.52464
  537 596.267 -16.6455 -19.2620
  538 282.765 -2.46685 -18.7994
  539 283.537 -2.34615 18.6244
  540 409.461 -38.1729 -89.2359
  541 409.832 -37.5386 88.6175
  542 585.155 -11.3345 -5.25184
  543 638.269 23.4066 -57.5260
  544 561.588 -38.1764 3.41833
  545 607.214 69.5481 -40.4349
  546 606.884 -7.44452 20.0812
  547 752.319 40.2778 -17.5776
  548 523.058 -17.8332 -4.57833
  549 522.921 -17.7859 4.54150
  550 565.335 -26.8084 6.30585
  551 822.779 166.627 -22.2659
  552 598.094 26.2228 57.0979
  553 258.356 66.1323 165.394
  554 570.641 -34.0951 134.174
  555 744.224 41.4116 -149.056
  556 611.251 50.5707 -52.9017
  557 537.659 -46.8505 -116.665
  558 583.032 -64.1135 -27.3627
  559 607.202 -61.8236 -38.0983
  560 82.8346 110.318 -104.226
  561 610.822 -8.27377 -11.7020
  562 911.188 176.585 -54.6248
  563 568.189 -25.7829 -7.47528
  564 572.417 -18.9491 6.21315
  565 571.903 -18.5426 -5.88991
  566 406.668 -2.05869 -5.56358
  567 406.765 -2.03234 5.53373
  568 63.3545 5.79171 -33.6242
  569 66.3173 6.08917 34.3605
  570 303.656 -13.7362 -64.8030
  571 305.815 -13.8171 64.7469
  572 580.389 -31.6623 -16.3201
  573 589.500 -64.3844 29.2915
  574 605.834 -57.8062 -2.02163
  575 502.975 -8.85924 -2.25236
  576 502.954 -8.80434 2.24254
  577 474.582 -50.0260 -99.7162
  578 527.785 -43.6462 123.130
  579 463.644 -47.0914 100.198
  580 598.427 -13.4151 -52.3764
  581 385.487 -5.99229 19.8106
  582 385.302 -6.05171 -19.9514
  583 574.486 32.0291 -44.9541
  584 574.076 -1.02198 -20.4849
  585 712.625 153.159 -11.6610
  586 472.058 -6.90498 -2.08266
  587 472.080 -6.86473 2.07462
  588 607.507 -1.92149 -11.2697
  589 428.341 -13.8665 -22.3655
  590 428.373 -13.8267 22.1966
  591 346.472 15.2191 157.520
  592 591.303 -27.4736 -26.7760
  593 335.896 -18.1642 113.427
  594 581.138 -30.3194 16.7947
  595 609.473 -9.11226 13.0191
  596 601.048 -6.13800 -2.48497
  597 434.127 -5.02088 -5.31265
  598 434.193 -4.98286 5.29117
  599 684.173 135.609 -24.5646
  600 335.645 -17.5415 -113.797
  601 579.148 -25.3526 -13.1083
  602 525.432 -9.89244 -1.31265
  603 525.383 -9.82879 1.30796
  604 964.229 129.123 -23.3605
  605 359.567 -2.10638 10.8407
  606 359.276 -2.12604 -10.9287
  607 547.139 12.8786 38.7585
  608 762.908 66.7790 0.495432
  609 368.494 1.74314 -156.178
  610 194.714 4.29244 -86.2490
  611 196.192 3.26910 85.8010
  612 464.270 -26.4504 28.1944
  613 468.789 -27.2316 -27.5154
  614 775.538 157.014 6.17701
  615 598.787 -6.33846 2.17706
  616 525.593 15.2671 -23.5089
  617 646.716 115.452 23.6609
  618 644.679 119.751 -15.7549
  619 529.700 -29.1325 -7.19420
  620 533.521 -28.5137 5.35375
  621 377.774 83.3718 -222.916
  622 460.146 -15.2265 -15.9500
  623 460.198 -15.0628 15.9084
  624 1119.36 229.731 173.206
  625 597.120 -19.7660 44.6435
  626 351.031 -11.8960 -41.4683
  627 903.065 223.676 155.409
  628 351.799 -11.8376 41.3382
  629 565.550 -21.2381 -155.740
  630 413.663 -1.76709 -2.04452
  631 413.751 -1.75214 2.03617
  632 508.584 4.84421 20.5353
  633 237.988 -3.35484 -37.1497
  634 239.147 -3.36460 36.8884
  635 523.110 -36.6745 14.1780
  636 547.096 -43.6117 -6.93269
  637 637.725 -1.63459 -4.26670
  638 376.455 -0.495269 3.30368
  639 376.306 -0.504817 -3.33170
  640 495.960 -11.0445 -3.73421
  641 495.951 -10.9913 3.71358
  642 561.702 -62.6515 79.7644
  643 648.186 72.3142 -52.1867
  644 438.246 -19.7949 -28.7595
  645 437.976 -19.4701 28.5744
  646 513.942 -36.5275 -18.3434
  647 800.510 173.205 9.11333
  648 602.423 -58.5307 5.20544
  649 527.280 -12.7246 -2.54383
  650 527.210 -12.6725 2.54089
  651 717.381 79.3489 35.4768
  652 604.539 -9.11464 -21.8064
  653 542.602 -0.517545 -18.9621
  654 256.493 -8.80086 -81.8208
  655 257.196 -9.02332 81.2111
  656 512.288 -43.7585 -27.9633
  657 762.714 166.031 -0.0944335
  658 597.335 80.7153 -17.6068
  659 404.294 -3.36446 -10.0850
  660 404.397 -3.31895 10.0178
  661 553.711 -15.9043 -0.617463
  662 553.814 -15.9107 0.721083
  663 1009.15 131.271 58.1401
  664 645.208 -2.04236 1.04047
  665 627.375 -2.76094 7.52155
  666 625.325 -2.76317 -8.96427
  667 595.604 -55.6428 3.58511
  668 447.828 -4.92606 -2.65143
  669 447.881 -4.89454 2.64196
  670 640.141 102.056 36.6713
  671 813.018 179.926 -15.5496
  672 453.454 -33.0088 -40.7329
  673 453.371 -32.7043 40.5572
  674 560.267 -57.6496 -16.2782
  675 594.254 35.4340 -53.8514
  676 695.761 2.29852 16.8876
  677 472.183 -8.52190 -5.54409
  678 472.208 -8.47395 5.52645
  679 408.415 -35.4939 -80.5299
  680 590.133 -57.2309 1.69509
  681 493.350 -54.6579 73.1288
  682 239.226 74.7414 -159.811
  683 463.188 -42.4347 56.4314
  684 559.107 0.166192 17.3990
  685 408.817 -35.1034 80.0377
  686 578.829 -25.8163 13.2694
  687 463.278 -42.2419 -56.8928
  688 482.594 6.64567 4.33021
  689 374.169 -9.55275 29.6674
  690 373.854 -9.55606 -29.8465
  691 493.508 -56.0678 -73.9098
  692 606.883 -40.2242 -32.2942
  693 557.704 -8.28018 -0.225060
  694 557.792 -8.35526 0.226690
  695 619.538 -39.7671 31.4884
  696 564.318 -58.9557 18.6317
  697 683.596 62.9354 48.4428
  698 618.633 -11.7961 54.0766
  699 595.346 -21.6742 32.1677
  700 574.257 47.4411 -34.1032
  701 684.161 114.659 38.5675
  702 591.918 -8.33777 -32.2112
  703 587.861 -19.8643 15.3162
  704 612.728 95.5038 9.47717
  705 598.902 -10.4342 27.6002
  706 191.962 131.556 167.985
  707 556.632 -64.1606 -47.9543
  708 644.313 11.6131 54.4519
  709 648.886 -20.1893 -36.4591
  710 643.016 -1.14945 2.23543
  711 594.455 -20.7876 -24.8050
  712 557.557 -64.6549 43.9686
  713 1053.70 93.5169 -15.5327
  714 345.599 -1.32863 11.3269
  715 345.221 -1.34237 -11.4199
  716 601.303 -11.4383 -10.9297
  717 646.540 -0.901514 -2.21515
  718 511.455 -44.4802 28.0992
  719 610.686 -22.9542 48.6945
  720 910.321 224.799 -79.3574
  721 578.899 -42.0443 12.6178
  722 638.785 -42.2964 -15.5803
  723 588.047 -19.3582 -15.0589
  724 645.607 -1.43465 -0.595828
  725 598.171 -0.114302 57.4726
  726 28.9182 31.8742 38.6070
  727 664.192 -24.2796 -104.652
  728 725.651 44.3922 18.6407
  729 606.798 -62.2599 34.6907
  730 442.973 -10.1839 12.9858
  731 442.956 -10.3183 -13.0361
  732 550.901 299.999 -300.110
  733 619.718 -41.2594 -28.6542
  734 480.848 2.94045 -8.28745
  735 552.176 3.25866 37.5837
  736 599.341 -30.2329 38.5023
  737 574.451 -48.4115 3.82702
  738 593.438 -54.4417 -85.7781
  739 571.169 -45.1920 -5.08560
  740 669.373 -31.9465 -0.116728
  741 617.277 -5.57906 6.26078
  742 555.477 -33.3198 1.43667
  743 989.740 197.700 -107.268
  744 590.264 -16.2372 11.9208
  745 588.308 9.76443 -56.4550
  746 497.487 -5.22257 174.460
  747 628.335 50.5046 56.9019
  748 540.822 -42.3463 9.57667
  749 422.672 -32.6909 -59.1197
  750 422.749 -32.6157 58.6899
  751 578.927 65.1898 -7.90380
  752 585.757 -6.84304 49.9534
  753 590.988 -14.2032 -42.0256
  754 556.082 -34.0252 -1.58004
  755 538.218 -47.9628 17.7352
  756 617.227 101.287 -10.5803
  757 573.772 -49.6713 -1.57683
  758 575.332 -36.5185 12.5256
  759 581.400 -8.03095 1.66019
  760 581.719 -7.83586 -1.63919
  761 781.235 170.020 0.201769
  762 636.836 -54.3797 -25.5319
  763 596.203 -18.6031 24.8004
  764 617.325 -5.58070 -5.62407
  765 627.889 4.08538 -57.0242
  766 709.822 38.3410 -28.6866
  767 364.005 -0.232595 -5.36055
  768 364.235 -0.228082 5.31474
  769 5.73448 -9.23956 -6.33799
  770 608.896 -0.868323 10.4025
  771 563.441 -0.708267 -41.3437
  772 579.915 -5.45472 36.0003
  773 519.842 68.4474 253.102
  774 659.355 134.291 -1.27638
  775 471.987 -33.1254 32.4470
  776 90.5576 1.72665 -32.7675
  777 92.7599 1.24610 33.1007
  778 575.334 -4.05793 -40.8135
  779 473.138 -33.4354 -32.4597
  780 613.783 -6.11325 4.57345
  781 325.588 -13.4709 55.2189
  782 322.968 -13.4167 -55.2008
  783 590.193 -15.7861 -11.5945
  784 387.959 -9.26553 -25.9142
  785 388.148 -9.21071 25.7152
  786 613.686 -6.21187 -14.8494
  787 476.305 -12.3720 -9.46895
  788 476.332 -12.3004 9.47416
  789 668.996 -4.09238 -36.0516
  790 606.254 -6.42690 -57.2423
  791 320.697 -1.89167 -14.3331
  792 321.251 -1.87377 14.1836
  793 20.4970 7.82797 -20.6985
  794 23.0737 8.27415 21.7206
  795 501.555 2.54605 -14.8914
  796 552.701 -62.0833 -36.7605
  797 -6.09560 -4.12359 10.7735
  798 -5.43562 -5.04597 -10.8350
  799 574.623 -11.9889 3.74839
  800 621.575 -48.7819 -13.5042
  801 645.958 95.3783 -42.6149
  802 616.156 -5.53603 -4.36740
  803 1274.05 262.351 -239.072
  804 574.501 -11.9598 -3.69258
  805 858.264 162.029 15.0484
  806 616.783 17.9512 -59.8823
  807 677.878 51.4560 -49.9054
  808 124.409 -1.42824 -29.9784
  809 126.344 -1.59355 29.9327
  810 394.954 -5.32785 15.5308
  811 394.811 -5.36900 -15.6480
  812 380.182 -0.753837 2.94253
  813 380.054 -0.762145 -2.96192
  814 687.411 115.475 -38.0204
  815 417.284 -2.32290 -4.44288
  816 417.369 -2.29723 4.42318
  817 587.500 -5.90102 -52.2161
  818 827.568 92.3070 82.3248
  819 534.500 12.3749 -32.6624
  820 193.702 -1.64745 31.7868
  821 192.297 -1.66336 -32.0117
  822 668.821 21.6838 183.765
  823 600.807 -11.5296 11.2783
  824 546.498 36.6780 -13.5859
  825 261.641 -0.313367 21.4665
  826 260.474 -0.197185 -21.6063
  827 386.708 -1.74116 -7.67911
  828 386.853 -1.71616 7.62003
  829 70.6762 62.3180 56.2365
  830 567.185 13.7854 48.1608
  831 628.397 91.9791 -36.9506
  832 672.386 78.1864 -50.3900
  833 449.524 -16.4065 -20.5230
  834 449.297 -16.2991 20.5117
  835 698.003 147.166 16.8031
  836 598.526 -5.60992 -0.482864
  837 598.574 -5.56992 0.576956
  838 595.621 -18.1713 -32.7196
  839 502.532 -32.9993 20.1970
  840 549.541 -61.7142 36.8078
  841 640.137 -52.4146 56.6597
  842 498.967 -14.2649 -6.30395
  843 498.973 -14.2223 6.27289
  844 571.365 53.1587 21.9759
  845 538.907 7.70105 -35.1910
  846 149.203 187.558 174.621
  847 539.810 -47.5566 -16.4425
  848 541.923 -24.1760 -1.64619
  849 542.205 -24.2434 1.60901
  850 595.968 -8.87358 54.5673
  851 589.027 -38.8831 -22.2324
  852 528.658 -34.6752 -10.0990
  853 1160.43 37.5421 -56.1402
  854 503.259 -47.1400 37.3302
  855 502.820 -47.7280 -37.8762
  856 594.691 -7.27163 27.3257
  857 882.549 230.522 -59.6554
  858 473.739 -42.4274 -45.3926
  859 520.275 -58.3248 44.3074
  860 473.672 -41.9382 45.0302
  861 512.516 -20.3898 -7.58284
  862 512.519 -20.3350 7.54203
  863 80.3054 32.7067 48.6617
  864 638.677 47.7265 -57.1022
  865 493.214 -18.8896 -10.7434
  866 493.313 -18.7124 10.7761
  867 487.915 -7.94690 -1.32455
  868 487.916 -7.89927 1.31780
  869 532.801 -10.7958 -1.02902
  870 532.742 -10.7346 1.02296
  871 439.900 -8.18181 -11.1619
  872 439.948 -8.09590 11.1250
  873 494.713 -25.5271 -15.6912
  874 494.787 -25.3738 15.7614
  875 12.9598 -0.367715 -8.46600
  876 736.273 138.362 25.2185
  877 634.169 -22.4526 -43.6476
  878 519.772 -57.4651 -44.7104
  879 560.286 -18.2918 2.69831
  880 560.054 -18.1211 -2.56323
  881 611.374 0.662171 58.5253
  882 657.607 -46.8205 -34.7029
  883 579.129 44.7280 -220.527
  884 273.884 -5.05536 110.636
  885 -6.43697 6.38255 -8.81355
  886 -5.23071 7.22282 9.58951
  887 79.9304 34.7727 -49.7379
  888 595.511 -17.5231 19.0771
  889 623.447 -4.53484 -7.92029
  890 561.924 -54.4121 97.3057
  891 273.269 -4.81577 -111.035
  892 626.152 -51.6003 7.40281
  893 690.910 -18.6896 87.3311
  894 518.087 2.18960 15.7514
  895 587.477 55.9542 37.2032
  896 323.553 -18.0102 80.7711
  897 322.363 -18.1525 -81.2503
  898 387.301 -17.8081 -45.4511
  899 400.265 -20.2881 -140.353
  900 628.379 -14.9216 50.1948
  901 853.700 204.332 41.1258
  902 632.178 24.2152 58.2346
  903 597.402 -13.0299 -30.0557
  904 408.316 -18.1695 143.795
  905 756.877 140.516 -15.7030
  906 79.5703 66.6339 -68.7752
  907 557.673 -1.02510 -16.5963
  908 387.696 -17.6702 45.0931
  909 468.661 -10.0128 8.25722
  910 468.635 -10.0732 -8.27036
  911 589.837 -38.6693 23.0935
  912 608.722 -4.50672 1.57385
  913 450.465 3.77340 -173.613
  914 640.036 -1.64111 3.72579
  915 636.211 -1.37814 -4.89391
  916 491.215 4.47826 -13.7564
  917 617.948 -2.61875 -9.15544
  918 469.460 -21.3801 -19.4324
  919 469.768 -21.0774 19.4989
  920 -14.0847 6.04677 -7.92121
  921 -20.0556 3.65260 8.63607
  922 608.680 -4.22332 -1.64013
  923 211.614 -4.95250 74.8000
  924 210.492 -4.53862 -75.1876
  925 655.809 95.3024 44.6772
  926 1134.41 20.6309 17.1380
  927 619.002 68.6768 48.1544
  928 690.682 -23.4646 30.2218
  929 606.216 -33.9930 38.4272
  930 752.880 157.346 -12.0783
  931 481.785 2.34953 10.3856
  932 582.664 -14.1835 -6.57312
  933 608.802 32.7982 -58.3943
  934 725.369 23.0962 -3.24094
  935 569.370 -35.2205 -9.08302
  936 303.700 -1.54246 -15.9812
  937 303.952 -1.48685 15.7721
  938 599.543 -14.4732 -22.8673
  939 22.0870 27.3046 8.02168
  940 575.739 -59.7362 -11.0399
  941 509.744 15.6334 -1.41535
  942 748.795 163.291 -7.97991
  943 123.079 91.1949 -111.346
  944 579.923 -4.34200 -32.2557
  945 410.228 -6.41679 -14.6369
  946 410.318 -6.34537 14.5328
  947 4.14543 -15.6764 11.6743
  948 398.911 -29.1110 -65.2015
  949 586.888 -34.1291 -21.7506
  950 379.453 0.827408 -1.24518
  951 379.562 0.830474 1.23853
  952 597.412 72.4337 -29.6272
  953 629.349 -2.37632 -0.742871
  954 629.395 -2.39673 1.00110
  955 399.115 -29.0448 64.8081
  956 595.635 -0.967734 -12.5999
  957 679.577 5.10280 34.1822
  958 603.844 -9.04661 8.54366
  959 103.076 24.7204 -60.2892
  960 624.515 -4.22769 7.12327
  961 574.746 4.83658 51.3049
  962 605.941 83.6648 26.3280
  963 603.837 7.02483 -59.5444
  964 422.412 -21.9637 -39.4627
  965 647.000 -23.1766 34.9533
  966 422.693 -21.8923 39.1087
  967 21.3069 22.4571 -4.46381
  968 77.3894 12.2436 44.3035
  969 349.867 -5.81746 26.6622
  970 349.474 -5.81579 -26.7892
  971 583.081 -14.4234 7.00995
  972 631.636 109.151 14.3404
  973 323.296 28.7984 -165.238
  974 527.771 -32.6553 9.08778
  975 495.623 -51.4790 -54.6770
  976 717.489 137.030 27.9092
  977 553.640 -10.1161 -0.126991
  978 553.614 -10.0685 0.120695
  979 603.972 -11.6240 -16.0353
  980 566.368 49.1782 -20.2591
  981 1219.10 371.680 249.443
  982 124.891 6.38780 -57.1063
  983 126.578 5.29216 57.2065
  984 9.31972 -7.44913 5.18074
  985 567.477 31.7621 41.5874
  986 495.573 -51.8080 54.3125
  987 610.513 -29.0570 -44.4349
  988 663.608 54.2262 55.2248
  989 633.269 -51.1416 -68.0490
  990 920.950 193.317 67.6194
  991 544.232 -9.10898 -0.563108
  992 544.164 -9.04304 0.562405
  993 633.473 -26.1015 41.0756
  994 45.2569 83.7265 81.3452
  995 297.377 -5.92679 38.0231
  996 296.543 -5.84918 -38.3815
  997 350.882 -16.5924 52.2489
  998 349.745 -16.3243 -52.4111
  999 393.644 -15.6444 37.8668
  1000 430.349 -3.11523 -1.96438
  1001 430.420 -3.09383 1.95774
  1002 1016.57 337.663 -218.898
  1003 936.723 235.452 101.961
  1004 393.332 -15.7142 -38.1452
  1005 652.156 -3.14089 45.5702
  1006 590.161 61.2792 -35.7206
  1007 417.187 -36.2396 116.557
  1008 531.565 -62.8934 -65.0749
  1009 606.725 -5.21611 -18.1372
  1010 279.329 18.1756 135.208
  1011 358.066 -27.2448 93.0514
  1012 544.490 28.3398 -26.1858
  1013 614.347 -12.3267 -54.8616
  1014 752.008 333.934 339.485
  1015 516.912 16.2603 18.7642
  1016 691.899 147.483 -2.06658
  1017 503.618 20.6265 -196.780
  1018 517.825 -54.1260 -38.5455
  1019 646.713 -0.998740 -1.78210
  1020 629.850 57.8055 -55.3746
  1021 380.607 -2.20056 9.76662
  1022 380.429 -2.22235 -9.84456
  1023 14.5440 13.5294 -23.1236
  1024 423.144 -18.6695 -33.0045
  1025 357.615 -27.5891 -93.6880
  1026 422.869 -18.6394 32.6863
  1027 601.141 -18.4728 50.7778
  1028 540.408 -33.2132 -4.51735
  1029 570.515 10.7084 -49.8284
  1030 587.413 73.3025 10.4368
  1031 777.148 51.2188 38.0537
  1032 594.101 -45.3054 21.3737
  1033 383.143 -30.1118 -71.3353
  1034 566.352 20.3403 -46.8165
  1035 420.519 -35.7892 -117.086
  1036 797.804 171.270 -4.81932
  1037 552.308 36.6222 23.8226
  1038 684.053 -3.61591 -24.3099
  1039 520.991 -54.1760 35.8765
  1040 595.317 -19.1088 38.8234
  1041 590.691 -31.3932 26.3844
  1042 587.431 -29.7610 22.5040
  1043 721.730 92.5436 -36.7965
  1044 588.763 -9.62573 40.2404
  1045 530.849 -63.0666 64.0660
  1046 566.555 -23.3619 5.74380
  1047 383.390 -30.1809 70.9947
  1048 533.752 -38.9805 -10.8425
  1049 316.143 -15.5522 -99.4735
  1050 445.159 -45.9748 79.5963
  1051 598.398 -4.27027 -21.2832
  1052 584.761 -6.64422 -46.1043
  1053 507.584 -39.6460 -24.3668
  1054 316.663 -15.9635 98.7680
  1055 549.521 1.50979 -32.6540
  1056 411.429 -26.6103 -50.8159
  1057 730.866 154.380 16.8979
  1058 169.790 26.8397 -96.3406
  1059 1206.79 85.0696 113.985
  1060 298.303 21.1347 -141.229
  1061 587.009 -48.7407 -11.1407
  1062 411.562 -26.3982 50.4476
  1063 544.340 6.07662 36.6904
  1064 313.070 -6.02937 31.5027
  1065 312.944 -6.17548 -31.7945
  1066 595.867 -16.7187 -47.2040
  1067 626.978 -3.65587 2.62149
  1068 618.404 -1.57820 9.20412
  1069 614.863 20.3340 59.8661
  1070 577.375 -4.33306 43.5100
  1071 443.609 48.1275 212.486
  1072 650.382 -0.698267 0.785931
  1073 620.826 83.8279 38.2821
  1074 531.175 8.04227 31.7367
  1075 625.067 -2.58388 8.75699
  1076 414.337 -4.07427 -8.30023
  1077 414.422 -4.02948 8.25630
  1078 267.549 -7.30709 -52.6683
  1079 268.485 -7.57296 52.3587
  1080 532.963 27.0472 13.3610
  1081 778.323 45.9174 -66.4537
  1082 715.512 2.06736 -116.184
  1083 582.902 -0.588791 -13.1800
  1084 445.252 -46.3078 -80.1611
  1085 508.662 -37.7149 22.0978
  1086 585.947 -1.40243 13.7373
  1087 609.507 -44.4797 -25.6681
  1088 393.619 -0.712631 4.86322
  1089 393.508 -0.726575 -4.88838
  1090 585.918 -50.1350 11.1214
  1091 557.824 -11.7609 0.372772
  1092 557.730 -11.7761 -0.343784
  1093 543.321 -54.4969 24.4537
  1094 692.028 -21.8046 -15.1624
  1095 329.361 -0.523618 -8.94646
  1096 329.843 -0.505331 8.86318
  1097 476.359 -30.6967 -134.188
  1098 510.254 -12.1202 3.74732
  1099 510.292 -12.1772 -3.77134
  1100 306.215 168.928 233.584
  1101 698.588 57.9257 -42.9656
  1102 108.470 51.4081 -74.5995
  1103 604.082 -9.51212 -8.23483
  1104 167.680 55.9533 -110.636
  1105 345.680 -21.2493 -67.5194
  1106 650.077 -0.971923 0.562760
  1107 650.273 -0.927887 -0.400146
  1108 596.645 -34.2805 -32.5474
  1109 528.031 -59.5686 -87.9766
  1110 169.951 22.8527 91.7987
  1111 649.784 64.2250 53.1481
  1112 587.253 -6.52019 -0.616951
  1113 587.330 -6.52145 0.666792
  1114 636.937 -40.2954 107.178
  1115 667.077 132.458 20.0928
  1116 404.602 -9.23745 -20.7816
  1117 404.712 -9.19985 20.6570
  1118 303.737 33.9410 166.951
  1119 569.002 3.06285 -48.1273
  1120 182.385 57.5413 118.560
  1121 716.256 -10.8908 -41.7660
  1122 713.150 155.814 5.67546
  1123 493.738 -38.4805 28.8195
  1124 465.514 2.76231 -2.02833
  1125 618.836 -5.79900 10.8738
  1126 638.689 -1.03166 4.20622
  1127 152.036 0.198280 -26.6954
  1128 153.801 0.133930 26.5308
  1129 516.127 9.04825 -23.5840
  1130 525.192 -15.4132 -3.52195
  1131 525.088 -15.3542 3.50735
  1132 56.6307 100.166 -86.8032
  1133 88.3433 207.783 -167.976
  1134 531.435 -20.6835 3.66734
  1135 531.615 -20.6667 -3.70416
  1136 547.914 -13.4209 0.193563
  1137 547.839 -13.4014 -0.155920
  1138 147.711 93.8058 120.020
  1139 440.146 -5.11504 -4.12202
  1140 440.207 -5.08153 4.10654
  1141 549.754 41.9117 -0.531289
  1142 677.683 94.0089 -244.308
  1143 663.514 113.877 -34.5113
  1144 604.261 -23.3757 -47.5654
  1145 594.955 -29.9065 -33.4125
  1146 493.945 -38.8228 -29.2693
  1147 503.700 1.80747 14.5555
  1148 560.887 35.2904 -34.8068
  1149 553.638 30.1159 33.3308
  1150 566.202 -22.7066 -5.61224
  1151 541.724 -32.5669 4.09135
  1152 495.001 -31.4346 -22.0434
  1153 586.772 -3.54129 25.5488
  1154 1012.11 101.833 14.0512
  1155 590.279 -12.6934 46.4609
  1156 594.039 39.0558 51.7709
  1157 545.799 -53.4774 -19.4057
  1158 73.7481 11.2167 -42.7995
  1159 556.014 -25.7960 -3.01854
  1160 382.051 -0.460308 -0.273391
  1161 382.153 -0.458119 0.271269
  1162 671.982 -17.7956 19.9051
  1163 640.095 -54.0222 29.4894
  1164 914.762 162.672 41.7411
  1165 233.123 -0.364193 -22.0345
  1166 234.335 -0.316198 21.8875
  1167 500.088 -10.0345 -2.86131
  1168 500.071 -9.97992 2.84522
  1169 557.494 -49.0433 -5.75458
  1170 469.351 2.32278 6.65982
  1171 570.566 -40.6452 8.13584
  1172 34.5582 41.0204 -22.2489
  1173 107.196 52.1828 72.8628
  1174 385.285 -21.5074 129.576
  1175 661.599 125.154 -24.6959
  1176 627.177 -1.87268 -6.93596
  1177 652.639 -1.18179 0.320598
  1178 653.181 -1.55436 -0.171000
  1179 395.806 -0.739844 -0.841149
  1180 395.906 -0.733508 0.836269
  1181 610.035 38.9738 58.4026
  1182 889.836 150.489 -3.23294
  1183 629.375 103.517 -25.7361
  1184 469.097 -34.9918 133.354
  1185 383.263 -20.7493 -129.310
  1186 428.388 -27.9861 -45.8180
  1187 583.565 -16.7018 9.24351
  1188 809.439 179.646 14.4868
  1189 428.453 -27.8347 45.4989
  1190 595.187 -10.9119 6.99002
  1191 540.211 20.4630 31.8776
  1192 590.583 18.4108 56.4049
  1193 830.944 185.143 25.4318
  1194 500.929 -12.9201 5.26690
  1195 500.944 -12.9727 -5.29560
  1196 603.325 -11.7772 16.6853
  1197 369.788 -3.66783 15.2000
  1198 369.540 -3.70330 -15.3193
  1199 589.743 -8.55630 -2.77774
  1200 245.590 147.815 -226.955
  1201 510.888 -29.0580 -142.886
  1202 488.017 -14.9825 -9.11209
  1203 488.075 -14.9241 9.11612
  1204 629.166 -3.39771 2.46152
  1205 598.319 -8.37772 5.54919
  1206 34.7756 45.3460 34.2866
  1207 646.880 -0.894992 2.10721
  1208 80.4233 104.532 103.620
  1209 585.192 -9.25919 -3.64645
  1210 -0.446591 -13.9593 -12.2969
  1211 418.539 -40.9216 -100.537
  1212 417.486 -39.9466 99.5837
  1213 646.847 -1.29142 -2.36200
  1214 559.394 -29.5466 -3.87518
  1215 628.848 -3.14831 -2.44768
  1216 511.110 -16.3885 -5.55076
  1217 511.073 -16.3401 5.50605
  1218 589.382 -8.50517 2.57767
  1219 555.626 -25.2800 2.98780
  1220 535.734 -17.2957 1.93442
  1221 535.906 -17.3305 -1.87915
  1222 628.200 -3.23987 -1.97558
  1223 545.338 -57.7560 -98.8853
  1224 615.705 -4.35397 -1.93829
  1225 587.544 -9.49546 4.01317
  1226 420.591 -4.25467 -6.24796
  1227 420.671 -4.21492 6.21847
  1228 465.745 -6.61404 -3.41151
  1229 465.777 -6.57368 3.39815
  1230 739.949 116.205 29.4972
  1231 622.893 -48.1712 17.2754
  1232 429.614 -2.37747 164.240
  1233 355.986 -0.480529 5.84500
  1234 355.703 -0.486241 -5.89547
  1235 593.249 -11.1292 34.6221
  1236 566.610 -9.02509 0.384630
  1237 566.625 -8.99905 -0.384550
  1238 651.639 125.865 11.6395
  1239 591.256 -62.1331 79.8059
  1240 355.017 -4.70710 21.1555
  1241 354.692 -4.73941 -21.2904
  1242 566.057 -14.1478 2.58024
  1243 565.930 -14.2506 -2.46525
  1244 583.238 -16.5187 -8.85424
  1245 543.487 0.162060 16.8756
  1246 916.593 228.283 -80.5882
  1247 594.752 -22.0392 -29.6278
  1248 107.542 24.4374 61.8585
  1249 613.809 -32.9575 40.8501
  1250 503.451 11.4578 -12.9217
  1251 41.1845 28.5835 23.9580
  1252 799.182 92.8964 -16.9514
  1253 600.262 -27.4896 -41.9974
  1254 505.653 7.56250 19.8196
  1255 347.991 -21.2954 67.4548
  1256 608.467 -47.3330 22.3414
  1257 871.296 174.159 64.2752
  1258 210.322 30.0444 116.277
  1259 610.630 -7.70125 -14.4426
  1260 1142.97 12.9996 -11.2642
  1261 1178.58 17.5237 49.7990
  1262 1254.76 41.7299 -119.036
  1263 594.623 -18.7971 -37.6917
  1264 593.996 -27.3563 31.2050
  1265 602.855 -43.1336 27.8354
  1266 -17.5759 2.25974 10.9620
  1267 -15.9188 1.87873 -12.0215
  1268 585.728 -64.9839 -39.8079
  1269 598.928 -60.8283 -57.5555
  1270 472.396 3.20417 -8.20372
  1271 583.030 -66.0900 57.1475
  1272 623.954 -29.8054 -41.2795
  1273 14.3728 19.5590 4.09739
  1274 511.662 -9.38281 1.74695
  1275 511.694 -9.44178 -1.75149
  1276 618.167 -5.39171 9.64992
  1277 595.101 -10.7311 -6.51323
  1278 562.105 -61.3347 -22.8656
  1279 516.482 -27.6285 10.7125
  1280 514.003 -27.2244 -11.3707
  1281 601.932 -13.0696 23.5779
  1282 617.147 -22.8657 -48.6305
  1283 42.6836 29.7996 -23.4740
</Section>

newXOutput 83

<Section columns = "stress_xx | stress_yy | stress_xy">
  1 663.599 -0.328436 1.18610
  2 663.589 -0.313634 -1.18855
  3 381.223 -0.0646656 -0.426422
  4 -4.74499 -4.67286 -6.82710
  5 1154.61 485.701 378.444
  6 1144.27 502.184 -375.087
  7 -5.51805 -4.42134 7.29085
  8 381.119 -0.0658571 0.425486
  9 667.838 -1.19661 0.329400
  10 666.663 -1.85574 -0.404615
  11 665.534 -1.31963 1.28748
  12 664.365 -1.74478 0.224266
  13 661.805 -1.49868 2.02215
  14 659.441 -1.49854 1.39176
  15 653.554 -1.31671 2.94496
  16 644.806 -1.03576 4.37309
  17 637.085 -1.03599 4.94544
  18 625.343 -1.32911 6.06143
  19 608.714 -0.211461 9.07043
  20 593.363 -0.973656 8.71616
  21 575.464 -1.19485 12.4038
  22 549.657 0.830990 10.8846
  23 530.653 1.35643 12.9486
  24 505.825 2.22394 10.2050
  25 488.506 2.48540 10.3240
  26 463.436 3.34118 5.28489
  27 458.087 5.23757 5.69324
  28 454.836 4.37407 -1.69244
  29 459.201 2.67226 -3.67253
  30 467.273 2.49763 -4.51627
  31 486.071 3.07517 -8.98884
  32 504.341 2.43349 -11.2999
  33 530.859 0.643540 -13.3547
  34 552.022 -0.230316 -12.0496
  35 574.346 -0.941381 -11.7344
  36 594.433 -0.770194 -8.22261
  37 611.465 -0.840706 -6.95848
  38 625.331 -1.31029 -5.76958
  39 637.595 -0.980909 -3.92200
  40 645.049 -1.20957 -4.11688
  41 652.264 -1.40975 -2.98813
  42 658.919 -1.64186 -1.19036
  43 662.275 -1.34422 -1.48309
  44 663.851 -0.902562 -0.875923
  45 662.142 -0.615089 -0.803654
  46 667.242 -1.84527 0.299547
  47 667.997 -1.23575 -0.338981
  48 648.235 -0.872665 -0.735705
  49 635.062 -3.19172 -1.40526
  50 618.780 -4.57390 -0.801227
  51 598.801 -6.51897 -1.12965
  52 579.698 -7.04672 -1.34467
  53 559.192 -8.54465 -1.30025
  54 540.934 -9.34266 -0.633011
  55 524.913 -10.2300 -0.124590
  56 506.384 -8.42830 -0.0970185
  57 485.017 -7.76203 -0.325768
  58 464.458 -6.01966 0.0254535
  59 445.017 -3.72960 0.0797018
  60 426.590 -2.57987 0.140849
  61 410.507 -1.22178 0.258250
  62 394.167 -0.250215 -0.478145
  63 381.349 0.552721 0.727557
  64 375.492 1.39490 0.533244
  65 379.116 0.0577149 1.18450
  66 374.360 -0.129116 1.44858
  67 369.789 -0.219865 1.79945
  68 363.675 0.0272009 2.30215
  69 355.984 0.0206297 2.86926
  70 350.004 -0.350595 5.39980
  71 334.041 0.483187 5.87071
  72 322.615 0.00482542 6.64845
  73 305.611 -0.244830 7.56289
  74 286.109 -0.437951 9.18333
  75 261.692 -0.0691215 11.1540
  76 231.935 0.162375 12.3482
  77 205.795 -0.194558 17.6772
  78 154.915 1.59274 16.7925
  79 119.718 1.36950 17.8041
  80 77.0464 -0.388007 19.9088
  81 41.1129 3.13504 20.9221
  82 -0.0517337 4.79681 12.9922
  83 -30.5976 4.89999 5.12673
  84 -31.2118 4.85002 -0.929644
  85 -31.1722 4.08543 -9.14415
  86 -18.4885 -1.10837 -8.90178
  87 -2.12530 -17.7453 -9.87830
  88 1.97800 -32.3706 -12.0944
  89 5.15640 -49.7264 -5.95325
  90 11.2465 -48.1207 2.28686
  91 23.4861 -2.28674 33.1000
  92 68.3991 120.926 106.254
  93 384.248 388.666 341.484
  94 1403.16 212.439 231.451
  95 1271.05 30.2060 74.5370
  96 1187.49 12.7364 22.8113
  97 1156.74 10.9277 1.69404
  98 1173.42 14.3989 -19.9214
  99 1269.04 28.3981 -59.0905
  100 1479.53 102.468 -197.413
  101 229.965 401.330 -287.392
  102 51.1448 93.4203 -89.0591
  103 25.7466 0.298221 -35.7182
  104 10.5694 -47.5623 -7.59254
  105 3.22806 -37.3546 6.73204
  106 3.88133 -40.9242 10.4003
  107 0.265629 -15.2379 10.9555
  108 -19.3269 -0.631003 8.39909
  109 -32.1511 3.06862 7.92896
  110 -32.9106 5.87832 1.09420
  111 -31.5424 4.80494 -4.82006
  112 -2.31644 4.91534 -12.2234
  113 39.1568 3.16114 -19.9778
  114 75.0582 -0.0473347 -19.5849
  115 117.653 1.47899 -17.8344
  116 153.041 1.63222 -16.9100
  117 204.344 -0.201831 -17.8127
  118 230.697 0.177923 -12.4575
  119 260.608 -0.0659246 -11.2840
  120 285.563 -0.489855 -9.24248
  121 304.854 -0.229183 -7.57753
  122 322.036 0.0250488 -6.71085
  123 333.563 0.478001 -5.92806
  124 349.655 -0.354436 -5.44829
  125 355.698 0.0181273 -2.89881
  126 363.452 0.0247815 -2.32633
  127 369.613 -0.223906 -1.81852
  128 374.218 -0.132584 -1.46180
  129 378.994 0.0548193 -1.19286
  130 375.380 1.39368 -0.537058
  131 381.243 0.552067 -0.729983
  132 394.065 -0.253441 0.477034
  133 410.412 -1.22991 -0.261125
  134 426.508 -2.59757 -0.144182
  135 444.954 -3.75415 -0.0828842
  136 464.418 -6.05515 -0.0286757
  137 485.004 -7.80724 0.323172
  138 506.400 -8.48100 0.0941607
  139 524.953 -10.2899 0.123135
  140 540.992 -9.40271 0.634872
  141 559.278 -8.59931 1.30645
  142 579.776 -7.08390 1.36695
  143 598.865 -6.55228 1.23847
  144 618.895 -4.35427 0.818495
  145 635.494 -3.11927 1.37351
  146 648.362 -0.974156 0.723699
  147 586.347 -55.1446 0.978766
  148 585.820 -54.3920 -0.775042
  149 619.612 88.7429 -27.7529
  150 655.843 38.6040 57.4137
  151 497.377 -48.2883 -112.771
  152 501.504 -48.1865 109.303
  153 488.280 -20.2565 14.8747
  154 488.304 -20.5242 -14.8787
  155 692.284 25.3190 -41.0895
  156 584.843 -21.3491 9.84286
  157 584.588 -20.8568 -9.72895
  158 755.589 166.882 5.35574
  159 601.209 -0.931805 -57.3972
  160 448.936 -34.6520 -50.9523
  161 448.987 -34.3791 50.5495
  162 601.538 -13.7450 51.2474
  163 575.699 42.2591 34.8425
  164 240.887 37.5054 -134.829
  165 266.059 35.6287 141.902
  166 727.149 9.50271 -2.22992
  167 601.779 -23.3297 -34.4774
  168 792.679 174.026 3.10183
  169 543.805 -15.4567 -1.61950
  170 543.700 -15.4198 1.65892
  171 605.956 -7.90798 -4.19569
  172 607.672 -7.17427 3.58845
  173 434.923 -5.85573 -8.41575
  174 434.988 -5.79839 8.38065
  175 645.541 -15.5180 143.556
  176 558.402 23.5317 -37.6075
  177 367.770 -27.2176 -80.4716
  178 368.838 -27.0252 80.0032
  179 414.361 -13.0139 -26.6790
  180 414.412 -12.8719 26.5085
  181 604.429 -16.1728 29.3553
  182 550.934 -37.6280 -4.77249
  183 549.112 -37.3488 5.57295
  184 621.883 -60.4743 -16.2422
  185 625.271 -57.6158 8.60404
  186 855.571 202.068 -36.2443
  187 631.362 100.854 25.8441
  188 630.354 38.7269 -58.6837
  189 642.486 -3.45567 -165.721
  190 623.120 -35.4366 -38.6658
  191 628.603 -25.3870 46.4676
  192 525.925 -59.6062 57.0670
  193 525.959 -59.1646 -56.9194
  194 566.730 7.42881 44.9666
  195 264.208 -6.84066 -98.8595
  196 264.796 -7.35583 98.3072
  197 959.157 142.774 21.1348
  198 590.960 -35.3682 19.7093
  199 611.663 -11.6402 -18.6966
  200 491.382 -11.7694 -7.06015
  201 491.401 -11.7180 7.04278
  202 590.942 -7.74845 -39.7252
  203 670.843 98.2724 -45.8680
  204 567.141 51.2069 -6.95843
  205 374.673 -12.7170 37.0300
  206 374.135 -12.7499 -37.2721
  207 619.225 -7.37144 9.78482
  208 608.108 11.4688 59.1457
  209 496.668 -35.5843 -26.0906
  210 493.596 -33.6770 26.5380
  211 712.466 105.868 39.9011
  212 828.304 118.676 29.2079
  213 60.7983 46.2014 -40.6374
  214 56.3534 42.7034 34.7072
  215 346.625 100.670 233.831
  216 585.179 -38.9826 -14.0765
  217 621.181 -7.07068 -8.82002
  218 560.828 5.17566 -41.4481
  219 400.414 -3.65464 -11.8967
  220 400.546 -3.61480 11.8078
  221 529.394 -24.6236 -7.23394
  222 529.645 -24.7901 6.94227
  223 595.439 -8.12885 33.6137
  224 677.752 -38.9971 22.1411
  225 680.938 137.959 -13.0150
  226 534.057 -51.2489 -28.7277
  227 670.045 -11.7088 33.6747
  228 573.456 -10.0695 1.05906
  229 573.454 -9.99508 -1.05832
  230 530.392 -51.0133 29.6321
  231 605.070 -38.6150 30.9721
  232 836.639 114.648 -63.8199
  233 192.696 114.580 -172.379
  234 522.200 18.8075 9.08209
  235 611.381 53.8812 49.9993
  236 646.743 -4.63575 -50.4793
  237 605.971 -21.9834 -47.3638
  238 332.885 -10.2851 -46.0509
  239 333.954 -10.1362 45.9368
  240 606.520 -7.57639 -25.5902
  241 577.586 -14.9866 4.62588
  242 577.320 -14.9773 -4.42123
  243 128.603 11.0386 -64.4205
  244 130.411 9.66564 64.1802
  245 638.949 -56.0928 -55.3091
  246 631.444 -2.79006 1.12982
  247 632.024 -2.83737 -1.29591
  248 598.003 49.6804 -45.9835
  249 531.572 10.6452 27.3633
  250 1068.89 171.102 115.363
  251 1059.21 120.629 -71.5634
  252 783.188 167.174 0.895891
  253 489.748 -23.9772 148.975
  254 450.650 -16.0101 -155.531
  255 519.684 -10.6735 -2.86067
  256 519.644 -10.6141 2.84463
  257 437.010 -11.1927 16.7475
  258 436.991 -11.3396 -16.8738
  259 619.394 -7.07791 15.2592
  260 602.525 -43.0933 -24.5318
  261 403.352 -0.568692 -2.85085
  262 403.455 -0.557541 2.83647
  263 595.055 -24.4025 -19.8881
  264 262.342 -8.37768 -64.1705
  265 263.361 -8.40255 63.7543
  266 603.007 -26.3742 37.2211
  267 463.244 -49.1738 90.8427
  268 464.306 -50.0482 -90.5572
  269 529.174 20.7437 -12.7401
  270 456.883 -6.67712 -5.69746
  271 456.932 -6.63618 5.67956
  272 570.209 -1.30332 32.9774
  273 676.921 123.157 31.5937
  274 373.450 -4.22646 19.8020
  275 373.180 -4.25944 -19.9494
  276 617.643 -51.8638 14.9885
  277 571.720 -64.4385 -63.2955
  278 634.201 -3.56019 4.38293
  279 450.720 -25.9993 -35.1362
  280 450.022 -25.7219 35.0245
  281 768.415 90.1723 208.591
  282 376.859 -30.5810 107.663
  283 604.285 84.6451 -2.93219
  284 751.928 84.9616 -21.7252
  285 572.106 -44.1999 2.93606
  286 572.344 -66.1688 57.5049
  287 377.889 -30.1108 -108.775
  288 72.1911 89.4107 83.0212
  289 595.160 -24.4728 20.2766
  290 773.620 103.294 14.5992
  291 638.675 -3.18653 -3.80299
  292 587.874 20.7850 -52.9641
  293 576.390 -32.6905 9.15111
  294 564.727 -47.5521 5.65137
  295 586.042 27.0719 51.1309
  296 614.837 -51.8472 -12.8876
  297 865.587 166.819 -16.6450
  298 576.241 -31.4384 -8.71849
  299 469.402 140.311 -283.429
  300 587.799 -62.4351 -16.4723
  301 583.780 -64.1596 23.0392
  302 434.914 -38.8877 -71.2015
  303 399.580 -1.31704 -6.14204
  304 399.699 -1.29370 6.10172
  305 435.139 -38.9316 70.8514
  306 623.537 -1.09928 -58.5848
  307 668.417 -27.6967 -20.0010
  308 515.572 -30.6209 -15.0137
  309 515.299 -30.6943 15.2637
  310 607.863 -52.3411 99.0020
  311 611.171 -5.14130 19.3493
  312 733.540 5.70943 41.1245
  313 506.136 -17.5791 -8.51316
  314 506.180 -17.5315 8.47621
  315 464.192 -11.6529 -11.3965
  316 464.208 -11.5518 11.3850
  317 526.540 7.39646 -26.4459
  318 663.551 48.7268 -55.3613
  319 1008.31 274.426 -134.722
  320 602.270 -5.92364 -1.30952
  321 601.969 -5.85000 1.35792
  322 329.207 -1.40785 134.410
  323 461.242 -20.3070 -23.7590
  324 460.454 -20.2549 23.8249
  325 329.140 -2.21682 -133.894
  326 635.378 74.8443 -48.1475
  327 704.364 35.4223 38.3538
  328 607.427 -43.2933 -109.364
  329 563.954 -21.9251 2.92395
  330 563.416 -21.7831 -2.69880
  331 599.408 -12.9422 -9.07674
  332 570.543 -0.995827 -30.8170
  333 634.358 2.56512 56.9279
  334 629.424 -4.80286 -10.4048
  335 388.916 -22.9523 54.0956
  336 388.493 -23.0694 -54.4660
  337 593.095 -1.27223 54.6835
  338 376.335 -2.78834 -11.8543
  339 376.567 -2.76310 11.7613
  340 604.093 -14.3462 15.0574
  341 725.686 147.443 -21.3032
  342 599.185 -13.0219 9.45951
  343 642.184 80.3593 48.1606
  344 613.495 -11.5507 55.7827
  345 490.953 -9.01437 2.71785
  346 490.948 -9.06291 -2.73166
  347 583.462 -1.99475 -48.6180
  348 764.812 160.259 10.9050
  349 641.685 116.783 0.991238
  350 391.932 45.2340 -198.294
  351 44.9230 17.9490 -29.4271
  352 48.7807 19.4513 31.4467
  353 -0.796234 5.21867 10.7434
  354 1.38269 3.35120 -11.3237
  355 1090.45 75.7871 25.4530
  356 531.060 -42.7179 -18.0691
  357 604.469 -13.8944 -14.6730
  358 548.410 -9.94387 0.0955905
  359 548.349 -9.87356 -0.100541
  360 590.375 65.2560 -24.9403
  361 502.296 -50.7379 47.0446
  362 46.4488 69.8275 -52.8887
  363 502.677 -50.7023 -47.8066
  364 597.648 67.9799 26.5249
  365 604.297 -16.4571 -27.8413
  366 639.160 -35.9173 -31.5495
  367 685.466 143.299 8.90544
  368 640.291 -40.2882 24.8581
  369 277.200 -6.57056 42.8607
  370 275.701 -6.44049 -43.0961
  371 159.556 3.51770 -60.4472
  372 161.017 2.93544 60.1938
  373 534.101 2.14503 26.6688
  374 978.297 291.361 120.870
  375 623.009 -4.29135 -13.5958
  376 490.663 -40.7932 -36.3107
  377 490.332 -40.7151 36.2671
  378 601.667 -14.1228 -36.0652
  379 678.916 -32.7699 -2.44442
  380 531.042 -42.6903 18.5257
  381 740.059 7.79228 -69.1107
  382 434.885 -3.19933 -2.35502
  383 434.958 -3.17384 2.34278
  384 593.418 -3.57163 -23.4204
  385 330.578 -4.46324 -27.8607
  386 330.752 -4.61442 27.5499
  387 704.105 90.2827 -45.0057
  388 383.462 26.7676 184.746
  389 554.347 -29.0343 -0.540205
  390 554.874 -28.9921 0.521520
  391 652.385 109.762 -30.1405
  392 615.415 -18.4068 -52.4252
  393 613.091 -62.9238 56.6813
  394 517.953 -13.6739 -4.58007
  395 517.905 -13.6193 4.54774
  396 593.037 -45.8728 14.9915
  397 634.774 -3.37917 7.64994
  398 407.841 -14.2309 -33.1549
  399 408.008 -14.2406 32.9076
  400 605.469 20.4302 -58.4662
  401 569.077 -12.7611 1.50588
  402 569.045 -12.7966 -1.44250
  403 591.155 -7.06293 44.2912
  404 556.145 40.9157 12.1404
  405 610.259 -26.0147 45.1970
  406 873.639 181.657 36.0583
  407 302.991 -16.1996 -86.2295
  408 303.781 -16.1983 85.6333
  409 136.867 71.8800 -105.926
  410 646.525 -2.35744 1.90688
  411 344.738 -2.63105 -17.6718
  412 345.155 -2.57548 17.5385
  413 602.008 -15.9559 35.1712
  414 546.534 -59.1460 32.9965
  415 612.996 -8.22210 6.38175
  416 629.180 31.9018 60.4085
  417 142.924 76.5352 109.979
  418 547.291 -58.7794 -30.6708
  419 565.106 -52.3980 -9.69238
  420 194.582 -3.86221 -54.4097
  421 195.852 -3.99354 54.0671
  422 435.982 -35.4637 -129.802
  423 646.626 -9.85410 49.0267
  424 434.544 -35.9247 128.743
  425 598.598 -33.8349 -27.8516
  426 563.204 38.3967 -26.4293
  427 598.629 -26.1810 26.7242
  428 638.842 -3.31444 -4.95320
  429 21.2262 23.7797 12.4267
  430 133.975 158.132 154.936
  431 580.443 -2.10308 22.7836
  432 496.004 7.23264 11.6774
  433 503.701 8.70731 -15.7861
  434 429.813 -6.64067 -11.8241
  435 429.871 -6.55970 11.7609
  436 590.143 -45.8309 -13.3864
  437 598.312 -11.8503 -49.3203
  438 498.350 9.86080 -4.28406
  439 872.440 208.714 50.0293
  440 127.962 40.8571 -79.6944
  441 140.444 37.4698 84.7629
  442 553.832 -19.8454 0.0739322
  443 553.638 -19.8136 0.0582282
  444 736.619 160.772 -1.51529
  445 450.473 199.049 289.672
  446 702.286 -9.10951 -1.97360
  447 415.241 -20.9880 -44.9703
  448 415.447 -20.8565 44.6338
  449 419.735 -8.84786 18.1162
  450 419.644 -8.90702 -18.2553
  451 559.601 12.7991 -42.7890
  452 649.440 -1.32670 -1.21699
  453 545.733 25.5256 24.1921
  454 678.911 83.7339 50.3496
  455 566.442 -41.9766 -1.15078
  456 612.688 -7.86790 -6.22267
  457 641.234 -3.04384 4.55649
  458 647.477 -1.43784 0.690062
  459 647.912 -1.57260 -0.471259
  460 375.173 -0.536023 4.45353
  461 374.986 -0.544746 -4.49225
  462 617.724 -39.5445 33.6905
  463 564.724 22.6317 41.4591
  464 587.287 2.49301 -53.5056
  465 608.268 -13.2808 20.2679
  466 855.828 157.112 -179.524
  467 610.570 -34.1313 -38.7238
  468 8.82711 12.0406 6.59958
  469 8.65182 12.3508 -3.56737
  470 489.191 -27.1128 21.2091
  471 487.670 -26.7233 -20.9127
  472 746.760 18.0996 99.7020
  473 212.492 201.552 -222.736
  474 603.976 -2.01774 17.4025
  475 675.894 -38.8651 -59.2314
  476 372.721 -20.8830 62.4079
  477 730.123 129.729 -30.7691
  478 601.912 -32.8446 32.0806
  479 509.738 -23.9498 -11.5856
  480 510.176 -23.5693 11.5653
  481 533.982 3.02447 -23.5177
  482 371.610 -20.7879 -62.7385
  483 546.165 0.453390 23.5463
  484 516.615 -59.2550 -82.1462
  485 515.363 -59.3448 82.5203
  486 619.951 -4.40982 15.0612
  487 571.455 54.1370 5.00789
  488 567.204 11.5070 200.238
  489 838.061 168.659 -1.04753
  490 581.786 -10.3415 2.31484
  491 581.807 -10.3075 -2.44366
  492 456.460 -7.69852 -7.77733
  493 456.504 -7.64014 7.75533
  494 243.278 10.3314 113.836
  495 604.849 -29.3919 -38.2478
  496 550.057 -12.2211 -0.738987
  497 550.003 -12.1866 0.745863
  498 481.108 -50.6065 67.1319
  499 247.775 13.7737 -116.626
  500 604.687 -49.5036 -15.4769
  501 11.6424 4.74984 2.58916
  502 538.358 28.3317 1.80538
  503 583.568 -7.35994 -0.707220
  504 583.565 -7.44693 0.679541
  505 481.305 -50.4996 -67.6191
  506 676.394 -34.0049 73.5639
  507 675.595 24.6084 50.4029
  508 621.282 -4.84726 -2.91943
  509 602.859 -50.1765 15.8022
  510 392.490 -0.229156 -0.852046
  511 392.595 -0.226139 0.846765
  512 603.389 -23.3957 -41.4025
  513 588.903 43.7076 45.0850
  514 667.597 16.5811 -49.8935
  515 390.086 -0.470501 -2.51982
  516 390.202 -0.463125 2.50579
  517 1135.45 164.308 -145.649
  518 611.746 72.6840 39.4362
  519 621.747 -4.53885 2.57550
  520 566.284 -53.5735 11.0817
  521 481.967 -15.5002 11.9826
  522 481.948 -15.6078 -11.9584
  523 654.695 -40.1300 10.4220
  524 632.282 -12.8513 -52.4482
  525 707.825 138.538 27.0217
  526 592.245 10.3190 55.5475
  527 592.170 -11.9351 5.28476
  528 574.497 -61.7072 -80.1353
  529 599.600 -15.0669 41.3350
  530 1120.17 51.7370 -20.3058
  531 649.580 -49.1904 5.70126
  532 617.449 -4.74728 -0.562084
  533 617.600 -5.00458 0.446793
  534 1131.86 75.8751 70.6661
  535 578.460 -0.0626392 47.2582
  536 795.779 136.737 -3.30942
  537 603.085 -16.8468 -19.3906
  538 286.354 -2.49299 -19.0217
  539 287.133 -2.37095 18.8450
  540 414.295 -38.6192 -90.3234
  541 414.671 -37.9776 89.6987
  542 591.835 -11.4776 -5.26005
  543 645.590 23.6766 -58.0105
  544 568.052 -38.6145 3.35049
  545 614.279 70.3567 -40.8028
  546 613.822 -7.53978 20.2383
  547 760.705 40.8004 -18.0130
  548 529.139 -18.0373 -4.68079
  549 529.001 -17.9899 4.64344
  550 571.836 -27.1196 6.28776
  551 831.963 168.587 -22.7779
  552 605.034 26.5298 57.6224
  553 261.421 66.9087 167.423
  554 577.078 -34.4755 135.826
  555 752.371 42.0129 -150.919
  556 618.338 51.1594 -53.3809
  557 543.776 -47.3938 -118.110
  558 589.685 -64.8509 -27.8112
  559 614.086 -62.5336 -38.6791
  560 83.8573 111.760 -105.577
  561 617.761 -8.38183 -11.7749
  562 921.333 178.537 -55.3087
  563 574.718 -26.0841 -7.47137
  564 578.983 -19.1745 6.21188
  565 578.463 -18.7638 -5.88605
  566 411.638 -2.07593 -5.63705
  567 411.737 -2.04937 5.60699
  568 64.2780 5.85601 -34.0626
  569 67.2704 6.15726 34.8074
  570 307.395 -13.8946 -65.5829
  571 309.577 -13.9766 65.5274
  572 587.049 -32.0311 -16.3933
  573 596.217 -65.1253 29.7649
  574 612.734 -58.4721 -2.19823
  575 508.866 -8.96132 -2.28836
  576 508.845 -8.90601 2.27843
  577 480.075 -50.6123 -100.947
  578 533.801 -44.1536 124.647
  579 469.024 -47.6445 101.432
  580 605.328 -13.5724 -52.8315
  581 390.205 -6.05363 20.0550
  582 390.017 -6.11357 -20.1969
  583 581.211 32.4126 -45.3781
  584 580.765 -1.03436 -20.6700
  585 720.813 154.879 -11.7261
  586 477.654 -6.97960 -2.11287
  587 477.676 -6.93907 2.10475
  588 614.473 -1.94670 -11.3643
  589 433.483 -14.0155 -22.6524
  590 433.515 -13.9754 22.4819
  591 350.541 15.3761 159.432
  592 598.085 -27.7956 -26.9599
  593 339.903 -18.3921 114.809
  594 587.805 -30.6725 16.8741
  595 616.405 -9.22922 13.1032
  596 607.865 -6.22383 -2.48748
  597 439.358 -5.07116 -5.38622
  598 439.425 -5.03285 5.36458
  599 692.053 137.145 -24.7413
  600 339.649 -17.7634 -115.183
  601 585.790 -25.6506 -13.1598
  602 531.539 -10.0100 -1.33813
  603 531.489 -9.94585 1.33337
  604 974.851 130.529 -23.6280
  605 364.032 -2.12674 10.9721
  606 363.738 -2.14657 -11.0608
  607 553.600 13.0403 39.1302
  608 771.425 67.6076 0.753242
  609 372.803 1.74120 -158.069
  610 197.155 4.32887 -87.3229
  611 198.648 3.29510 86.8696
  612 469.754 -26.7438 28.5684
  613 474.318 -27.5338 -27.8836
  614 784.305 158.813 6.04208
  615 605.584 -6.42653 2.17672
  616 531.857 15.4627 -23.7370
  617 654.210 116.770 23.8598
  618 652.157 121.116 -15.8882
  619 535.844 -29.4633 -7.35099
  620 539.703 -28.8386 5.49055
  621 382.097 84.3565 -225.572
  622 465.610 -15.3919 -16.1683
  623 465.663 -15.2268 16.1265
  624 1131.43 232.227 175.087
  625 603.992 -19.9985 45.0154
  626 355.335 -12.0266 -41.9655
  627 912.837 226.478 157.490
  628 356.111 -11.9678 41.8346
  629 571.917 -21.4669 -157.633
  630 418.707 -1.78078 -2.07135
  631 418.796 -1.76573 2.06294
  632 514.691 4.91027 20.7354
  633 241.030 -3.39215 -37.5935
  634 242.200 -3.40206 37.3299
  635 529.183 -37.0896 14.4223
  636 553.409 -44.1085 -7.11363
  637 644.900 -1.65952 -4.29351
  638 381.134 -0.498226 3.34714
  639 380.983 -0.507856 -3.37537
  640 501.783 -11.1693 -3.80071
  641 501.774 -11.1158 3.77986
  642 568.103 -63.3748 80.7956
  643 655.646 73.1469 -52.6287
  644 443.474 -20.0118 -29.1268
  645 443.202 -19.6836 28.9400
  646 519.922 -36.9389 -18.6300
  647 809.583 175.142 9.32839
  648 609.289 -59.2043 5.41465
  649 533.404 -12.8741 -2.60625
  650 533.334 -12.8217 2.60318
  651 725.503 80.2739 35.6600
  652 611.455 -9.22937 -21.9764
  653 549.019 -0.519594 -19.1407
  654 259.672 -8.91096 -82.8154
  655 260.380 -9.13554 82.1999
  656 518.241 -44.2535 -28.3657
  657 771.425 167.874 -0.106797
  658 604.315 81.6549 -17.7686
  659 409.228 -3.39619 -10.2144
  660 409.333 -3.35029 10.1466
  661 560.090 -16.0936 -0.572826
  662 560.195 -16.0998 0.677249
  663 1020.18 132.694 58.7771
  664 652.410 -2.07292 1.04368
  665 634.478 -2.79974 7.57421
  666 632.415 -2.80077 -9.03142
  667 602.407 -56.2836 3.47952
  668 453.193 -4.97636 -2.68806
  669 453.246 -4.94463 2.67852
  670 647.552 103.224 36.9868
  671 822.206 181.941 -15.8556
  672 458.810 -33.3780 -41.2534
  673 458.727 -33.0706 41.0761
  674 566.703 -58.3093 -16.5836
  675 601.165 35.8504 -54.3491
  676 703.598 2.34015 16.8691
  677 477.777 -8.61456 -5.62722
  678 477.802 -8.56628 5.60943
  679 413.254 -35.9050 -81.5098
  680 596.878 -57.8893 1.85634
  681 499.065 -55.2898 74.0538
  682 242.082 75.6124 -161.776
  683 468.620 -42.9181 57.1452
  684 565.671 0.168532 17.5598
  685 413.661 -35.5102 81.0129
  686 585.469 -26.1190 13.3216
  687 468.710 -42.7227 -57.6110
  688 488.459 6.73639 4.37296
  689 378.745 -9.65476 30.0276
  690 378.427 -9.65791 -30.2081
  691 499.222 -56.7158 -74.8439
  692 613.827 -40.6907 -32.5059
  693 564.117 -8.38680 -0.215814
  694 564.206 -8.46258 0.217422
  695 626.608 -40.2285 31.6793
  696 570.793 -59.6316 18.9670
  697 691.384 63.6615 48.7952
  698 625.731 -11.9359 54.5286
  699 602.179 -21.9312 32.4159
  700 580.990 48.0045 -34.4248
  701 692.012 115.966 38.8551
  702 598.746 -8.43792 -32.4882
  703 594.589 -20.1016 15.3993
  704 619.871 96.6063 9.56301
  705 605.778 -10.5615 27.8252
  706 194.251 133.154 170.062
  707 563.002 -64.8989 -48.6213
  708 651.682 11.7450 54.8919
  709 656.265 -20.4206 -36.6883
  710 650.214 -1.17006 2.24581
  711 601.265 -21.0355 -24.9815
  712 563.941 -65.3986 44.5898
  713 1065.11 94.5361 -15.6982
  714 349.909 -1.34086 11.4637
  715 349.528 -1.35470 -11.5575
  716 608.149 -11.5821 -10.9893
  717 653.770 -0.918210 -2.22657
  718 517.401 -44.9838 28.5033
  719 617.692 -23.2231 49.0901
  720 920.310 227.469 -80.5466
  721 585.542 -42.5288 12.6363
  722 646.036 -42.7822 -15.5807
  723 594.777 -19.5902 -15.1402
  724 652.810 -1.45889 -0.595104
  725 605.087 -0.116357 57.9875
  726 29.2881 32.4185 39.1589
  727 671.591 -24.5146 -106.008
  728 733.813 44.9318 18.6227
  729 613.685 -62.9736 35.2354
  730 448.275 -10.2922 13.1616
  731 448.258 -10.4278 -13.2122
  732 556.766 303.752 -303.579
  733 626.788 -41.7369 -28.8141
  734 486.695 2.98763 -8.36959
  735 558.677 3.30276 37.9387
  736 606.218 -30.5862 38.7965
  737 581.043 -48.9671 3.74467
  738 600.145 -55.0663 -86.8887
  739 577.730 -45.7110 -5.02300
  740 676.919 -32.3024 0.0717872
  741 624.260 -5.65631 6.29124
  742 561.879 -33.7018 1.35861
  743 1000.64 199.876 -108.493
  744 597.009 -16.4346 11.9786
  745 595.143 9.88240 -56.9739
  746 503.139 -5.27189 176.563
  747 635.584 51.0867 57.4043
  748 547.071 -42.8285 9.78384
  749 427.690 -33.0614 -59.8457
  750 427.769 -32.9857 59.4119
  751 585.719 65.9582 -7.97723
  752 592.547 -6.92373 50.4010
  753 597.809 -14.3707 -42.3866
  754 562.490 -34.4160 -1.50270
  755 544.435 -48.5087 18.0379
  756 624.417 102.453 -10.6729
  757 580.356 -50.2417 -1.46893
  758 581.938 -36.9404 12.5531
  759 588.036 -8.13729 1.65454
  760 588.357 -7.94016 -1.63323
  761 790.119 171.916 0.108232
  762 644.029 -54.9994 -25.9893
  763 603.031 -18.8257 24.9799
  764 624.304 -5.65841 -5.64910
  765 635.093 4.13135 -57.5051
  766 717.835 38.8043 -28.7927
  767 368.540 -0.232246 -5.42706
  768 368.772 -0.227696 5.38089
  769 5.81879 -9.30136 -6.37419
  770 615.875 -0.882535 10.4888
  771 570.039 -0.710651 -41.7283
  772 586.650 -5.51871 36.3232
  773 525.631 69.3217 256.078
  774 666.993 135.813 -1.28751
  775 477.540 -33.4958 32.8784
  776 91.8385 1.74357 -33.1829
  777 94.0615 1.25760 33.5199
  778 582.032 -4.10397 -41.1850
  779 478.701 -33.8088 -32.8917
  780 620.725 -6.19767 4.58996
  781 329.587 -13.6238 55.8809
  782 326.939 -13.5689 -55.8614
  783 596.937 -15.9785 -11.6502
  784 392.685 -9.36322 -26.2311
  785 392.877 -9.30800 26.0305
  786 620.672 -6.29403 -14.9589
  787 481.933 -12.5074 -9.60928
  788 481.961 -12.4353 9.61461
  789 676.582 -4.13288 -36.2638
  790 613.240 -6.50215 -57.7434
  791 324.724 -1.91090 -14.5035
  792 325.283 -1.89281 14.3528
  793 20.8781 7.92075 -20.9826
  794 23.4803 8.37261 22.0173
  795 507.598 2.58060 -15.0358
  796 559.044 -62.7956 -37.2963
  797 -6.15835 -4.16341 10.8916
  798 -5.49413 -5.09982 -10.9573
  799 581.202 -12.1382 3.74310
  800 628.650 -49.3443 -13.4923
  801 653.419 96.4724 -42.9768
  802 623.118 -5.61343 -4.38386
  803 1287.35 265.240 -241.557
  804 581.078 -12.1090 -3.68709
  805 867.912 163.810 15.2624
  806 623.893 18.1595 -60.4115
  807 685.602 52.0533 -50.2779
  808 126.117 -1.44680 -30.3505
  809 128.070 -1.61391 30.3044
  810 399.780 -5.38224 15.7251
  811 399.634 -5.42372 -15.8432
  812 384.906 -0.759191 2.98018
  813 384.777 -0.767572 -2.99972
  814 695.293 116.795 -38.2978
  815 422.358 -2.34305 -4.50214
  816 422.444 -2.31718 4.48231
  817 594.309 -5.96859 -52.6860
  818 836.635 93.5265 83.5204
  819 540.845 12.5339 -32.9776
  820 196.236 -1.66643 32.1722
  821 194.818 -1.68253 -32.3992
  822 676.192 22.0206 185.981
  823 607.650 -11.6745 11.3397
  824 552.966 37.1240 -13.7164
  825 264.981 -0.314440 21.7212
  826 263.804 -0.196920 -21.8623
  827 391.474 -1.75605 -7.77680
  828 391.621 -1.73083 7.71726
  829 71.5846 63.1035 57.0099
  830 573.829 13.9546 48.6151
  831 635.685 93.0378 -37.2763
  832 680.087 79.0878 -50.7887
  833 454.877 -16.5849 -20.7944
  834 454.649 -16.4767 20.7834
  835 706.036 148.824 16.9119
  836 605.314 -5.69008 -0.481663
  837 605.364 -5.64956 0.576648
  838 602.462 -18.3885 -32.9799
  839 508.400 -33.3704 20.4977
  840 555.854 -62.4223 37.3411
  841 647.341 -53.0031 57.4666
  842 504.816 -14.4253 -6.41383
  843 504.823 -14.3825 6.38245
  844 578.077 53.7897 22.1851
  845 545.289 7.80177 -35.5283
  846 150.950 190.056 176.769
  847 546.043 -48.0974 -16.7312
  848 548.189 -24.4539 -1.73666
  849 548.474 -24.5226 1.69885
  850 602.853 -8.97810 55.0493
  851 595.781 -39.3337 -22.3517
  852 534.789 -35.0676 -10.2964
  853 1172.75 37.9403 -56.7028
  854 509.114 -47.6747 37.8385
  855 508.669 -48.2687 -38.3905
  856 601.543 -7.35995 27.5587
  857 892.390 233.164 -60.5451
  858 479.290 -42.9070 -45.9800
  859 526.290 -58.9920 44.9107
  860 479.224 -42.4129 45.6139
  861 518.493 -20.6201 -7.72206
  862 518.497 -20.5651 7.68077
  863 81.3595 33.0990 49.3258
  864 646.024 48.2777 -57.5927
  865 499.002 -19.1005 -10.9134
  866 499.103 -18.9217 10.9465
  867 493.663 -8.03601 -1.34603
  868 493.663 -7.98804 1.33922
  869 538.977 -10.9255 -1.06421
  870 538.918 -10.8638 1.05802
  871 445.178 -8.26724 -11.3113
  872 445.226 -8.18059 11.2741
  873 500.509 -25.8116 -15.9279
  874 500.585 -25.6571 15.9992
  875 13.1385 -0.266223 -8.63849
  876 744.647 139.945 25.3129
  877 641.404 -22.7134 -43.9662
  878 525.780 -58.1221 -45.3175
  879 566.731 -18.5083 2.66511
  880 566.497 -18.3361 -2.52899
  881 618.417 0.668138 59.0386
  882 665.002 -47.3436 -35.2757
  883 585.565 45.3226 -223.145
  884 277.205 -5.13273 111.994
  885 -6.41631 6.45995 -8.95493
  886 -5.19905 7.31089 9.73947
  887 80.9835 35.1895 -50.4181
  888 602.321 -17.7345 19.2024
  889 630.497 -4.59848 -7.96927
  890 568.308 -55.0403 98.5353
  891 276.584 -4.89155 -112.397
  892 633.265 -52.1955 7.31944
  893 698.597 -18.8504 88.5006
  894 524.285 2.21846 15.9033
  895 594.342 56.6113 37.5514
  896 327.483 -18.2225 81.7456
  897 326.279 -18.3664 -82.2291
  898 391.981 -18.0053 -46.0026
  899 404.934 -20.5432 -142.057
  900 635.568 -15.0972 50.5944
  901 863.221 206.713 41.8447
  902 639.443 24.4927 58.7351
  903 604.264 -13.1874 -30.3008
  904 413.068 -18.3979 145.539
  905 765.448 142.137 -15.6702
  906 80.5905 67.4617 -69.7074
  907 564.223 -1.03465 -16.7497
  908 392.381 -17.8662 45.6414
  909 474.219 -10.1219 8.37756
  910 474.192 -10.1827 -8.39077
  911 596.599 -39.1173 23.2215
  912 615.607 -4.57434 1.57407
  913 455.627 3.80690 -175.699
  914 647.229 -1.66573 3.74824
  915 643.386 -1.39954 -4.92730
  916 497.161 4.53850 -13.8914
  917 624.993 -2.65147 -9.22975
  918 475.008 -21.6158 -19.7012
  919 475.320 -21.3103 19.7688
  920 -14.2154 6.12668 -7.98935
  921 -20.2599 3.70104 8.71786
  922 615.564 -4.28754 -1.64188
  923 214.278 -5.01890 75.7215
  924 213.146 -4.60083 -76.1128
  925 663.364 96.3927 45.0477
  926 1146.48 20.8543 17.3037
  927 626.178 69.4701 48.5873
  928 698.421 -23.7030 30.7598
  929 613.162 -34.3888 38.7100
  930 761.453 159.129 -12.0580
  931 487.645 2.38622 10.4879
  932 589.325 -14.3584 -6.58563
  933 615.849 33.1810 -58.9232
  934 733.501 23.4021 -3.05169
  935 575.915 -35.6269 -9.07747
  936 307.532 -1.55766 -16.1697
  937 307.785 -1.50147 15.9586
  938 606.402 -14.6495 -23.0353
  939 22.3963 27.6693 8.18888
  940 582.332 -60.4218 -11.2973
  941 515.863 15.8365 -1.42921
  942 757.348 165.124 -7.96511
  943 124.609 92.3198 -112.785
  944 586.657 -4.39309 -32.5450
  945 415.210 -6.48222 -14.8231
  946 415.302 -6.41019 14.7181
  947 4.21148 -15.8358 11.7857
  948 403.676 -29.4421 -65.9927
  949 593.619 -34.5262 -21.8729
  950 384.183 0.838073 -1.26172
  951 384.294 0.841156 1.25503
  952 604.385 73.2787 -29.9000
  953 636.409 -2.41648 -0.747025
  954 636.456 -2.43698 1.00752
  955 403.883 -29.3755 65.5958
  956 602.507 -0.983009 -12.7091
  957 687.272 5.16815 34.3661
  958 610.708 -9.16366 8.58506
  959 104.424 25.0068 -61.0827
  960 631.572 -4.28749 7.16574
  961 581.451 4.89912 51.7822
  962 613.005 84.6343 26.5694
  963 610.815 7.10775 -60.0789
  964 427.463 -22.2067 -39.9527
  965 654.356 -23.4456 35.1660
  966 427.747 -22.1350 39.5954
  967 21.6114 22.7596 -4.58547
  968 78.4454 12.3838 44.8898
  969 354.185 -5.87875 26.9823
  970 353.788 -5.87687 -27.1101
  971 589.747 -14.6005 7.02615
  972 638.977 110.402 14.4655
  973 327.100 29.1157 -167.246
  974 533.894 -33.0255 9.27047
  975 501.380 -52.0674 -55.3865
  976 725.690 138.587 28.0674
  977 560.015 -10.2412 -0.151746
  978 559.989 -10.1932 0.145314
  979 610.858 -11.7690 -16.1424
  980 573.030 49.7653 -20.4516
  981 1231.86 375.839 252.189
  982 126.543 6.45586 -57.8315
  983 128.246 5.34808 57.9323
  984 9.44402 -7.43808 5.30091
  985 574.137 32.1443 41.9828
  986 501.331 -52.4006 55.0183
  987 617.511 -29.3954 -44.7821
  988 671.197 54.8486 55.6694
  989 640.392 -51.7165 -68.9815
  990 931.197 195.458 68.4566
  991 550.517 -9.22170 -0.577433
  992 550.448 -9.15520 0.576693
  993 640.697 -26.4055 41.3665
  994 45.8101 84.9770 82.4214
  995 301.097 -5.99181 38.4757
  996 300.255 -5.91330 -38.8371
  997 355.161 -16.7782 52.8778
  998 354.013 -16.5067 -53.0410
  999 398.403 -15.8165 38.3307
  1000 435.549 -3.14408 -1.98947
  1001 435.622 -3.12253 1.98278
  1002 1027.41 341.630 -221.544
  1003 947.117 238.087 103.230
  1004 398.087 -15.8868 -38.6114
  1005 659.584 -3.17858 45.9000
  1006 597.055 61.9974 -36.0523
  1007 422.067 -36.6737 117.976
  1008 537.671 -63.6188 -65.9251
  1009 613.673 -5.28238 -18.2859
  1010 282.677 18.3663 136.869
  1011 362.348 -27.5677 94.1816
  1012 550.935 28.6875 -26.4385
  1013 621.403 -12.4716 -55.3250
  1014 759.870 338.139 343.330
  1015 523.097 16.4673 18.9484
  1016 699.881 149.143 -2.08136
  1017 509.304 20.8834 -199.132
  1018 523.821 -54.7424 -39.0779
  1019 653.936 -1.01803 -1.79051
  1020 637.120 58.4734 -55.8623
  1021 385.303 -2.22045 9.88828
  1022 385.123 -2.24243 -9.96685
  1023 14.7394 13.8581 -23.4879
  1024 428.214 -18.8744 -33.4167
  1025 361.891 -27.9159 -94.8241
  1026 427.937 -18.8444 33.0957
  1027 608.061 -18.6897 51.2082
  1028 546.658 -33.5918 -4.65457
  1029 577.186 10.8401 -50.2953
  1030 594.292 74.1601 10.5338
  1031 785.755 51.9031 38.7361
  1032 600.904 -45.8288 21.4726
  1033 387.729 -30.4575 -72.2009
  1034 572.991 20.5877 -47.2598
  1035 425.431 -36.2188 -118.509
  1036 806.865 173.167 -4.91561
  1037 558.830 37.0653 24.0524
  1038 691.780 -3.64373 -24.3817
  1039 527.022 -54.7937 36.3816
  1040 602.164 -19.3351 39.1411
  1041 597.465 -31.7590 26.5576
  1042 594.168 -30.1084 22.6413
  1043 729.911 93.6195 -36.9973
  1044 595.568 -9.74057 40.5926
  1045 536.951 -63.7940 64.9042
  1046 573.066 -23.6357 5.72868
  1047 387.979 -30.5277 71.8578
  1048 539.931 -39.4218 -11.0560
  1049 319.958 -15.7452 -100.681
  1050 450.378 -46.5072 80.5785
  1051 605.282 -4.32530 -21.4638
  1052 591.538 -6.72229 -46.5175
  1053 513.495 -40.0933 -24.7225
  1054 320.483 -16.1606 99.9689
  1055 555.997 1.53249 -32.9622
  1056 416.347 -26.9087 -51.4400
  1057 739.229 156.116 16.9721
  1058 171.915 27.1413 -97.5586
  1059 1219.52 85.9622 115.130
  1060 301.857 21.3567 -142.956
  1061 593.733 -49.3021 -11.1293
  1062 416.482 -26.6946 51.0684
  1063 550.771 6.15729 37.0411
  1064 316.975 -6.09562 31.8782
  1065 316.849 -6.24325 -32.1728
  1066 602.734 -16.9150 -47.6083
  1067 634.032 -3.71059 2.62864
  1068 625.454 -1.60147 9.27750
  1069 621.956 20.5680 60.3983
  1070 584.091 -4.38296 43.9053
  1071 448.661 48.6999 215.016
  1072 657.634 -0.711517 0.787317
  1073 628.035 84.7946 38.6248
  1074 537.489 8.14761 32.0434
  1075 632.163 -2.61888 8.82452
  1076 419.373 -4.11312 -8.40850
  1077 419.459 -4.06795 8.36424
  1078 270.904 -7.39082 -53.3001
  1079 271.849 -7.65982 52.9882
  1080 539.301 27.3821 13.4911
  1081 786.906 46.5401 -67.4369
  1082 723.412 2.17066 -117.679
  1083 589.669 -0.597643 -13.2973
  1084 450.470 -46.8438 -81.1493
  1085 514.585 -38.1405 22.4276
  1086 592.741 -1.42040 13.8590
  1087 616.472 -44.9948 -25.8015
  1088 398.470 -0.716056 4.92449
  1089 398.357 -0.730115 -4.94984
  1090 592.630 -50.7125 11.1095
  1091 564.240 -11.9053 0.343702
  1092 564.145 -11.9208 -0.314566
  1093 549.583 -55.1187 24.8397
  1094 699.786 -22.0322 -15.5354
  1095 333.496 -0.528440 -9.05331
  1096 333.984 -0.509982 8.96933
  1097 481.832 -31.0656 -135.821
  1098 516.214 -12.2595 3.81928
  1099 516.252 -12.3168 -3.84359
  1100 309.720 170.986 236.366
  1101 706.515 58.6033 -43.2444
  1102 109.853 52.0255 -75.5889
  1103 610.946 -9.63433 -8.27410
  1104 169.755 56.6037 -112.039
  1105 349.875 -21.4930 -68.3332
  1106 657.313 -0.989894 0.566245
  1107 657.510 -0.945370 -0.402184
  1108 603.488 -34.6797 -32.7766
  1109 534.078 -60.2598 -89.0909
  1110 172.079 23.1096 92.9592
  1111 657.254 64.9631 53.5954
  1112 593.939 -6.61040 -0.616319
  1113 594.017 -6.61158 0.666575
  1114 644.064 -40.7260 108.549
  1115 674.787 133.960 20.2513
  1116 409.512 -9.33487 -21.0419
  1117 409.624 -9.29704 20.9164
  1118 307.327 34.3207 168.984
  1119 575.652 3.10379 -48.5759
  1120 184.623 58.2140 120.053
  1121 724.239 -10.9720 -42.4451
  1122 721.352 157.557 5.70814
  1123 499.508 -38.9133 29.2207
  1124 471.220 2.80432 -2.04840
  1125 625.858 -5.87508 10.9480
  1126 645.883 -1.04962 4.23399
  1127 154.091 0.199031 -27.0207
  1128 155.872 0.134048 26.8546
  1129 522.302 9.16862 -23.8140
  1130 531.296 -15.5908 -3.60542
  1131 531.191 -15.5316 3.59056
  1132 57.3251 101.695 -87.9568
  1133 89.3797 210.676 -170.059
  1134 537.598 -20.9208 3.76818
  1135 537.780 -20.9034 -3.80562
  1136 554.236 -13.5812 0.155288
  1137 554.160 -13.5617 -0.117441
  1138 149.523 94.9430 121.549
  1139 445.436 -5.16682 -4.17895
  1140 445.498 -5.13308 4.16336
  1141 556.255 42.4183 -0.535851
  1142 685.070 95.2759 -247.187
  1143 671.168 115.177 -34.7862
  1144 611.203 -23.6488 -47.9561
  1145 601.783 -30.2563 -33.6597
  1146 499.715 -39.2590 -29.6761
  1147 509.766 1.83387 14.6973
  1148 567.487 35.7157 -35.1390
  1149 560.168 30.4816 33.6512
  1150 572.709 -22.9734 -5.59645
  1151 547.988 -32.9388 4.22302
  1152 500.793 -31.7860 -22.3597
  1153 593.565 -3.58493 25.7737
  1154 1023.16 102.937 14.1989
  1155 597.101 -12.8429 46.8671
  1156 600.952 39.5131 52.2500
  1157 552.088 -54.0868 -19.7361
  1158 74.7663 11.3441 -43.3679
  1159 562.421 -26.0950 -2.97153
  1160 386.809 -0.462091 -0.277668
  1161 386.913 -0.459884 0.275534
  1162 679.575 -17.9942 19.9339
  1163 647.321 -54.6352 29.9941
  1164 924.953 164.454 42.2487
  1165 236.140 -0.365542 -22.2971
  1166 237.362 -0.316995 22.1490
  1167 505.951 -10.1487 -2.91161
  1168 505.934 -10.0938 2.89535
  1169 563.910 -49.6036 -5.93237
  1170 475.094 2.35701 6.72627
  1171 577.123 -41.1128 8.11158
  1172 35.0211 41.5686 -22.6083
  1173 108.559 52.8114 73.8269
  1174 389.809 -21.7766 131.149
  1175 669.249 126.577 -24.8944
  1176 634.292 -1.89780 -6.99006
  1177 659.898 -1.19872 0.320756
  1178 660.444 -1.57522 -0.169887
  1179 400.687 -0.743037 -0.852854
  1180 400.787 -0.736656 0.847942
  1181 617.098 39.4258 58.9327
  1182 899.781 152.128 -3.26929
  1183 636.685 104.705 -25.9612
  1184 474.501 -35.4100 134.977
  1185 387.765 -21.0112 -130.879
  1186 433.487 -28.2987 -46.3875
  1187 590.241 -16.9040 9.27519
  1188 818.556 181.711 14.8605
  1189 433.553 -28.1460 46.0655
  1190 601.965 -11.0508 7.01398
  1191 546.612 20.7175 32.1861
  1192 597.447 18.6292 56.9255
  1193 840.309 187.220 25.8693
  1194 506.799 -13.0661 5.35798
  1195 506.814 -13.1191 -5.38699
  1196 610.207 -11.9247 16.7977
  1197 374.351 -3.70449 15.3868
  1198 374.101 -3.74027 -15.5071
  1199 596.459 -8.66871 -2.77538
  1200 248.462 149.590 -229.688
  1201 516.709 -29.3971 -144.628
  1202 493.758 -15.1487 -9.25478
  1203 493.817 -15.0900 9.25889
  1204 636.234 -3.44832 2.47150
  1205 605.121 -8.48845 5.56690
  1206 35.2308 45.9862 34.7963
  1207 654.122 -0.909891 2.11809
  1208 81.4222 105.908 104.979
  1209 591.869 -9.37942 -3.64624
  1210 -0.443185 -14.1070 -12.4290
  1211 423.449 -41.4044 -101.763
  1212 422.387 -40.4184 100.800
  1213 654.089 -1.31025 -2.37526
  1214 565.836 -29.8877 -3.82945
  1215 635.916 -3.19649 -2.45500
  1216 517.076 -16.5746 -5.65853
  1217 517.039 -16.5260 5.61332
  1218 596.094 -8.61717 2.57422
  1219 562.029 -25.5727 2.94133
  1220 541.940 -17.4972 2.00835
  1221 542.114 -17.5320 -1.95272
  1222 635.258 -3.28928 -1.98069
  1223 551.552 -58.4247 -100.129
  1224 622.652 -4.41888 -1.94034
  1225 594.244 -9.61815 4.01655
  1226 425.692 -4.29546 -6.33207
  1227 425.772 -4.25537 6.30237
  1228 471.279 -6.68500 -3.46306
  1229 471.312 -6.64437 3.44959
  1230 748.330 117.548 29.6136
  1231 629.981 -48.7280 17.3054
  1232 434.569 -2.41594 166.223
  1233 360.431 -0.482936 5.91704
  1234 360.146 -0.488697 -5.96792
  1235 600.085 -11.2625 34.9164
  1236 573.106 -9.14090 0.369769
  1237 573.121 -9.11464 -0.369703
  1238 659.191 127.296 11.7360
  1239 597.952 -62.8439 80.8506
  1240 359.406 -4.75589 21.4107
  1241 359.077 -4.78844 -21.5466
  1242 572.555 -14.3195 2.55897
  1243 572.427 -14.4237 -2.44308
  1244 589.909 -16.7193 -8.88274
  1245 549.914 0.165529 17.0340
  1246 926.792 230.841 -81.6188
  1247 601.575 -22.3002 -29.8505
  1248 108.940 24.7217 62.6688
  1249 620.833 -33.3414 41.1518
  1250 509.510 11.6091 -13.0482
  1251 41.7593 28.9357 24.3166
  1252 808.056 94.0458 -17.4121
  1253 607.154 -27.8105 -42.3301
  1254 511.732 7.66446 20.0145
  1255 352.210 -21.5400 68.2693
  1256 615.415 -47.8802 22.4390
  1257 880.902 176.307 65.3145
  1258 212.895 30.3824 117.731
  1259 617.580 -7.80197 -14.5424
  1260 1155.11 13.1446 -11.3771
  1261 1191.03 17.7033 50.2853
  1262 1267.91 42.1382 -120.219
  1263 601.462 -19.0202 -37.9999
  1264 600.810 -27.6773 31.4333
  1265 609.752 -43.6335 27.9991
  1266 -17.7721 2.29255 11.0786
  1267 -16.0941 1.90808 -12.1521
  1268 592.399 -65.7319 -40.3986
  1269 605.716 -61.5261 -58.3556
  1270 478.167 3.24916 -8.28499
  1271 589.662 -66.8489 57.9336
  1272 631.082 -30.1514 -41.5786
  1273 14.6010 19.8114 4.20429
  1274 517.637 -9.49250 1.77133
  1275 517.669 -9.55194 -1.77593
  1276 625.175 -5.46577 9.71091
  1277 601.877 -10.8681 -6.53362
  1278 568.554 -62.0375 -23.2490
  1279 522.496 -27.9401 10.9021
  1280 519.991 -27.5309 -11.5653
  1281 608.821 -13.2295 23.7577
  1282 624.218 -23.1326 -49.0195
  1283 43.2778 30.1667 -23.8326
</Section>

newXOutput 84

<Section columns = "stress_xx | stress_yy | stress_xy">
  1 670.868 -0.337451 1.19613
  2 670.858 -0.322372 -1.19856
  3 385.934 -0.0634121 -0.429924
  4 -4.80153 -4.72785 -6.90862
  5 1166.15 491.338 382.493
  6 1155.71 507.979 -379.016
  7 -5.58404 -4.47272 7.37882
  8 385.829 -0.0646117 0.428986
  9 675.142 -1.21215 0.331222
  10 673.960 -1.87889 -0.411028
  11 672.830 -1.33834 1.29597
  12 671.657 -1.76765 0.221456
  13 669.089 -1.51915 2.03530
  14 666.716 -1.51860 1.39817
  15 660.795 -1.33412 2.96539
  16 651.987 -1.05275 4.40442
  17 644.216 -1.05145 4.98319
  18 632.388 -1.34589 6.11010
  19 615.629 -0.217245 9.14636
  20 600.156 -0.985720 8.79182
  21 582.105 -1.20770 12.5150
  22 556.079 0.839489 10.9846
  23 536.905 1.37335 13.0699
  24 511.854 2.24999 10.3026
  25 494.375 2.51892 10.4236
  26 469.075 3.38241 5.33645
  27 463.675 5.30156 5.74964
  28 460.392 4.42984 -1.70956
  29 464.798 2.71027 -3.70819
  30 472.945 2.53047 -4.56048
  31 491.917 3.11345 -9.07617
  32 510.356 2.46393 -11.4077
  33 537.111 0.654578 -13.4809
  34 558.461 -0.231029 -12.1603
  35 580.977 -0.951259 -11.8394
  36 601.233 -0.780064 -8.29447
  37 618.402 -0.852412 -7.01724
  38 632.375 -1.32710 -5.81634
  39 644.729 -0.994690 -3.95098
  40 652.231 -1.22764 -4.14597
  41 659.494 -1.42883 -3.00862
  42 666.188 -1.66329 -1.19506
  43 669.562 -1.36233 -1.49163
  44 671.141 -0.916651 -0.879454
  45 669.410 -0.627409 -0.807033
  46 674.543 -1.86761 0.304924
  47 675.302 -1.25153 -0.340832
  48 655.379 -0.892295 -0.741951
  49 642.095 -3.24018 -1.41929
  50 625.673 -4.64064 -0.806294
  51 605.518 -6.60804 -1.13773
  52 586.242 -7.14083 -1.35270
  53 565.548 -8.65195 -1.30865
  54 547.120 -9.45586 -0.634593
  55 530.948 -10.3482 -0.121318
  56 512.245 -8.52393 -0.0929333
  57 490.676 -7.84698 -0.324895
  58 469.924 -6.08255 0.0299406
  59 450.302 -3.76541 0.0836610
  60 431.705 -2.60237 0.144819
  61 415.475 -1.22940 0.262755
  62 398.990 -0.249226 -0.481772
  63 386.059 0.560060 0.736719
  64 380.147 1.40945 0.541012
  65 383.795 0.0596216 1.20004
  66 378.986 -0.128729 1.46809
  67 374.360 -0.220361 1.82353
  68 368.175 0.0292585 2.33190
  69 360.395 0.0220014 2.90557
  70 354.338 -0.351847 5.46490
  71 338.197 0.489056 5.94083
  72 326.640 0.00594731 6.72598
  73 309.440 -0.246164 7.65168
  74 289.716 -0.441180 9.29058
  75 265.020 -0.0686105 11.2844
  76 234.922 0.164979 12.4940
  77 208.470 -0.194645 17.8871
  78 157.004 1.61033 16.9952
  79 121.385 1.38455 18.0197
  80 78.1889 -0.394699 20.1548
  81 41.7989 3.16901 21.1873
  82 0.103973 4.85206 13.1695
  83 -30.8531 4.95720 5.21149
  84 -31.5196 4.91036 -0.915625
  85 -31.5232 4.13785 -9.23998
  86 -18.7013 -1.11678 -9.00166
  87 -2.14560 -17.9494 -9.99082
  88 2.00767 -32.7335 -12.2244
  89 5.22466 -50.2428 -5.99482
  90 11.3894 -48.5405 2.36275
  91 23.7751 -2.02178 33.5656
  92 69.1918 122.775 107.582
  93 388.227 393.538 345.229
  94 1417.33 214.670 233.684
  95 1284.10 30.5171 75.2337
  96 1199.85 12.8741 23.0247
  97 1168.85 11.0493 1.70768
  98 1185.68 14.5547 -20.1132
  99 1282.10 28.6994 -59.6467
  100 1494.27 103.547 -199.263
  101 232.396 406.468 -290.594
  102 51.7356 95.0507 -90.2032
  103 26.0667 0.595267 -36.2429
  104 10.7051 -47.9578 -7.74317
  105 3.27677 -37.7270 6.77530
  106 3.93472 -41.3868 10.5093
  107 0.271600 -15.4102 11.0808
  108 -19.5503 -0.632786 8.49193
  109 -32.5128 3.10806 8.01049
  110 -33.2365 5.95093 1.08141
  111 -31.8044 4.86045 -4.90160
  112 -2.18180 4.97194 -12.3918
  113 39.8261 3.19536 -20.2319
  114 76.1839 -0.0500984 -19.8270
  115 119.302 1.49519 -18.0501
  116 155.113 1.65018 -17.1138
  117 207.006 -0.202001 -18.0237
  118 233.673 0.180695 -12.6043
  119 263.926 -0.0654226 -11.4156
  120 289.165 -0.493634 -9.35013
  121 308.677 -0.230306 -7.66633
  122 326.056 0.0263831 -6.78890
  123 337.716 0.483829 -5.99865
  124 353.985 -0.355718 -5.51378
  125 360.106 0.0194794 -2.93535
  126 367.950 0.0268190 -2.35626
  127 374.182 -0.224437 -1.84274
  128 378.842 -0.132227 -1.48142
  129 383.671 0.0567035 -1.20846
  130 380.033 1.40823 -0.544850
  131 385.951 0.559404 -0.739161
  132 398.887 -0.252474 0.480659
  133 415.380 -1.23759 -0.265645
  134 431.622 -2.62019 -0.148169
  135 450.238 -3.79013 -0.0868591
  136 469.884 -6.11828 -0.0331821
  137 490.663 -7.89251 0.322280
  138 512.261 -8.57702 0.0900470
  139 530.989 -10.4085 0.119842
  140 547.178 -9.51640 0.636464
  141 565.634 -8.70705 1.31490
  142 586.322 -7.17829 1.37516
  143 605.583 -6.64161 1.24752
  144 625.789 -4.41855 0.823648
  145 642.532 -3.16691 1.38721
  146 655.508 -0.994932 0.729813
  147 592.978 -55.7700 1.12392
  148 592.444 -55.0086 -0.918022
  149 626.733 89.7563 -27.9987
  150 663.262 39.0412 57.8831
  151 503.020 -48.8488 -114.143
  152 507.196 -48.7447 110.637
  153 493.955 -20.4781 15.0909
  154 493.979 -20.7484 -15.0946
  155 700.029 25.6170 -41.3432
  156 591.459 -21.5992 9.86851
  157 591.201 -21.1018 -9.75463
  158 764.118 168.720 5.35022
  159 608.077 -0.940905 -57.9058
  160 454.176 -35.0367 -51.5824
  161 454.228 -34.7612 51.1759
  162 608.390 -13.9049 51.6855
  163 582.371 42.7572 35.1687
  164 243.766 37.9197 -136.477
  165 269.209 36.0252 143.632
  166 735.184 9.64459 -2.47696
  167 608.599 -23.6010 -34.7398
  168 801.545 175.974 3.31014
  169 550.019 -15.6357 -1.68224
  170 549.913 -15.5988 1.72188
  171 612.748 -8.01245 -4.20331
  172 614.479 -7.27083 3.59368
  173 440.104 -5.91390 -8.52787
  174 440.170 -5.85609 8.49254
  175 652.632 -15.6438 145.309
  176 564.904 23.8167 -37.9619
  177 372.128 -27.5302 -81.4324
  178 373.208 -27.3357 80.9599
  179 419.302 -13.1520 -27.0072
  180 419.354 -13.0087 26.8353
  181 611.271 -16.3644 29.5807
  182 557.215 -38.0511 -4.92087
  183 555.376 -37.7688 5.72816
  184 628.850 -61.1603 -16.5831
  185 632.280 -58.2694 8.86208
  186 865.046 204.329 -36.8260
  187 638.607 101.997 26.0696
  188 637.532 39.1699 -59.1932
  189 649.522 -3.43542 -167.714
  190 630.152 -35.8426 -38.9350
  191 635.699 -25.6799 46.8195
  192 531.915 -60.2822 57.8092
  193 531.947 -59.8351 -57.6605
  194 573.296 7.52136 45.3841
  195 267.409 -6.93428 -100.054
  196 268.001 -7.45438 99.4962
  197 969.619 144.309 21.3756
  198 597.650 -35.7731 19.8067
  199 618.554 -11.7828 -18.8281
  200 497.096 -11.8983 -7.16953
  201 497.116 -11.8465 7.15201
  202 597.700 -7.83900 -40.0720
  203 678.458 99.3845 -46.2338
  204 573.741 51.8109 -7.02287
  205 379.187 -12.8539 37.4727
  206 378.643 -12.8869 -37.7168
  207 626.159 -7.46800 9.84041
  208 615.054 11.6017 59.6731
  209 502.407 -35.9779 -26.4536
  210 499.306 -34.0490 26.9027
  211 720.483 107.069 40.1559
  212 837.367 120.126 29.8132
  213 61.5941 46.7703 -41.2130
  214 57.0946 43.2290 35.2036
  215 350.565 101.858 236.585
  216 591.809 -39.4268 -14.1116
  217 628.129 -7.16299 -8.86954
  218 567.340 5.24305 -41.8341
  219 405.255 -3.68908 -12.0445
  220 405.389 -3.64890 11.9549
  221 535.467 -24.8993 -7.38001
  222 535.721 -25.0681 7.08526
  223 602.232 -8.22456 33.9018
  224 685.272 -39.4215 22.5769
  225 688.705 139.500 -13.1103
  226 540.153 -51.8238 -29.1478
  227 677.546 -11.8396 33.8570
  228 579.946 -10.1951 1.04349
  229 579.944 -10.1200 -1.04280
  230 536.453 -51.5859 30.0600
  231 611.913 -39.0580 31.1727
  232 845.719 116.083 -64.8112
  233 194.984 115.940 -174.489
  234 528.372 19.0437 9.17075
  235 618.394 54.5000 50.4499
  236 654.036 -4.68952 -50.8661
  237 612.851 -22.2376 -47.7525
  238 336.939 -10.3977 -46.5929
  239 338.019 -10.2474 46.4784
  240 613.394 -7.66960 -25.7982
  241 584.122 -15.1660 4.61886
  242 583.854 -15.1568 -4.41255
  243 130.256 11.1584 -65.2372
  244 132.080 9.77024 64.9932
  245 646.055 -56.7217 -56.0871
  246 638.451 -2.83564 1.12948
  247 639.035 -2.88359 -1.29805
  248 604.887 50.2567 -46.4040
  249 537.827 10.7828 27.6251
  250 1080.35 172.936 116.610
  251 1070.55 121.923 -72.3209
  252 791.994 169.008 0.955542
  253 495.282 -24.2589 150.759
  254 455.773 -16.2104 -157.387
  255 525.670 -10.7959 -2.91427
  256 525.629 -10.7360 2.89803
  257 442.193 -11.3104 16.9648
  258 442.174 -11.4587 -17.0922
  259 626.354 -7.16869 15.3681
  260 609.335 -43.5856 -24.6612
  261 408.252 -0.570185 -2.88804
  262 408.355 -0.558951 2.87356
  263 601.785 -24.6872 -20.0057
  264 265.581 -8.47522 -64.9350
  265 266.610 -8.50032 64.5152
  266 609.842 -26.6796 37.5060
  267 468.572 -49.7401 91.9509
  268 469.643 -50.6243 -91.6617
  269 535.411 21.0023 -12.8621
  270 462.276 -6.74604 -5.77407
  271 462.325 -6.70481 5.75603
  272 576.799 -1.31494 33.2778
  273 684.627 124.539 31.8387
  274 377.992 -4.26832 20.0391
  275 377.720 -4.30155 -20.1877
  276 624.595 -52.4553 14.9960
  277 578.154 -65.1723 -64.1329
  278 641.249 -3.61341 4.40289
  279 456.003 -26.2834 -35.5788
  280 455.300 -26.0033 35.4663
  281 776.623 91.4024 211.071
  282 381.270 -30.9439 108.957
  283 611.258 85.6171 -2.95784
  284 760.282 85.9597 -21.7288
  285 578.597 -44.6999 2.85206
  286 578.790 -66.9214 58.2777
  287 382.308 -30.4690 -110.080
  288 73.0929 90.5392 84.1154
  289 601.890 -24.7579 20.3971
  290 782.189 104.500 14.5141
  291 645.759 -3.23435 -3.82040
  292 594.642 21.0312 -53.4496
  293 582.927 -33.0637 9.14980
  294 571.142 -48.0889 5.82750
  295 592.797 27.3897 51.6024
  296 621.761 -52.4376 -12.8753
  297 875.187 168.630 -16.8799
  298 582.777 -31.7977 -8.71595
  299 474.537 141.997 -286.690
  300 594.428 -63.1429 -16.7942
  301 590.367 -64.8876 23.4317
  302 439.983 -39.3277 -72.0642
  303 404.431 -1.32704 -6.22061
  304 404.551 -1.30351 6.18000
  305 440.211 -39.3724 71.7109
  306 630.616 -1.11205 -59.0827
  307 675.882 -28.0053 -20.0341
  308 521.505 -30.9605 -15.2520
  309 521.230 -31.0348 15.5054
  310 614.626 -52.9240 100.254
  311 618.089 -5.20626 19.5060
  312 741.605 5.83558 41.8010
  313 511.988 -17.7736 -8.65382
  314 512.033 -17.7258 8.61651
  315 469.644 -11.7771 -11.5538
  316 469.661 -11.6751 11.5423
  317 532.747 7.49267 -26.6984
  318 671.051 49.2827 -55.8048
  319 1019.24 277.472 -136.323
  320 609.020 -6.00642 -1.30863
  321 608.717 -5.93188 1.35751
  322 333.071 -1.44610 136.028
  323 466.645 -20.5271 -24.0714
  324 465.849 -20.4749 24.1384
  325 333.003 -2.26576 -135.505
  326 642.635 75.6973 -48.5650
  327 712.232 35.8359 38.5689
  328 614.174 -43.7724 -110.732
  329 570.364 -22.1781 2.88363
  330 569.820 -22.0350 -2.65648
  331 606.155 -13.1016 -9.11312
  332 577.135 -1.00497 -31.0970
  333 641.541 2.59127 57.3985
  334 636.462 -4.86720 -10.4758
  335 393.542 -23.2067 54.7450
  336 393.115 -23.3247 -55.1186
  337 599.889 -1.28432 55.1735
  338 380.929 -2.81442 -11.9989
  339 381.163 -2.78897 11.9053
  340 610.899 -14.5202 15.1469
  341 733.888 149.091 -21.4097
  342 605.931 -13.1818 9.49884
  343 649.510 81.2705 48.5733
  344 620.466 -11.6849 56.2560
  345 496.668 -9.11355 2.76311
  346 496.662 -9.16242 -2.77705
  347 590.166 -2.01488 -49.0565
  348 773.402 162.048 10.8716
  349 649.046 118.102 0.999185
  350 396.395 45.7411 -200.640
  351 45.5616 18.1600 -29.8385
  352 49.4614 19.6808 31.8806
  353 -0.772067 5.29776 10.8361
  354 1.42552 3.41213 -11.4246
  355 1102.03 76.5967 25.7089
  356 537.138 -43.1953 -18.3621
  357 611.277 -14.0637 -14.7596
  358 554.665 -10.0642 0.0795354
  359 554.604 -9.99328 -0.0845850
  360 597.199 66.0127 -25.1694
  361 508.065 -51.3081 47.6583
  362 47.0487 70.7489 -53.6240
  363 508.448 -51.2715 -48.4278
  364 604.545 68.7658 26.7680
  365 611.135 -16.6524 -28.0516
  366 646.343 -36.3270 -31.7266
  367 693.283 144.896 8.96827
  368 647.479 -40.7479 24.9597
  369 280.643 -6.64276 43.3677
  370 279.130 -6.51116 -43.6047
  371 161.612 3.55312 -61.1890
  372 163.086 2.96484 60.9329
  373 540.378 2.18056 26.9212
  374 988.889 294.669 122.430
  375 630.013 -4.34816 -13.6995
  376 496.330 -41.2460 -36.7912
  377 495.997 -41.1678 36.7471
  378 608.500 -14.2895 -36.3603
  379 686.462 -33.1314 -2.66451
  380 537.120 -43.1677 18.8242
  381 748.152 7.94614 -70.0936
  382 440.074 -3.22885 -2.39044
  383 440.148 -3.20318 2.37812
  384 600.199 -3.61553 -23.6232
  385 334.644 -4.50956 -28.1870
  386 334.819 -4.66255 27.8733
  387 712.027 91.3112 -45.3137
  388 387.850 27.0660 186.945
  389 560.664 -29.3628 -0.630211
  390 561.196 -29.3204 0.611507
  391 659.842 111.002 -30.3889
  392 622.397 -18.6191 -52.8576
  393 619.942 -63.6343 57.4638
  394 523.920 -13.8282 -4.66819
  395 523.873 -13.7733 4.63549
  396 599.744 -46.3945 15.0238
  397 641.855 -3.42567 7.69977
  398 412.706 -14.3826 -33.5568
  399 412.874 -14.3927 33.3074
  400 612.399 20.6682 -58.9910
  401 575.529 -12.9157 1.47892
  402 575.497 -12.9518 -1.41513
  403 597.918 -7.14593 44.6802
  404 562.638 41.4047 12.2566
  405 617.175 -26.3155 45.5538
  406 883.318 183.640 36.5452
  407 306.642 -16.3917 -87.2618
  408 307.440 -16.3903 86.6601
  409 138.556 72.7290 -107.277
  410 653.667 -2.39477 1.91314
  411 348.979 -2.65560 -17.8797
  412 349.400 -2.59953 17.7454
  413 608.841 -16.1434 35.4546
  414 552.750 -59.8139 33.4766
  415 619.860 -8.32937 6.40608
  416 636.342 32.2657 60.9353
  417 144.672 77.4391 111.369
  418 553.513 -59.4422 -31.1245
  419 571.520 -52.9891 -9.91897
  420 197.062 -3.91014 -55.0671
  421 198.343 -4.04276 54.7213
  422 440.981 -35.8863 -131.361
  423 653.911 -9.96873 49.3957
  424 439.532 -36.3508 130.292
  425 605.374 -34.2233 -28.0313
  426 569.760 38.8553 -26.6777
  427 605.404 -26.4853 26.9053
  428 645.938 -3.36265 -4.97932
  429 21.5110 24.1282 12.6559
  430 135.576 160.123 156.864
  431 587.121 -2.12654 22.9862
  432 501.937 7.33085 11.7912
  433 509.703 8.82285 -15.9386
  434 434.938 -6.70710 -11.9777
  435 434.997 -6.62544 11.9140
  436 596.821 -46.3517 -13.4033
  437 605.135 -11.9883 -49.7462
  438 504.303 9.99243 -4.32533
  439 882.084 211.049 50.7647
  440 129.570 41.3286 -80.7199
  441 142.193 37.9014 85.8436
  442 560.143 -20.0735 0.0116944
  443 559.947 -20.0419 0.121567
  444 744.963 162.542 -1.51755
  445 455.319 201.549 292.999
  446 710.080 -9.18857 -1.78820
  447 420.155 -21.2180 -45.5154
  448 420.364 -21.0854 45.1760
  449 424.748 -8.93916 18.3441
  450 424.656 -8.99875 -18.4844
  451 566.107 12.9584 -43.1904
  452 656.604 -1.35098 -1.21937
  453 552.122 25.8380 24.4232
  454 686.587 84.6814 50.7410
  455 572.878 -42.4514 -1.05504
  456 619.548 -7.97152 -6.24712
  457 648.350 -3.08901 4.58035
  458 654.617 -1.46444 0.691228
  459 655.055 -1.60086 -0.470824
  460 379.785 -0.539023 4.50948
  461 379.595 -0.547819 -4.54850
  462 624.694 -39.9976 33.9078
  463 571.284 22.9046 41.8484
  464 594.032 2.52522 -53.9896
  465 615.128 -13.4422 20.4095
  466 864.934 159.134 -181.754
  467 617.477 -34.5233 -39.0057
  468 9.00529 12.1896 6.72407
  469 8.82468 12.5066 -3.65726
  470 494.866 -27.4110 21.5070
  471 493.330 -27.0165 -21.2056
  472 754.893 18.4118 101.020
  473 214.898 204.049 -225.375
  474 610.844 -2.04521 17.5492
  475 683.358 -39.2801 -60.0750
  476 377.166 -21.1164 63.1517
  477 738.335 131.196 -30.9275
  478 608.725 -33.2227 32.3035
  479 515.620 -24.2146 -11.7732
  480 516.063 -23.8304 11.7528
  481 540.258 3.06462 -23.7395
  482 376.043 -21.0198 -63.4848
  483 552.549 0.464119 23.7657
  484 522.486 -59.9333 -83.1735
  485 521.221 -60.0242 83.5544
  486 626.933 -4.46693 15.1776
  487 578.098 54.7739 5.05548
  488 573.464 11.6820 202.598
  489 847.406 170.493 -1.05869
  490 588.355 -10.4712 2.30421
  491 588.376 -10.4368 -2.43440
  492 461.845 -7.77829 -7.88511
  493 461.889 -7.71947 7.86298
  494 246.207 10.4327 115.230
  495 611.701 -29.7310 -38.5367
  496 556.329 -12.3661 -0.778618
  497 556.275 -12.3314 0.785446
  498 486.645 -51.1802 67.9682
  499 250.752 13.9124 -118.052
  500 611.512 -50.0677 -15.5012
  501 11.8062 4.87083 2.56092
  502 544.682 28.6789 1.82372
  503 590.148 -7.45758 -0.701754
  504 590.146 -7.54539 0.673772
  505 486.842 -51.0715 -68.4606
  506 683.858 -34.3575 74.5626
  507 683.184 24.8893 50.7712
  508 628.207 -4.91680 -2.92559
  509 609.663 -50.7476 15.8308
  510 397.296 -0.228187 -0.864082
  511 397.402 -0.225148 0.858768
  512 610.234 -23.6664 -41.7327
  513 595.697 44.2164 45.5007
  514 675.103 16.7722 -50.2614
  515 394.862 -0.472436 -2.55183
  516 394.980 -0.465001 2.53770
  517 1147.47 166.057 -147.161
  518 618.776 73.5163 39.7922
  519 628.675 -4.60554 2.58010
  520 572.710 -54.1784 11.3247
  521 487.587 -15.6687 12.1573
  522 487.567 -15.7772 -12.1327
  523 662.012 -40.5839 10.3560
  524 639.427 -13.0007 -52.8654
  525 715.845 140.086 27.1984
  526 599.042 10.4416 56.0516
  527 598.842 -12.0830 5.29108
  528 580.944 -62.4103 -81.1634
  529 606.422 -15.2438 41.6797
  530 1131.99 52.2928 -20.5148
  531 656.832 -49.7441 5.94017
  532 624.332 -4.81634 -0.558874
  533 624.485 -5.07638 0.442261
  534 1143.80 76.6744 71.3793
  535 585.124 -0.0596719 47.6876
  536 804.585 138.333 -3.08908
  537 609.890 -17.0480 -19.5171
  538 289.944 -2.51903 -19.2436
  539 290.730 -2.39565 19.0654
  540 419.123 -39.0648 -91.4104
  541 419.505 -38.4160 90.7793
  542 598.503 -11.6207 -5.26716
  543 652.899 23.9462 -58.4904
  544 574.504 -39.0518 3.28049
  545 621.334 71.1643 -41.1680
  546 620.748 -7.63509 20.3935
  547 769.071 41.3237 -18.4528
  548 535.212 -18.2410 -4.78410
  549 535.073 -18.1935 4.74623
  550 578.326 -27.4304 6.26779
  551 841.126 170.544 -23.2946
  552 611.964 26.8366 58.1431
  553 264.482 67.6841 169.450
  554 583.501 -34.8549 137.477
  555 760.496 42.6162 -152.781
  556 625.414 51.7474 -53.8564
  557 549.881 -47.9364 -119.555
  558 596.326 -65.5871 -28.2619
  559 620.957 -63.2423 -39.2620
  560 84.8798 113.204 -106.930
  561 624.688 -8.48998 -11.8464
  562 931.454 180.485 -55.9925
  563 581.237 -26.3848 -7.46557
  564 585.537 -19.3997 6.20910
  565 585.012 -18.9849 -5.88071
  566 416.607 -2.09300 -5.71058
  567 416.707 -2.06622 5.68031
  568 65.2045 5.92015 -34.5015
  569 68.2264 6.22518 35.2547
  570 311.133 -14.0526 -66.3622
  571 313.337 -14.1358 66.3072
  572 593.698 -32.3994 -16.4639
  573 602.922 -65.8649 30.2405
  574 619.621 -59.1370 -2.37787
  575 514.750 -9.06320 -2.32451
  576 514.729 -9.00750 2.31447
  577 485.559 -51.1979 -102.177
  578 539.805 -44.6603 126.164
  579 474.397 -48.1970 102.666
  580 612.218 -13.7296 -53.2826
  581 394.921 -6.11469 20.2993
  582 394.731 -6.17514 -20.4424
  583 587.927 32.7958 -45.7993
  584 587.444 -1.04675 -20.8537
  585 728.988 156.594 -11.7896
  586 483.244 -7.05396 -2.14315
  587 483.267 -7.01316 2.13496
  588 621.426 -1.97193 -11.4580
  589 438.620 -14.1639 -22.9394
  590 438.654 -14.1237 22.7674
  591 354.605 15.5325 161.342
  592 604.854 -28.1173 -27.1409
  593 343.907 -18.6202 116.191
  594 594.460 -31.0251 16.9509
  595 623.325 -9.34625 13.1857
  596 614.669 -6.30981 -2.48945
  597 444.585 -5.12117 -5.45991
  598 444.653 -5.08258 5.43813
  599 699.919 138.678 -24.9153
  600 343.649 -17.9853 -116.568
  601 592.421 -25.9483 -13.2092
  602 537.636 -10.1274 -1.36379
  603 537.586 -10.0628 1.35894
  604 985.445 131.931 -23.8950
  605 368.497 -2.14698 11.1034
  606 368.200 -2.16696 -11.1928
  607 560.053 13.2021 39.4997
  608 779.921 68.4364 1.01608
  609 377.107 1.73876 -159.958
  610 199.596 4.36494 -88.3968
  611 201.104 3.32078 87.9382
  612 475.232 -27.0365 28.9428
  613 479.841 -27.8352 -28.2523
  614 793.054 160.609 5.90295
  615 612.367 -6.51477 2.17587
  616 538.114 15.6585 -23.9639
  617 661.693 118.085 24.0568
  618 659.624 122.479 -16.0202
  619 541.979 -29.7935 -7.50906
  620 545.876 -29.1628 5.62869
  621 386.411 85.3402 -228.226
  622 471.069 -15.5569 -16.3869
  623 471.122 -15.3902 16.3449
  624 1143.47 234.716 176.963
  625 610.852 -20.2307 45.3836
  626 359.637 -12.1568 -42.4623
  627 922.579 229.281 159.573
  628 360.421 -12.0975 42.3305
  629 578.270 -21.6949 -159.524
  630 423.749 -1.79430 -2.09820
  631 423.839 -1.77914 2.08974
  632 520.794 4.97646 20.9344
  633 244.075 -3.42937 -38.0369
  634 245.255 -3.43943 37.7711
  635 535.248 -37.5037 14.6678
  636 559.711 -44.6044 -7.29641
  637 652.060 -1.68453 -4.31982
  638 385.813 -0.501116 3.39064
  639 385.659 -0.510828 -3.41907
  640 507.598 -11.2939 -3.86757
  641 507.589 -11.2400 3.84652
  642 574.491 -64.0970 81.8275
  643 663.093 73.9783 -53.0666
  644 448.698 -20.2280 -29.4943
  645 448.423 -19.8966 29.3057
  646 525.893 -37.3494 -18.9177
  647 818.637 177.074 9.54540
  648 616.142 -59.8768 5.62676
  649 539.518 -13.0234 -2.66925
  650 539.448 -12.9707 2.66603
  651 733.609 81.1979 35.8380
  652 618.358 -9.34412 -22.1443
  653 555.428 -0.521552 -19.3182
  654 262.850 -9.02106 -83.8096
  655 263.564 -9.24776 83.1882
  656 524.185 -44.7475 -28.7692
  657 780.119 169.712 -0.119386
  658 611.284 82.5932 -17.9292
  659 414.160 -3.42771 -10.3439
  660 414.267 -3.38142 10.2755
  661 566.459 -16.2827 -0.527194
  662 566.565 -16.2887 0.632410
  663 1031.19 134.114 59.4122
  664 659.595 -2.10357 1.04671
  665 641.566 -2.83862 7.62609
  666 639.491 -2.83844 -9.09773
  667 609.197 -56.9233 3.37093
  668 458.553 -5.02643 -2.72475
  669 458.608 -4.99448 2.71514
  670 654.951 104.390 37.2995
  671 831.375 183.953 -16.1637
  672 464.160 -33.7462 -41.7740
  673 464.077 -33.4361 41.5953
  674 573.127 -58.9679 -16.8910
  675 608.066 36.2664 -54.8433
  676 711.417 2.38217 16.8460
  677 483.365 -8.70693 -5.71060
  678 483.391 -8.65833 5.69266
  679 418.088 -36.3154 -82.4893
  680 603.610 -58.5465 2.02038
  681 504.771 -55.9207 74.9791
  682 244.934 76.4823 -163.742
  683 474.045 -43.4006 57.8591
  684 572.227 0.170878 17.7194
  685 418.501 -35.9165 81.9877
  686 592.097 -26.4213 13.3716
  687 474.134 -43.2025 -58.3293
  688 494.321 6.82729 4.41547
  689 383.319 -9.75641 30.3876
  690 382.997 -9.75939 -30.5694
  691 504.927 -57.3628 -75.7782
  692 620.759 -41.1564 -32.7137
  693 570.518 -8.49346 -0.206341
  694 570.608 -8.56992 0.207926
  695 633.665 -40.6893 31.8661
  696 577.257 -60.3064 19.3044
  697 699.157 64.3867 49.1425
  698 632.816 -12.0755 54.9762
  699 609.000 -22.1879 32.6610
  700 587.715 48.5675 -34.7444
  701 699.849 117.271 39.1388
  702 605.562 -8.53801 -32.7627
  703 601.306 -20.3387 15.4802
  704 627.004 97.7071 9.64818
  705 612.642 -10.6886 28.0479
  706 196.537 134.753 172.139
  707 569.362 -65.6361 -49.2897
  708 659.037 11.8768 55.3270
  709 663.629 -20.6514 -36.9129
  710 657.397 -1.19078 2.25585
  711 608.063 -21.2831 -25.1554
  712 570.314 -66.1411 45.2125
  713 1076.47 95.5524 -15.8632
  714 354.220 -1.35300 11.6004
  715 353.835 -1.36694 -11.6949
  716 614.982 -11.7259 -11.0474
  717 660.984 -0.935009 -2.23770
  718 523.338 -45.4863 28.9084
  719 624.685 -23.4917 49.4815
  720 930.272 230.137 -81.7394
  721 592.174 -43.0125 12.6521
  722 653.272 -43.2671 -15.5772
  723 601.495 -19.8220 -15.2195
  724 659.996 -1.48326 -0.594231
  725 611.991 -0.118385 58.4983
  726 29.6582 32.9661 39.7124
  727 678.973 -24.7482 -107.365
  728 741.957 45.4714 18.5997
  729 620.557 -63.6860 35.7823
  730 453.573 -10.4001 13.3376
  731 453.555 -10.5369 -13.3885
  732 562.610 307.505 -307.041
  733 633.845 -42.2137 -28.9701
  734 492.539 3.03503 -8.45128
  735 565.169 3.34695 38.2914
  736 613.084 -30.9390 39.0870
  737 587.623 -49.5217 3.65974
  738 606.838 -55.6898 -88.0002
  739 584.279 -46.2291 -4.95791
  740 684.449 -32.6574 0.264138
  741 631.229 -5.73371 6.32079
  742 568.271 -34.0832 1.27868
  743 1011.50 202.045 -109.716
  744 603.742 -16.6319 12.0345
  745 601.967 10.0003 -57.4892
  746 508.779 -5.32086 178.664
  747 642.822 51.6680 57.9025
  748 553.311 -43.3098 9.99272
  749 432.704 -33.4311 -60.5714
  750 432.784 -33.3550 60.1337
  751 592.503 66.7257 -8.05015
  752 599.327 -7.00430 50.8451
  753 604.619 -14.5380 -42.7444
  754 568.888 -34.8061 -1.42348
  755 550.643 -49.0535 18.3422
  756 631.596 103.617 -10.7647
  757 586.929 -50.8111 -1.35852
  758 588.533 -37.3616 12.5780
  759 594.659 -8.24372 1.64840
  760 594.983 -8.04455 -1.62677
  761 798.985 173.806 0.0128133
  762 651.207 -55.6179 -26.4496
  763 609.847 -19.0480 25.1568
  764 631.268 -5.73626 -5.67328
  765 642.284 4.17728 -57.9814
  766 725.830 39.2675 -28.8936
  767 373.075 -0.231829 -5.49354
  768 373.309 -0.227242 5.44702
  769 5.90340 -9.36198 -6.40943
  770 622.842 -0.896819 10.5744
  771 576.628 -0.712892 -42.1101
  772 593.375 -5.58262 36.6436
  773 531.405 70.1966 259.050
  774 674.620 137.332 -1.29855
  775 483.085 -33.8653 33.3102
  776 93.1229 1.76039 -33.5985
  777 95.3664 1.26903 33.9393
  778 588.719 -4.14992 -41.5537
  779 484.256 -34.1812 -33.3243
  780 627.652 -6.28224 4.60571
  781 333.585 -13.7765 56.5423
  782 330.910 -13.7207 -56.5214
  783 603.668 -16.1708 -11.7041
  784 397.410 -9.46055 -26.5478
  785 397.603 -9.40492 26.3455
  786 627.645 -6.37628 -15.0669
  787 487.556 -12.6424 -9.75002
  788 487.584 -12.5697 9.75546
  789 684.154 -4.17307 -36.4713
  790 620.214 -6.57727 -58.2402
  791 328.751 -1.93003 -14.6738
  792 329.316 -1.91175 14.5218
  793 21.2621 8.01345 -21.2674
  794 23.8896 8.47100 22.3147
  795 513.638 2.61521 -15.1793
  796 565.376 -63.5067 -37.8336
  797 -6.22082 -4.20298 11.0094
  798 -5.55244 -5.15348 -11.0793
  799 587.769 -12.2876 3.73681
  800 635.711 -49.9057 -13.4769
  801 660.868 97.5646 -43.3352
  802 630.065 -5.69097 -4.39961
  803 1300.60 268.121 -244.033
  804 587.644 -12.2583 -3.68062
  805 877.538 165.587 15.4768
  806 630.992 18.3675 -60.9362
  807 693.311 52.6499 -50.6454
  808 127.829 -1.46536 -30.7226
  809 129.799 -1.63427 30.6761
  810 404.603 -5.43638 15.9193
  811 404.456 -5.47818 -16.0383
  812 389.630 -0.764462 3.01785
  813 389.499 -0.772914 -3.03753
  814 703.162 118.112 -38.5712
  815 427.429 -2.36301 -4.56147
  816 427.516 -2.33695 4.54151
  817 601.107 -6.03601 -53.1523
  818 845.677 94.7478 84.7194
  819 547.182 12.6931 -33.2909
  820 198.773 -1.68537 32.5574
  821 197.342 -1.70167 -32.7865
  822 683.543 22.3589 188.196
  823 614.480 -11.8194 11.3995
  824 559.427 37.5698 -13.8461
  825 268.323 -0.315450 21.9757
  826 267.135 -0.196592 -22.1179
  827 396.239 -1.77079 -7.87450
  828 396.388 -1.74537 7.81451
  829 72.4937 63.8893 57.7850
  830 580.463 14.1239 49.0664
  831 642.963 94.0947 -37.5991
  832 687.773 79.9878 -51.1828
  833 460.226 -16.7627 -21.0661
  834 459.995 -16.6538 21.0554
  835 714.055 150.479 17.0186
  836 612.090 -5.77041 -0.480328
  837 612.140 -5.72936 0.576199
  838 609.290 -18.6055 -33.2373
  839 514.259 -33.7407 20.7995
  840 562.156 -63.1292 37.8759
  841 654.530 -53.5902 58.2755
  842 510.658 -14.5853 -6.52429
  843 510.664 -14.5423 6.49260
  844 584.781 54.4201 22.3930
  845 551.665 7.90261 -35.8636
  846 152.694 192.557 178.916
  847 552.266 -48.6371 -17.0216
  848 554.446 -24.7313 -1.82847
  849 554.733 -24.8013 1.79003
  850 609.726 -9.08247 55.5273
  851 602.524 -39.7837 -22.4678
  852 540.911 -35.4593 -10.4952
  853 1185.02 38.3372 -57.2627
  854 514.960 -48.2085 38.3475
  855 514.509 -48.8084 -38.9056
  856 608.384 -7.44823 27.7896
  857 902.207 235.801 -61.4375
  858 484.834 -43.3856 -46.5679
  859 532.296 -59.6580 45.5149
  860 484.769 -42.8865 46.1980
  861 524.463 -20.8500 -7.86213
  862 524.467 -20.7948 7.82035
  863 82.4149 33.4911 49.9913
  864 653.358 48.8281 -58.0788
  865 504.784 -19.3109 -11.0842
  866 504.886 -19.1305 11.1177
  867 499.403 -8.12490 -1.36761
  868 499.404 -8.07660 1.36073
  869 545.145 -11.0552 -1.09983
  870 545.085 -10.9930 1.09350
  871 450.452 -8.35232 -11.4607
  872 450.501 -8.26494 11.4233
  873 506.298 -26.0953 -16.1653
  874 506.375 -25.9397 16.2377
  875 13.3176 -0.162345 -8.81249
  876 753.005 141.526 25.4030
  877 648.626 -22.9737 -44.2803
  878 531.778 -58.7779 -45.9256
  879 573.166 -18.7246 2.63062
  880 572.929 -18.5508 -2.49350
  881 625.449 0.674110 59.5476
  882 672.381 -47.8654 -35.8512
  883 591.984 45.9182 -225.760
  884 280.523 -5.21043 113.351
  885 -6.39339 6.53733 -9.09704
  886 -5.16520 7.39894 9.89012
  887 82.0380 35.6059 -51.0997
  888 609.118 -17.9458 19.3255
  889 637.532 -4.66226 -8.01730
  890 574.679 -55.6674 99.7652
  891 279.896 -4.96767 -113.758
  892 640.364 -52.7896 7.23253
  893 706.265 -19.0095 89.6718
  894 530.477 2.24736 16.0542
  895 601.198 57.2676 37.8972
  896 331.410 -18.4346 82.7194
  897 330.194 -18.5800 -83.2072
  898 396.659 -18.2021 -46.5537
  899 409.596 -20.7985 -143.760
  900 642.744 -15.2725 50.9894
  901 872.718 209.091 42.5675
  902 646.695 24.7697 59.2310
  903 611.113 -13.3448 -30.5433
  904 417.814 -18.6263 147.283
  905 774.002 143.756 -15.6328
  906 81.6114 68.2895 -70.6413
  907 570.765 -1.04414 -16.9019
  908 397.062 -18.0617 46.1893
  909 479.770 -10.2306 8.49821
  910 479.743 -10.2919 -8.51149
  911 603.350 -39.5646 23.3463
  912 622.478 -4.64217 1.57392
  913 460.779 3.84013 -177.784
  914 654.407 -1.69043 3.77023
  915 650.546 -1.42102 -4.96018
  916 503.104 4.59885 -14.0256
  917 632.025 -2.68420 -9.30328
  918 480.550 -21.8509 -19.9706
  919 480.866 -21.5425 20.0392
  920 -14.3450 6.20671 -8.05682
  921 -20.4632 3.74954 8.79908
  922 622.433 -4.35196 -1.64327
  923 216.942 -5.08540 76.6428
  924 215.800 -4.66317 -77.0379
  925 670.907 97.4811 45.4145
  926 1158.51 21.0771 17.4684
  927 633.343 70.2622 49.0169
  928 706.142 -23.9401 31.3011
  929 620.096 -34.7841 38.9888
  930 770.009 160.909 -12.0342
  931 493.502 2.42306 10.5897
  932 595.974 -14.5333 -6.59682
  933 622.884 33.5633 -59.4481
  934 741.616 23.7086 -2.85781
  935 582.449 -36.0325 -9.06960
  936 311.364 -1.57277 -16.3580
  937 311.619 -1.51601 16.1449
  938 613.249 -14.8258 -23.2010
  939 22.7064 28.0347 8.35759
  940 588.913 -61.1062 -11.5571
  941 521.977 16.0397 -1.44299
  942 765.885 166.954 -7.94804
  943 126.138 93.4446 -114.227
  944 593.381 -4.44411 -32.8321
  945 420.190 -6.54735 -15.0093
  946 420.282 -6.47471 14.9034
  947 4.27786 -15.9944 11.8964
  948 408.436 -29.7724 -66.7834
  949 600.338 -34.9227 -21.9922
  950 388.912 0.848745 -1.27829
  951 389.025 0.851847 1.27155
  952 611.348 74.1227 -30.1708
  953 643.454 -2.45682 -0.751081
  954 643.502 -2.47742 1.01382
  955 408.646 -29.7055 66.3830
  956 609.367 -0.998354 -12.8174
  957 694.950 5.23365 34.5451
  958 617.558 -9.28079 8.62523
  959 105.774 25.2929 -61.8772
  960 638.614 -4.34743 7.20733
  961 588.147 4.96172 52.2562
  962 620.059 85.6024 26.8091
  963 617.781 7.19062 -60.6091
  964 432.510 -22.4492 -40.4425
  965 661.697 -23.7142 35.3742
  966 432.797 -22.3770 40.0820
  967 21.9167 23.0628 -4.70862
  968 79.5036 12.5238 45.4770
  969 358.502 -5.93979 27.3020
  970 358.102 -5.93771 -27.4306
  971 596.401 -14.7776 7.04098
  972 646.307 111.651 14.5896
  973 330.899 29.4322 -169.252
  974 540.009 -33.3950 9.45449
  975 507.128 -52.6547 -56.0965
  976 733.876 140.141 28.2218
  977 566.379 -10.3663 -0.176937
  978 566.353 -10.3179 0.170369
  979 617.730 -11.9140 -16.2477
  980 579.684 50.3519 -20.6430
  981 1244.58 379.988 254.928
  982 128.198 6.52368 -58.5571
  983 129.915 5.40380 58.6585
  984 9.56852 -7.42471 5.42233
  985 580.788 32.5263 42.3757
  986 507.081 -52.9922 55.7246
  987 624.496 -29.7333 -45.1252
  988 678.772 55.4702 56.1090
  989 647.500 -52.2902 -69.9158
  990 941.417 197.594 69.2935
  991 556.793 -9.33438 -0.591894
  992 556.723 -9.26731 0.591117
  993 647.907 -26.7090 41.6528
  994 46.3631 86.2322 83.4988
  995 304.817 -6.05665 38.9279
  996 303.967 -5.97723 -39.2922
  997 359.439 -16.9635 53.5061
  998 358.279 -16.6886 -53.6704
  999 403.158 -15.9882 38.7943
  1000 440.746 -3.17272 -2.01456
  1001 440.820 -3.15103 2.00782
  1002 1038.22 345.591 -224.188
  1003 957.484 240.715 104.499
  1004 402.839 -16.0590 -39.0774
  1005 666.998 -3.21616 46.2250
  1006 603.939 62.7148 -36.3816
  1007 426.941 -37.1074 119.395
  1008 543.766 -64.3431 -66.7760
  1009 620.608 -5.34869 -18.4330
  1010 286.023 18.5563 138.529
  1011 366.626 -27.8904 95.3112
  1012 557.372 29.0351 -26.6897
  1013 628.447 -12.6163 -55.7840
  1014 767.701 342.345 347.167
  1015 529.276 16.6744 19.1316
  1016 707.849 150.800 -2.09591
  1017 514.979 21.1403 -201.481
  1018 529.808 -55.3576 -39.6113
  1019 661.142 -1.03745 -1.79866
  1020 644.377 59.1403 -56.3458
  1021 389.999 -2.24019 10.0099
  1022 389.817 -2.26234 -10.0891
  1023 14.9351 14.1905 -23.8539
  1024 433.280 -19.0788 -33.8289
  1025 366.164 -28.2424 -95.9597
  1026 433.001 -19.0487 33.5051
  1027 614.970 -18.9063 51.6346
  1028 552.898 -33.9697 -4.79336
  1029 583.848 10.9718 -50.7591
  1030 601.161 75.0166 10.6301
  1031 794.339 52.5885 39.4227
  1032 607.695 -46.3515 21.5682
  1033 392.312 -30.8026 -73.0661
  1034 579.623 20.8349 -47.7003
  1035 430.336 -36.6481 -119.932
  1036 815.906 175.060 -5.01260
  1037 565.344 37.5081 24.2808
  1038 699.490 -3.67109 -24.4488
  1039 533.043 -55.4103 36.8878
  1040 608.998 -19.5612 39.4555
  1041 604.228 -32.1243 26.7277
  1042 600.893 -30.4552 22.7758
  1043 738.075 94.6941 -37.1929
  1044 602.362 -9.85531 40.9417
  1045 543.042 -64.5202 65.7432
  1046 579.565 -23.9091 5.71189
  1047 392.564 -30.8740 72.7204
  1048 546.101 -39.8622 -11.2711
  1049 323.770 -15.9381 -101.888
  1050 455.590 -47.0389 81.5604
  1051 612.155 -4.38038 -21.6426
  1052 598.305 -6.80025 -46.9274
  1053 519.398 -40.5396 -25.0792
  1054 324.301 -16.3576 101.169
  1055 562.464 1.55527 -33.2684
  1056 421.261 -27.2065 -52.0639
  1057 747.577 157.848 17.0435
  1058 174.040 27.4422 -98.7772
  1059 1232.21 86.8515 116.269
  1060 305.409 21.5778 -144.682
  1061 600.445 -49.8626 -11.1148
  1062 421.397 -26.9905 51.6890
  1063 557.195 6.23809 37.3897
  1064 320.881 -6.16168 32.2533
  1065 320.754 -6.31083 -32.5506
  1066 609.589 -17.1110 -48.0089
  1067 641.071 -3.76548 2.63531
  1068 632.490 -1.62482 9.35007
  1069 629.038 20.8016 60.9263
  1070 590.797 -4.43276 44.2976
  1071 453.703 49.2718 217.543
  1072 664.868 -0.724851 0.788547
  1073 635.233 85.7597 38.9648
  1074 543.796 8.25308 32.3483
  1075 639.245 -2.65393 8.89124
  1076 424.408 -4.15173 -8.51684
  1077 424.495 -4.10618 8.47225
  1078 274.260 -7.47438 -53.9315
  1079 275.214 -7.74652 53.6171
  1080 545.633 27.7171 13.6205
  1081 795.466 47.1640 -68.4232
  1082 731.291 2.27572 -119.175
  1083 596.426 -0.606530 -13.4136
  1084 455.681 -47.3790 -82.1372
  1085 520.501 -38.5652 22.7583
  1086 599.524 -1.43839 13.9798
  1087 623.424 -45.5092 -25.9313
  1088 403.320 -0.719369 4.98576
  1089 403.206 -0.733541 -5.01129
  1090 599.331 -51.2890 11.0946
  1091 570.645 -12.0497 0.313995
  1092 570.549 -12.0654 -0.284716
  1093 555.835 -55.7394 25.2272
  1094 707.527 -22.2588 -15.9120
  1095 337.633 -0.533225 -9.16004
  1096 338.125 -0.514598 9.07537
  1097 487.296 -31.4344 -137.453
  1098 522.166 -12.3985 3.89171
  1099 522.204 -12.4562 -3.91631
  1100 313.218 173.043 239.145
  1101 714.427 59.2802 -43.5180
  1102 111.236 52.6426 -76.5797
  1103 617.796 -9.75660 -8.31215
  1104 171.831 57.2533 -113.442
  1105 354.068 -21.7362 -69.1464
  1106 664.532 -1.00797 0.569664
  1107 664.730 -0.962960 -0.404167
  1108 610.319 -35.0783 -33.0024
  1109 540.115 -60.9500 -90.2055
  1110 174.208 23.3659 94.1202
  1111 664.711 65.7000 54.0383
  1112 600.612 -6.70075 -0.615532
  1113 600.692 -6.70185 0.666199
  1114 651.174 -41.1551 109.921
  1115 682.485 135.458 20.4079
  1116 414.419 -9.43192 -21.3022
  1117 414.532 -9.39387 21.1757
  1118 310.912 34.6994 171.016
  1119 582.294 3.14481 -49.0213
  1120 186.861 58.8858 121.546
  1121 732.202 -11.0520 -43.1274
  1122 729.539 159.296 5.74004
  1123 505.270 -39.3452 29.6227
  1124 476.924 2.84650 -2.06837
  1125 632.866 -5.95123 11.0210
  1126 653.062 -1.06769 4.26129
  1127 156.151 0.199750 -27.3460
  1128 157.947 0.134138 27.1783
  1129 528.472 9.28917 -24.0426
  1130 537.390 -15.7682 -3.68964
  1131 537.285 -15.7086 3.67451
  1132 58.0192 103.231 -89.1118
  1133 90.4144 213.576 -172.141
  1134 543.752 -21.1577 3.87005
  1135 543.936 -21.1397 -3.90812
  1136 560.548 -13.7414 0.116242
  1137 560.472 -13.7219 -0.0781964
  1138 151.335 96.0797 123.080
  1139 450.723 -5.21835 -4.23597
  1140 450.786 -5.18437 4.22028
  1141 562.749 42.9246 -0.540374
  1142 692.435 96.5452 -250.063
  1143 678.809 116.476 -35.0580
  1144 618.133 -23.9215 -48.3427
  1145 608.598 -30.6056 -33.9035
  1146 505.478 -39.6942 -30.0836
  1147 515.827 1.86036 14.8383
  1148 574.078 36.1408 -35.4691
  1149 566.690 30.8472 33.9696
  1150 579.205 -23.2399 -5.57901
  1151 554.242 -33.3099 4.35624
  1152 506.577 -32.1367 -22.6767
  1153 600.348 -3.62857 25.9968
  1154 1034.18 104.037 14.3460
  1155 603.912 -12.9923 47.2698
  1156 607.855 39.9699 52.7256
  1157 558.367 -54.6951 -20.0682
  1158 75.7868 11.4713 -43.9371
  1159 568.817 -26.3936 -2.92289
  1160 391.567 -0.463792 -0.281960
  1161 391.673 -0.461568 0.279813
  1162 687.153 -18.1923 19.9584
  1163 654.531 -55.2471 30.5015
  1164 935.118 166.231 42.7558
  1165 239.159 -0.366818 -22.5595
  1166 240.392 -0.317720 22.4101
  1167 511.806 -10.2628 -2.96219
  1168 511.790 -10.2075 2.94575
  1169 570.316 -50.1630 -6.11224
  1170 480.836 2.39136 6.79236
  1171 583.668 -41.5796 8.08485
  1172 35.4848 42.1176 -22.9695
  1173 109.922 53.4396 74.7923
  1174 394.328 -22.0459 132.722
  1175 676.886 127.998 -25.0908
  1176 641.393 -1.92296 -7.04354
  1177 667.140 -1.21569 0.320844
  1178 667.689 -1.59612 -0.168716
  1179 405.566 -0.746107 -0.864579
  1180 405.668 -0.739681 0.859636
  1181 624.150 39.8772 59.4588
  1182 909.703 153.762 -3.30557
  1183 643.985 105.891 -26.1843
  1184 479.897 -35.8279 136.600
  1185 392.261 -21.2732 -132.447
  1186 438.581 -28.6104 -46.9569
  1187 596.905 -17.1061 9.30525
  1188 827.653 183.773 15.2380
  1189 438.648 -28.4565 46.6321
  1190 608.731 -11.1898 7.03674
  1191 553.006 20.9719 32.4927
  1192 604.301 18.8474 57.4424
  1193 849.654 189.292 26.3090
  1194 512.661 -13.2118 5.44954
  1195 512.676 -13.2651 -5.47885
  1196 617.075 -12.0721 16.9083
  1197 378.913 -3.74096 15.5735
  1198 378.660 -3.77704 -15.6947
  1199 603.162 -8.78120 -2.77232
  1200 251.329 151.364 -232.419
  1201 522.519 -29.7357 -146.369
  1202 499.492 -15.3144 -9.39800
  1203 499.552 -15.2554 9.40219
  1204 643.287 -3.49907 2.48109
  1205 611.911 -8.59929 5.58364
  1206 35.6865 46.6282 35.3080
  1207 661.348 -0.924860 2.12869
  1208 82.4210 107.286 106.340
  1209 598.533 -9.49972 -3.64515
  1210 -0.439575 -14.2541 -12.5607
  1211 428.353 -41.8866 -102.989
  1212 427.281 -40.8897 102.015
  1213 661.313 -1.32913 -2.38821
  1214 572.266 -30.2281 -3.78189
  1215 642.969 -3.24483 -2.46190
  1216 523.033 -16.7604 -5.76702
  1217 522.996 -16.7115 5.72132
  1218 602.794 -8.72926 2.57010
  1219 568.421 -25.8650 2.89325
  1220 548.136 -17.6983 2.08322
  1221 548.311 -17.7332 -2.02723
  1222 642.300 -3.33885 -1.98543
  1223 557.753 -59.0924 -101.373
  1224 629.585 -4.48399 -1.94198
  1225 600.930 -9.74090 4.01905
  1226 430.789 -4.33598 -6.41628
  1227 430.871 -4.29558 6.38638
  1228 476.808 -6.75572 -3.51477
  1229 476.841 -6.71480 3.50119
  1230 756.693 118.890 29.7250
  1231 637.054 -49.2838 17.3318
  1232 439.517 -2.45461 168.205
  1233 364.877 -0.485268 5.98905
  1234 364.588 -0.491078 -6.04033
  1235 606.910 -11.3958 35.2080
  1236 579.591 -9.25674 0.354539
  1237 579.607 -9.23028 -0.354488
  1238 666.732 128.725 11.8315
  1239 604.635 -63.5534 81.8962
  1240 363.795 -4.80448 21.6656
  1241 363.463 -4.83726 -21.8026
  1242 579.042 -14.4911 2.53668
  1243 578.912 -14.5966 -2.41989
  1244 596.569 -16.9197 -8.90967
  1245 556.335 0.169027 17.1914
  1246 936.966 233.393 -82.6496
  1247 608.386 -22.5608 -30.0704
  1248 110.339 25.0055 63.4802
  1249 627.845 -33.7247 41.4493
  1250 515.565 11.7606 -13.1741
  1251 42.3356 29.2878 24.6766
  1252 816.908 95.1952 -17.8777
  1253 614.034 -28.1310 -42.6590
  1254 517.807 7.76660 20.2084
  1255 356.427 -21.7841 69.0832
  1256 622.351 -48.4265 22.5330
  1257 890.482 178.455 66.3583
  1258 215.467 30.7196 119.185
  1259 624.517 -7.90278 -14.6405
  1260 1167.21 13.2892 -11.4895
  1261 1203.44 17.8822 50.7690
  1262 1281.00 42.5442 -121.395
  1263 608.290 -19.2431 -38.3048
  1264 607.612 -27.9979 31.6584
  1265 616.637 -44.1327 28.1592
  1266 -17.9679 2.32548 11.1947
  1267 -16.2689 1.93755 -12.2823
  1268 599.057 -66.4786 -40.9912
  1269 612.491 -62.2227 -59.1574
  1270 483.936 3.29426 -8.36583
  1271 596.281 -67.6065 58.7213
  1272 638.198 -30.4968 -41.8733
  1273 14.8303 20.0640 4.31246
  1274 523.604 -9.60203 1.79575
  1275 523.636 -9.66192 -1.80042
  1276 632.168 -5.53996 9.77078
  1277 608.640 -11.0051 -6.55286
  1278 574.990 -62.7391 -23.6344
  1279 528.500 -28.2511 11.0927
  1280 525.970 -27.8368 -11.7609
  1281 615.697 -13.3893 23.9354
  1282 631.277 -23.3991 -49.4040
  1283 43.8734 30.5338 -24.1927
</Section>

newXOutput 85

<Section columns = "stress_xx | stress_yy | stress_xy">
  1 678.120 -0.346556 1.20607
  2 678.109 -0.331198 -1.20849
  3 390.645 -0.0621171 -0.433392
  4 -4.85803 -4.78279 -6.99009
  5 1177.63 496.968 386.530
  6 1167.10 513.766 -382.931
  7 -5.65000 -4.52403 7.46678
  8 390.538 -0.0633246 0.432453
  9 682.428 -1.22770 0.333002
  10 681.240 -1.90203 -0.417464
  11 680.108 -1.35709 1.30432
  12 678.933 -1.79054 0.218547
  13 676.356 -1.53964 2.04823
  14 673.974 -1.53868 1.40439
  15 668.020 -1.35156 2.98552
  16 659.153 -1.06983 4.43533
  17 651.333 -1.06695 5.02051
  18 639.421 -1.36267 6.15827
  19 622.531 -0.223096 9.22161
  20 606.940 -0.997784 8.86686
  21 588.737 -1.22051 12.6253
  22 562.494 0.847953 11.0840
  23 543.151 1.39028 13.1904
  24 517.878 2.27601 10.3996
  25 500.242 2.55250 10.5227
  26 474.713 3.42365 5.38773
  27 469.261 5.36554 5.80575
  28 465.947 4.48568 -1.72661
  29 470.393 2.74840 -3.74366
  30 478.616 2.56336 -4.60445
  31 497.760 3.15176 -9.16301
  32 516.366 2.49439 -11.5148
  33 543.357 0.665682 -13.6063
  34 564.894 -0.231698 -12.2703
  35 587.599 -0.961105 -11.9436
  36 608.022 -0.789944 -8.36575
  37 625.327 -0.864148 -7.07549
  38 639.405 -1.34393 -5.86263
  39 651.848 -1.00851 -3.97960
  40 659.399 -1.24577 -4.17465
  41 666.708 -1.44794 -3.02880
  42 673.441 -1.68475 -1.19957
  43 676.832 -1.38046 -1.49999
  44 678.414 -0.930793 -0.882853
  45 676.661 -0.639815 -0.810293
  46 681.827 -1.88994 0.310328
  47 682.589 -1.26733 -0.342640
  48 662.506 -0.912084 -0.748142
  49 649.114 -3.28879 -1.43326
  50 632.552 -4.70755 -0.811271
  51 612.222 -6.69726 -1.14570
  52 592.775 -7.23504 -1.36056
  53 571.893 -8.75926 -1.31691
  54 553.295 -9.56900 -0.636059
  55 536.975 -10.4662 -0.117958
  56 518.098 -8.61937 -0.0887502
  57 496.329 -7.93170 -0.323931
  58 475.386 -6.14519 0.0345049
  59 455.583 -3.80102 0.0876744
  60 436.817 -2.62468 0.148830
  61 420.442 -1.23688 0.267283
  62 403.813 -0.248155 -0.485355
  63 390.769 0.567410 0.745882
  64 384.802 1.42395 0.548801
  65 388.474 0.0615528 1.21560
  66 383.612 -0.128302 1.48764
  67 378.931 -0.220812 1.84764
  68 372.675 0.0313514 2.36167
  69 364.806 0.0233965 2.94190
  70 358.672 -0.353037 5.52995
  71 342.355 0.494925 6.01090
  72 330.666 0.00709228 6.80341
  73 313.271 -0.247461 7.74036
  74 293.324 -0.444362 9.39770
  75 268.349 -0.0680679 11.4146
  76 237.911 0.167599 12.6397
  77 211.148 -0.194678 18.0968
  78 159.096 1.62790 17.1977
  79 123.056 1.39958 18.2351
  80 79.3357 -0.401425 20.4008
  81 42.4891 3.20289 21.4527
  82 0.263171 4.90724 13.3473
  83 -31.1059 5.01435 5.29675
  84 -31.8256 4.97072 -0.901035
  85 -31.8735 4.19033 -9.33545
  86 -18.9139 -1.12507 -9.10134
  87 -2.16577 -18.1533 -10.1032
  88 2.03745 -33.0956 -12.3540
  89 5.29304 -50.7572 -6.03569
  90 11.5325 -48.9566 2.43971
  91 24.0642 -1.75039 34.0325
  92 69.9835 124.631 108.909
  93 392.191 398.411 348.965
  94 1431.45 216.893 235.906
  95 1297.10 30.8270 75.9262
  96 1212.17 13.0115 23.2367
  97 1180.92 11.1707 1.72119
  98 1197.89 14.7102 -20.3041
  99 1295.11 28.9997 -60.1997
  100 1508.94 104.622 -201.102
  101 234.819 411.610 -293.787
  102 52.3255 96.6912 -91.3481
  103 26.3868 0.898759 -36.7694
  104 10.8411 -48.3491 -7.89509
  105 3.32569 -38.0976 6.81769
  106 3.98825 -41.8485 10.6179
  107 0.277633 -15.5821 11.2059
  108 -19.7733 -0.634436 8.58455
  109 -32.8737 3.14754 8.09168
  110 -33.5608 6.02356 1.06804
  111 -32.0636 4.91590 -4.98364
  112 -2.04354 5.02847 -12.5607
  113 40.4996 3.22950 -20.4862
  114 77.3141 -0.0529013 -20.0692
  115 120.956 1.51136 -18.2657
  116 157.189 1.66810 -17.3175
  117 209.672 -0.202117 -18.2346
  118 236.652 0.183483 -12.7510
  119 267.247 -0.0648898 -11.5471
  120 292.770 -0.497364 -9.45765
  121 312.501 -0.231392 -7.75502
  122 330.078 0.0277398 -6.86686
  123 341.870 0.489657 -6.06918
  124 358.316 -0.356936 -5.57922
  125 364.515 0.0208551 -2.97190
  126 372.448 0.0288920 -2.38621
  127 378.751 -0.224923 -1.86699
  128 383.467 -0.131830 -1.50105
  129 388.348 0.0586123 -1.22407
  130 384.687 1.42273 -0.552662
  131 390.660 0.566753 -0.748340
  132 403.708 -0.251424 0.484240
  133 420.345 -1.24512 -0.270188
  134 436.733 -2.64262 -0.152197
  135 455.519 -3.82590 -0.0908881
  136 475.345 -6.18116 -0.0377654
  137 496.316 -7.97755 0.321298
  138 518.115 -8.67285 0.0858355
  139 537.016 -10.5270 0.116460
  140 553.354 -9.63002 0.637938
  141 571.981 -8.81480 1.32321
  142 592.855 -7.27278 1.38321
  143 612.288 -6.73107 1.25647
  144 632.669 -4.48301 0.828708
  145 649.554 -3.21471 1.40084
  146 662.636 -1.01587 0.735873
  147 599.598 -56.3944 1.27167
  148 599.056 -55.6241 -1.06361
  149 633.845 90.7682 -28.2426
  150 670.667 39.4776 58.3478
  151 508.653 -49.4087 -115.515
  152 512.879 -49.3021 111.971
  153 499.624 -20.6991 15.3076
  154 499.648 -20.9719 -15.3112
  155 707.759 25.9148 -41.5919
  156 598.064 -21.8491 9.89234
  157 597.802 -21.3465 -9.77853
  158 772.633 170.554 5.34329
  159 614.934 -0.949923 -58.4105
  160 459.409 -35.4205 -52.2125
  161 459.463 -35.1425 51.8023
  162 615.231 -14.0645 52.1198
  163 589.035 43.2550 35.4928
  164 246.644 38.3331 -138.126
  165 272.356 36.4208 145.361
  166 743.202 9.78715 -2.72835
  167 615.407 -23.8721 -34.9990
  168 810.393 177.918 3.52172
  169 556.223 -15.8146 -1.74577
  170 556.116 -15.7775 1.78564
  171 619.528 -8.11704 -4.21011
  172 621.272 -7.36752 3.59819
  173 445.280 -5.97178 -8.64013
  174 445.348 -5.91351 8.60456
  175 659.707 -15.7682 147.062
  176 571.398 24.1016 -38.3142
  177 376.483 -27.8423 -82.3925
  178 377.574 -27.6458 81.9161
  179 424.240 -13.2897 -27.3353
  180 424.293 -13.1452 27.1622
  181 618.101 -16.5559 29.8033
  182 563.486 -38.4734 -5.07095
  183 561.630 -38.1880 5.88503
  184 635.803 -61.8452 -16.9267
  185 639.276 -58.9219 9.12315
  186 874.501 206.587 -37.4102
  187 645.841 103.139 26.2932
  188 644.698 39.6122 -59.6984
  189 656.541 -3.41378 -169.706
  190 637.170 -36.2480 -39.2001
  191 642.783 -25.9724 47.1670
  192 537.896 -60.9571 58.5523
  193 537.925 -60.5043 -58.4024
  194 579.853 7.61397 45.7988
  195 270.608 -7.02811 -101.248
  196 271.206 -7.55311 100.685
  197 980.054 145.839 21.6159
  198 604.329 -36.1774 19.9012
  199 625.432 -11.9254 -18.9576
  200 502.804 -12.0268 -7.27931
  201 502.824 -11.9748 7.26165
  202 604.448 -7.92946 -40.4159
  203 686.061 100.495 -46.5956
  204 580.332 52.4144 -7.08688
  205 383.699 -12.9904 37.9150
  206 383.150 -13.0235 -38.1610
  207 633.079 -7.56467 9.89478
  208 621.989 11.7346 60.1964
  209 508.137 -36.3706 -26.8174
  210 505.010 -34.4201 27.2680
  211 728.485 108.267 40.4059
  212 846.407 121.576 30.4232
  213 62.3911 47.3393 -41.7904
  214 57.8369 43.7547 35.7015
  215 354.498 103.044 239.336
  216 598.426 -39.8703 -14.1441
  217 635.063 -7.25540 -8.91794
  218 573.843 5.31052 -42.2176
  219 410.095 -3.72330 -12.1922
  220 410.230 -3.68280 12.1020
  221 541.531 -25.1744 -7.52715
  222 541.788 -25.3455 7.22932
  223 609.014 -8.32020 34.1874
  224 692.775 -39.8447 23.0160
  225 696.459 141.037 -13.2042
  226 546.239 -52.3977 -29.5692
  227 685.031 -11.9700 34.0348
  228 586.424 -10.3207 1.02739
  229 586.422 -10.2449 -1.02675
  230 542.505 -52.1574 30.4891
  231 618.743 -39.5003 31.3698
  232 854.776 117.518 -65.8063
  233 197.271 117.300 -176.599
  234 534.538 19.2801 9.25893
  235 625.396 55.1181 50.8971
  236 661.316 -4.74316 -51.2482
  237 619.720 -22.4915 -48.1375
  238 340.992 -10.5101 -47.1344
  239 342.083 -10.3583 47.0195
  240 620.257 -7.76282 -26.0042
  241 590.648 -15.3453 4.61064
  242 590.377 -15.3363 -4.40269
  243 131.911 11.2779 -66.0546
  244 133.751 9.87455 65.8068
  245 653.145 -57.3493 -56.8672
  246 645.443 -2.88143 1.12888
  247 646.031 -2.93000 -1.29993
  248 611.762 50.8324 -46.8216
  249 544.077 10.9206 27.8853
  250 1091.77 174.765 117.854
  251 1081.84 123.213 -73.0759
  252 800.784 170.838 1.01612
  253 500.806 -24.5404 152.543
  254 460.889 -16.4108 -159.241
  255 531.647 -10.9180 -2.96821
  256 531.606 -10.8578 2.95176
  257 447.373 -11.4278 17.1823
  258 447.352 -11.5773 -17.3108
  259 633.301 -7.25954 15.4756
  260 616.134 -44.0771 -24.7871
  261 413.149 -0.571565 -2.92526
  262 413.254 -0.560250 2.91069
  263 608.502 -24.9715 -20.1207
  264 268.822 -8.57263 -65.6990
  265 269.860 -8.59798 65.2756
  266 616.664 -26.9845 37.7875
  267 473.892 -50.3055 93.0589
  268 474.973 -51.1996 -92.7660
  269 541.641 21.2610 -12.9834
  270 467.664 -6.81469 -5.85078
  271 467.714 -6.77317 5.83261
  272 583.380 -1.32647 33.5760
  273 692.320 125.919 32.0808
  274 382.533 -4.30997 20.2761
  275 382.258 -4.34345 -20.4258
  276 631.534 -53.0459 15.0000
  277 584.575 -65.9049 -64.9715
  278 648.283 -3.66681 4.42221
  279 461.281 -26.5667 -36.0216
  280 460.572 -26.2840 35.9083
  281 784.807 92.6352 213.548
  282 385.675 -31.3066 110.250
  283 618.222 86.5877 -2.98329
  284 768.618 86.9571 -21.7272
  285 585.078 -45.1990 2.76574
  286 585.224 -67.6727 59.0517
  287 386.723 -30.8269 -111.383
  288 73.9951 91.6684 85.2113
  289 608.609 -25.0426 20.5151
  290 790.739 105.705 14.4238
  291 652.828 -3.28232 -3.83727
  292 601.400 21.2772 -53.9318
  293 589.454 -33.4363 9.14630
  294 577.546 -48.6246 6.00568
  295 599.543 27.7072 52.0708
  296 628.673 -53.0271 -12.8597
  297 884.766 170.436 -17.1154
  298 589.302 -32.1565 -8.71130
  299 479.659 143.683 -289.945
  300 601.045 -63.8495 -17.1184
  301 596.943 -65.6144 23.8264
  302 445.046 -39.7669 -72.9266
  303 409.280 -1.33691 -6.29921
  304 409.402 -1.31320 6.25831
  305 445.278 -39.8125 72.5701
  306 637.682 -1.12475 -59.5761
  307 683.331 -28.3133 -20.0629
  308 527.430 -31.2993 -15.4913
  309 527.153 -31.3746 15.7481
  310 621.375 -53.5057 101.507
  311 624.994 -5.27125 19.6611
  312 749.650 5.96304 42.4810
  313 517.833 -17.9677 -8.79512
  314 517.878 -17.9197 8.75746
  315 475.091 -11.9009 -11.7114
  316 475.108 -11.7981 11.6999
  317 538.950 7.58901 -26.9494
  318 678.538 49.8379 -56.2436
  319 1030.14 280.511 -137.922
  320 615.757 -6.08936 -1.30743
  321 615.451 -6.01393 1.35677
  322 336.932 -1.48481 137.645
  323 472.042 -20.7465 -24.3842
  324 471.240 -20.6943 24.4522
  325 336.863 -2.31516 -137.116
  326 649.881 76.5490 -48.9789
  327 720.085 36.2493 38.7789
  328 620.906 -44.2505 -112.101
  329 576.763 -22.4308 2.84186
  330 576.214 -22.2866 -2.61273
  331 612.890 -13.2610 -9.14809
  332 583.718 -1.01404 -31.3750
  333 648.711 2.61737 57.8644
  334 643.486 -4.93165 -10.5458
  335 398.165 -23.4605 55.3941
  336 397.733 -23.5795 -55.7708
  337 606.673 -1.29632 55.6599
  338 385.522 -2.84033 -12.1436
  339 385.758 -2.81468 12.0492
  340 617.693 -14.6941 15.2345
  341 742.075 150.736 -21.5132
  342 612.666 -13.3417 9.53672
  343 656.824 82.1802 48.9824
  344 627.426 -11.8190 56.7252
  345 502.376 -9.21248 2.80858
  346 502.370 -9.26167 -2.82265
  347 596.861 -2.03490 -49.4919
  348 781.975 163.833 10.8349
  349 656.396 119.417 1.00704
  350 400.851 46.2473 -202.983
  351 46.2021 18.3708 -30.2510
  352 50.1440 19.9101 32.3157
  353 -0.747143 5.37720 10.9279
  354 1.46893 3.47352 -11.5246
  355 1113.57 77.4040 25.9636
  356 543.208 -43.6718 -18.6566
  357 618.073 -14.2329 -14.8445
  358 560.911 -10.1845 0.0631599
  359 560.849 -10.1129 -0.0683093
  360 604.015 66.7686 -25.3970
  361 513.826 -51.8772 48.2726
  362 47.6493 71.6718 -54.3612
  363 514.211 -51.8395 -49.0496
  364 611.432 69.5508 27.0094
  365 617.962 -16.8475 -28.2593
  366 653.513 -36.7359 -31.8995
  367 701.087 146.490 9.03016
  368 654.652 -41.2069 25.0573
  369 284.087 -6.71476 43.8742
  370 282.559 -6.58165 -44.1129
  371 163.671 3.58838 -61.9308
  372 165.157 2.99410 61.6721
  373 546.648 2.21627 27.1720
  374 999.452 297.971 123.991
  375 637.004 -4.40505 -13.8020
  376 501.990 -41.6978 -37.2723
  377 501.655 -41.6195 37.2277
  378 615.321 -14.4561 -36.6525
  379 693.992 -33.4920 -2.88838
  380 543.189 -43.6441 19.1239
  381 756.225 8.10134 -71.0790
  382 445.260 -3.25816 -2.42597
  383 445.335 -3.23231 2.41357
  384 606.970 -3.65944 -23.8244
  385 338.710 -4.55570 -28.5130
  386 338.886 -4.71049 28.1963
  387 719.933 92.3381 -45.6167
  388 392.231 27.3638 189.144
  389 566.970 -29.6908 -0.721800
  390 567.508 -29.6482 0.703082
  391 667.288 112.240 -30.6349
  392 629.366 -18.8312 -53.2859
  393 626.779 -64.3435 58.2480
  394 529.880 -13.9823 -4.75690
  395 529.832 -13.9271 4.72383
  396 606.440 -46.9153 15.0532
  397 648.921 -3.47226 7.74877
  398 417.567 -14.5338 -33.9584
  399 417.738 -14.5442 33.7070
  400 619.317 20.9059 -59.5120
  401 581.970 -13.0702 1.45111
  402 581.937 -13.1068 -1.38692
  403 604.670 -7.22884 45.0661
  404 569.124 41.8935 12.3721
  405 624.080 -26.6158 45.9067
  406 892.976 185.619 37.0327
  407 310.291 -16.5838 -88.2935
  408 311.098 -16.5821 87.6863
  409 140.245 73.5773 -108.629
  410 660.793 -2.43224 1.91909
  411 353.221 -2.68000 -18.0875
  412 353.646 -2.62342 17.9520
  413 615.663 -16.3307 35.7351
  414 558.955 -60.4806 33.9582
  415 626.711 -8.43675 6.42939
  416 643.493 32.6290 61.4578
  417 146.421 78.3423 112.761
  418 559.725 -60.1038 -31.5798
  419 577.923 -53.5792 -10.1476
  420 199.543 -3.95807 -55.7243
  421 200.836 -4.09197 55.3752
  422 445.974 -36.3085 -132.919
  423 661.183 -10.0832 49.7601
  424 444.514 -36.7766 131.840
  425 612.138 -34.6112 -28.2079
  426 576.308 39.3137 -26.9246
  427 612.167 -26.7892 27.0836
  428 653.018 -3.41099 -5.00478
  429 21.7964 24.4780 12.8869
  430 137.177 162.115 158.793
  431 593.789 -2.14995 23.1873
  432 507.866 7.42926 11.9045
  433 515.701 8.93859 -16.0902
  434 440.060 -6.77322 -12.1313
  435 440.120 -6.69087 12.0672
  436 603.488 -46.8717 -13.4174
  437 611.947 -12.1262 -50.1685
  438 510.252 10.1243 -4.36637
  439 891.705 213.379 51.5023
  440 131.179 41.7995 -81.7464
  441 143.942 38.3325 86.9252
  442 566.443 -20.3014 -0.0517307
  443 566.246 -20.2697 0.186082
  444 753.292 164.309 -1.51950
  445 460.151 204.049 296.322
  446 717.857 -9.26686 -1.59863
  447 425.066 -21.4475 -46.0604
  448 425.278 -21.3138 45.7181
  449 429.758 -9.03009 18.5721
  450 429.665 -9.09012 -18.7134
  451 572.605 13.1177 -43.5894
  452 663.752 -1.37539 -1.22152
  453 558.504 26.1503 24.6529
  454 694.249 85.6274 51.1279
  455 579.304 -42.9254 -0.957185
  456 626.393 -8.07526 -6.27059
  457 655.450 -3.13431 4.60361
  458 661.741 -1.49119 0.692259
  459 662.181 -1.62928 -0.470275
  460 384.396 -0.541949 4.56544
  461 384.204 -0.550818 -4.60475
  462 631.652 -40.4501 34.1212
  463 577.835 23.1775 42.2353
  464 600.768 2.55748 -54.4702
  465 621.975 -13.6035 20.5490
  466 874.011 161.159 -183.983
  467 624.372 -34.9147 -39.2836
  468 9.18503 12.3385 6.84953
  469 8.99902 12.6624 -3.74818
  470 500.533 -27.7084 21.8057
  471 498.983 -27.3089 -21.4991
  472 763.005 18.7261 102.340
  473 217.299 206.546 -228.012
  474 617.701 -2.07274 17.6946
  475 690.806 -39.6936 -60.9210
  476 381.608 -21.3492 63.8950
  477 746.531 132.661 -31.0815
  478 615.525 -33.6002 32.5230
  479 521.494 -24.4789 -11.9617
  480 521.942 -24.0909 11.9412
  481 546.527 3.10484 -23.9599
  482 380.473 -21.2512 -64.2305
  483 558.925 0.474956 23.9838
  484 528.347 -60.6107 -84.2011
  485 527.069 -60.7025 84.5888
  486 633.901 -4.52410 15.2926
  487 584.732 55.4102 5.10278
  488 579.709 11.8577 204.957
  489 856.732 172.322 -1.06983
  490 594.912 -10.6009 2.29284
  491 594.933 -10.5662 -2.42441
  492 467.225 -7.85776 -7.99310
  493 467.270 -7.79849 7.97082
  494 249.135 10.5335 116.624
  495 618.541 -30.0697 -38.8220
  496 562.591 -12.5109 -0.818816
  497 562.536 -12.4761 0.825593
  498 492.174 -51.7530 68.8047
  499 253.729 14.0505 -119.478
  500 618.324 -50.6310 -15.5223
  501 11.9705 4.99322 2.53136
  502 550.999 29.0260 1.84198
  503 596.717 -7.55532 -0.696025
  504 596.714 -7.64396 0.667742
  505 492.371 -51.6425 -69.3023
  506 691.306 -34.7087 75.5631
  507 690.758 25.1698 51.1345
  508 635.118 -4.98651 -2.93119
  509 616.456 -51.3179 15.8562
  510 402.101 -0.227141 -0.876144
  511 402.209 -0.224080 0.870798
  512 617.068 -23.9368 -42.0593
  513 602.482 44.7247 45.9136
  514 682.595 16.9631 -50.6244
  515 399.637 -0.474294 -2.58385
  516 399.756 -0.466800 2.56962
  517 1159.45 167.801 -148.667
  518 625.796 74.3474 40.1457
  519 635.589 -4.67242 2.58420
  520 579.124 -54.7823 11.5698
  521 493.199 -15.8367 12.3324
  522 493.179 -15.9460 -12.3074
  523 669.314 -41.0368 10.2860
  524 646.559 -13.1499 -53.2779
  525 723.851 141.630 27.3719
  526 605.830 10.5642 56.5520
  527 605.501 -12.2309 5.29629
  528 587.378 -63.1122 -82.1923
  529 613.232 -15.4205 42.0213
  530 1143.76 52.8471 -20.7229
  531 664.069 -50.2967 6.18245
  532 631.201 -4.88558 -0.555478
  533 631.356 -5.14835 0.437545
  534 1155.70 77.4712 72.0894
  535 591.779 -0.0566117 48.1140
  536 813.371 139.927 -2.86364
  537 616.684 -17.2490 -19.6414
  538 293.536 -2.54497 -19.4654
  539 294.329 -2.42025 19.2855
  540 423.946 -39.5099 -92.4969
  541 424.334 -38.8538 91.8595
  542 605.158 -11.7638 -5.27319
  543 660.194 24.2155 -58.9656
  544 580.947 -39.4884 3.20835
  545 628.378 71.9707 -41.5305
  546 627.661 -7.73046 20.5470
  547 777.417 41.8477 -18.8968
  548 541.276 -18.4444 -4.88826
  549 541.136 -18.3967 4.84988
  550 584.805 -27.7406 6.24597
  551 850.267 172.500 -23.8157
  552 618.883 27.1430 58.6600
  553 267.540 68.4587 171.477
  554 589.910 -35.2334 139.128
  555 768.598 43.2215 -154.644
  556 632.479 52.3345 -54.3282
  557 555.974 -48.4781 -120.999
  558 602.954 -66.3222 -28.7147
  559 627.814 -63.9498 -39.8471
  560 85.9021 114.649 -108.283
  561 631.601 -8.59822 -11.9165
  562 941.549 182.427 -56.6762
  563 587.744 -26.6850 -7.45791
  564 592.080 -19.6247 6.20482
  565 591.550 -19.2057 -5.87389
  566 421.574 -2.10989 -5.78418
  567 421.674 -2.08290 5.75369
  568 66.1342 5.98413 -34.9408
  569 69.1853 6.29295 35.7025
  570 314.871 -14.2105 -67.1410
  571 317.097 -14.2947 67.0866
  572 600.335 -32.7672 -16.5320
  573 609.614 -66.6033 30.7182
  574 626.496 -59.8007 -2.56053
  575 520.626 -9.16490 -2.36080
  576 520.605 -9.10880 2.35064
  577 491.034 -51.7827 -103.407
  578 545.798 -45.1663 127.680
  579 479.761 -48.7489 103.900
  580 619.096 -13.8865 -53.7298
  581 399.635 -6.17547 20.5436
  582 399.444 -6.23644 -20.6877
  583 594.634 33.1788 -46.2178
  584 594.114 -1.05913 -21.0359
  585 737.148 158.307 -11.8515
  586 488.828 -7.12808 -2.17350
  587 488.851 -7.08701 2.16525
  588 628.367 -1.99719 -11.5508
  589 443.754 -14.3119 -23.2265
  590 443.788 -14.2715 23.0530
  591 358.664 15.6882 163.252
  592 611.612 -28.4385 -27.3190
  593 347.907 -18.8482 117.573
  594 601.104 -31.3772 17.0253
  595 630.230 -9.46334 13.2668
  596 621.459 -6.39595 -2.49089
  597 449.809 -5.17093 -5.53372
  598 449.877 -5.13205 5.51180
  599 707.773 140.208 -25.0868
  600 347.646 -18.2073 -117.952
  601 599.041 -26.2456 -13.2565
  602 543.724 -10.2447 -1.38961
  603 543.674 -10.1795 1.38468
  604 996.010 133.329 -24.1615
  605 372.961 -2.16709 11.2345
  606 372.662 -2.18724 -11.3246
  607 566.498 13.3640 39.8669
  608 788.398 69.2653 1.28390
  609 381.405 1.73580 -161.847
  610 202.038 4.40065 -89.4708
  611 203.561 3.34615 89.0068
  612 480.704 -27.3285 29.3176
  613 485.357 -28.1359 -28.6215
  614 801.784 162.403 5.75966
  615 619.137 -6.60315 2.17450
  616 544.366 15.8545 -24.1894
  617 669.164 119.398 24.2519
  618 667.080 123.839 -16.1509
  619 548.105 -30.1230 -7.66841
  620 552.040 -29.4864 5.76815
  621 390.717 86.3230 -230.877
  622 476.522 -15.7213 -16.6059
  623 476.576 -15.5532 16.5636
  624 1155.46 237.197 178.833
  625 617.701 -20.4627 45.7482
  626 363.937 -12.2866 -42.9587
  627 932.291 232.084 161.658
  628 364.729 -12.2269 42.8260
  629 584.609 -21.9221 -161.415
  630 428.788 -1.80765 -2.12507
  631 428.879 -1.79239 2.11655
  632 526.891 5.04279 21.1321
  633 247.122 -3.46648 -38.4798
  634 248.312 -3.47669 38.2118
  635 541.303 -37.9170 14.9146
  636 566.003 -45.0994 -7.48102
  637 659.204 -1.70963 -4.34563
  638 390.491 -0.503940 3.43416
  639 390.336 -0.513734 -3.46280
  640 513.406 -11.4181 -3.93480
  641 513.397 -11.3640 3.91353
  642 580.867 -64.8180 82.8602
  643 670.528 74.8085 -53.5002
  644 453.916 -20.4437 -29.8619
  645 453.639 -20.1090 29.6715
  646 531.856 -37.7589 -19.2065
  647 827.673 179.001 9.76434
  648 622.982 -60.5482 5.84174
  649 545.624 -13.1724 -2.73281
  650 545.553 -13.1195 2.72946
  651 741.698 82.1208 36.0107
  652 625.248 -9.45890 -22.3103
  653 561.830 -0.523417 -19.4945
  654 266.028 -9.13118 -84.8032
  655 266.748 -9.35997 84.1761
  656 530.121 -45.2404 -29.1736
  657 788.796 171.545 -0.132200
  658 618.245 83.5302 -18.0887
  659 419.090 -3.45902 -10.4734
  660 419.198 -3.41234 10.4045
  661 572.818 -16.4716 -0.480576
  662 572.924 -16.4773 0.586576
  663 1042.16 135.530 60.0455
  664 666.764 -2.13431 1.04956
  665 648.640 -2.87759 7.67718
  666 646.552 -2.87616 -9.16318
  667 615.975 -57.5620 3.25937
  668 463.909 -5.07627 -2.76151
  669 463.964 -5.04410 2.75182
  670 662.339 105.554 37.6092
  671 840.525 185.959 -16.4739
  672 469.505 -34.1137 -42.2949
  673 469.422 -33.8007 42.1147
  674 579.541 -59.6253 -17.2004
  675 614.957 36.6819 -55.3340
  676 719.220 2.42458 16.8183
  677 488.948 -8.79901 -5.79422
  678 488.974 -8.75010 5.77614
  679 422.917 -36.7252 -83.4682
  680 610.330 -59.2026 2.18720
  681 510.468 -56.5506 75.9047
  682 247.784 77.3511 -165.707
  683 479.464 -43.8822 58.5731
  684 578.774 0.173228 17.8779
  685 423.335 -36.3222 82.9620
  686 598.714 -26.7233 13.4194
  687 479.552 -43.6815 -59.0477
  688 500.179 6.91837 4.45774
  689 387.891 -9.85771 30.7473
  690 387.567 -9.86051 -30.9305
  691 510.623 -58.0087 -76.7128
  692 627.678 -41.6215 -32.9177
  693 576.909 -8.60016 -0.196642
  694 577.000 -8.67730 0.198205
  695 640.709 -41.1493 32.0489
  696 583.710 -60.9800 19.6438
  697 706.915 65.1108 49.4847
  698 639.889 -12.2150 55.4193
  699 615.809 -22.4444 32.9031
  700 594.431 49.1299 -35.0618
  701 707.673 118.573 39.4185
  702 612.368 -8.63802 -33.0348
  703 608.010 -20.5756 15.5592
  704 634.126 98.8062 9.73269
  705 619.494 -10.8158 28.2683
  706 198.821 136.350 174.215
  707 575.709 -66.3720 -49.9596
  708 666.379 12.0084 55.7573
  709 670.979 -20.8817 -37.1329
  710 664.563 -1.21163 2.26558
  711 614.849 -21.5306 -25.3267
  712 576.675 -66.8824 45.8366
  713 1087.81 96.5657 -16.0277
  714 358.531 -1.36505 11.7370
  715 358.142 -1.37909 -11.8322
  716 621.802 -11.8697 -11.1040
  717 668.181 -0.951909 -2.24853
  718 529.267 -45.9878 29.3145
  719 631.666 -23.7599 49.8686
  720 940.206 232.802 -82.9358
  721 598.794 -43.4954 12.6651
  722 660.494 -43.7512 -15.5697
  723 608.201 -20.0535 -15.2967
  724 667.166 -1.50774 -0.593210
  725 618.885 -0.120387 59.0050
  726 30.0286 33.5170 40.2674
  727 686.336 -24.9803 -108.723
  728 750.083 46.0109 18.5716
  729 627.416 -64.3972 36.3315
  730 458.866 -10.5077 13.5138
  731 458.848 -10.6457 -13.5651
  732 568.434 311.259 -310.498
  733 640.888 -42.6897 -29.1222
  734 498.380 3.08267 -8.53254
  735 571.653 3.39122 38.6418
  736 619.937 -31.2914 39.3738
  737 594.192 -50.0754 3.57227
  738 613.518 -56.3123 -89.1126
  739 590.817 -46.7464 -4.89036
  740 691.963 -33.0114 0.460299
  741 638.183 -5.81125 6.34946
  742 574.652 -34.4639 1.19691
  743 1022.34 204.209 -110.936
  744 610.462 -16.8290 12.0888
  745 608.782 10.1182 -58.0007
  746 514.409 -5.36948 180.764
  747 650.048 52.2484 58.3965
  748 559.541 -43.7901 10.2033
  749 437.712 -33.8000 -61.2967
  750 437.794 -33.7235 60.8552
  751 599.279 67.4924 -8.12256
  752 606.096 -7.08477 51.2857
  753 611.418 -14.7051 -43.0990
  754 575.275 -35.1956 -1.34240
  755 556.840 -49.5972 18.6482
  756 638.765 104.779 -10.8557
  757 593.491 -51.3796 -1.24561
  758 595.117 -37.7822 12.6005
  759 601.270 -8.35025 1.64176
  760 601.597 -8.14905 -1.61982
  761 807.834 175.693 -0.0844735
  762 658.370 -56.2353 -26.9127
  763 616.651 -19.2702 25.3312
  764 638.219 -5.81426 -5.69662
  765 649.463 4.22319 -58.4531
  766 733.809 39.7306 -28.9895
  767 377.609 -0.231345 -5.56001
  768 377.846 -0.226722 5.51312
  769 5.98832 -9.42140 -6.44373
  770 629.796 -0.911175 10.6591
  771 583.208 -0.714991 -42.4894
  772 600.090 -5.64645 36.9615
  773 537.166 71.0721 262.019
  774 682.234 138.848 -1.30949
  775 488.624 -34.2340 33.7426
  776 94.4109 1.77712 -34.0143
  777 96.6748 1.28037 34.3589
  778 595.397 -4.19577 -41.9197
  779 489.806 -34.5527 -33.7573
  780 634.565 -6.36695 4.62070
  781 337.581 -13.9289 57.2031
  782 334.879 -13.8722 -57.1809
  783 610.387 -16.3630 -11.7563
  784 402.132 -9.55750 -26.8643
  785 402.328 -9.50149 26.6605
  786 634.604 -6.45863 -15.1734
  787 493.172 -12.7770 -9.89116
  788 493.201 -12.7038 9.89671
  789 691.710 -4.21295 -36.6740
  790 627.177 -6.65225 -58.7327
  791 332.780 -1.94906 -14.8439
  792 333.349 -1.93059 14.6905
  793 21.6490 8.10605 -21.5528
  794 24.3017 8.56929 22.6127
  795 519.672 2.64989 -15.3220
  796 571.697 -64.2165 -38.3725
  797 -6.28301 -4.24230 11.1268
  798 -5.61055 -5.20694 -11.2011
  799 594.324 -12.4369 3.72954
  800 642.759 -50.4662 -13.4578
  801 668.305 98.6550 -43.6902
  802 636.998 -5.76867 -4.41464
  803 1313.80 270.994 -246.498
  804 594.198 -12.4075 -3.67319
  805 887.142 167.359 15.6917
  806 638.078 18.5753 -61.4566
  807 701.006 53.2457 -51.0078
  808 129.544 -1.48394 -31.0946
  809 131.531 -1.65464 31.0479
  810 409.424 -5.49028 16.1134
  811 409.275 -5.53240 -16.2334
  812 394.353 -0.769651 3.05552
  813 394.221 -0.778174 -3.07534
  814 711.017 119.427 -38.8406
  815 432.498 -2.38279 -4.62086
  816 432.586 -2.35654 4.60076
  817 607.895 -6.10329 -53.6150
  818 854.694 95.9708 85.9215
  819 553.514 12.8524 -33.6023
  820 201.312 -1.70427 32.9424
  821 199.870 -1.72077 -33.1735
  822 690.875 22.6988 190.410
  823 621.298 -11.9643 11.4579
  824 565.881 38.0155 -13.9750
  825 271.667 -0.316394 22.2300
  826 270.469 -0.196202 -22.3733
  827 401.003 -1.78540 -7.97221
  828 401.154 -1.75976 7.91177
  829 73.4035 64.6754 58.5617
  830 587.090 14.2931 49.5148
  831 650.229 95.1500 -37.9193
  832 695.445 80.8865 -51.5723
  833 465.569 -16.9400 -21.3381
  834 465.337 -16.8304 21.3276
  835 722.061 152.130 17.1234
  836 618.851 -5.85092 -0.478858
  837 618.902 -5.80934 0.575611
  838 616.107 -18.8224 -33.4919
  839 520.111 -34.1101 21.1021
  840 568.446 -63.8349 38.4121
  841 661.704 -54.1759 59.0865
  842 516.492 -14.7449 -6.63533
  843 516.499 -14.7018 6.60333
  844 591.476 55.0500 22.5995
  845 558.034 8.00356 -36.1967
  846 154.436 195.062 181.062
  847 558.480 -49.1759 -17.3135
  848 560.692 -25.0082 -1.92162
  849 560.983 -25.0795 1.88253
  850 616.588 -9.18670 56.0013
  851 609.254 -40.2329 -22.5808
  852 547.024 -35.8502 -10.6953
  853 1197.25 38.7327 -57.8200
  854 520.798 -48.7411 38.8574
  855 520.341 -49.3470 -39.4215
  856 615.214 -7.53647 28.0185
  857 912.000 238.434 -62.3326
  858 490.371 -43.8632 -47.1560
  859 538.292 -60.3228 46.1202
  860 490.307 -43.3593 46.7825
  861 530.424 -21.0794 -8.00302
  862 530.428 -21.0239 7.96077
  863 83.4716 33.8828 50.6581
  864 660.680 49.3777 -58.5604
  865 510.558 -19.5208 -11.2556
  866 510.661 -19.3388 11.2895
  867 505.137 -8.21357 -1.38927
  868 505.138 -8.16493 1.38233
  869 551.302 -11.1847 -1.13586
  870 551.242 -11.1220 1.12940
  871 455.721 -8.43706 -11.6104
  872 455.771 -8.34895 11.5727
  873 512.080 -26.3784 -16.4035
  874 512.158 -26.2217 16.4770
  875 13.4971 -0.0560910 -8.98799
  876 761.347 143.104 25.4886
  877 655.834 -23.2336 -44.5899
  878 537.766 -59.4325 -46.5346
  879 579.590 -18.9406 2.59487
  880 579.351 -18.7653 -2.45674
  881 632.469 0.680088 60.0522
  882 679.745 -48.3859 -36.4296
  883 598.388 46.5147 -228.372
  884 283.840 -5.28844 114.709
  885 -6.36822 6.61467 -9.23987
  886 -5.12918 7.48696 10.0415
  887 83.0939 36.0221 -51.7827
  888 615.903 -18.1570 19.4464
  889 644.553 -4.72617 -8.06439
  890 581.037 -56.2936 100.996
  891 283.206 -5.04414 -115.119
  892 647.449 -53.3828 7.14212
  893 713.914 -19.1671 90.8446
  894 536.664 2.27630 16.2043
  895 608.045 57.9232 38.2407
  896 335.335 -18.6464 83.6925
  897 334.107 -18.7934 -84.1845
  898 401.333 -18.3983 -47.1044
  899 414.252 -21.0538 -145.461
  900 649.907 -15.4476 51.3799
  901 882.192 211.466 43.2942
  902 653.935 25.0464 59.7223
  903 617.951 -13.5021 -30.7833
  904 422.553 -18.8548 149.025
  905 782.538 145.373 -15.5909
  906 82.6331 69.1173 -71.5769
  907 577.299 -1.05357 -17.0531
  908 401.741 -18.2567 46.7369
  909 485.316 -10.3391 8.61917
  910 485.288 -10.4007 -8.63252
  911 610.088 -40.0112 23.4679
  912 629.334 -4.71019 1.57341
  913 465.923 3.87309 -179.867
  914 661.570 -1.71521 3.79178
  915 657.690 -1.44259 -4.99253
  916 509.043 4.65931 -14.1591
  917 639.044 -2.71694 -9.37605
  918 486.086 -22.0854 -20.2404
  919 486.405 -21.7742 20.3101
  920 -14.4737 6.28686 -8.12360
  921 -20.6654 3.79812 8.87973
  922 629.289 -4.41658 -1.64432
  923 219.607 -5.15200 77.5639
  924 218.455 -4.72563 -77.9627
  925 678.437 98.5677 45.7774
  926 1170.50 21.2992 17.6322
  927 640.497 71.0532 49.4430
  928 713.846 -24.1760 31.8457
  929 627.017 -35.1787 39.2637
  930 778.549 162.685 -12.0072
  931 499.355 2.46007 10.6908
  932 602.611 -14.7081 -6.60668
  933 629.909 33.9451 -59.9690
  934 749.712 24.0157 -2.65935
  935 588.972 -36.4375 -9.05942
  936 315.197 -1.58780 -16.5461
  937 315.453 -1.53046 16.3309
  938 620.083 -15.0020 -23.3644
  939 23.0173 28.4007 8.52781
  940 595.482 -61.7894 -11.8193
  941 528.086 16.2432 -1.45670
  942 774.406 168.780 -7.92874
  943 127.667 94.5693 -115.669
  944 600.096 -4.49508 -33.1169
  945 425.166 -6.61218 -15.1955
  946 425.260 -6.53894 15.0888
  947 4.34458 -16.1523 12.0063
  948 413.193 -30.1022 -67.5736
  949 607.046 -35.3186 -22.1086
  950 393.642 0.859426 -1.29487
  951 393.756 0.862546 1.28808
  952 618.301 74.9655 -30.4396
  953 650.484 -2.49736 -0.755041
  954 650.532 -2.51804 1.02001
  955 413.406 -30.0349 67.1698
  956 616.216 -1.01377 -12.9248
  957 702.613 5.29930 34.7192
  958 624.396 -9.39798 8.66416
  959 107.126 25.5785 -62.6727
  960 645.641 -4.40751 7.24804
  961 594.834 5.02441 52.7269
  962 627.104 86.5690 27.0471
  963 624.736 7.27345 -61.1353
  964 437.552 -22.6910 -40.9323
  965 669.024 -23.9824 35.5779
  966 437.843 -22.6185 40.5685
  967 22.2230 23.3664 -4.83324
  968 80.5639 12.6635 46.0651
  969 362.818 -6.00061 27.6214
  970 362.414 -5.99831 -27.7509
  971 603.043 -14.9545 7.05447
  972 653.627 112.897 14.7126
  973 334.694 29.7478 -171.258
  974 546.114 -33.7638 9.63983
  975 512.868 -53.2410 -56.8071
  976 742.047 141.692 28.3723
  977 572.733 -10.4913 -0.202561
  978 572.706 -10.4425 0.195856
  979 624.590 -12.0590 -16.3512
  980 586.331 50.9380 -20.8332
  981 1257.25 384.128 257.659
  982 129.855 6.59126 -59.2831
  983 131.587 5.45932 59.3849
  984 9.69322 -7.40902 5.54500
  985 587.431 32.9081 42.7661
  986 512.822 -53.5827 56.4314
  987 631.469 -30.0707 -45.4642
  988 686.333 56.0907 56.5438
  989 654.592 -52.8625 -70.8519
  990 951.613 199.724 70.1301
  991 563.058 -9.44701 -0.606489
  992 562.987 -9.37938 0.605675
  993 655.104 -27.0121 41.9347
  994 46.9158 87.4919 84.5776
  995 308.538 -6.12129 39.3795
  996 307.681 -6.04097 -39.7468
  997 363.715 -17.1485 54.1339
  998 362.543 -16.8701 -54.2993
  999 407.911 -16.1594 39.2577
  1000 445.940 -3.20115 -2.03966
  1001 446.014 -3.17932 2.03287
  1002 1048.99 349.548 -226.830
  1003 967.824 243.338 105.767
  1004 407.589 -16.2307 -39.5431
  1005 674.397 -3.25362 46.5453
  1006 610.814 63.4313 -36.7086
  1007 431.808 -37.5409 120.813
  1008 549.851 -65.0662 -67.6278
  1009 627.531 -5.41502 -18.5787
  1010 289.365 18.7455 140.190
  1011 370.901 -28.2127 96.4402
  1012 563.803 29.3827 -26.9394
  1013 635.480 -12.7609 -56.2386
  1014 775.503 346.552 350.994
  1015 535.450 16.8816 19.3138
  1016 715.805 152.453 -2.11026
  1017 520.642 21.3974 -203.829
  1018 535.785 -55.9717 -40.1457
  1019 668.332 -1.05699 -1.80655
  1020 651.623 59.8062 -56.8252
  1021 394.693 -2.25977 10.1315
  1022 394.509 -2.28210 -10.2113
  1023 15.1312 14.5265 -24.2216
  1024 438.342 -19.2826 -34.2410
  1025 370.433 -28.5686 -97.0946
  1026 438.060 -19.2526 33.9145
  1027 621.867 -19.1226 52.0569
  1028 559.129 -34.3468 -4.93369
  1029 590.501 11.1036 -51.2198
  1030 608.022 75.8721 10.7258
  1031 802.902 53.2752 40.1134
  1032 614.474 -46.8733 21.6604
  1033 396.890 -31.1471 -73.9308
  1034 586.245 21.0822 -48.1380
  1035 435.234 -37.0770 -121.354
  1036 824.930 176.948 -5.11028
  1037 571.851 37.9507 24.5079
  1038 707.185 -3.69799 -24.5112
  1039 539.056 -56.0257 37.3951
  1040 615.822 -19.7871 39.7667
  1041 610.979 -32.4892 26.8947
  1042 607.606 -30.8016 22.9076
  1043 746.223 95.7672 -37.3834
  1044 609.145 -9.96995 41.2879
  1045 549.122 -65.2452 66.5830
  1046 586.053 -24.1822 5.69344
  1047 397.146 -31.2196 73.5825
  1048 552.261 -40.3017 -11.4877
  1049 327.580 -16.1311 -103.094
  1050 460.796 -47.5697 82.5422
  1051 619.016 -4.43550 -21.8199
  1052 605.061 -6.87811 -47.3342
  1053 525.292 -40.9849 -25.4369
  1054 328.117 -16.5546 102.369
  1055 568.924 1.57815 -33.5726
  1056 426.170 -27.5035 -52.6876
  1057 755.909 159.577 17.1123
  1058 176.166 27.7424 -99.9962
  1059 1244.85 87.7375 117.403
  1060 308.957 21.7981 -146.407
  1061 607.145 -50.4221 -11.0974
  1062 426.309 -27.2856 52.3094
  1063 563.612 6.31901 37.7361
  1064 324.786 -6.22756 32.6280
  1065 324.659 -6.37822 -32.9280
  1066 616.433 -17.3068 -48.4058
  1067 648.095 -3.82053 2.64150
  1068 639.514 -1.64825 9.42185
  1069 636.108 21.0350 61.4499
  1070 597.493 -4.48248 44.6870
  1071 458.735 49.8433 220.069
  1072 672.086 -0.738267 0.789624
  1073 642.420 86.7234 39.3021
  1074 550.097 8.35867 32.6513
  1075 646.313 -2.68905 8.95717
  1076 429.439 -4.19009 -8.62524
  1077 429.527 -4.14416 8.58033
  1078 277.617 -7.55779 -54.5623
  1079 278.579 -7.83305 54.2456
  1080 551.958 28.0521 13.7491
  1081 804.004 47.7892 -69.4125
  1082 739.149 2.38253 -120.672
  1083 603.173 -0.615450 -13.5289
  1084 460.886 -47.9134 -83.1249
  1085 526.407 -38.9890 23.0901
  1086 606.297 -1.45638 14.0995
  1087 630.363 -46.0227 -26.0573
  1088 408.168 -0.722569 5.04703
  1089 408.053 -0.736853 -5.07274
  1090 606.020 -51.8646 11.0767
  1091 577.039 -12.1939 0.283658
  1092 576.942 -12.2099 -0.254239
  1093 562.077 -56.3590 25.6164
  1094 715.251 -22.4844 -16.2923
  1095 341.770 -0.537974 -9.26665
  1096 342.266 -0.519179 9.18131
  1097 492.750 -31.8028 -139.084
  1098 528.110 -12.5373 3.96461
  1099 528.149 -12.5954 -3.98950
  1100 316.709 175.099 241.922
  1101 722.323 59.9563 -43.7865
  1102 112.621 53.2592 -77.5720
  1103 624.633 -9.87893 -8.34900
  1104 173.906 57.9019 -114.846
  1105 358.258 -21.9791 -69.9589
  1106 671.734 -1.02615 0.573016
  1107 671.932 -0.980656 -0.406094
  1108 617.138 -35.4763 -33.2247
  1109 546.140 -61.6392 -91.3205
  1110 176.337 23.6217 95.2817
  1111 672.155 66.4357 54.4768
  1112 607.273 -6.79125 -0.614588
  1113 607.354 -6.79227 0.665663
  1114 658.268 -41.5827 111.293
  1115 690.170 136.953 20.5626
  1116 419.323 -9.52860 -21.5624
  1117 419.438 -9.49033 21.4350
  1118 314.494 35.0773 173.047
  1119 588.926 3.18591 -49.4637
  1120 189.097 59.5568 123.039
  1121 740.146 -11.1307 -43.8128
  1122 737.712 161.031 5.77118
  1123 511.025 -39.7761 30.0255
  1124 482.626 2.88885 -2.08823
  1125 639.860 -6.02746 11.0928
  1126 660.226 -1.08586 4.28813
  1127 158.213 0.200438 -27.6710
  1128 160.025 0.134200 27.5019
  1129 534.636 9.40991 -24.2700
  1130 543.476 -15.9452 -3.77460
  1131 543.369 -15.8853 3.75920
  1132 58.7130 104.773 -90.2683
  1133 91.4477 216.483 -174.223
  1134 549.897 -21.3941 3.97297
  1135 550.082 -21.3755 -4.01166
  1136 566.850 -13.9014 0.0764317
  1137 566.773 -13.8819 -0.0381929
  1138 153.146 97.2158 124.611
  1139 456.005 -5.26962 -4.29309
  1140 456.069 -5.23541 4.27729
  1141 569.235 43.4306 -0.544860
  1142 699.779 97.8169 -252.935
  1143 686.438 117.772 -35.3266
  1144 625.050 -24.1938 -48.7254
  1145 615.402 -30.9544 -34.1440
  1146 511.233 -40.1285 -30.4919
  1147 521.884 1.88693 14.9785
  1148 580.662 36.5656 -35.7972
  1149 573.205 31.2126 34.2861
  1150 585.690 -23.5060 -5.55994
  1151 560.486 -33.6803 4.49101
  1152 512.354 -32.4864 -22.9945
  1153 607.120 -3.67220 26.2180
  1154 1045.16 105.134 14.4925
  1155 610.712 -13.1415 47.6690
  1156 614.748 40.4262 53.1979
  1157 564.635 -55.3023 -20.4021
  1158 76.8096 11.5982 -44.5071
  1159 575.203 -26.6918 -2.87264
  1160 396.325 -0.465414 -0.286267
  1161 396.432 -0.463173 0.284108
  1162 694.715 -18.3898 19.9784
  1163 661.727 -55.8577 31.0118
  1164 945.258 168.003 43.2625
  1165 242.181 -0.368021 -22.8216
  1166 243.424 -0.318373 22.6710
  1167 517.654 -10.3766 -3.01303
  1168 517.638 -10.3209 2.99641
  1169 576.711 -50.7213 -6.29418
  1170 486.575 2.42583 6.85811
  1171 590.203 -42.0456 8.05567
  1172 35.9492 42.6675 -23.3325
  1173 111.285 54.0675 75.7591
  1174 398.841 -22.3153 134.293
  1175 684.511 129.415 -25.2849
  1176 648.480 -1.94815 -7.09639
  1177 674.365 -1.23270 0.320862
  1178 674.918 -1.61703 -0.167486
  1179 410.444 -0.749053 -0.876324
  1180 410.548 -0.742583 0.871351
  1181 631.190 40.3279 59.9808
  1182 919.601 155.392 -3.34178
  1183 651.274 107.075 -26.4055
  1184 485.283 -36.2455 138.222
  1185 396.751 -21.5353 -134.015
  1186 443.670 -28.9215 -47.5262
  1187 603.557 -17.3080 9.33372
  1188 836.730 185.832 15.6192
  1189 443.739 -28.7663 47.1986
  1190 615.483 -11.3288 7.05830
  1191 559.393 21.2264 32.7975
  1192 611.145 19.0655 57.9556
  1193 858.978 191.359 26.7510
  1194 518.516 -13.3572 5.54156
  1195 518.531 -13.4108 -5.57117
  1196 623.932 -12.2195 17.0170
  1197 383.475 -3.77725 15.7601
  1198 383.219 -3.81362 -15.8822
  1199 609.853 -8.89379 -2.76857
  1200 254.193 153.137 -235.148
  1201 528.318 -30.0738 -148.110
  1202 505.220 -15.4798 -9.54175
  1203 505.280 -15.4203 9.54603
  1204 650.324 -3.54997 2.49029
  1205 618.687 -8.71022 5.59941
  1206 36.1428 47.2719 35.8215
  1207 668.557 -0.939899 2.13900
  1208 83.4198 108.665 107.702
  1209 605.185 -9.62009 -3.64321
  1210 -0.435762 -14.4007 -12.6919
  1211 433.250 -42.3684 -104.214
  1212 432.169 -41.3605 103.230
  1213 668.522 -1.34807 -2.40087
  1214 578.686 -30.5680 -3.73253
  1215 650.007 -3.29332 -2.46836
  1216 528.983 -16.9457 -5.87623
  1217 528.946 -16.8967 5.83003
  1218 609.480 -8.84144 2.56531
  1219 574.803 -26.1568 2.84356
  1220 554.323 -17.8991 2.15904
  1221 554.499 -17.9340 -2.10269
  1222 649.327 -3.38858 -1.98981
  1223 563.942 -59.7591 -102.618
  1224 636.503 -4.54928 -1.94321
  1225 607.605 -9.86372 4.02066
  1226 435.884 -4.37625 -6.50058
  1227 435.967 -4.33553 6.47048
  1228 482.331 -6.82618 -3.56664
  1229 482.365 -6.78500 3.55296
  1230 765.039 120.230 29.8314
  1231 644.114 -49.8388 17.3544
  1232 444.456 -2.49347 170.186
  1233 369.322 -0.487527 6.06103
  1234 369.030 -0.493384 -6.11270
  1235 613.724 -11.5289 35.4969
  1236 586.065 -9.37261 0.338943
  1237 586.080 -9.34595 -0.338905
  1238 674.261 130.151 11.9260
  1239 611.304 -64.2617 82.9429
  1240 368.182 -4.85287 21.9203
  1241 367.847 -4.88587 -22.0584
  1242 585.518 -14.6625 2.51339
  1243 585.387 -14.7695 -2.39571
  1244 603.217 -17.1201 -8.93503
  1245 562.748 0.172556 17.3476
  1246 947.115 235.939 -83.6806
  1247 615.185 -22.8212 -30.2874
  1248 111.739 25.2889 64.2924
  1249 634.844 -34.1074 41.7426
  1250 521.615 11.9123 -13.2992
  1251 42.9133 29.6399 25.0379
  1252 825.739 96.3448 -18.3482
  1253 620.903 -28.4511 -42.9841
  1254 523.877 7.86892 20.4012
  1255 360.642 -22.0278 69.8965
  1256 629.274 -48.9719 22.6234
  1257 900.036 180.603 67.4065
  1258 218.039 31.0561 120.639
  1259 631.440 -8.00368 -14.7372
  1260 1179.27 13.4335 -11.6013
  1261 1215.80 18.0603 51.2501
  1262 1294.04 42.9481 -122.565
  1263 615.106 -19.4657 -38.6066
  1264 614.402 -28.3182 31.8803
  1265 623.510 -44.6311 28.3156
  1266 -18.1632 2.35851 11.3103
  1267 -16.4432 1.96717 -12.4122
  1268 605.702 -67.2241 -41.5857
  1269 619.252 -62.9181 -59.9608
  1270 489.703 3.33948 -8.44623
  1271 602.887 -68.3628 59.5105
  1272 645.300 -30.8417 -42.1636
  1273 15.0608 20.3169 4.42189
  1274 529.563 -9.71138 1.82022
  1275 529.594 -9.77172 -1.82494
  1276 639.147 -5.61428 9.82952
  1277 615.391 -11.1422 -6.57094
  1278 581.416 -63.4394 -24.0217
  1279 534.496 -28.5613 11.2844
  1280 531.941 -28.1419 -11.9575
  1281 622.561 -13.5490 24.1108
  1282 638.323 -23.6652 -49.7843
  1283 44.4705 30.9009 -24.5542
</Section>

newXOutput 86

<Section columns = "stress_xx | stress_yy | stress_xy">
  1 685.354 -0.355750 1.21593
  2 685.342 -0.340111 -1.21834
  3 395.356 -0.0607809 -0.436827
  4 -4.91451 -4.83769 -7.07153
  5 1189.05 502.590 390.553
  6 1178.43 519.543 -386.831
  7 -5.71593 -4.57529 7.55471
  8 395.248 -0.0619961 0.435886
  9 689.697 -1.24326 0.334742
  10 688.502 -1.92518 -0.423923
  11 687.368 -1.37588 1.31253
  12 686.190 -1.81346 0.215539
  13 683.606 -1.56017 2.06094
  14 681.216 -1.55880 1.41042
  15 675.230 -1.36902 3.00535
  16 666.305 -1.08699 4.46581
  17 658.436 -1.08251 5.05739
  18 646.440 -1.37947 6.20594
  19 629.423 -0.229013 9.29617
  20 613.713 -1.00985 8.94129
  21 595.360 -1.23329 12.7347
  22 568.902 0.856384 11.1827
  23 549.392 1.40722 13.3101
  24 523.899 2.30200 10.4960
  25 506.105 2.58616 10.6213
  26 480.348 3.46490 5.43872
  27 474.847 5.42953 5.86159
  28 471.501 4.54156 -1.74358
  29 475.987 2.78664 -3.77893
  30 484.285 2.59630 -4.64818
  31 503.600 3.19008 -9.24938
  32 522.373 2.52486 -11.6213
  33 549.597 0.676852 -13.7309
  34 571.319 -0.232325 -12.3795
  35 594.212 -0.970920 -12.0470
  36 614.802 -0.799835 -8.43646
  37 632.241 -0.875913 -7.13322
  38 646.423 -1.36077 -5.90846
  39 658.953 -1.02236 -4.00785
  40 666.551 -1.26397 -4.20292
  41 673.906 -1.46707 -3.04869
  42 680.677 -1.70623 -1.20390
  43 684.086 -1.39862 -1.50817
  44 685.670 -0.944988 -0.886121
  45 683.895 -0.652305 -0.813434
  46 689.093 -1.91226 0.315760
  47 689.858 -1.28312 -0.344407
  48 669.617 -0.932031 -0.754279
  49 656.117 -3.33755 -1.44717
  50 639.416 -4.77464 -0.816158
  51 618.913 -6.78661 -1.15356
  52 599.296 -7.32937 -1.36826
  53 578.228 -8.86658 -1.32503
  54 559.462 -9.68207 -0.637410
  55 542.993 -10.5840 -0.114510
  56 523.944 -8.71463 -0.0844701
  57 501.976 -8.01619 -0.322876
  58 480.842 -6.20760 0.0391457
  59 460.861 -3.83642 0.0917417
  60 441.927 -2.64680 0.152880
  61 425.407 -1.24420 0.271833
  62 408.635 -0.247002 -0.488895
  63 395.479 0.574772 0.755045
  64 389.458 1.43840 0.556609
  65 393.153 0.0635084 1.23117
  66 388.239 -0.127835 1.50721
  67 383.503 -0.221219 1.87178
  68 377.176 0.0334794 2.39145
  69 369.218 0.0248150 2.97823
  70 363.007 -0.354164 5.59496
  71 346.514 0.500793 6.08092
  72 334.694 0.00826024 6.88075
  73 317.104 -0.248723 7.82894
  74 296.935 -0.447496 9.50469
  75 271.681 -0.0674937 11.5447
  76 240.904 0.170234 12.7853
  77 213.829 -0.194657 18.3063
  78 161.192 1.64542 17.4002
  79 124.732 1.41457 18.4505
  80 80.4869 -0.408185 20.6469
  81 43.1832 3.23669 21.7183
  82 0.425851 4.96235 13.5255
  83 -31.3561 5.07144 5.38250
  84 -32.1300 5.03110 -0.885878
  85 -32.2231 4.24287 -9.43057
  86 -19.1261 -1.13324 -9.20082
  87 -2.18581 -18.3569 -10.2153
  88 2.06736 -33.4571 -12.4832
  89 5.36154 -51.2695 -6.07585
  90 11.6757 -49.3689 2.51772
  91 24.3532 -1.47257 34.5007
  92 70.7740 126.495 110.237
  93 396.140 403.285 352.691
  94 1445.50 219.109 238.115
  95 1310.05 31.1358 76.6146
  96 1224.44 13.1485 23.4475
  97 1192.95 11.2918 1.73456
  98 1210.07 14.8652 -20.4940
  99 1308.06 29.2992 -60.7495
  100 1523.54 105.693 -202.930
  101 237.234 416.754 -296.974
  102 52.9145 98.3419 -92.4939
  103 26.7071 1.20867 -37.2978
  104 10.9771 -48.7363 -8.04827
  105 3.37481 -38.4663 6.85920
  106 4.04191 -42.3095 10.7261
  107 0.283726 -15.7537 11.3308
  108 -19.9961 -0.635954 8.67695
  109 -33.2340 3.18706 8.17253
  110 -33.8833 6.09621 1.05409
  111 -32.3201 4.97129 -5.06619
  112 -1.90164 5.08493 -12.7299
  113 41.1772 3.26354 -20.7408
  114 78.4489 -0.0557430 -20.3113
  115 122.615 1.52749 -18.4812
  116 159.270 1.68598 -17.5210
  117 212.341 -0.202179 -18.4453
  118 239.635 0.186286 -12.8976
  119 270.570 -0.0643265 -11.6784
  120 296.377 -0.501045 -9.56502
  121 316.327 -0.232442 -7.84361
  122 334.100 0.0291187 -6.94471
  123 346.024 0.495485 -6.13965
  124 362.648 -0.358092 -5.64461
  125 368.924 0.0222543 -3.00845
  126 376.946 0.0310002 -2.41618
  127 383.321 -0.225363 -1.89126
  128 388.092 -0.131393 -1.52072
  129 393.026 0.0605459 -1.23970
  130 389.342 1.43717 -0.560494
  131 395.369 0.574113 -0.757519
  132 408.529 -0.250291 0.487779
  133 425.309 -1.25250 -0.274754
  134 441.841 -2.66485 -0.156264
  135 460.795 -3.86145 -0.0949705
  136 480.800 -6.24379 -0.0424249
  137 501.962 -8.06235 0.320225
  138 523.961 -8.76849 0.0815270
  139 543.035 -10.6452 0.112991
  140 559.521 -9.74357 0.639296
  141 578.316 -8.92255 1.33138
  142 599.377 -7.36738 1.39109
  143 618.980 -6.82067 1.26529
  144 639.535 -4.54765 0.833675
  145 656.561 -3.26266 1.41441
  146 669.749 -1.03695 0.741880
  147 606.205 -57.0177 1.42202
  148 605.656 -56.2386 -1.21179
  149 640.946 91.7786 -28.4846
  150 678.059 39.9134 58.8078
  151 514.276 -49.9679 -116.886
  152 518.552 -49.8589 113.305
  153 505.285 -20.9196 15.5249
  154 505.309 -21.1949 -15.5284
  155 715.474 26.2126 -41.8357
  156 604.657 -22.0986 9.91436
  157 604.392 -21.5910 -9.80064
  158 781.131 172.384 5.33497
  159 621.781 -0.958856 -58.9113
  160 464.637 -35.8035 -52.8426
  161 464.693 -35.5230 52.4287
  162 622.061 -14.2240 52.5503
  163 595.691 43.7523 35.8148
  164 249.520 38.7456 -139.774
  165 275.501 36.8155 147.091
  166 751.201 9.93036 -2.98407
  167 622.203 -24.1429 -35.2550
  168 819.223 179.859 3.73655
  169 562.417 -15.9931 -1.81010
  170 562.310 -15.9560 1.85018
  171 626.295 -8.22175 -4.21610
  172 628.052 -7.46436 3.60198
  173 450.454 -6.02938 -8.75253
  174 450.522 -5.97064 8.71671
  175 666.764 -15.8912 148.814
  176 577.885 24.3865 -38.6644
  177 380.835 -28.1539 -83.3520
  178 381.937 -27.9554 82.8717
  179 429.175 -13.4269 -27.6634
  180 429.229 -13.2811 27.4889
  181 624.919 -16.7471 30.0234
  182 569.747 -38.8950 -5.22273
  183 567.873 -38.6064 6.04354
  184 642.743 -62.5289 -17.2732
  185 646.257 -59.5733 9.38721
  186 883.933 208.840 -37.9969
  187 653.065 104.279 26.5149
  188 651.853 40.0540 -60.1993
  189 663.542 -3.39075 -171.697
  190 644.176 -36.6527 -39.4612
  191 649.854 -26.2645 47.5101
  192 543.866 -61.6309 59.2961
  193 543.894 -61.1725 -59.1450
  194 586.402 7.70662 46.2108
  195 273.806 -7.12215 -102.441
  196 274.409 -7.65201 101.873
  197 990.462 147.364 21.8558
  198 610.996 -36.5811 19.9929
  199 632.297 -12.0679 -19.0853
  200 508.506 -12.1550 -7.38950
  201 508.526 -12.1027 7.37169
  202 611.185 -8.01981 -40.7571
  203 693.651 101.603 -46.9534
  204 586.916 53.0175 -7.15047
  205 388.209 -13.1265 38.3571
  206 387.655 -13.1597 -38.6050
  207 639.986 -7.66143 9.94793
  208 628.913 11.8673 60.7157
  209 513.861 -36.7624 -27.1819
  210 510.706 -34.7904 27.6341
  211 736.472 109.463 40.6513
  212 855.425 123.026 31.0380
  213 63.1892 47.9084 -42.3694
  214 58.5803 44.2805 36.2010
  215 358.424 104.231 242.084
  216 605.032 -40.3132 -14.1738
  217 641.983 -7.34790 -8.96524
  218 580.339 5.37809 -42.5987
  219 414.933 -3.75731 -12.3400
  220 415.070 -3.71648 12.2491
  221 547.587 -25.4489 -7.67535
  222 547.846 -25.6223 7.37445
  223 615.786 -8.41574 34.4706
  224 700.261 -40.2667 23.4583
  225 704.201 142.571 -13.2969
  226 552.316 -52.9704 -29.9918
  227 692.501 -12.1000 34.2080
  228 592.892 -10.4463 1.01076
  229 592.889 -10.3699 -1.01018
  230 548.547 -52.7277 30.9195
  231 625.561 -39.9420 31.5633
  232 863.808 118.954 -66.8054
  233 199.556 118.658 -178.709
  234 540.700 19.5165 9.34664
  235 632.388 55.7353 51.3410
  236 668.582 -4.79667 -51.6257
  237 626.577 -22.7450 -48.5186
  238 345.045 -10.6221 -47.6754
  239 346.146 -10.4689 47.5600
  240 627.108 -7.85604 -26.2081
  241 597.162 -15.5244 4.60122
  242 596.888 -15.5156 -4.39166
  243 133.567 11.3971 -66.8725
  244 135.424 9.97857 66.6210
  245 660.219 -57.9757 -57.6491
  246 652.419 -2.92741 1.12802
  247 653.012 -2.97661 -1.30156
  248 618.627 51.4074 -47.2362
  249 550.320 11.0585 28.1440
  250 1103.16 176.588 119.094
  251 1093.11 124.499 -73.8283
  252 809.556 172.663 1.07762
  253 506.319 -24.8216 154.325
  254 465.996 -16.6113 -161.094
  255 537.616 -11.0400 -3.02248
  256 537.575 -10.9793 3.00583
  257 452.548 -11.5447 17.4000
  258 452.527 -11.6955 -17.5295
  259 640.235 -7.35047 15.5815
  260 622.921 -44.5679 -24.9097
  261 418.046 -0.572833 -2.96251
  262 418.152 -0.561437 2.94784
  263 615.208 -25.2556 -20.2334
  264 272.063 -8.66993 -66.4625
  265 273.110 -8.69551 66.0355
  266 623.475 -27.2891 38.0656
  267 479.205 -50.8702 94.1667
  268 480.294 -51.7742 -93.8701
  269 547.866 21.5197 -13.1040
  270 473.047 -6.88306 -5.92760
  271 473.098 -6.84126 5.90930
  272 589.952 -1.33790 33.8722
  273 700.000 127.296 32.3200
  274 387.073 -4.35141 20.5129
  275 386.795 -4.38513 -20.6637
  276 638.459 -53.6355 15.0005
  277 590.985 -66.6363 -65.8113
  278 655.301 -3.72037 4.44091
  279 466.554 -26.8493 -36.4645
  280 465.838 -26.5640 36.3504
  281 792.965 93.8708 216.023
  282 390.077 -31.6690 111.543
  283 625.177 87.5570 -3.00853
  284 776.936 87.9539 -21.7205
  285 591.548 -45.6972 2.67712
  286 591.646 -68.4228 59.8270
  287 391.133 -31.1846 -112.686
  288 74.8976 92.7983 86.3087
  289 615.316 -25.3270 20.6307
  290 799.270 106.909 14.3283
  291 659.881 -3.33045 -3.85359
  292 608.149 21.5231 -54.4107
  293 595.969 -33.8084 9.14062
  294 583.940 -49.1594 6.18591
  295 606.280 28.0245 52.5361
  296 635.572 -53.6156 -12.8406
  297 894.323 172.238 -17.3514
  298 595.816 -32.5147 -8.70456
  299 484.768 145.367 -293.196
  300 607.650 -64.5549 -17.4449
  301 603.506 -66.3400 24.2233
  302 450.104 -40.2053 -73.7887
  303 414.128 -1.34666 -6.37785
  304 414.252 -1.32276 6.33666
  305 450.340 -40.2518 73.4290
  306 644.736 -1.13738 -60.0651
  307 690.766 -28.6205 -20.0875
  308 533.346 -31.6374 -15.7317
  309 533.068 -31.7136 15.9917
  310 628.109 -54.0861 102.760
  311 631.887 -5.33628 19.8147
  312 757.677 6.09178 43.1643
  313 523.670 -18.1613 -8.93708
  314 523.716 -18.1131 8.89907
  315 480.533 -12.0243 -11.8692
  316 480.551 -11.9207 11.8577
  317 545.146 7.68547 -27.1989
  318 686.011 50.3923 -56.6776
  319 1041.01 283.544 -139.519
  320 622.481 -6.17246 -1.30592
  321 622.173 -6.09614 1.35573
  322 340.788 -1.52397 139.262
  323 477.434 -20.9654 -24.6974
  324 476.624 -20.9131 24.7663
  325 340.719 -2.36504 -138.726
  326 657.115 77.3994 -49.3893
  327 727.921 36.6623 38.9837
  328 627.624 -44.7275 -113.470
  329 583.151 -22.6831 2.79867
  330 582.598 -22.5378 -2.56756
  331 619.612 -13.4204 -9.18164
  332 590.292 -1.02306 -31.6511
  333 655.868 2.64343 58.3259
  334 650.496 -4.99619 -10.6146
  335 402.785 -23.7138 56.0428
  336 402.348 -23.8337 -56.4226
  337 613.446 -1.30821 56.1426
  338 390.114 -2.86607 -12.2881
  339 390.353 -2.84021 12.1930
  340 624.474 -14.8679 15.3203
  341 750.246 152.378 -21.6135
  342 619.387 -13.5016 9.57315
  343 664.127 83.0885 49.3879
  344 634.374 -11.9528 57.1901
  345 508.077 -9.31114 2.85426
  346 508.071 -9.36066 -2.86846
  347 603.546 -2.05482 -49.9240
  348 790.532 165.616 10.7949
  349 663.736 120.731 1.01480
  350 405.300 46.7525 -205.325
  351 46.8445 18.5815 -30.6646
  352 50.8284 20.1392 32.7517
  353 -0.721463 5.45699 11.0189
  354 1.51292 3.53535 -11.6238
  355 1125.07 78.2088 26.2173
  356 549.268 -44.1473 -18.9523
  357 624.856 -14.4021 -14.9276
  358 567.147 -10.3046 0.0464669
  359 567.084 -10.2325 -0.0517167
  360 610.822 67.5236 -25.6230
  361 519.579 -52.4452 48.8876
  362 48.2504 72.5961 -55.1003
  363 519.966 -52.4065 -49.6720
  364 618.310 70.3348 27.2491
  365 624.776 -17.0425 -28.4644
  366 660.669 -37.1442 -32.0682
  367 708.879 148.080 9.09111
  368 661.811 -41.6651 25.1508
  369 287.532 -6.78659 44.3803
  370 285.990 -6.65195 -44.6206
  371 165.732 3.62350 -62.6725
  372 167.230 3.02323 62.4112
  373 552.912 2.25218 27.4214
  374 1009.99 301.268 125.553
  375 643.982 -4.46202 -13.9033
  376 507.642 -42.1486 -37.7540
  377 507.305 -42.0702 37.7090
  378 622.131 -14.6226 -36.9418
  379 701.505 -33.8516 -3.11601
  380 549.249 -44.1196 19.4250
  381 764.278 8.25789 -72.0670
  382 450.442 -3.28726 -2.46161
  383 450.519 -3.26125 2.44914
  384 613.730 -3.70335 -24.0239
  385 342.776 -4.60166 -28.8385
  386 342.953 -4.75826 28.5190
  387 727.824 93.3636 -45.9149
  388 396.605 27.6610 191.341
  389 573.267 -30.0182 -0.814959
  390 573.810 -29.9753 0.796230
  391 674.722 113.476 -30.8784
  392 636.323 -19.0429 -53.7099
  393 633.602 -65.0515 59.0338
  394 535.831 -14.1360 -4.84618
  395 535.783 -14.0806 4.81274
  396 613.124 -47.4353 15.0797
  397 655.973 -3.51894 7.79694
  398 422.426 -14.6846 -34.3599
  399 422.598 -14.6954 34.1065
  400 626.225 21.1434 -60.0290
  401 588.400 -13.2247 1.42245
  402 588.367 -13.2618 -1.35788
  403 611.412 -7.31167 45.4490
  404 575.602 42.3821 12.4870
  405 630.972 -26.9157 46.2557
  406 902.611 187.593 37.5209
  407 313.940 -16.7757 -89.3246
  408 314.754 -16.7738 88.7120
  409 141.934 74.4250 -109.982
  410 667.903 -2.46986 1.92472
  411 357.462 -2.70424 -18.2949
  412 357.891 -2.64714 18.1584
  413 622.473 -16.5179 36.0127
  414 565.149 -61.1462 34.4412
  415 633.548 -8.54423 6.45170
  416 650.632 32.9918 61.9759
  417 148.169 79.2448 114.153
  418 565.927 -60.7642 -32.0365
  419 584.315 -54.1682 -10.3784
  420 202.027 -4.00601 -56.3813
  421 203.330 -4.14118 56.0290
  422 450.959 -36.7306 -134.477
  423 668.442 -10.1974 50.1198
  424 449.488 -37.2022 133.388
  425 618.891 -34.9986 -28.3813
  426 582.848 39.7718 -27.1699
  427 618.918 -27.0928 27.2591
  428 660.084 -3.45947 -5.02961
  429 22.0824 24.8290 13.1195
  430 138.777 164.108 160.723
  431 600.447 -2.17332 23.3869
  432 513.791 7.52788 12.0171
  433 521.694 9.05451 -16.2410
  434 445.179 -6.83902 -12.2852
  435 445.240 -6.75598 12.2205
  436 610.143 -47.3908 -13.4285
  437 618.748 -12.2639 -50.5873
  438 516.197 10.2564 -4.40717
  439 901.304 215.705 52.2419
  440 132.789 42.2697 -82.7740
  441 145.692 38.7630 88.0077
  442 572.734 -20.5288 -0.116333
  443 572.535 -20.4973 0.251765
  444 761.606 166.071 -1.52113
  445 464.968 206.552 299.640
  446 725.617 -9.34436 -1.40492
  447 429.973 -21.6763 -46.6051
  448 430.187 -21.5416 46.2599
  449 434.765 -9.12066 18.8001
  450 434.671 -9.18112 -18.9425
  451 579.095 13.2772 -43.9857
  452 670.883 -1.39995 -1.22345
  453 564.879 26.4626 24.8813
  454 701.897 86.5719 51.5101
  455 585.719 -43.3985 -0.857226
  456 633.226 -8.17912 -6.29309
  457 662.536 -3.17976 4.62627
  458 668.848 -1.51810 0.693157
  459 669.291 -1.65786 -0.469614
  460 389.006 -0.544803 4.62140
  461 388.813 -0.553743 -4.66100
  462 638.597 -40.9018 34.3307
  463 584.378 23.4503 42.6197
  464 607.493 2.58981 -54.9472
  465 628.810 -13.7647 20.6864
  466 883.060 163.185 -186.213
  467 631.255 -35.3055 -39.5578
  468 9.36633 12.4875 6.97596
  469 9.17485 12.8184 -3.84012
  470 506.194 -28.0051 22.1050
  471 504.629 -27.6006 -21.7933
  472 771.096 19.0424 103.662
  473 219.696 209.044 -230.646
  474 624.546 -2.10032 17.8388
  475 698.236 -40.1059 -61.7691
  476 386.047 -21.5816 64.6377
  477 754.712 134.123 -31.2312
  478 622.314 -33.9772 32.7392
  479 527.361 -24.7425 -12.1509
  480 527.813 -24.3508 12.1303
  481 552.790 3.14513 -24.1790
  482 384.901 -21.4821 -64.9756
  483 565.295 0.485900 24.2005
  484 534.199 -61.2871 -85.2290
  485 532.908 -61.3799 85.6236
  486 640.857 -4.58132 15.4063
  487 591.359 56.0460 5.14979
  488 585.939 12.0341 207.313
  489 866.037 174.146 -1.08093
  490 601.457 -10.7306 2.28075
  491 601.478 -10.6956 -2.41369
  492 472.600 -7.93691 -8.10128
  493 472.646 -7.87721 8.07888
  494 252.062 10.6338 118.018
  495 625.370 -30.4079 -39.1037
  496 568.843 -12.6556 -0.859575
  497 568.787 -12.6206 0.866299
  498 497.695 -52.3247 69.6413
  499 256.704 14.1879 -120.903
  500 625.124 -51.1933 -15.5402
  501 12.1352 5.11701 2.50046
  502 557.311 29.3732 1.86015
  503 603.274 -7.65317 -0.690035
  504 603.271 -7.74262 0.661451
  505 497.892 -52.2126 -70.1441
  506 698.736 -35.0586 76.5654
  507 698.317 25.4500 51.4928
  508 642.015 -5.05640 -2.93625
  509 623.236 -51.8871 15.8783
  510 406.906 -0.226020 -0.888231
  511 407.015 -0.222937 0.882853
  512 623.890 -24.2068 -42.3824
  513 609.258 45.2324 46.3237
  514 690.073 17.1538 -50.9825
  515 404.411 -0.476073 -2.61588
  516 404.533 -0.468522 2.60156
  517 1171.40 169.540 -150.168
  518 632.806 75.1774 40.4965
  519 642.488 -4.73949 2.58780
  520 585.528 -55.3851 11.8169
  521 498.806 -16.0042 12.5079
  522 498.785 -16.1144 -12.4827
  523 676.601 -41.4889 10.2123
  524 653.679 -13.2989 -53.6860
  525 731.843 143.172 27.5424
  526 612.609 10.6867 57.0488
  527 612.149 -12.3788 5.30041
  528 593.799 -63.8130 -83.2221
  529 620.032 -15.5969 42.3596
  530 1155.50 53.3998 -20.9303
  531 671.291 -50.8483 6.42806
  532 638.055 -4.95500 -0.551899
  533 638.212 -5.22049 0.432647
  534 1167.55 78.2653 72.7964
  535 598.424 -0.0534587 48.5374
  536 822.137 141.520 -2.63315
  537 623.464 -17.4499 -19.7636
  538 297.130 -2.57081 -19.6868
  539 297.929 -2.44476 19.5053
  540 428.764 -39.9544 -93.5829
  541 429.157 -39.2911 92.9392
  542 611.801 -11.9069 -5.27816
  543 667.477 24.4845 -59.4361
  544 587.378 -39.9243 3.13409
  545 635.413 72.7761 -41.8901
  546 634.561 -7.82588 20.6987
  547 785.743 42.3723 -19.3452
  548 547.331 -18.6473 -4.99326
  549 547.191 -18.5996 4.95436
  550 591.273 -28.0505 6.22230
  551 859.386 174.453 -24.3413
  552 625.792 27.4490 59.1731
  553 270.594 69.2323 173.504
  554 596.306 -35.6110 140.778
  555 776.677 43.8288 -156.506
  556 639.534 52.9210 -54.7964
  557 562.055 -49.0191 -122.443
  558 609.569 -67.0559 -29.1696
  559 634.657 -64.6561 -40.4343
  560 86.9242 116.096 -109.638
  561 638.500 -8.70655 -11.9853
  562 951.620 184.364 -57.3597
  563 594.240 -26.9849 -7.44839
  564 598.612 -19.8494 6.19905
  565 598.076 -19.4263 -5.86562
  566 426.538 -2.12660 -5.85782
  567 426.640 -2.09941 5.82713
  568 67.0669 6.04795 -35.3806
  569 70.1471 6.36057 36.1508
  570 318.608 -14.3680 -67.9192
  571 320.856 -14.4534 67.8653
  572 606.961 -33.1344 -16.5975
  573 616.293 -67.3405 31.1981
  574 633.357 -60.4634 -2.74618
  575 526.495 -9.26640 -2.39724
  576 526.473 -9.20991 2.38696
  577 496.501 -52.3668 -104.637
  578 551.780 -45.6716 129.196
  579 485.117 -49.3001 105.133
  580 625.963 -14.0432 -54.1731
  581 404.348 -6.23598 20.7877
  582 404.154 -6.29745 -20.9329
  583 601.332 33.5615 -46.6335
  584 600.774 -1.07151 -21.2168
  585 745.294 160.015 -11.9119
  586 494.406 -7.20195 -2.20393
  587 494.430 -7.16061 2.19561
  588 635.296 -2.02248 -11.6427
  589 448.883 -14.4594 -23.5137
  590 448.918 -14.4188 23.3387
  591 362.717 15.8432 165.160
  592 618.359 -28.7594 -27.4941
  593 351.903 -19.0764 118.954
  594 607.736 -31.7288 17.0971
  595 637.123 -9.58049 13.3464
  596 628.236 -6.48224 -2.49180
  597 455.029 -5.22044 -5.60766
  598 455.098 -5.18128 5.58559
  599 715.613 141.735 -25.2557
  600 351.640 -18.4294 -119.336
  601 605.649 -26.5425 -13.3016
  602 549.804 -10.3619 -1.41559
  603 549.753 -10.2962 1.41059
  604 1006.55 134.723 -24.4275
  605 377.425 -2.18708 11.3656
  606 377.123 -2.20739 -11.4564
  607 572.937 13.5259 40.2319
  608 796.855 70.0944 1.55668
  609 385.698 1.73235 -163.734
  610 204.481 4.43600 -90.5449
  611 206.018 3.37121 90.0755
  612 486.170 -27.6197 29.6928
  613 490.867 -28.4358 -28.9911
  614 810.496 164.193 5.61223
  615 625.894 -6.69168 2.17263
  616 550.612 16.0506 -24.4136
  617 676.624 120.709 24.4450
  618 674.524 125.197 -16.2804
  619 554.221 -30.4519 -7.82902
  620 558.194 -29.8094 5.90894
  621 395.016 87.3047 -233.526
  622 481.969 -15.8852 -16.8252
  623 482.025 -15.7157 16.7827
  624 1167.42 239.671 180.697
  625 624.538 -20.6943 46.1091
  626 368.237 -12.4160 -43.4545
  627 941.974 234.888 163.746
  628 369.036 -12.3560 43.3211
  629 590.934 -22.1486 -163.304
  630 433.825 -1.82082 -2.15196
  631 433.917 -1.80546 2.14338
  632 532.984 5.10925 21.3288
  633 250.170 -3.50349 -38.9224
  634 251.370 -3.51385 38.6521
  635 547.350 -38.3295 15.1626
  636 572.285 -45.5934 -7.66745
  637 666.333 -1.73482 -4.37095
  638 395.169 -0.506699 3.47771
  639 395.012 -0.516573 -3.50656
  640 519.207 -11.5421 -4.00240
  641 519.198 -11.4876 3.98091
  642 587.232 -65.5379 83.8936
  643 677.950 75.6374 -53.9296
  644 459.130 -20.6587 -30.2295
  645 458.851 -20.3207 30.0374
  646 537.811 -38.1676 -19.4964
  647 836.690 180.924 9.98519
  648 629.809 -61.2184 6.05958
  649 551.721 -13.3213 -2.79694
  650 551.649 -13.2681 2.79345
  651 749.770 83.0427 36.1784
  652 632.126 -9.57370 -22.4743
  653 568.225 -0.525192 -19.6696
  654 269.205 -9.24131 -85.7963
  655 269.932 -9.47219 85.1635
  656 536.047 -45.7324 -29.5791
  657 797.458 173.374 -0.145236
  658 625.196 84.4659 -18.2470
  659 424.018 -3.49011 -10.6029
  660 424.127 -3.44306 10.5335
  661 579.166 -16.6603 -0.432980
  662 579.273 -16.6658 0.539755
  663 1053.10 136.941 60.6770
  664 673.916 -2.16514 1.05223
  665 655.699 -2.91665 7.72750
  666 653.600 -2.91395 -9.22778
  667 622.740 -58.1997 3.14484
  668 469.261 -5.12587 -2.79832
  669 469.317 -5.09349 2.78856
  670 669.715 106.716 37.9161
  671 849.656 187.962 -16.7862
  672 474.843 -34.4802 -42.8159
  673 474.760 -34.1645 42.6343
  674 585.943 -60.2815 -17.5119
  675 621.838 37.0970 -55.8212
  676 727.006 2.46739 16.7861
  677 494.524 -8.89080 -5.87809
  678 494.551 -8.84158 5.85987
  679 427.742 -37.1344 -84.4466
  680 617.038 -59.8577 2.35677
  681 516.157 -57.1796 76.8305
  682 250.632 78.2186 -167.671
  683 484.875 -44.3629 59.2873
  684 585.313 0.175583 18.0353
  685 428.165 -36.7272 83.9358
  686 605.318 -27.0249 13.4650
  687 484.963 -44.1595 -59.7663
  688 506.034 7.00963 4.49979
  689 392.462 -9.95865 31.1068
  690 392.134 -9.96128 -31.2913
  691 516.311 -58.6537 -77.6476
  692 634.585 -42.0858 -33.1180
  693 583.289 -8.70689 -0.186721
  694 583.381 -8.78471 0.188260
  695 647.740 -41.6086 32.2277
  696 590.151 -61.6524 19.9852
  697 714.658 65.8339 49.8219
  698 646.950 -12.3543 55.8580
  699 622.606 -22.7006 33.1422
  700 601.139 49.6919 -35.3771
  701 715.482 119.873 39.6944
  702 619.162 -8.73796 -33.3045
  703 614.703 -20.8123 15.6360
  704 641.239 99.9035 9.81654
  705 626.334 -10.9428 28.4863
  706 201.104 137.947 176.291
  707 582.045 -67.1067 -50.6308
  708 673.707 12.1398 56.1828
  709 678.314 -21.1116 -37.3485
  710 671.713 -1.23259 2.27498
  711 621.623 -21.7778 -25.4955
  712 583.025 -67.6225 46.4621
  713 1099.11 97.5763 -16.1916
  714 362.842 -1.37701 11.8735
  715 362.449 -1.39114 -11.9695
  716 628.610 -12.0135 -11.1592
  717 675.362 -0.968910 -2.25905
  718 535.187 -46.4883 29.7216
  719 638.635 -24.0277 50.2516
  720 950.113 235.465 -84.1358
  721 605.403 -43.9776 12.6755
  722 667.701 -44.2343 -15.5585
  723 614.895 -20.2849 -15.3718
  724 674.319 -1.53233 -0.592043
  725 625.768 -0.122360 59.5077
  726 30.3992 34.0712 40.8240
  727 693.682 -25.2109 -110.082
  728 758.191 46.5503 18.5386
  729 634.261 -65.1072 36.8829
  730 464.155 -10.6148 13.6903
  731 464.137 -10.7540 -13.7419
  732 574.238 315.013 -313.948
  733 647.919 -43.1649 -29.2704
  734 504.218 3.13054 -8.61336
  735 578.130 3.43557 38.9900
  736 626.779 -31.6432 39.6570
  737 600.749 -50.6281 3.48226
  738 620.183 -56.9336 -90.2258
  739 597.344 -47.2627 -4.82037
  740 699.461 -33.3646 0.660246
  741 645.123 -5.88892 6.37723
  742 581.022 -34.8439 1.11331
  743 1033.15 206.367 -112.153
  744 617.170 -17.0261 12.1413
  745 615.586 10.2361 -58.5085
  746 520.027 -5.41774 182.862
  747 657.262 52.8280 58.8864
  748 565.762 -44.2695 10.4155
  749 442.715 -34.1682 -62.0219
  750 442.799 -34.0913 61.5764
  751 606.045 68.2583 -8.19447
  752 612.855 -7.16513 51.7229
  753 618.206 -14.8720 -43.4503
  754 581.652 -35.5843 -1.25946
  755 563.028 -50.1400 18.9556
  756 645.924 105.939 -10.9459
  757 600.041 -51.9471 -1.13021
  758 601.689 -38.2022 12.6205
  759 607.869 -8.45687 1.63463
  760 608.199 -8.25365 -1.61238
  761 816.665 177.574 -0.183614
  762 665.517 -56.8514 -27.3786
  763 623.443 -19.4922 25.5031
  764 645.155 -5.89240 -5.71911
  765 656.629 4.26907 -58.9202
  766 741.771 40.1935 -29.0804
  767 382.144 -0.230795 -5.62645
  768 382.383 -0.226135 5.57921
  769 6.07353 -9.47965 -6.47707
  770 636.738 -0.925602 10.7429
  771 589.780 -0.716947 -42.8660
  772 606.795 -5.71020 37.2769
  773 542.912 71.9483 264.984
  774 689.836 140.362 -1.32035
  775 494.157 -34.6018 34.1754
  776 95.7023 1.79376 -34.4303
  777 97.9864 1.29164 34.7786
  778 602.065 -4.24153 -42.2829
  779 495.348 -34.9234 -34.1908
  780 641.464 -6.45180 4.63494
  781 341.577 -14.0809 57.8633
  782 338.848 -14.0235 -57.8397
  783 617.093 -16.5551 -11.8069
  784 406.853 -9.65409 -27.1807
  785 407.050 -9.59769 26.9752
  786 641.550 -6.54107 -15.2785
  787 498.782 -12.9112 -10.0327
  788 498.812 -12.8375 10.0384
  789 699.250 -4.25252 -36.8719
  790 634.128 -6.72709 -59.2210
  791 336.809 -1.96801 -15.0139
  792 337.383 -1.94935 14.8592
  793 22.0386 8.19857 -21.8388
  794 24.7164 8.66750 22.9114
  795 525.703 2.68463 -15.4639
  796 578.007 -64.9251 -38.9128
  797 -6.34491 -4.28136 11.2439
  798 -5.66847 -5.26021 -11.3226
  799 600.868 -12.5862 3.72130
  800 649.793 -51.0258 -13.4352
  801 675.730 99.7437 -44.0418
  802 643.916 -5.84651 -4.42897
  803 1326.95 273.859 -248.953
  804 600.740 -12.5567 -3.66478
  805 896.725 169.126 15.9070
  806 645.153 18.7829 -61.9727
  807 708.686 53.8408 -51.3652
  808 131.263 -1.50253 -31.4667
  809 133.268 -1.67501 31.4196
  810 414.243 -5.54392 16.3076
  811 414.093 -5.58636 -16.4284
  812 399.076 -0.774758 3.09319
  813 398.942 -0.783350 -3.11315
  814 718.859 120.740 -39.1062
  815 437.564 -2.40238 -4.68030
  816 437.654 -2.37594 4.66007
  817 614.672 -6.17043 -54.0741
  818 863.686 97.1956 87.1268
  819 559.838 13.0118 -33.9118
  820 203.854 -1.72313 33.3272
  821 202.400 -1.73983 -33.5603
  822 698.187 23.0402 192.622
  823 628.102 -12.1092 11.5147
  824 572.328 38.4610 -14.1031
  825 275.013 -0.317275 22.4839
  826 273.804 -0.195750 -22.6283
  827 405.766 -1.79986 -8.06994
  828 405.919 -1.77401 8.00906
  829 74.3139 65.4618 59.3401
  830 593.707 14.4623 49.9602
  831 657.485 96.2037 -38.2367
  832 703.104 81.7838 -51.9572
  833 470.907 -17.1167 -21.6103
  834 470.673 -17.0064 21.6001
  835 730.053 153.777 17.2261
  836 625.600 -5.93159 -0.477256
  837 625.652 -5.88949 0.574885
  838 622.912 -19.0390 -33.7435
  839 525.955 -34.4787 21.4056
  840 574.726 -64.5394 38.9497
  841 668.862 -54.7604 59.8995
  842 522.318 -14.9042 -6.74694
  843 522.326 -14.8609 6.71463
  844 598.163 55.6792 22.8047
  845 564.396 8.10463 -36.5279
  846 156.175 197.570 183.208
  847 564.683 -49.7135 -17.6071
  848 566.929 -25.2847 -2.01607
  849 567.223 -25.3573 1.97635
  850 623.440 -9.29077 56.4714
  851 615.973 -40.6815 -22.6907
  852 553.128 -36.2402 -10.8968
  853 1209.43 39.1268 -58.3747
  854 526.627 -49.2727 39.3681
  855 526.165 -49.8846 -39.9382
  856 622.032 -7.62467 28.2452
  857 921.770 241.063 -63.2302
  858 495.901 -44.3398 -47.7446
  859 544.278 -60.9865 46.7264
  860 495.837 -43.8310 47.3674
  861 536.377 -21.3083 -8.14475
  862 536.381 -21.2526 8.10201
  863 84.5295 34.2743 51.3262
  864 667.990 49.9265 -59.0376
  865 516.324 -19.7302 -11.4277
  866 516.429 -19.5466 11.4620
  867 510.864 -8.30202 -1.41103
  868 510.866 -8.25305 1.40402
  869 557.451 -11.3141 -1.17230
  870 557.390 -11.2509 1.16571
  871 460.987 -8.52145 -11.7602
  872 461.038 -8.43263 11.7222
  873 517.854 -26.6608 -16.6424
  874 517.933 -26.5030 16.7170
  875 13.6771 0.0525343 -9.16500
  876 769.672 144.680 25.5699
  877 663.028 -23.4931 -44.8950
  878 543.745 -60.0859 -47.1446
  879 586.003 -19.1564 2.55786
  880 585.762 -18.9796 -2.41874
  881 639.477 0.686074 60.5525
  882 687.092 -48.9052 -37.0108
  883 604.776 47.1122 -230.982
  884 287.155 -5.36677 116.065
  885 -6.34079 6.69198 -9.38342
  886 -5.09099 7.57496 10.1935
  887 84.1511 36.4379 -52.4671
  888 622.675 -18.3680 19.5652
  889 651.560 -4.79022 -8.11055
  890 587.384 -56.9187 102.226
  891 286.515 -5.12095 -116.480
  892 654.520 -53.9751 7.04822
  893 721.545 -19.3232 92.0190
  894 542.846 2.30528 16.3534
  895 614.882 58.5780 38.5818
  896 339.259 -18.8580 84.6650
  897 338.018 -19.0065 -85.1612
  898 406.005 -18.5941 -47.6547
  899 418.902 -21.3092 -147.163
  900 657.057 -15.6224 51.7659
  901 891.644 213.838 44.0248
  902 661.163 25.3227 60.2092
  903 624.778 -13.6593 -31.0208
  904 427.285 -19.0833 150.767
  905 791.056 146.987 -15.5446
  906 83.6554 69.9452 -72.5142
  907 583.824 -1.06293 -17.2033
  908 406.417 -18.4512 47.2842
  909 490.856 -10.4472 8.74043
  910 490.828 -10.5092 -8.75385
  911 616.814 -40.4571 23.5865
  912 636.177 -4.77840 1.57254
  913 471.057 3.90578 -181.949
  914 668.717 -1.74007 3.81288
  915 664.820 -1.46423 -5.02437
  916 514.978 4.71987 -14.2918
  917 646.050 -2.74967 -9.44805
  918 491.616 -22.3192 -20.5107
  919 491.939 -22.0052 20.5815
  920 -14.6014 6.36713 -8.18972
  921 -20.8667 3.84678 8.95982
  922 636.130 -4.48141 -1.64503
  923 222.273 -5.21870 78.4848
  924 221.111 -4.78820 -78.8873
  925 685.955 99.6524 46.1366
  926 1182.44 21.5206 17.7950
  927 647.640 71.8430 49.8658
  928 721.532 -24.4108 32.3935
  929 633.926 -35.5729 39.5347
  930 787.072 164.459 -11.9767
  931 505.206 2.49724 10.7914
  932 609.236 -14.8829 -6.61524
  933 636.923 34.3265 -60.4859
  934 757.790 24.3233 -2.45634
  935 595.484 -36.8418 -9.04695
  936 319.032 -1.60274 -16.7339
  937 319.289 -1.54483 16.5168
  938 626.905 -15.1781 -23.5256
  939 23.3290 28.7672 8.69954
  940 602.040 -62.4714 -12.0838
  941 534.190 16.4469 -1.47034
  942 782.911 170.601 -7.90721
  943 129.196 95.6938 -117.113
  944 606.800 -4.54599 -33.3995
  945 430.140 -6.67671 -15.3817
  946 430.235 -6.60287 15.2742
  947 4.41163 -16.3093 12.1155
  948 417.945 -30.4313 -68.3634
  949 613.741 -35.7139 -22.2221
  950 398.371 0.870116 -1.31146
  951 398.487 0.873252 1.30463
  952 625.245 75.8072 -30.7064
  953 657.497 -2.53808 -0.758905
  954 657.547 -2.55884 1.02608
  955 418.161 -30.3636 67.9561
  956 623.054 -1.02925 -13.0312
  957 710.261 5.36512 34.8885
  958 631.220 -9.51524 8.70187
  959 108.479 25.8637 -63.4693
  960 652.654 -4.46771 7.28789
  961 601.511 5.08716 53.1944
  962 634.138 87.5343 27.2832
  963 631.679 7.35624 -61.6572
  964 442.590 -22.9322 -41.4219
  965 676.337 -24.2501 35.7772
  966 442.884 -22.8593 41.0550
  967 22.5301 23.6707 -4.95934
  968 81.6263 12.8030 46.6539
  969 367.134 -6.06119 27.9405
  970 366.726 -6.05868 -28.0709
  971 609.673 -15.1315 7.06661
  972 660.935 114.141 14.8345
  973 338.484 30.0625 -173.262
  974 552.210 -34.1318 9.82648
  975 518.599 -53.8262 -57.5181
  976 750.202 143.240 28.5191
  977 579.076 -10.6162 -0.228613
  978 579.049 -10.5671 0.221770
  979 631.437 -12.2040 -16.4530
  980 592.968 51.5237 -21.0221
  981 1269.87 388.258 260.382
  982 131.514 6.65861 -60.0094
  983 133.261 5.51463 60.1118
  984 9.81813 -7.39101 5.66891
  985 594.065 33.2896 43.1540
  986 518.555 -54.1721 57.1388
  987 638.430 -30.4076 -45.7991
  988 693.881 56.7104 56.9737
  989 661.669 -53.4337 -71.7896
  990 961.783 201.849 70.9663
  991 569.313 -9.55959 -0.621218
  992 569.242 -9.49141 0.620366
  993 662.287 -27.3147 42.2123
  994 47.4682 88.7563 85.6577
  995 312.260 -6.18575 39.8307
  996 311.394 -6.10452 -40.2009
  997 367.989 -17.3330 54.7613
  998 366.806 -17.0512 -54.9276
  999 412.661 -16.3302 39.7209
  1000 451.130 -3.22937 -2.06476
  1001 451.206 -3.20740 2.05792
  1002 1059.73 353.500 -229.469
  1003 978.139 245.955 107.034
  1004 412.335 -16.4019 -40.0086
  1005 681.782 -3.29097 46.8607
  1006 617.680 64.1469 -37.0334
  1007 436.669 -37.9740 122.230
  1008 555.925 -65.7882 -68.4802
  1009 634.442 -5.48138 -18.7229
  1010 292.705 18.9340 141.849
  1011 375.172 -28.5346 97.5686
  1012 570.226 29.7302 -27.1876
  1013 642.500 -12.9051 -56.6887
  1014 783.276 350.759 354.814
  1015 541.619 17.0889 19.4949
  1016 723.747 154.103 -2.12439
  1017 526.292 21.6545 -206.174
  1018 541.753 -56.5846 -40.6811
  1019 675.506 -1.07665 -1.81419
  1020 658.857 60.4712 -57.3006
  1021 399.387 -2.27920 10.2531
  1022 399.201 -2.30170 -10.3335
  1023 15.3277 14.8661 -24.5910
  1024 443.399 -19.4858 -34.6531
  1025 374.698 -28.8944 -98.2289
  1026 443.116 -19.4558 34.3238
  1027 628.753 -19.3387 52.4752
  1028 565.350 -34.7233 -5.07556
  1029 597.145 11.2353 -51.6774
  1030 614.873 76.7264 10.8207
  1031 811.444 53.9631 40.8081
  1032 621.241 -47.3942 21.7494
  1033 401.465 -31.4910 -74.7949
  1034 592.859 21.3293 -48.5728
  1035 440.126 -37.5057 -122.775
  1036 833.935 178.831 -5.20865
  1037 578.351 38.3931 24.7336
  1038 714.863 -3.72443 -24.5691
  1039 545.058 -56.6400 37.9036
  1040 622.633 -20.0127 40.0746
  1041 617.717 -32.8535 27.0587
  1042 614.307 -31.1475 23.0366
  1043 754.355 96.8390 -37.5688
  1044 615.917 -10.0845 41.6312
  1045 555.193 -65.9691 67.4236
  1046 592.531 -24.4550 5.67335
  1047 401.724 -31.5646 74.4441
  1048 558.411 -40.7403 -11.7057
  1049 331.388 -16.3240 -104.300
  1050 465.995 -48.0998 83.5237
  1051 625.866 -4.49067 -21.9954
  1052 611.807 -6.95586 -47.7377
  1053 531.177 -41.4293 -25.7955
  1054 331.930 -16.7516 103.568
  1055 575.376 1.60111 -33.8748
  1056 431.075 -27.7999 -53.3110
  1057 764.226 161.303 17.1783
  1058 178.291 28.0419 -101.216
  1059 1257.45 88.6202 118.531
  1060 312.502 22.0175 -148.131
  1061 613.834 -50.9808 -11.0771
  1062 431.216 -27.5801 52.9295
  1063 570.022 6.40004 38.0803
  1064 328.692 -6.29324 33.0024
  1065 328.565 -6.44541 -33.3051
  1066 623.266 -17.5023 -48.7991
  1067 655.104 -3.87574 2.64722
  1068 646.524 -1.67175 9.49284
  1069 643.166 21.2680 61.9692
  1070 604.180 -4.53210 45.0734
  1071 463.757 50.4142 222.591
  1072 679.287 -0.751764 0.790548
  1073 649.596 87.6856 39.6366
  1074 556.392 8.46439 32.9526
  1075 653.367 -2.72421 9.02231
  1076 434.468 -4.22820 -8.73370
  1077 434.557 -4.18191 8.68848
  1078 280.975 -7.64103 -55.1925
  1079 281.945 -7.91943 54.8736
  1080 558.277 28.3870 13.8770
  1081 812.519 48.4157 -70.4048
  1082 746.987 2.49110 -122.170
  1083 609.909 -0.624405 -13.6434
  1084 466.085 -48.4469 -84.1124
  1085 532.306 -39.4119 23.4229
  1086 613.059 -1.47440 14.2183
  1087 637.290 -46.5355 -26.1796
  1088 413.015 -0.725657 5.10829
  1089 412.899 -0.740052 -5.13418
  1090 612.696 -52.4392 11.0559
  1091 583.422 -12.3381 0.252695
  1092 583.324 -12.3544 -0.223141
  1093 568.309 -56.9774 26.0071
  1094 722.957 -22.7090 -16.6763
  1095 345.908 -0.542687 -9.37316
  1096 346.409 -0.523726 9.28713
  1097 498.195 -32.1710 -140.714
  1098 534.046 -12.6758 4.03797
  1099 534.085 -12.7343 -4.06314
  1100 320.194 177.154 244.695
  1101 730.203 60.6317 -44.0498
  1102 114.006 53.8754 -78.5655
  1103 631.457 -10.0013 -8.38467
  1104 175.981 58.5495 -116.250
  1105 362.447 -22.2215 -70.7709
  1106 678.919 -1.04444 0.576302
  1107 679.118 -0.998456 -0.407967
  1108 623.945 -35.8738 -33.4435
  1109 552.155 -62.3274 -92.4358
  1110 178.466 23.8769 96.4436
  1111 679.587 67.1703 54.9110
  1112 613.922 -6.88189 -0.613491
  1113 614.003 -6.88283 0.664969
  1114 665.346 -42.0088 112.667
  1115 697.844 138.446 20.7155
  1116 424.225 -9.62492 -21.8227
  1117 424.342 -9.58644 21.6943
  1118 318.071 35.4543 175.077
  1119 595.549 3.22709 -49.9031
  1120 191.334 60.2269 124.533
  1121 748.071 -11.2081 -44.5014
  1122 745.871 162.762 5.80156
  1123 516.772 -40.2061 30.4290
  1124 488.326 2.93137 -2.10799
  1125 646.841 -6.10376 11.1635
  1126 667.375 -1.10412 4.31451
  1127 160.280 0.201096 -27.9959
  1128 162.107 0.134235 27.8252
  1129 540.795 9.53082 -24.4960
  1130 549.552 -16.1219 -3.86029
  1131 549.445 -16.0617 3.84461
  1132 59.4065 106.321 -91.4263
  1133 92.4793 219.396 -176.304
  1134 556.033 -21.6302 4.07692
  1135 556.219 -21.6109 -4.11624
  1136 573.142 -14.0612 0.0358648
  1137 573.064 -14.0418 0.00256268
  1138 154.956 98.3513 126.144
  1139 461.284 -5.32065 -4.35030
  1140 461.348 -5.28621 4.33439
  1141 575.715 43.9364 -0.549308
  1142 707.101 99.0909 -255.803
  1143 694.055 119.065 -35.5921
  1144 631.956 -24.4657 -49.1040
  1145 622.194 -31.3028 -34.3812
  1146 516.980 -40.5618 -30.9010
  1147 527.937 1.91359 15.1179
  1148 587.238 36.9902 -36.1232
  1149 579.712 31.5778 34.6007
  1150 592.164 -23.7717 -5.53924
  1151 566.720 -34.0501 4.62730
  1152 518.124 -32.8354 -23.3130
  1153 613.881 -3.71582 26.4374
  1154 1056.11 106.228 14.6385
  1155 617.501 -13.2904 48.0649
  1156 621.631 40.8819 53.6668
  1157 570.894 -55.9083 -20.7376
  1158 77.8348 11.7249 -45.0780
  1159 581.578 -26.9894 -2.82077
  1160 401.083 -0.466956 -0.290589
  1161 401.191 -0.464698 0.288419
  1162 702.262 -18.5867 19.9941
  1163 668.907 -56.4671 31.5247
  1164 955.373 169.770 43.7689
  1165 245.205 -0.369152 -23.0835
  1166 246.459 -0.318955 22.9317
  1167 523.495 -10.4901 -3.06414
  1168 523.479 -10.4341 3.04735
  1169 583.095 -51.2786 -6.47816
  1170 492.312 2.46042 6.92351
  1171 596.726 -42.5108 8.02406
  1172 36.4144 43.2183 -23.6974
  1173 112.650 54.6949 76.7271
  1174 403.348 -22.5848 135.864
  1175 692.124 130.831 -25.4768
  1176 655.553 -1.97337 -7.14864
  1177 681.572 -1.24974 0.320811
  1178 682.129 -1.63797 -0.166198
  1179 415.321 -0.751876 -0.888089
  1180 415.426 -0.745363 0.883085
  1181 638.220 40.7781 60.4989
  1182 929.475 157.017 -3.37791
  1183 658.552 108.257 -26.6248
  1184 490.660 -36.6628 139.843
  1185 401.236 -21.7975 -135.581
  1186 448.754 -29.2317 -48.0954
  1187 610.197 -17.5098 9.36061
  1188 845.787 187.887 16.0041
  1189 448.825 -29.0754 47.7649
  1190 622.223 -11.4678 7.07868
  1191 565.773 21.4809 33.1005
  1192 617.979 19.2833 58.4652
  1193 868.282 193.422 27.1952
  1194 524.363 -13.5023 5.63404
  1195 524.378 -13.5562 -5.66395
  1196 630.775 -12.3669 17.1239
  1197 388.035 -3.81334 15.9465
  1198 387.777 -3.85001 -16.0697
  1199 616.531 -9.00646 -2.76414
  1200 257.052 154.908 -237.875
  1201 534.106 -30.4115 -149.850
  1202 510.940 -15.6447 -9.68603
  1203 511.002 -15.5849 9.69038
  1204 657.346 -3.60101 2.49911
  1205 625.451 -8.82126 5.61422
  1206 36.5997 47.9173 36.3368
  1207 675.750 -0.955006 2.14903
  1208 84.4184 110.046 109.066
  1209 611.825 -9.74052 -3.64042
  1210 -0.431747 -14.5467 -12.8227
  1211 438.142 -42.8496 -105.438
  1212 437.051 -41.8308 104.444
  1213 675.715 -1.36705 -2.41323
  1214 585.096 -30.9074 -3.68137
  1215 657.030 -3.34198 -2.47439
  1216 534.924 -17.1307 -5.98615
  1217 534.887 -17.0815 5.93946
  1218 616.155 -8.95371 2.55986
  1219 581.174 -26.4482 2.79228
  1220 560.500 -18.0996 2.23578
  1221 560.678 -18.1346 -2.17908
  1222 656.339 -3.43847 -1.99384
  1223 570.120 -60.4249 -103.862
  1224 643.407 -4.61476 -1.94403
  1225 614.266 -9.98659 4.02141
  1226 440.976 -4.41627 -6.58499
  1227 441.060 -4.37523 6.55468
  1228 487.849 -6.89640 -3.61867
  1229 487.883 -6.85495 3.60488
  1230 773.368 121.567 29.9328
  1231 651.160 -50.3928 17.3734
  1232 449.387 -2.53251 172.165
  1233 373.767 -0.489712 6.13297
  1234 373.473 -0.495615 -6.18504
  1235 620.526 -11.6619 35.7831
  1236 592.528 -9.48852 0.322983
  1237 592.543 -9.46166 -0.322960
  1238 681.779 131.574 12.0195
  1239 617.960 -64.9687 83.9906
  1240 372.569 -4.90104 22.1748
  1241 372.232 -4.93427 -22.3139
  1242 591.982 -14.8338 2.48910
  1243 591.850 -14.9422 -2.37054
  1244 609.853 -17.3203 -8.95885
  1245 569.154 0.176116 17.5029
  1246 957.239 238.479 -84.7118
  1247 621.973 -23.0814 -30.5016
  1248 113.141 25.5719 65.1057
  1249 641.831 -34.4896 42.0319
  1250 527.660 12.0642 -13.4237
  1251 43.4925 29.9920 25.4007
  1252 834.547 97.4945 -18.8236
  1253 627.760 -28.7707 -43.3055
  1254 529.942 7.97143 20.5929
  1255 364.854 -22.2711 70.7092
  1256 636.185 -49.5165 22.7102
  1257 909.566 182.751 68.4591
  1258 220.609 31.3918 122.093
  1259 638.350 -8.10467 -14.8323
  1260 1191.28 13.5775 -11.7127
  1261 1228.11 18.2377 51.7286
  1262 1307.04 43.3499 -123.730
  1263 621.911 -19.6881 -38.9052
  1264 621.180 -28.6380 32.0991
  1265 630.370 -45.1287 28.4684
  1266 -18.3579 2.39165 11.4256
  1267 -16.6170 1.99693 -12.5416
  1268 612.335 -67.9684 -42.1820
  1269 626.000 -63.6124 -60.7659
  1270 495.467 3.38481 -8.52620
  1271 609.481 -69.1178 60.3011
  1272 652.390 -31.1861 -42.4497
  1273 15.2924 20.5700 4.53257
  1274 535.513 -9.82056 1.84473
  1275 535.545 -9.88134 -1.84952
  1276 646.113 -5.68872 9.88715
  1277 622.128 -11.2793 -6.58789
  1278 587.830 -64.1385 -24.4109
  1279 540.484 -28.8709 11.4771
  1280 537.904 -28.4465 -12.1550
  1281 629.412 -13.7087 24.2840
  1282 645.356 -23.9310 -50.1602
  1283 45.0691 31.2680 -24.9173
</Section>

newXOutput 87

<Section columns = "stress_xx | stress_yy | stress_xy">
  1 692.571 -0.365031 1.22570
  2 692.558 -0.349109 -1.22809
  3 400.067 -0.0594036 -0.440228
  4 -4.97095 -4.89253 -7.15292
  5 1200.43 508.205 394.564
  6 1189.72 525.313 -390.717
  7 -5.78183 -4.62649 7.64261
  8 399.958 -0.0606265 0.439287
  9 696.947 -1.25884 0.336442
  10 695.747 -1.94832 -0.430404
  11 694.612 -1.39470 1.32060
  12 693.431 -1.83639 0.212434
  13 690.839 -1.58074 2.07344
  14 688.441 -1.57894 1.41625
  15 682.424 -1.38650 3.02490
  16 673.441 -1.10423 4.49588
  17 665.524 -1.09812 5.09383
  18 653.447 -1.39627 6.25313
  19 636.302 -0.234997 9.37005
  20 620.476 -1.02192 9.01511
  21 601.974 -1.24603 12.8434
  22 575.303 0.864780 11.2807
  23 555.627 1.42416 13.4291
  24 529.915 2.32797 10.5918
  25 511.965 2.61988 10.7193
  26 485.982 3.50617 5.48944
  27 480.431 5.49353 5.91714
  28 477.054 4.59750 -1.76047
  29 481.580 2.82500 -3.81401
  30 489.952 2.62929 -4.69168
  31 509.437 3.22841 -9.33528
  32 528.376 2.55535 -11.7271
  33 555.831 0.688088 -13.8548
  34 577.736 -0.232909 -12.4880
  35 600.817 -0.980704 -12.1496
  36 621.570 -0.809735 -8.50661
  37 639.142 -0.887707 -7.19043
  38 653.427 -1.37763 -5.95384
  39 666.044 -1.03624 -4.03575
  40 673.688 -1.28222 -4.23080
  41 681.089 -1.48625 -3.06827
  42 687.897 -1.72774 -1.20805
  43 691.322 -1.41680 -1.51618
  44 692.908 -0.959235 -0.889258
  45 691.112 -0.664880 -0.816458
  46 696.341 -1.93456 0.321220
  47 697.110 -1.29893 -0.346131
  48 676.711 -0.952134 -0.760363
  49 663.104 -3.38647 -1.46101
  50 646.266 -4.84191 -0.820956
  51 625.591 -6.87610 -1.16131
  52 605.805 -7.42380 -1.37581
  53 584.552 -8.97390 -1.33300
  54 565.619 -9.79507 -0.638645
  55 549.003 -10.7016 -0.110975
  56 529.782 -8.80970 -0.0800938
  57 507.617 -8.10045 -0.321731
  58 486.293 -6.26976 0.0438622
  59 466.134 -3.87160 0.0958622
  60 447.033 -2.66873 0.156971
  61 430.371 -1.25138 0.276407
  62 413.456 -0.245768 -0.492392
  63 400.190 0.582145 0.764210
  64 394.115 1.45280 0.564438
  65 397.832 0.0654882 1.24675
  66 392.866 -0.127328 1.52680
  67 388.075 -0.221581 1.89594
  68 381.677 0.0356423 2.42126
  69 373.630 0.0262566 3.01457
  70 367.343 -0.355229 5.65993
  71 350.674 0.506660 6.15087
  72 338.722 0.00945109 6.95798
  73 320.937 -0.249948 7.91743
  74 300.548 -0.450583 9.61155
  75 275.016 -0.0668879 11.6747
  76 243.899 0.172886 12.9308
  77 216.513 -0.194583 18.5157
  78 163.293 1.66291 17.6027
  79 126.413 1.42954 18.6658
  80 81.6424 -0.414979 20.8930
  81 43.8814 3.27039 21.9840
  82 0.592004 5.01739 13.7041
  83 -31.6036 5.12847 5.46874
  84 -32.4328 5.09152 -0.870153
  85 -32.5721 4.29546 -9.52533
  86 -19.3381 -1.14131 -9.30010
  87 -2.20573 -18.5602 -10.3273
  88 2.09740 -33.8178 -12.6121
  89 5.43015 -51.7798 -6.11532
  90 11.8190 -49.7774 2.59678
  91 24.6422 -1.18835 34.9701
  92 71.5634 128.367 111.565
  93 400.074 408.161 356.406
  94 1459.49 221.318 240.313
  95 1322.95 31.4434 77.2989
  96 1236.67 13.2852 23.6571
  97 1204.94 11.4127 1.74782
  98 1222.20 15.0198 -20.6829
  99 1320.97 29.5977 -61.2961
  100 1538.08 106.761 -204.747
  101 239.640 421.902 -300.152
  102 53.5027 100.003 -93.6404
  103 27.0274 1.52499 -37.8279
  104 11.1134 -49.1194 -8.20271
  105 3.42414 -38.8331 6.89985
  106 4.09570 -42.7696 10.8339
  107 0.289880 -15.9250 11.4556
  108 -20.2186 -0.637340 8.76913
  109 -33.5936 3.22663 8.25303
  110 -34.2042 6.16887 1.03955
  111 -32.5738 5.02660 -5.14924
  112 -1.75614 5.14131 -12.8996
  113 41.8591 3.29749 -20.9955
  114 79.5881 -0.0586230 -20.5536
  115 124.277 1.54359 -18.6966
  116 161.355 1.70382 -17.7245
  117 215.013 -0.202188 -18.6558
  118 242.620 0.189104 -13.0440
  119 273.895 -0.0637326 -11.8095
  120 299.985 -0.504677 -9.67226
  121 320.155 -0.233455 -7.93209
  122 338.124 0.0305197 -7.02245
  123 350.180 0.501313 -6.21006
  124 366.980 -0.359184 -5.70996
  125 373.333 0.0236769 -3.04502
  126 381.445 0.0331435 -2.44617
  127 387.891 -0.225759 -1.91557
  128 392.717 -0.130916 -1.54040
  129 397.703 0.0625038 -1.25534
  130 393.997 1.45157 -0.568345
  131 400.078 0.581484 -0.766699
  132 413.348 -0.249078 0.491274
  133 430.271 -1.25973 -0.279343
  134 446.947 -2.68690 -0.160371
  135 466.068 -3.89680 -0.0991058
  136 486.251 -6.30619 -0.0471598
  137 507.603 -8.14691 0.319062
  138 529.799 -8.86393 0.0771224
  139 549.045 -10.7633 0.109434
  140 565.679 -9.85704 0.640540
  141 584.641 -9.03031 1.33940
  142 605.887 -7.46209 1.39882
  143 625.659 -6.91041 1.27400
  144 646.387 -4.61246 0.838551
  145 663.553 -3.31077 1.42791
  146 676.845 -1.05820 0.747833
  147 612.801 -57.6400 1.57492
  148 612.245 -56.8520 -1.36254
  149 648.037 92.7875 -28.7246
  150 685.438 40.3486 59.2631
  151 519.890 -50.5265 -118.258
  152 524.215 -50.4150 114.639
  153 510.941 -21.1396 15.7428
  154 510.964 -21.4173 -15.7461
  155 723.173 26.5102 -42.0744
  156 611.238 -22.3480 9.93459
  157 610.970 -21.8352 -9.82100
  158 789.614 174.209 5.32527
  159 628.617 -0.967706 -59.4081
  160 469.859 -36.1857 -53.4727
  161 469.916 -35.9027 53.0551
  162 628.880 -14.3833 52.9770
  163 602.339 44.2492 36.1348
  164 252.394 39.1571 -141.421
  165 278.644 37.2095 148.820
  166 759.182 10.0742 -3.24408
  167 628.987 -24.4133 -35.5080
  168 828.034 181.795 3.95461
  169 568.602 -16.1715 -1.87520
  170 568.493 -16.1342 1.91549
  171 633.048 -8.32657 -4.22128
  172 634.818 -7.56133 3.60506
  173 455.624 -6.08669 -8.86505
  174 455.693 -6.02750 8.82900
  175 673.804 -16.0128 150.566
  176 584.364 24.6713 -39.0123
  177 385.183 -28.4651 -84.3109
  178 386.297 -28.2646 83.8267
  179 434.107 -13.5637 -27.9914
  180 434.161 -13.4167 27.8156
  181 631.725 -16.9383 30.2409
  182 575.998 -39.3157 -5.37620
  183 574.107 -39.0239 6.20366
  184 649.668 -63.2114 -17.6224
  185 653.225 -60.2236 9.65425
  186 893.345 211.088 -38.5860
  187 660.278 105.416 26.7347
  188 658.996 40.4952 -60.6961
  189 670.525 -3.36634 -173.687
  190 651.169 -37.0568 -39.7182
  191 656.913 -26.5561 47.8490
  192 549.827 -62.3036 60.0406
  193 549.853 -61.8395 -59.8885
  194 592.943 7.79932 46.6201
  195 277.004 -7.21639 -103.634
  196 277.612 -7.75109 103.061
  197 1000.84 148.885 22.0953
  198 617.651 -36.9843 20.0818
  199 639.150 -12.2105 -19.2111
  200 514.200 -12.2829 -7.50008
  201 514.221 -12.2303 7.48213
  202 617.912 -8.11007 -41.0955
  203 701.227 102.710 -47.3073
  204 593.493 53.6200 -7.21363
  205 392.718 -13.2622 38.7988
  206 392.158 -13.2956 -39.0486
  207 646.879 -7.75830 9.99988
  208 635.826 11.9999 61.2311
  209 519.577 -37.1534 -27.5471
  210 516.394 -35.1599 28.0008
  211 744.444 110.658 40.8920
  212 864.419 124.476 31.6574
  213 63.9883 48.4775 -42.9501
  214 59.3248 44.8063 36.7021
  215 362.344 105.416 244.830
  216 611.627 -40.7553 -14.2010
  217 648.890 -7.44049 -9.01145
  218 586.827 5.44576 -42.9773
  219 419.769 -3.79111 -12.4877
  220 419.907 -3.74995 12.3961
  221 553.633 -25.7229 -7.82459
  222 553.896 -25.8986 7.52063
  223 622.546 -8.51121 34.7514
  224 707.731 -40.6875 23.9039
  225 711.930 144.102 -13.3883
  226 558.383 -53.5420 -30.4157
  227 699.957 -12.2297 34.3766
  228 599.348 -10.5720 0.993612
  229 599.345 -10.4948 -0.993086
  230 554.580 -53.2970 31.3510
  231 632.367 -40.3830 31.7533
  232 872.815 120.391 -67.8083
  233 201.839 120.016 -180.819
  234 546.856 19.7531 9.43388
  235 639.370 56.3517 51.7816
  236 675.835 -4.85003 -51.9986
  237 633.423 -22.9981 -48.8960
  238 349.097 -10.7339 -48.2158
  239 350.208 -10.5793 48.1000
  240 633.946 -7.94926 -26.4099
  241 603.664 -15.7034 4.59062
  242 603.387 -15.6948 -4.37945
  243 135.225 11.5160 -67.6909
  244 137.098 10.0823 67.4356
  245 667.279 -58.6008 -58.4330
  246 659.381 -2.97358 1.12690
  247 659.977 -3.02342 -1.30295
  248 625.483 51.9817 -47.6480
  249 556.557 11.1966 28.4011
  250 1114.51 178.406 120.330
  251 1104.34 125.781 -74.5783
  252 818.311 174.484 1.14002
  253 511.823 -25.1025 156.107
  254 471.094 -16.8119 -162.946
  255 543.576 -11.1617 -3.07708
  256 543.535 -11.1006 3.06022
  257 457.719 -11.6612 17.6178
  258 457.698 -11.8134 -17.7483
  259 647.156 -7.44146 15.6860
  260 629.695 -45.0579 -25.0290
  261 422.940 -0.573989 -2.99979
  262 423.048 -0.562514 2.98502
  263 621.902 -25.5393 -20.3436
  264 275.304 -8.76711 -67.2255
  265 276.360 -8.79292 66.7948
  266 630.273 -27.5932 38.3404
  267 484.510 -51.4342 95.2743
  268 485.608 -52.3480 -94.9739
  269 554.085 21.7786 -13.2239
  270 478.425 -6.95115 -6.00451
  271 478.477 -6.90908 5.98609
  272 596.515 -1.34924 34.1662
  273 707.668 128.670 32.5564
  274 391.612 -4.39263 20.7495
  275 391.332 -4.42660 -20.9015
  276 645.372 -54.2242 14.9976
  277 597.382 -67.3665 -66.6521
  278 662.305 -3.77410 4.45899
  279 471.821 -27.1312 -36.9075
  280 471.100 -26.8433 36.7926
  281 801.099 95.1090 218.497
  282 394.474 -32.0312 112.835
  283 632.122 88.5249 -3.03357
  284 785.236 88.9498 -21.7086
  285 598.007 -46.1945 2.58620
  286 598.056 -69.1717 60.6036
  287 395.539 -31.5421 -113.988
  288 75.8004 93.9290 87.4077
  289 622.011 -25.6111 20.7438
  290 807.782 108.112 14.2277
  291 666.919 -3.37873 -3.86938
  292 614.889 21.7688 -54.8862
  293 602.473 -34.1799 9.13279
  294 590.323 -49.6933 6.36817
  295 613.008 28.3415 52.9982
  296 642.457 -54.2032 -12.8183
  297 903.858 174.035 -17.5879
  298 602.318 -32.8724 -8.69575
  299 489.863 147.052 -296.442
  300 614.243 -65.2590 -17.7737
  301 610.058 -67.0644 24.6222
  302 455.156 -40.6429 -74.6505
  303 418.975 -1.35628 -6.45653
  304 419.100 -1.33219 6.41505
  305 455.396 -40.6903 74.2876
  306 651.779 -1.14993 -60.5497
  307 698.185 -28.9271 -20.1080
  308 539.254 -31.9748 -15.9730
  309 538.975 -32.0518 16.2364
  310 634.829 -54.6653 104.014
  311 638.769 -5.40134 19.9667
  312 765.684 6.22182 43.8509
  313 529.499 -18.3544 -9.07969
  314 529.546 -18.3060 9.04132
  315 485.969 -12.1473 -12.0274
  316 485.988 -12.0429 12.0159
  317 551.337 7.78205 -27.4470
  318 693.472 50.9460 -57.1069
  319 1051.86 286.569 -141.115
  320 629.191 -6.25572 -1.30409
  321 628.881 -6.17851 1.35437
  322 344.641 -1.56358 140.878
  323 482.820 -21.1836 -25.0108
  324 482.004 -21.1313 25.0808
  325 344.571 -2.41538 -140.335
  326 664.338 78.2485 -49.7962
  327 735.741 37.0751 39.1835
  328 634.328 -45.2034 -114.839
  329 589.529 -22.9351 2.75405
  330 588.970 -22.7886 -2.52099
  331 626.322 -13.5798 -9.21379
  332 596.857 -1.03201 -31.9252
  333 663.013 2.66946 58.7827
  334 657.491 -5.06083 -10.6824
  335 407.402 -23.9664 56.6910
  336 406.961 -24.0873 -57.0740
  337 620.210 -1.32001 56.6217
  338 394.706 -2.89165 -12.4327
  339 394.947 -2.86558 12.3368
  340 631.243 -15.0417 15.4044
  341 758.403 154.016 -21.7109
  342 626.096 -13.6614 9.60815
  343 671.418 83.9954 49.7898
  344 641.310 -12.0865 57.6508
  345 513.772 -9.40956 2.90016
  346 513.765 -9.45939 -2.91448
  347 610.221 -2.07463 -50.3531
  348 799.072 167.394 10.7517
  349 671.064 122.042 1.02248
  350 409.742 47.2567 -207.665
  351 47.4889 18.7919 -31.0794
  352 51.5147 20.3682 33.1889
  353 -0.695030 5.53711 11.1090
  354 1.55749 3.59763 -11.7222
  355 1136.54 79.0113 26.4698
  356 555.319 -44.6218 -19.2494
  357 631.626 -14.5712 -15.0089
  358 573.373 -10.4247 0.0294590
  359 573.310 -10.3521 -0.0348100
  360 617.620 68.2778 -25.8474
  361 525.323 -53.0122 49.5032
  362 48.8523 73.5218 -55.8412
  363 525.712 -52.9724 -50.2950
  364 625.179 71.1178 27.4871
  365 631.578 -17.2374 -28.6671
  366 667.811 -37.5518 -32.2328
  367 716.658 149.668 9.15113
  368 668.957 -42.1225 25.2403
  369 290.977 -6.85822 44.8859
  370 289.421 -6.72206 -45.1278
  371 167.794 3.65846 -63.4143
  372 169.305 3.05223 63.1503
  373 559.171 2.28829 27.6692
  374 1020.49 304.559 127.115
  375 650.946 -4.51907 -14.0033
  376 513.287 -42.5984 -38.2363
  377 512.948 -42.5199 38.1908
  378 628.930 -14.7889 -37.2282
  379 709.002 -34.2104 -3.34737
  380 555.300 -44.5942 19.7274
  381 772.311 8.41579 -73.0575
  382 455.621 -3.31616 -2.49736
  383 455.699 -3.28998 2.48481
  384 620.480 -3.74726 -24.2218
  385 346.842 -4.64743 -29.1637
  386 347.021 -4.80584 28.8414
  387 735.700 94.3876 -46.2082
  388 400.972 27.9576 193.536
  389 579.553 -30.3450 -0.909675
  390 580.102 -30.3019 0.890940
  391 682.145 114.709 -31.1195
  392 643.269 -19.2544 -54.1298
  393 640.411 -65.7581 59.8214
  394 541.774 -14.2895 -4.93604
  395 541.726 -14.2337 4.90222
  396 619.796 -47.9544 15.1032
  397 663.010 -3.56571 7.84429
  398 427.281 -14.8348 -34.7612
  399 427.455 -14.8460 34.5058
  400 633.123 21.3807 -60.5422
  401 594.819 -13.3790 1.39296
  402 594.786 -13.4168 -1.32800
  403 618.144 -7.39442 45.8288
  404 582.073 42.8703 12.6012
  405 637.852 -27.2153 46.6007
  406 912.225 189.562 38.0098
  407 317.586 -16.9674 -90.3551
  408 318.408 -16.9654 89.7370
  409 143.624 75.2720 -111.337
  410 674.997 -2.50762 1.93004
  411 361.704 -2.72831 -18.5022
  412 362.136 -2.67071 18.3647
  413 629.271 -16.7048 36.2874
  414 571.334 -61.8105 34.9257
  415 640.372 -8.65181 6.47302
  416 657.759 33.3541 62.4897
  417 149.918 80.1465 115.546
  418 572.118 -61.4235 -32.4946
  419 590.697 -54.7561 -10.6111
  420 204.513 -4.05394 -57.0380
  421 205.827 -4.19038 56.6825
  422 455.937 -37.1523 -136.034
  423 675.687 -10.3114 50.4749
  424 454.456 -37.6275 134.934
  425 625.632 -35.3853 -28.5516
  426 589.381 40.2297 -27.4137
  427 625.657 -27.3960 27.4317
  428 667.134 -3.50809 -5.05379
  429 22.3689 25.1813 13.3538
  430 140.375 166.102 162.652
  431 607.097 -2.19663 23.5849
  432 519.712 7.62671 12.1291
  433 527.683 9.17063 -16.3909
  434 450.294 -6.90451 -12.4391
  435 450.356 -6.82080 12.3740
  436 616.786 -47.9090 -13.4368
  437 625.538 -12.4015 -51.0025
  438 522.139 10.3887 -4.44774
  439 910.881 218.026 52.9837
  440 134.400 42.7394 -83.8027
  441 147.443 39.1929 89.0911
  442 579.014 -20.7560 -0.182103
  443 578.813 -20.7245 0.318605
  444 769.905 167.829 -1.52245
  445 469.772 209.055 302.952
  446 733.360 -9.42109 -1.20708
  447 434.876 -21.9046 -47.1495
  448 435.093 -21.7688 46.8015
  449 439.769 -9.21088 19.0281
  450 439.674 -9.27176 -19.1717
  451 585.578 13.4367 -44.3796
  452 677.999 -1.42465 -1.22515
  453 571.248 26.7750 25.1084
  454 709.532 87.5148 51.8879
  455 592.124 -43.8708 -0.755181
  456 640.044 -8.28308 -6.31463
  457 669.606 -3.22535 4.64835
  458 675.939 -1.54517 0.693924
  459 676.385 -1.68659 -0.468841
  460 393.617 -0.547584 4.67737
  461 393.421 -0.556595 -4.71726
  462 645.529 -41.3529 34.5364
  463 590.914 23.7230 43.0018
  464 614.209 2.62219 -55.4208
  465 635.632 -13.9259 20.8218
  466 892.081 165.214 -188.442
  467 638.126 -35.6957 -39.8282
  468 9.54919 12.6366 7.10336
  469 9.35216 12.9744 -3.93307
  470 511.847 -28.3011 22.4049
  471 510.269 -27.8915 -22.0881
  472 779.166 19.3607 104.985
  473 222.088 211.542 -233.278
  474 631.380 -2.12796 17.9816
  475 705.650 -40.5168 -62.6196
  476 390.483 -21.8135 65.3799
  477 762.877 135.583 -31.3766
  478 629.091 -34.3537 32.9521
  479 533.219 -25.0055 -12.3410
  480 533.676 -24.6101 12.3203
  481 559.047 3.18548 -24.3967
  482 389.326 -21.7126 -65.7202
  483 571.658 0.496951 24.4157
  484 540.040 -61.9624 -86.2573
  485 538.736 -62.0563 86.6587
  486 647.800 -4.63861 15.5188
  487 597.978 56.6812 5.19651
  488 592.155 12.2114 209.668
  489 875.323 175.965 -1.09201
  490 607.991 -10.8604 2.26795
  491 608.012 -10.8250 -2.40225
  492 477.970 -8.01575 -8.20967
  493 478.017 -7.95562 8.18713
  494 254.987 10.7335 119.412
  495 632.186 -30.7456 -39.3820
  496 575.085 -12.8002 -0.900890
  497 575.029 -12.7650 0.907558
  498 503.209 -52.8955 70.4781
  499 259.678 14.3247 -122.329
  500 631.912 -51.7547 -15.5548
  501 12.3004 5.24218 2.46825
  502 563.616 29.7204 1.87825
  503 609.818 -7.75111 -0.683788
  504 609.816 -7.84138 0.654904
  505 503.406 -52.7816 -70.9860
  506 706.149 -35.4070 77.5696
  507 705.862 25.7300 51.8461
  508 648.897 -5.12645 -2.94077
  509 630.004 -52.4555 15.8972
  510 411.710 -0.224823 -0.900343
  511 411.820 -0.221719 0.894934
  512 630.701 -24.4764 -42.7021
  513 616.024 45.7396 46.7310
  514 697.537 17.3444 -51.3357
  515 409.185 -0.477775 -2.64792
  516 409.308 -0.470166 2.63350
  517 1183.30 171.273 -151.663
  518 639.806 76.0061 40.8447
  519 649.373 -4.80674 2.59092
  520 591.920 -55.9868 12.0660
  521 504.406 -16.1713 12.6840
  522 504.385 -16.2824 -12.6584
  523 683.874 -41.9402 10.1347
  524 660.785 -13.4476 -54.0896
  525 739.821 144.711 27.7098
  526 619.377 10.8092 57.5421
  527 618.783 -12.5267 5.30345
  528 600.208 -64.5127 -84.2527
  529 626.820 -15.7733 42.6948
  530 1167.20 53.9509 -21.1368
  531 678.498 -51.3988 6.67698
  532 644.896 -5.02460 -0.548137
  533 645.054 -5.29280 0.427570
  534 1179.37 79.0568 73.5004
  535 605.060 -0.0502130 48.9578
  536 830.884 143.111 -2.39765
  537 630.233 -17.6507 -19.8836
  538 300.725 -2.59656 -19.9080
  539 301.531 -2.46918 19.7249
  540 433.576 -40.3983 -94.6683
  541 433.975 -39.7278 94.0184
  542 618.432 -12.0500 -5.28205
  543 674.747 24.7531 -59.9020
  544 593.798 -40.3593 3.05772
  545 642.437 73.5803 -42.2471
  546 641.449 -7.92135 20.8486
  547 794.050 42.8976 -19.7977
  548 553.378 -18.8499 -5.09910
  549 553.236 -18.8020 5.05968
  550 597.730 -28.3598 6.19680
  551 868.484 176.404 -24.8714
  552 632.690 27.7548 59.6825
  553 273.646 70.0050 175.530
  554 602.688 -35.9877 142.428
  555 784.734 44.4381 -158.369
  556 646.577 53.5067 -55.2611
  557 568.125 -49.5593 -123.888
  558 616.173 -67.7885 -29.6266
  559 641.487 -65.3613 -41.0236
  560 87.9460 117.545 -110.993
  561 645.386 -8.81497 -12.0527
  562 961.666 186.297 -58.0431
  563 600.725 -27.2844 -7.43704
  564 605.132 -20.0739 6.19180
  565 604.591 -19.6467 -5.85589
  566 431.501 -2.14314 -5.93153
  567 431.604 -2.11574 5.90063
  568 68.0026 6.11162 -35.8209
  569 71.1119 6.42803 36.5994
  570 322.344 -14.5253 -68.6967
  571 324.614 -14.6118 68.6435
  572 613.575 -33.5012 -16.6606
  573 622.960 -68.0764 31.6801
  574 640.205 -61.1249 -2.93481
  575 532.355 -9.36771 -2.43381
  576 532.334 -9.31083 2.42342
  577 501.960 -52.9503 -105.867
  578 557.750 -46.1762 130.712
  579 490.465 -49.8507 106.367
  580 632.819 -14.1996 -54.6125
  581 409.058 -6.29622 21.0318
  582 408.863 -6.35819 -21.1781
  583 608.021 33.9439 -47.0464
  584 607.424 -1.08389 -21.3963
  585 753.426 161.720 -11.9706
  586 499.979 -7.27557 -2.23443
  587 500.003 -7.23397 2.22604
  588 642.212 -2.04779 -11.7337
  589 454.009 -14.6063 -23.8010
  590 454.045 -14.5656 23.6245
  591 366.766 15.9976 167.068
  592 625.093 -29.0798 -27.6664
  593 355.896 -19.3046 120.334
  594 614.357 -32.0799 17.1664
  595 644.002 -9.69769 13.4245
  596 634.999 -6.56869 -2.49220
  597 460.245 -5.26968 -5.68171
  598 460.315 -5.23025 5.65950
  599 723.440 143.259 -25.4220
  600 355.629 -18.6517 -120.719
  601 612.246 -26.8390 -13.3446
  602 555.874 -10.4789 -1.44174
  603 555.823 -10.4127 1.43666
  604 1017.06 136.113 -24.6930
  605 381.889 -2.20695 11.4966
  606 381.584 -2.22741 -11.5881
  607 579.367 13.6879 40.5945
  608 805.292 70.9237 1.83437
  609 389.984 1.72839 -165.620
  610 206.924 4.47100 -91.6190
  611 208.476 3.39596 91.1443
  612 491.630 -27.9102 30.0684
  613 496.371 -28.7350 -29.3611
  614 819.190 165.980 5.46068
  615 632.637 -6.78036 2.17025
  616 556.852 16.2468 -24.6364
  617 684.072 122.018 24.6362
  618 681.956 126.552 -16.4086
  619 560.328 -30.7801 -7.99088
  620 564.339 -30.1317 6.05104
  621 399.306 88.2855 -236.173
  622 487.412 -16.0486 -17.0448
  623 487.468 -15.8777 17.0021
  624 1179.34 242.137 182.555
  625 631.363 -20.9257 46.4664
  626 372.535 -12.5451 -43.9499
  627 951.627 237.692 165.836
  628 373.342 -12.4847 43.8158
  629 597.246 -22.3743 -165.193
  630 438.860 -1.83383 -2.17887
  631 438.953 -1.81837 2.17024
  632 539.072 5.17584 21.5243
  633 253.221 -3.54040 -39.3645
  634 254.431 -3.55091 39.0920
  635 553.387 -38.7411 15.4120
  636 578.557 -46.0864 -7.85567
  637 673.446 -1.76009 -4.39578
  638 399.847 -0.509392 3.52130
  639 399.688 -0.519345 -3.55035
  640 525.000 -11.6659 -4.07035
  641 524.992 -11.6110 4.04865
  642 593.584 -66.2566 84.9278
  643 685.359 76.4650 -54.3549
  644 464.339 -20.8731 -30.5973
  645 464.058 -20.5319 30.4034
  646 543.756 -38.5754 -19.7873
  647 845.689 182.843 10.2079
  648 636.624 -61.8876 6.28025
  649 557.808 -13.4700 -2.86163
  650 557.736 -13.4164 2.85800
  651 757.826 83.9634 36.3409
  652 638.991 -9.68853 -22.6363
  653 574.612 -0.526876 -19.8436
  654 272.383 -9.35145 -86.7889
  655 273.116 -9.58440 86.1504
  656 541.965 -46.2233 -29.9855
  657 806.102 175.199 -0.158494
  658 632.138 85.4003 -18.4042
  659 428.944 -3.52100 -10.7324
  660 429.054 -3.47357 10.6626
  661 585.503 -16.8488 -0.384416
  662 585.612 -16.8540 0.491955
  663 1064.01 138.348 61.3066
  664 681.051 -2.19606 1.05472
  665 662.745 -2.95579 7.77705
  666 660.634 -2.95179 -9.29155
  667 629.493 -58.8363 3.02737
  668 474.608 -5.17523 -2.83518
  669 474.665 -5.14265 2.82536
  670 677.080 107.876 38.2201
  671 858.767 189.959 -17.1006
  672 480.175 -34.8459 -43.3372
  673 480.093 -34.5274 43.1540
  674 592.335 -60.9366 -17.8253
  675 628.709 37.5117 -56.3049
  676 734.775 2.51059 16.7493
  677 500.095 -8.98231 -5.96221
  678 500.122 -8.93278 5.94385
  679 432.561 -37.5430 -85.4245
  680 623.734 -60.5116 2.52909
  681 521.837 -57.8076 77.7565
  682 253.477 79.0849 -169.635
  683 490.280 -44.8426 60.0017
  684 591.843 0.177942 18.1916
  685 432.989 -37.1317 84.9090
  686 611.912 -27.3260 13.5085
  687 490.367 -44.6366 -60.4850
  688 511.886 7.10108 4.54160
  689 397.031 -10.0592 31.4660
  690 396.700 -10.0617 -31.6519
  691 521.989 -59.2977 -78.5826
  692 641.479 -42.5495 -33.3145
  693 589.658 -8.81365 -0.176580
  694 589.751 -8.89214 0.178093
  695 654.758 -42.0673 32.4025
  696 596.581 -62.3236 20.3286
  697 722.386 66.5560 50.1542
  698 653.998 -12.4934 56.2923
  699 629.391 -22.9565 33.3784
  700 607.838 50.2533 -35.6904
  701 723.278 121.170 39.9665
  702 625.945 -8.83782 -33.5718
  703 621.383 -21.0487 15.7108
  704 648.341 100.999 9.89974
  705 633.162 -11.0698 28.7021
  706 203.384 139.543 178.367
  707 588.370 -67.8402 -51.3033
  708 681.022 12.2711 56.6036
  709 685.636 -21.3410 -37.5597
  710 678.847 -1.25366 2.28407
  711 628.385 -22.0248 -25.6617
  712 589.364 -68.3613 47.0891
  713 1110.37 98.5839 -16.3549
  714 367.153 -1.38888 12.0098
  715 366.757 -1.40311 -12.1065
  716 635.404 -12.1573 -11.2130
  717 682.527 -0.986010 -2.26929
  718 541.098 -46.9877 30.1297
  719 645.592 -24.2952 50.6303
  720 959.993 238.125 -85.3392
  721 612.000 -44.4589 12.6832
  722 674.895 -44.7167 -15.5434
  723 621.577 -20.5161 -15.4450
  724 681.456 -1.55703 -0.590730
  725 632.641 -0.124304 60.0064
  726 30.7700 34.6287 41.3822
  727 701.011 -25.4401 -111.442
  728 766.282 47.0896 18.5007
  729 641.093 -65.8159 37.4365
  730 469.439 -10.7216 13.8669
  731 469.421 -10.8619 -13.9189
  732 580.022 318.767 -317.392
  733 654.936 -43.6394 -29.4147
  734 510.053 3.17864 -8.69375
  735 584.598 3.48001 39.3358
  736 633.609 -31.9946 39.9365
  737 607.295 -51.1799 3.38975
  738 626.834 -57.5539 -91.3398
  739 603.859 -47.7782 -4.74795
  740 706.944 -33.7168 0.863953
  741 652.050 -5.96673 6.40413
  742 587.382 -35.2232 1.02788
  743 1043.93 208.519 -113.369
  744 623.866 -17.2230 12.1921
  745 622.380 10.3539 -59.0126
  746 525.634 -5.46565 184.959
  747 664.465 53.4067 59.3721
  748 571.972 -44.7481 10.6295
  749 447.714 -34.5356 -62.7467
  750 447.799 -34.4584 62.2974
  751 612.803 69.0233 -8.26587
  752 619.603 -7.24538 52.1565
  753 624.983 -15.0388 -43.7985
  754 588.018 -35.9724 -1.17467
  755 569.206 -50.6816 19.2647
  756 653.073 107.097 -11.0353
  757 606.580 -52.5136 -1.01234
  758 608.250 -38.6214 12.6380
  759 614.456 -8.56358 1.62703
  760 614.788 -8.35835 -1.60445
  761 825.479 179.452 -0.284593
  762 672.650 -57.4663 -27.8472
  763 630.223 -19.7140 25.6725
  764 652.077 -5.97069 -5.74077
  765 663.783 4.31492 -59.3828
  766 749.716 40.6564 -29.1664
  767 386.678 -0.230179 -5.69287
  768 386.920 -0.225482 5.64528
  769 6.15905 -9.53672 -6.50947
  770 643.667 -0.940099 10.8260
  771 596.342 -0.718761 -43.2400
  772 613.489 -5.77386 37.5898
  773 548.645 72.8251 267.945
  774 697.427 141.872 -1.33111
  775 499.683 -34.9687 34.6086
  776 96.9971 1.81031 -34.8465
  777 99.3014 1.30283 35.1985
  778 608.723 -4.28719 -42.6435
  779 500.884 -35.2932 -34.6248
  780 648.349 -6.53680 4.64843
  781 345.572 -14.2326 58.5230
  782 342.815 -14.1744 -58.4979
  783 623.787 -16.7471 -11.8557
  784 411.571 -9.75032 -27.4969
  785 411.770 -9.69353 27.2898
  786 648.483 -6.62359 -15.3822
  787 504.386 -13.0450 -10.1746
  788 504.416 -12.9707 10.1804
  789 706.776 -4.29177 -37.0652
  790 641.068 -6.80179 -59.7051
  791 340.838 -1.98686 -15.1836
  792 341.418 -1.96802 15.0276
  793 22.4312 8.29100 -22.1255
  794 25.1338 8.76563 23.2106
  795 531.729 2.71944 -15.6049
  796 584.306 -65.6325 -39.4547
  797 -6.40652 -4.32017 11.3607
  798 -5.72619 -5.31328 -11.4439
  799 607.400 -12.7355 3.71210
  800 656.813 -51.5845 -13.4091
  801 683.143 100.831 -44.3900
  802 650.821 -5.92449 -4.44261
  803 1340.04 276.717 -251.399
  804 607.270 -12.7059 -3.65543
  805 906.286 170.888 16.1228
  806 652.216 18.9903 -62.4844
  807 716.352 54.4351 -51.7177
  808 132.986 -1.52113 -31.8387
  809 135.007 -1.69539 31.7913
  810 419.060 -5.59732 16.5017
  811 418.908 -5.64007 -16.6234
  812 403.799 -0.779783 3.13088
  813 403.663 -0.788445 -3.15098
  814 726.686 122.050 -39.3678
  815 442.628 -2.42179 -4.73981
  816 442.718 -2.39517 4.71945
  817 621.439 -6.23743 -54.5295
  818 872.652 98.4221 88.3353
  819 566.156 13.1713 -34.2195
  820 206.399 -1.74196 33.7117
  821 204.933 -1.75885 -33.9469
  822 705.480 23.3831 194.833
  823 634.894 -12.2542 11.5701
  824 578.768 38.9063 -14.2305
  825 278.360 -0.318092 22.7375
  826 277.142 -0.195236 -22.8831
  827 410.528 -1.81418 -8.16767
  828 410.682 -1.78813 8.10635
  829 75.2250 66.2485 60.1201
  830 600.316 14.6315 50.4027
  831 664.729 97.2556 -38.5515
  832 710.749 82.6798 -52.3376
  833 476.241 -17.2929 -21.8827
  834 476.005 -17.1820 21.8728
  835 738.031 155.421 17.3268
  836 632.335 -6.01243 -0.475522
  837 632.388 -5.96981 0.574021
  838 629.705 -19.2555 -33.9923
  839 531.791 -34.8466 21.7100
  840 580.996 -65.2427 39.4888
  841 676.004 -55.3435 60.7144
  842 528.137 -15.0631 -6.85911
  843 528.145 -15.0196 6.82650
  844 604.842 56.3079 23.0086
  845 570.751 8.20583 -36.8569
  846 157.912 200.082 185.353
  847 570.877 -50.2501 -17.9023
  848 573.156 -25.5607 -2.11184
  849 573.453 -25.6345 2.07147
  850 630.280 -9.39469 56.9376
  851 622.679 -41.1294 -22.7976
  852 559.222 -36.6295 -11.0996
  853 1221.58 39.5196 -58.9267
  854 532.449 -49.8032 39.8796
  855 531.980 -50.4210 -40.4557
  856 628.838 -7.71282 28.4698
  857 931.517 243.687 -64.1304
  858 501.424 -44.8154 -48.3335
  859 550.255 -61.6489 47.3336
  860 501.361 -44.3018 47.9527
  861 542.321 -21.5366 -8.28728
  862 542.326 -21.4807 8.24406
  863 85.5888 34.6655 51.9956
  864 675.287 50.4746 -59.5104
  865 522.084 -19.9390 -11.6005
  866 522.190 -19.7539 11.6351
  867 516.585 -8.39025 -1.43287
  868 516.586 -8.34096 1.42580
  869 563.590 -11.4433 -1.20915
  870 563.529 -11.3797 1.20242
  871 466.248 -8.60550 -11.9101
  872 466.300 -8.51597 11.8719
  873 523.621 -26.9424 -16.8821
  874 523.701 -26.7836 16.9578
  875 13.8574 0.163524 -9.34350
  876 777.982 146.253 25.6469
  877 670.209 -23.7522 -45.1956
  878 549.714 -60.7382 -47.7556
  879 592.405 -19.3720 2.51961
  880 592.162 -19.1936 -2.37951
  881 646.474 0.692068 61.0485
  882 694.423 -49.4232 -37.5948
  883 611.148 47.7106 -233.589
  884 290.469 -5.44543 117.422
  885 -6.31112 6.76926 -9.52769
  886 -5.05064 7.66292 10.3463
  887 85.2096 36.8535 -53.1529
  888 629.435 -18.5789 19.6818
  889 658.552 -4.85440 -8.15578
  890 593.717 -57.5429 103.457
  891 289.822 -5.19811 -117.840
  892 661.578 -54.5663 6.95085
  893 729.157 -19.4776 93.1950
  894 549.022 2.33429 16.5017
  895 621.711 59.2321 38.9206
  896 343.180 -19.0693 85.6368
  897 341.927 -19.2194 -86.1371
  898 410.674 -18.7893 -48.2047
  899 423.545 -21.5647 -148.863
  900 664.194 -15.7970 52.1474
  901 901.073 216.206 44.7591
  902 668.378 25.5986 60.6915
  903 631.592 -13.8164 -31.2558
  904 432.011 -19.3119 152.507
  905 799.558 148.599 -15.4937
  906 84.6784 70.7731 -73.4532
  907 590.341 -1.07223 -17.3523
  908 411.090 -18.6452 47.8311
  909 496.391 -10.5549 8.86198
  910 496.361 -10.6174 -8.87548
  911 623.529 -40.9023 23.7019
  912 643.005 -4.84682 1.57132
  913 476.182 3.93820 -184.029
  914 675.849 -1.76500 3.83354
  915 671.934 -1.48595 -5.05569
  916 520.910 4.78053 -14.4238
  917 653.043 -2.78241 -9.51929
  918 497.140 -22.5524 -20.7814
  919 497.466 -22.2356 20.8533
  920 -14.7281 6.44751 -8.25516
  921 -21.0670 3.89551 9.03935
  922 642.958 -4.54642 -1.64539
  923 224.940 -5.28549 79.4056
  924 223.768 -4.85090 -79.8117
  925 693.460 100.735 46.4921
  926 1194.35 21.7414 17.9570
  927 654.772 72.6316 50.2852
  928 729.200 -24.6443 32.9444
  929 640.823 -35.9664 39.8019
  930 795.579 166.228 -11.9430
  931 511.053 2.53458 10.8915
  932 615.850 -15.0576 -6.62251
  933 643.926 34.7075 -60.9987
  934 765.849 24.6314 -2.24879
  935 601.985 -37.2455 -9.03221
  936 322.868 -1.61759 -16.9215
  937 323.126 -1.55912 16.7024
  938 633.715 -15.3542 -23.6845
  939 23.6415 29.1344 8.87277
  940 608.586 -63.1523 -12.3507
  941 540.289 16.6508 -1.48390
  942 791.400 172.419 -7.88347
  943 130.725 96.8182 -118.558
  944 613.494 -4.59683 -33.6799
  945 435.111 -6.74094 -15.5680
  946 435.208 -6.66651 15.4597
  947 4.47901 -16.4656 12.2239
  948 422.694 -30.7597 -69.1526
  949 620.425 -36.1087 -22.3327
  950 403.101 0.880813 -1.32807
  951 403.218 0.883967 1.32120
  952 632.180 76.6478 -30.9714
  953 664.496 -2.57898 -0.762674
  954 664.547 -2.59982 1.03204
  955 422.912 -30.6917 68.7419
  956 629.881 -1.04480 -13.1367
  957 717.893 5.43109 35.0530
  958 638.031 -9.63257 8.73837
  959 109.834 26.1485 -64.2668
  960 659.653 -4.52805 7.32688
  961 608.179 5.15000 53.6586
  962 641.162 88.4981 27.5177
  963 638.612 7.43900 -62.1750
  964 447.623 -23.1728 -41.9115
  965 683.635 -24.5173 35.9721
  966 447.921 -23.0995 41.5413
  967 22.8382 23.9755 -5.08690
  968 82.6909 12.9422 47.2436
  969 371.449 -6.12153 28.2593
  970 371.037 -6.11881 -28.3906
  971 616.291 -15.3083 7.07743
  972 668.233 115.384 14.9553
  973 342.270 30.3764 -175.266
  974 558.297 -34.4990 10.0144
  975 524.322 -54.4103 -58.2296
  976 758.343 144.785 28.6622
  977 585.409 -10.7411 -0.255090
  978 585.382 -10.6917 0.248107
  979 638.271 -12.3490 -16.5530
  980 599.598 52.1089 -21.2098
  981 1282.44 392.379 263.097
  982 133.175 6.72573 -60.7360
  983 134.938 5.56974 60.8389
  984 9.94323 -7.37070 5.79406
  985 600.691 33.6710 43.5394
  986 524.280 -54.7605 57.8466
  987 645.379 -30.7441 -46.1299
  988 701.415 57.3291 57.3987
  989 668.731 -54.0035 -72.7290
  990 971.928 203.969 71.8021
  991 575.558 -9.67212 -0.636079
  992 575.486 -9.60339 0.635189
  993 669.456 -27.6168 42.4854
  994 48.0204 90.0252 86.7391
  995 315.982 -6.25002 40.2815
  996 315.109 -6.16789 -40.6544
  997 372.262 -17.5170 55.3881
  998 371.066 -17.2318 -55.5554
  999 417.407 -16.5004 40.1839
  1000 456.317 -3.25739 -2.08986
  1001 456.394 -3.23528 2.08298
  1002 1070.43 357.446 -232.106
  1003 988.427 248.566 108.302
  1004 417.078 -16.5726 -40.4739
  1005 689.154 -3.32821 47.1715
  1006 624.536 64.8617 -37.3558
  1007 441.523 -38.4068 123.647
  1008 561.990 -66.5090 -69.3335
  1009 641.340 -5.54777 -18.8656
  1010 296.043 19.1218 143.509
  1011 379.440 -28.8563 98.6963
  1012 576.642 30.0776 -27.4343
  1013 649.508 -13.0492 -57.1346
  1014 791.019 354.966 358.624
  1015 547.783 17.2964 19.6751
  1016 731.676 155.750 -2.13831
  1017 531.931 21.9116 -208.518
  1018 547.712 -57.1963 -41.2174
  1019 682.662 -1.09644 -1.82158
  1020 666.080 61.1352 -57.7719
  1021 404.079 -2.29847 10.3746
  1022 403.891 -2.32115 -10.4556
  1023 15.5244 15.2092 -24.9621
  1024 448.453 -19.6885 -35.0651
  1025 378.960 -29.2199 -99.3625
  1026 448.168 -19.6585 34.7331
  1027 635.627 -19.5544 52.8895
  1028 571.561 -35.0990 -5.21895
  1029 603.780 11.3670 -52.1319
  1030 621.716 77.5797 10.9150
  1031 819.964 54.6522 41.5069
  1032 627.996 -47.9144 21.8352
  1033 406.037 -31.8343 -75.6585
  1034 599.465 21.5764 -49.0048
  1035 445.011 -37.9341 -124.195
  1036 842.923 180.710 -5.30769
  1037 584.843 38.8353 24.9579
  1038 722.525 -3.75041 -24.6224
  1039 551.052 -57.2531 38.4131
  1040 629.434 -20.2381 40.3792
  1041 624.445 -33.2173 27.2197
  1042 620.997 -31.4929 23.1628
  1043 762.470 97.9095 -37.7491
  1044 622.678 -10.1989 41.9715
  1045 561.253 -66.6918 68.2650
  1046 598.997 -24.7274 5.65162
  1047 406.298 -31.9091 75.3052
  1048 564.553 -41.1780 -11.9253
  1049 335.193 -16.5170 -105.504
  1050 471.188 -48.6290 84.5049
  1051 632.704 -4.54587 -22.1694
  1052 618.542 -7.03351 -48.1381
  1053 537.055 -41.8728 -26.1551
  1054 335.740 -16.9486 104.766
  1055 581.820 1.62416 -34.1750
  1056 435.976 -28.0957 -53.9341
  1057 772.528 163.024 17.2417
  1058 180.418 28.3408 -102.436
  1059 1270.00 89.4996 119.654
  1060 316.044 22.2360 -149.855
  1061 620.510 -51.5385 -11.0538
  1062 436.119 -27.8739 53.5494
  1063 576.424 6.48120 38.4223
  1064 332.598 -6.35874 33.3763
  1065 332.470 -6.51241 -33.6817
  1066 630.088 -17.6976 -49.1888
  1067 662.097 -3.93112 2.65248
  1068 653.521 -1.69532 9.56305
  1069 650.213 21.5007 62.4842
  1070 610.857 -4.58163 45.4570
  1071 468.770 50.9848 225.112
  1072 686.472 -0.765343 0.791322
  1073 656.762 88.6463 39.9684
  1074 562.680 8.57024 33.2520
  1075 660.407 -2.75944 9.08666
  1076 439.494 -4.26607 -8.84222
  1077 439.585 -4.21941 8.79670
  1078 284.333 -7.72412 -55.8223
  1079 285.311 -8.00564 55.5011
  1080 564.590 28.7220 14.0041
  1081 821.012 49.0434 -71.4002
  1082 754.805 2.60142 -123.668
  1083 616.636 -0.633393 -13.7569
  1084 471.276 -48.9797 -85.0995
  1085 538.196 -39.8340 23.7567
  1086 619.812 -1.49242 14.3361
  1087 644.204 -47.0475 -26.2983
  1088 417.862 -0.728634 5.16955
  1089 417.743 -0.743139 -5.19562
  1090 619.361 -53.0128 11.0321
  1091 589.795 -12.4822 0.221113
  1092 589.696 -12.4988 -0.191426
  1093 574.530 -57.5947 26.3994
  1094 730.646 -22.9326 -17.0640
  1095 350.047 -0.547366 -9.47954
  1096 350.552 -0.528238 9.39285
  1097 503.630 -32.5390 -142.344
  1098 539.974 -12.8141 4.11178
  1099 540.013 -12.8729 -4.13725
  1100 323.672 179.209 247.466
  1101 738.068 61.3064 -44.3081
  1102 115.392 54.4912 -79.5605
  1103 638.268 -10.1237 -8.41915
  1104 178.056 59.1963 -117.656
  1105 366.633 -22.4635 -71.5823
  1106 686.086 -1.06282 0.579523
  1107 686.287 -1.01636 -0.409786
  1108 630.740 -36.2708 -33.6588
  1109 558.160 -63.0146 -93.5516
  1110 180.596 24.1315 97.6059
  1111 687.006 67.9038 55.3410
  1112 620.557 -6.97268 -0.612242
  1113 620.640 -6.97353 0.664119
  1114 672.407 -42.4335 114.041
  1115 705.504 139.936 20.8666
  1116 429.124 -9.72087 -22.0828
  1117 429.242 -9.68219 21.9535
  1118 321.644 35.8304 177.106
  1119 602.163 3.26835 -50.3395
  1120 193.569 60.8961 126.028
  1121 755.978 -11.2843 -45.1932
  1122 754.016 164.489 5.83118
  1123 522.512 -40.6351 30.8333
  1124 494.023 2.97405 -2.12763
  1125 653.807 -6.18012 11.2330
  1126 674.508 -1.12249 4.34043
  1127 162.350 0.201723 -28.3207
  1128 164.192 0.134243 28.1485
  1129 546.948 9.65191 -24.7207
  1130 555.620 -16.2983 -3.94670
  1131 555.512 -16.2379 3.93076
  1132 60.0998 107.876 -92.5856
  1133 93.5095 222.315 -178.385
  1134 562.159 -21.8658 4.18188
  1135 562.347 -21.8458 -4.22184
  1136 579.424 -14.2209 -0.00545251
  1137 579.345 -14.2015 0.0440637
  1138 156.766 99.4862 127.677
  1139 466.558 -5.37142 -4.40759
  1140 466.624 -5.33676 4.39158
  1141 582.187 44.4419 -0.553719
  1142 714.403 100.367 -258.668
  1143 701.659 120.357 -35.8545
  1144 638.851 -24.7372 -49.4786
  1145 628.974 -31.6507 -34.6151
  1146 522.719 -40.9941 -31.3108
  1147 533.985 1.94033 15.2565
  1148 593.806 37.4145 -36.4471
  1149 586.212 31.9429 34.9133
  1150 598.627 -24.0371 -5.51692
  1151 572.944 -34.4191 4.76511
  1152 523.885 -33.1835 -23.6323
  1153 620.632 -3.75944 26.6549
  1154 1067.04 107.319 14.7840
  1155 624.279 -13.4393 48.4573
  1156 628.504 41.3371 54.1324
  1157 577.142 -56.5131 -21.0749
  1158 78.8622 11.8514 -45.6497
  1159 587.943 -27.2866 -2.76732
  1160 405.840 -0.468418 -0.294926
  1161 405.950 -0.466144 0.292744
  1162 709.793 -18.7831 20.0054
  1163 676.073 -57.0752 32.0404
  1164 965.464 171.533 44.2748
  1165 248.232 -0.370210 -23.3451
  1166 249.496 -0.319465 23.1921
  1167 529.328 -10.6035 -3.11551
  1168 529.312 -10.5470 3.09854
  1169 589.469 -51.8348 -6.66418
  1170 498.047 2.49513 6.98857
  1171 603.238 -42.9752 7.99003
  1172 36.8804 43.7700 -24.0642
  1173 114.015 55.3220 77.6964
  1174 407.850 -22.8543 137.433
  1175 699.725 132.243 -25.6666
  1176 662.612 -1.99863 -7.20027
  1177 688.763 -1.26682 0.320692
  1178 689.323 -1.65892 -0.164853
  1179 420.197 -0.754578 -0.899872
  1180 420.303 -0.748022 0.894839
  1181 645.239 41.2277 61.0130
  1182 939.326 158.637 -3.41397
  1183 665.820 109.437 -26.8422
  1184 496.029 -37.0797 141.463
  1185 405.715 -22.0597 -137.147
  1186 453.834 -29.5413 -48.6644
  1187 616.824 -17.7115 9.38594
  1188 854.824 189.939 16.3926
  1189 453.906 -29.3838 48.3313
  1190 628.950 -11.6068 7.09788
  1191 572.146 21.7355 33.4017
  1192 624.802 19.5010 58.9711
  1193 877.566 195.481 27.6416
  1194 530.202 -13.6470 5.72698
  1195 530.217 -13.7012 -5.75719
  1196 637.605 -12.5144 17.2290
  1197 392.595 -3.84925 16.1329
  1198 392.335 -3.88621 -16.2570
  1199 623.196 -9.11921 -2.75902
  1200 259.908 156.679 -240.600
  1201 539.882 -30.7487 -151.589
  1202 516.654 -15.8091 -9.83083
  1203 516.716 -15.7490 9.83526
  1204 664.352 -3.65219 2.50755
  1205 632.201 -8.93240 5.62807
  1206 37.0570 48.5645 36.8540
  1207 682.927 -0.970182 2.15878
  1208 85.4170 111.429 110.431
  1209 618.452 -9.86102 -3.63679
  1210 -0.427530 -14.6922 -12.9531
  1211 443.027 -43.3302 -106.662
  1212 441.928 -42.3006 105.658
  1213 682.891 -1.38609 -2.42529
  1214 591.494 -31.2461 -3.62843
  1215 664.037 -3.39080 -2.48001
  1216 540.857 -17.3152 -6.09678
  1217 540.820 -17.2659 6.04959
  1218 622.816 -9.06607 2.55376
  1219 587.534 -26.7391 2.73944
  1220 566.668 -18.2999 2.31344
  1221 566.847 -18.3348 -2.25640
  1222 663.336 -3.48851 -1.99751
  1223 576.286 -61.0896 -105.107
  1224 650.296 -4.68041 -1.94444
  1225 620.916 -10.1095 4.02130
  1226 446.065 -4.45604 -6.66948
  1227 446.150 -4.41469 6.63898
  1228 493.362 -6.96637 -3.67086
  1229 493.396 -6.92467 3.65696
  1230 781.680 122.903 30.0292
  1231 658.193 -50.9460 17.3888
  1232 454.309 -2.57173 174.144
  1233 378.213 -0.491823 6.20488
  1234 377.916 -0.497774 -6.25733
  1235 627.317 -11.7948 36.0667
  1236 598.979 -9.60446 0.306664
  1237 598.994 -9.57740 -0.306656
  1238 689.284 132.995 12.1120
  1239 624.602 -65.6745 85.0394
  1240 376.956 -4.94902 22.4291
  1241 376.615 -4.98246 -22.5692
  1242 598.436 -15.0050 2.46381
  1243 598.302 -15.1148 -2.34438
  1244 616.477 -17.5204 -8.98114
  1245 575.553 0.179705 17.6571
  1246 967.338 241.014 -85.7432
  1247 628.748 -23.3412 -30.7129
  1248 114.544 25.8546 65.9198
  1249 648.805 -34.8712 42.3170
  1250 533.701 12.2163 -13.5474
  1251 44.0731 30.3441 25.7648
  1252 843.334 98.6444 -19.3038
  1253 634.605 -29.0899 -43.6231
  1254 536.003 8.07411 20.7836
  1255 369.065 -22.5139 71.5214
  1256 643.082 -50.0602 22.7935
  1257 919.070 184.899 69.5161
  1258 223.179 31.7268 123.547
  1259 645.246 -8.20575 -14.9259
  1260 1203.26 13.7212 -11.8235
  1261 1240.39 18.4143 52.2045
  1262 1319.98 43.7494 -124.889
  1263 628.704 -19.9103 -39.2006
  1264 627.947 -28.9574 32.3148
  1265 637.217 -45.6256 28.6177
  1266 -18.5523 2.42491 11.5404
  1267 -16.7903 2.02682 -12.6706
  1268 618.956 -68.7115 -42.7803
  1269 632.734 -64.3054 -61.5726
  1270 501.228 3.43026 -8.60573
  1271 616.062 -69.8716 61.0932
  1272 659.466 -31.5299 -42.7316
  1273 15.5251 20.8234 4.64449
  1274 541.456 -9.92957 1.86929
  1275 541.488 -9.99079 -1.87413
  1276 653.065 -5.76330 9.94366
  1277 628.853 -11.4164 -6.60371
  1278 594.233 -64.8364 -24.8021
  1279 546.463 -29.1798 11.6708
  1280 543.858 -28.7503 -12.3536
  1281 636.251 -13.8683 24.4550
  1282 652.377 -24.1963 -50.5318
  1283 45.6691 31.6351 -25.2819
</Section>

newXOutput 88

<Section columns = "stress_xx | stress_yy | stress_xy">
  1 699.771 -0.374399 1.23539
  2 699.757 -0.358194 -1.23776
  3 404.779 -0.0579855 -0.443596
  4 -5.02735 -4.94733 -7.23426
  5 1211.75 513.812 398.561
  6 1200.95 531.074 -394.589
  7 -5.84770 -4.67763 7.73049
  8 404.668 -0.0592160 0.442654
  9 704.181 -1.27442 0.338101
  10 702.974 -1.97147 -0.436907
  11 701.838 -1.41357 1.32855
  12 700.655 -1.85935 0.209232
  13 698.056 -1.60133 2.08572
  14 695.649 -1.59911 1.42189
  15 689.602 -1.40400 3.04416
  16 680.563 -1.12155 4.52553
  17 672.599 -1.11379 5.12986
  18 660.440 -1.41309 6.29984
  19 643.170 -0.241046 9.44325
  20 627.228 -1.03398 9.08833
  21 608.579 -1.25874 12.9513
  22 581.697 0.873143 11.3780
  23 561.855 1.44111 13.5473
  24 535.927 2.35392 10.6871
  25 517.821 2.65366 10.8167
  26 491.615 3.54744 5.53988
  27 486.014 5.55753 5.97242
  28 482.605 4.65349 -1.77730
  29 487.171 2.86347 -3.84889
  30 495.618 2.66232 -4.73495
  31 515.271 3.26677 -9.42070
  32 534.374 2.58585 -11.8323
  33 562.060 0.699390 -13.9779
  34 584.146 -0.233450 -12.5957
  35 607.412 -0.990457 -12.2515
  36 628.329 -0.819645 -8.57619
  37 646.032 -0.899530 -7.24714
  38 660.419 -1.39450 -5.99876
  39 673.121 -1.05017 -4.06329
  40 680.811 -1.30054 -4.25828
  41 688.256 -1.50545 -3.08755
  42 695.101 -1.74926 -1.21202
  43 698.542 -1.43502 -1.52401
  44 700.129 -0.973535 -0.892267
  45 698.311 -0.677538 -0.819365
  46 703.572 -1.95685 0.326706
  47 704.343 -1.31474 -0.347814
  48 683.789 -0.972391 -0.766393
  49 670.076 -3.43554 -1.47478
  50 653.102 -4.90934 -0.825665
  51 632.256 -6.96572 -1.16895
  52 612.302 -7.51834 -1.38319
  53 590.866 -9.08123 -1.34084
  54 571.766 -9.90800 -0.639767
  55 555.004 -10.8190 -0.107353
  56 535.613 -8.90459 -0.0756222
  57 513.251 -8.18448 -0.320496
  58 491.740 -6.33169 0.0486537
  59 471.404 -3.90658 0.100035
  60 452.137 -2.69047 0.161100
  61 435.332 -1.25841 0.281003
  62 418.276 -0.244453 -0.495846
  63 404.900 0.589529 0.773375
  64 398.772 1.46715 0.572286
  65 402.511 0.0674921 1.26235
  66 397.493 -0.126782 1.54642
  67 392.647 -0.221898 1.92014
  68 386.178 0.0378398 2.45108
  69 378.043 0.0277213 3.05091
  70 371.679 -0.356232 5.72486
  71 354.835 0.512528 6.22077
  72 342.752 0.0106647 7.03512
  73 324.773 -0.251137 8.00581
  74 304.162 -0.453624 9.71828
  75 278.352 -0.0662507 11.8045
  76 246.898 0.175554 13.0761
  77 219.200 -0.194456 18.7249
  78 165.398 1.68036 17.8050
  79 128.097 1.44447 18.8810
  80 82.8023 -0.421806 21.1392
  81 44.5836 3.30401 22.2500
  82 0.761620 5.07236 13.8832
  83 -31.8484 5.18545 5.55548
  84 -32.7339 5.15195 -0.853862
  85 -32.9204 4.34811 -9.61974
  86 -19.5497 -1.14925 -9.39918
  87 -2.22552 -18.7633 -10.4391
  88 2.12755 -34.1777 -12.7405
  89 5.49888 -52.2880 -6.15409
  90 11.9624 -50.1822 2.67690
  91 24.9313 -0.897752 35.4408
  92 72.3517 130.246 112.894
  93 403.994 413.037 360.112
  94 1473.43 223.519 242.498
  95 1335.80 31.7498 77.9792
  96 1248.86 13.4215 23.8654
  97 1216.88 11.5333 1.76094
  98 1234.29 15.1741 -20.8708
  99 1333.83 29.8954 -61.8397
  100 1552.55 107.825 -206.553
  101 242.039 427.052 -303.323
  102 54.0900 101.674 -94.7877
  103 27.3479 1.84770 -38.3599
  104 11.2497 -49.4983 -8.35842
  105 3.47368 -39.1980 6.93963
  106 4.14962 -43.2288 10.9413
  107 0.296095 -16.0960 11.5801
  108 -20.4408 -0.638594 8.86109
  109 -33.9525 3.26624 8.33319
  110 -34.5233 6.24156 1.02444
  111 -32.8248 5.08185 -5.23279
  112 -1.60704 5.19762 -13.0696
  113 42.5451 3.33136 -21.2504
  114 80.7318 -0.0615411 -20.7958
  115 125.945 1.55966 -18.9120
  116 163.443 1.72162 -17.9279
  117 217.688 -0.202143 -18.8662
  118 245.608 0.191939 -13.1902
  119 277.223 -0.0631082 -11.9405
  120 303.596 -0.508261 -9.77937
  121 323.984 -0.234432 -8.02047
  122 342.148 0.0319428 -7.10009
  123 354.336 0.507141 -6.28041
  124 371.313 -0.360214 -5.77526
  125 377.743 0.0251228 -3.08158
  126 385.944 0.0353216 -2.47616
  127 392.461 -0.226111 -1.93990
  128 397.342 -0.130399 -1.56012
  129 402.381 0.0644861 -1.27099
  130 398.652 1.46592 -0.576216
  131 404.787 0.588866 -0.775880
  132 418.167 -0.247783 0.494727
  133 435.231 -1.26681 -0.283953
  134 452.049 -2.70875 -0.164517
  135 471.337 -3.93192 -0.103294
  136 491.697 -6.36835 -0.0519696
  137 513.237 -8.23124 0.317810
  138 535.630 -8.95919 0.0726227
  139 555.046 -10.8812 0.105791
  140 571.827 -9.97044 0.641669
  141 590.956 -9.13806 1.34728
  142 612.385 -7.55690 1.40639
  143 632.325 -7.00028 1.28260
  144 653.224 -4.67745 0.843336
  145 670.529 -3.35903 1.44134
  146 683.925 -1.07959 0.753733
  147 619.385 -58.2612 1.73038
  148 618.823 -57.4644 -1.51585
  149 655.117 93.7948 -28.9628
  150 692.803 40.7832 59.7137
  151 525.495 -51.0845 -119.628
  152 529.869 -50.9705 115.972
  153 516.589 -21.3589 15.9612
  154 516.612 -21.6391 -15.9644
  155 730.857 26.8077 -42.3083
  156 617.807 -22.5970 9.95305
  157 617.536 -22.0792 -9.83960
  158 798.081 176.030 5.31420
  159 635.442 -0.976470 -59.9011
  160 475.076 -36.5670 -54.1028
  161 475.134 -36.2815 53.6815
  162 635.687 -14.5424 53.3999
  163 608.978 44.7457 36.4527
  164 255.266 39.5676 -143.069
  165 281.784 37.6025 150.549
  166 767.145 10.2188 -3.50837
  167 635.760 -24.6834 -35.7578
  168 836.828 183.728 4.17586
  169 574.777 -16.3496 -1.94109
  170 574.668 -16.3122 1.98158
  171 639.788 -8.43150 -4.22566
  172 641.571 -7.65842 3.60743
  173 460.790 -6.14371 -8.97770
  174 460.860 -6.08407 8.94142
  175 680.828 -16.1330 152.318
  176 590.835 24.9560 -39.3581
  177 389.528 -28.7759 -85.2691
  178 390.654 -28.5734 84.7810
  179 439.036 -13.7001 -28.3193
  180 439.090 -13.5518 28.1423
  181 638.519 -17.1293 30.4557
  182 582.239 -39.7356 -5.53133
  183 580.331 -39.4407 6.36540
  184 656.580 -63.8928 -17.9743
  185 660.180 -60.8727 9.92424
  186 902.735 213.333 -39.1775
  187 667.480 106.552 26.9528
  188 666.127 40.9359 -61.1886
  189 677.492 -3.34055 -175.677
  190 658.150 -37.4603 -39.9712
  191 663.958 -26.8474 48.1835
  192 555.779 -62.9751 60.7859
  193 555.802 -62.5054 -60.6326
  194 599.476 7.89207 47.0266
  195 280.200 -7.31083 -104.826
  196 280.814 -7.85035 104.249
  197 1011.20 150.402 22.3343
  198 624.295 -37.3868 20.1680
  199 645.990 -12.3530 -19.3350
  200 519.888 -12.4105 -7.61105
  201 519.909 -12.3576 7.59295
  202 624.628 -8.20022 -41.4311
  203 708.791 103.814 -47.6573
  204 600.061 54.2221 -7.27637
  205 397.224 -13.3975 39.2402
  206 396.659 -13.4310 -39.4918
  207 653.758 -7.85527 10.0506
  208 642.729 12.1324 61.7425
  209 525.285 -37.5434 -27.9131
  210 522.076 -35.5285 28.3682
  211 752.401 111.851 41.1281
  212 873.392 125.927 32.2814
  213 64.7886 49.0468 -43.5325
  214 60.0704 45.3322 37.2047
  215 366.257 106.600 247.573
  216 618.210 -41.1967 -14.2255
  217 655.783 -7.53316 -9.05657
  218 593.306 5.51352 -43.3534
  219 424.603 -3.82469 -12.6355
  220 424.743 -3.78322 12.5432
  221 559.671 -25.9963 -7.97487
  222 559.937 -26.1744 7.66786
  223 629.296 -8.60659 35.0297
  224 715.185 -41.1072 24.3526
  225 719.647 145.630 -13.4784
  226 564.440 -54.1125 -30.8408
  227 707.398 -12.3591 34.5406
  228 605.792 -10.6976 0.975943
  229 605.789 -10.6198 -0.975474
  230 560.604 -53.8651 31.7836
  231 639.161 -40.8233 31.9399
  232 881.799 121.829 -68.8149
  233 204.121 121.372 -182.928
  234 553.006 19.9899 9.52065
  235 646.341 56.9674 52.2189
  236 683.074 -4.90325 -52.3668
  237 640.257 -23.2509 -49.2695
  238 353.148 -10.8453 -48.7556
  239 354.270 -10.6893 48.6395
  240 640.773 -8.04248 -26.6098
  241 610.155 -15.8823 4.57885
  242 609.876 -15.8739 -4.36609
  243 136.885 11.6345 -68.5100
  244 138.773 10.1857 68.2509
  245 674.324 -59.2248 -59.2188
  246 666.328 -3.01995 1.12553
  247 666.928 -3.07041 -1.30408
  248 632.329 52.5555 -48.0569
  249 562.788 11.3348 28.6568
  250 1125.83 180.218 121.563
  251 1115.53 127.059 -75.3258
  252 827.049 176.301 1.20333
  253 517.317 -25.3832 157.888
  254 476.184 -17.0126 -164.797
  255 549.529 -11.2832 -3.13200
  256 549.487 -11.2217 3.11494
  257 462.886 -11.7773 17.8358
  258 462.864 -11.9308 -17.9673
  259 654.064 -7.53253 15.7889
  260 636.458 -45.5472 -25.1449
  261 427.834 -0.575035 -3.03710
  262 427.943 -0.563481 3.02224
  263 628.584 -25.8227 -20.4514
  264 278.545 -8.86417 -67.9879
  265 279.610 -8.89022 67.5537
  266 637.061 -27.8970 38.6119
  267 489.808 -51.9974 96.3816
  268 490.915 -52.9210 -96.0775
  269 560.298 22.0376 -13.3431
  270 483.799 -7.01896 -6.08153
  271 483.852 -6.97662 6.06298
  272 603.070 -1.36050 34.4582
  273 715.322 130.042 32.7900
  274 396.150 -4.43366 20.9859
  275 395.867 -4.46786 -21.1390
  276 652.272 -54.8120 14.9912
  277 603.768 -68.0956 -67.4941
  278 669.294 -3.82799 4.47646
  279 477.084 -27.4124 -37.3506
  280 476.356 -27.1219 37.2350
  281 809.208 96.3500 220.968
  282 398.866 -32.3931 114.126
  283 639.058 89.4915 -3.05841
  284 793.517 89.9451 -21.6915
  285 604.455 -46.6910 2.49301
  286 604.454 -69.9194 61.3814
  287 399.940 -31.8994 -115.290
  288 76.7035 95.0604 88.5084
  289 628.694 -25.8948 20.8544
  290 816.275 109.313 14.1219
  291 673.943 -3.42715 -3.88464
  292 621.619 22.0144 -55.3585
  293 608.966 -34.5508 9.12281
  294 596.695 -50.2261 6.55244
  295 619.726 28.6583 53.4571
  296 649.330 -54.7898 -12.7926
  297 913.373 175.827 -17.8249
  298 608.810 -33.2295 -8.68487
  299 494.946 148.735 -299.683
  300 620.824 -65.9620 -18.1049
  301 616.598 -67.7876 25.0233
  302 460.203 -41.0798 -75.5119
  303 423.820 -1.36578 -6.53523
  304 423.946 -1.34150 6.49347
  305 460.446 -41.1281 75.1459
  306 658.809 -1.16241 -61.0300
  307 705.589 -29.2329 -20.1242
  308 545.154 -32.3113 -16.2152
  309 544.873 -32.3893 16.4820
  310 641.535 -55.2433 105.269
  311 645.638 -5.46645 20.1171
  312 773.671 6.35315 44.5408
  313 535.321 -18.5471 -9.22292
  314 535.369 -18.4985 9.18421
  315 491.401 -12.2699 -12.1858
  316 491.419 -12.1647 12.1743
  317 557.522 7.87875 -27.6936
  318 700.918 51.4989 -57.5315
  319 1062.67 289.589 -142.709
  320 635.889 -6.33914 -1.30196
  321 635.577 -6.26103 1.35270
  322 348.491 -1.60364 142.493
  323 488.201 -21.4013 -25.3246
  324 487.378 -21.3489 25.3955
  325 348.420 -2.46618 -141.944
  326 671.550 79.0964 -50.1997
  327 743.545 37.4876 39.3783
  328 641.016 -45.6783 -116.209
  329 595.897 -23.1867 2.70802
  330 595.333 -23.0392 -2.47302
  331 633.019 -13.7391 -9.24455
  332 603.413 -1.04089 -32.1974
  333 670.146 2.69544 59.2351
  334 664.473 -5.12556 -10.7492
  335 412.016 -24.2185 57.3389
  336 411.570 -24.3403 -57.7249
  337 626.963 -1.33170 57.0972
  338 399.296 -2.91706 -12.5771
  339 399.540 -2.89079 12.4806
  340 637.999 -15.2154 15.4866
  341 766.546 155.652 -21.8052
  342 632.793 -13.8212 9.64173
  343 678.697 84.9008 50.1881
  344 648.235 -12.2200 58.1073
  345 519.460 -9.50772 2.94625
  346 519.453 -9.55786 -2.96071
  347 616.887 -2.09434 -50.7790
  348 807.595 169.169 10.7052
  349 678.382 123.351 1.03006
  350 414.176 47.7600 -210.003
  351 48.1352 19.0022 -31.4952
  352 52.2027 20.5970 33.6271
  353 -0.667844 5.61757 11.1982
  354 1.60263 3.66035 -11.8197
  355 1147.96 79.8114 26.7212
  356 561.361 -45.0953 -19.5477
  357 638.384 -14.7403 -15.0884
  358 579.589 -10.5448 0.0121393
  359 579.525 -10.4715 -0.0175919
  360 624.409 69.0311 -26.0703
  361 531.059 -53.5780 50.1194
  362 49.4547 74.4490 -56.5840
  363 531.450 -53.5371 -50.9185
  364 632.039 71.8999 27.7235
  365 638.368 -17.4321 -28.8672
  366 674.940 -37.9587 -32.3933
  367 724.424 151.252 9.21022
  368 676.089 -42.5792 25.3258
  369 294.423 -6.92968 45.3911
  370 292.854 -6.79200 -45.6346
  371 169.859 3.69326 -64.1560
  372 171.382 3.08110 63.8894
  373 565.422 2.32458 27.9155
  374 1030.96 307.845 128.679
  375 657.897 -4.57620 -14.1022
  376 518.924 -43.0473 -38.7191
  377 518.584 -42.9687 38.6732
  378 635.717 -14.9551 -37.5118
  379 716.484 -34.5683 -3.58244
  380 561.342 -45.0678 20.0311
  381 780.323 8.57503 -74.0506
  382 460.797 -3.34486 -2.53322
  383 460.876 -3.31851 2.52060
  384 627.219 -3.79118 -24.4180
  385 350.908 -4.69303 -29.4885
  386 351.088 -4.85324 29.1634
  387 743.562 95.4102 -46.4968
  388 405.333 28.2536 195.730
  389 585.829 -30.6712 -1.00594
  390 586.383 -30.6279 0.987199
  391 689.556 115.941 -31.3582
  392 650.203 -19.4655 -54.5455
  393 647.207 -66.4636 60.6106
  394 547.709 -14.4426 -5.02646
  395 547.661 -14.3866 4.99228
  396 626.456 -48.4726 15.1237
  397 670.033 -3.61257 7.89083
  398 432.133 -14.9846 -35.1623
  399 432.309 -14.9962 34.9049
  400 640.010 21.6178 -61.0516
  401 601.227 -13.5333 1.36264
  402 601.193 -13.5716 -1.29730
  403 624.865 -7.47708 46.2056
  404 588.537 43.3584 12.7147
  405 644.721 -27.5144 46.9420
  406 921.817 191.526 38.4993
  407 321.232 -17.1590 -91.3850
  408 322.061 -17.1568 90.7615
  409 145.313 76.1183 -112.692
  410 682.075 -2.54552 1.93505
  411 365.945 -2.75223 -18.7092
  412 366.382 -2.69413 18.5706
  413 636.058 -16.8916 36.5592
  414 577.508 -62.4736 35.4115
  415 647.182 -8.75948 6.49334
  416 664.875 33.7160 62.9993
  417 151.666 81.0476 116.940
  418 578.300 -62.0815 -32.9542
  419 597.068 -55.3429 -10.8460
  420 207.001 -4.10188 -57.6944
  421 208.325 -4.23958 57.3357
  422 460.907 -37.5739 -137.591
  423 682.919 -10.4253 50.8254
  424 459.416 -38.0525 136.480
  425 632.361 -35.7715 -28.7187
  426 595.907 40.6874 -27.6560
  427 632.384 -27.6989 27.6015
  428 674.169 -3.55683 -5.07734
  429 22.6560 25.5349 13.5898
  430 141.972 168.098 164.582
  431 613.736 -2.21991 23.7815
  432 525.630 7.72574 12.2405
  433 533.669 9.28694 -16.5400
  434 455.406 -6.96969 -12.5931
  435 455.469 -6.88530 12.5276
  436 623.418 -48.4264 -13.4423
  437 632.317 -12.5389 -51.4142
  438 528.076 10.5213 -4.48808
  439 920.436 220.342 53.7274
  440 136.012 43.2085 -84.8323
  441 149.194 39.6223 90.1754
  442 585.285 -20.9828 -0.249029
  443 585.082 -20.9514 0.386592
  444 778.189 169.584 -1.52347
  445 474.562 211.560 306.260
  446 741.086 -9.49703 -1.00516
  447 439.775 -22.1323 -47.6937
  448 439.995 -21.9954 47.3429
  449 444.770 -9.30073 19.2562
  450 444.673 -9.36203 -19.4008
  451 592.053 13.5962 -44.7710
  452 685.098 -1.44949 -1.22662
  453 577.610 27.0873 25.3341
  454 717.153 88.4563 52.2611
  455 598.517 -44.3422 -0.651067
  456 646.850 -8.38715 -6.33522
  457 676.661 -3.27107 4.66985
  458 683.014 -1.57239 0.694560
  459 683.463 -1.71548 -0.467958
  460 398.227 -0.550292 4.73335
  461 398.029 -0.559374 -4.77352
  462 652.449 -41.8033 34.7383
  463 597.441 23.9956 43.3813
  464 620.915 2.65464 -55.8910
  465 642.442 -14.0870 20.9551
  466 901.074 167.245 -190.672
  467 644.984 -36.0854 -40.0948
  468 9.73359 12.7857 7.23172
  469 9.53094 13.1306 -4.02704
  470 517.494 -28.5964 22.7055
  471 515.901 -28.1818 -22.3834
  472 787.215 19.6809 106.310
  473 224.476 214.041 -235.908
  474 638.202 -2.15566 18.1231
  475 713.046 -40.9264 -63.4722
  476 394.917 -22.0449 66.1215
  477 771.026 137.041 -31.5178
  478 635.855 -34.7296 33.1616
  479 539.070 -25.2680 -12.5318
  480 539.531 -24.8688 12.5112
  481 565.298 3.22590 -24.6130
  482 393.748 -21.9425 -66.4641
  483 578.014 0.508108 24.6296
  484 545.872 -62.6368 -87.2858
  485 544.555 -62.7317 87.6942
  486 654.730 -4.69595 15.6299
  487 604.588 57.3159 5.24295
  488 598.357 12.3894 212.020
  489 884.589 177.780 -1.10305
  490 614.513 -10.9901 2.25443
  491 614.533 -10.9544 -2.39009
  492 483.336 -8.09428 -8.31825
  493 483.383 -8.03372 8.29558
  494 257.911 10.8327 120.806
  495 638.991 -31.0829 -39.6567
  496 581.317 -12.9446 -0.942756
  497 581.260 -12.9092 0.949367
  498 508.715 -53.4654 71.3150
  499 262.650 14.4608 -123.754
  500 638.687 -52.3153 -15.5662
  501 12.4661 5.36875 2.43472
  502 569.915 30.0675 1.89626
  503 616.351 -7.84916 -0.677285
  504 616.349 -7.94024 0.648102
  505 508.911 -53.3496 -71.8281
  506 713.545 -35.7540 78.5756
  507 713.393 26.0096 52.1944
  508 655.765 -5.19667 -2.94475
  509 636.759 -53.0229 15.9129
  510 416.513 -0.223551 -0.912479
  511 416.625 -0.220426 0.907040
  512 637.500 -24.7457 -43.0182
  513 622.781 46.2463 47.1355
  514 704.986 17.5349 -51.6841
  515 413.959 -0.479399 -2.67997
  516 414.083 -0.471735 2.66546
  517 1195.17 173.001 -153.153
  518 646.796 76.8337 41.1903
  519 656.244 -4.87417 2.59354
  520 598.302 -56.5875 12.3172
  521 510.000 -16.3379 12.8605
  522 509.979 -16.4498 -12.8345
  523 691.131 -42.3906 10.0533
  524 667.879 -13.5961 -54.4887
  525 747.785 146.247 27.8742
  526 626.135 10.9317 58.0319
  527 625.406 -12.6746 5.30541
  528 606.604 -65.2113 -85.2841
  529 633.597 -15.9494 43.0268
  530 1178.86 54.5004 -21.3426
  531 685.691 -51.9483 6.92919
  532 651.723 -5.09436 -0.544195
  533 651.882 -5.36528 0.422313
  534 1191.15 79.8458 74.2013
  535 611.687 -0.0468745 49.3752
  536 839.611 144.701 -2.15716
  537 636.989 -17.8514 -20.0016
  538 304.321 -2.62220 -20.1289
  539 305.134 -2.49350 19.9442
  540 438.383 -40.8416 -95.7532
  541 438.787 -40.1639 95.0971
  542 625.051 -12.1932 -5.28490
  543 682.004 25.0214 -60.3633
  544 600.208 -40.7937 2.97925
  545 649.451 74.3835 -42.6013
  546 648.324 -8.01687 20.9967
  547 802.336 43.4235 -20.2545
  548 559.416 -19.0521 -5.20576
  549 559.273 -19.0041 5.16582
  550 604.176 -28.6687 6.16949
  551 877.560 178.353 -25.4059
  552 639.578 28.0602 60.1881
  553 276.694 70.7768 177.555
  554 609.057 -36.3635 144.078
  555 792.768 45.0494 -160.231
  556 653.610 54.0916 -55.7221
  557 574.182 -50.0986 -125.332
  558 622.764 -68.5199 -30.0857
  559 648.302 -66.0652 -41.6149
  560 88.9677 118.995 -112.350
  561 652.259 -8.92347 -12.1187
  562 971.688 188.224 -58.7263
  563 607.199 -27.5834 -7.42387
  564 611.641 -20.2982 6.18310
  565 611.095 -19.8669 -5.84473
  566 436.461 -2.15952 -6.00529
  567 436.566 -2.13191 5.97419
  568 68.9414 6.17513 -36.2617
  569 72.0795 6.49533 37.0486
  570 326.080 -14.6823 -69.4737
  571 328.371 -14.7700 69.4210
  572 620.177 -33.8674 -16.7211
  573 629.614 -68.8112 32.1642
  574 647.040 -61.7854 -3.12639
  575 538.209 -9.46883 -2.47052
  576 538.188 -9.41156 2.46002
  577 507.410 -53.5330 -107.096
  578 563.709 -46.6800 132.227
  579 495.806 -50.4006 107.600
  580 639.664 -14.3559 -55.0479
  581 413.767 -6.35618 21.2757
  582 413.570 -6.41865 -21.4230
  583 614.701 34.3261 -47.4566
  584 614.065 -1.09626 -21.5744
  585 761.544 163.421 -12.0278
  586 505.545 -7.34895 -2.26501
  587 505.570 -7.30709 2.25654
  588 649.117 -2.07313 -11.8239
  589 459.131 -14.7528 -24.0884
  590 459.167 -14.7120 23.9104
  591 370.810 16.1512 168.974
  592 631.816 -29.3998 -27.8358
  593 359.886 -19.5328 121.713
  594 620.966 -32.4305 17.2332
  595 650.868 -9.81496 13.5011
  596 641.749 -6.65529 -2.49207
  597 465.457 -5.31868 -5.75588
  598 465.529 -5.27897 5.73353
  599 731.254 144.780 -25.5858
  600 359.616 -18.8740 -122.102
  601 618.831 -27.1352 -13.3855
  602 561.936 -10.5957 -1.46806
  603 561.885 -10.5291 1.46290
  604 1027.54 137.500 -24.9579
  605 386.353 -2.22670 11.6274
  606 386.045 -2.24732 -11.7196
  607 585.791 13.8499 40.9550
  608 813.709 71.7532 2.11696
  609 394.265 1.72393 -167.506
  610 209.368 4.50563 -92.6931
  611 210.934 3.42040 92.2131
  612 497.084 -28.2000 30.4443
  613 501.868 -29.0333 -29.7315
  614 827.866 167.764 5.30506
  615 639.368 -6.86919 2.16737
  616 563.086 16.4432 -24.8580
  617 691.508 123.324 24.8254
  618 689.378 127.905 -16.5355
  619 566.426 -31.1077 -8.15398
  620 570.475 -30.4535 6.19443
  621 403.589 89.2653 -238.817
  622 492.848 -16.2116 -17.2647
  623 492.905 -16.0392 17.2218
  624 1191.22 244.596 184.407
  625 638.178 -21.1568 46.8201
  626 376.831 -12.6738 -44.4449
  627 961.250 240.497 167.927
  628 377.647 -12.6130 44.3100
  629 603.544 -22.5993 -167.081
  630 443.892 -1.84666 -2.20579
  631 443.987 -1.83110 2.19710
  632 545.155 5.24255 21.7187
  633 256.273 -3.57721 -39.8063
  634 257.493 -3.58787 39.5315
  635 559.415 -39.1519 15.6626
  636 584.819 -46.5786 -8.04568
  637 680.545 -1.78545 -4.42013
  638 404.524 -0.512020 3.56491
  639 404.363 -0.522052 -3.59416
  640 530.786 -11.7893 -4.13865
  641 530.778 -11.7341 4.11675
  642 599.924 -66.9743 85.9627
  643 692.757 77.2914 -54.7760
  644 469.543 -21.0870 -30.9652
  645 469.260 -20.7425 30.7696
  646 549.694 -38.9823 -20.0794
  647 854.669 184.758 10.4326
  648 643.425 -62.5556 6.50373
  649 563.887 -13.6185 -2.92688
  650 563.814 -13.5646 2.92311
  651 765.866 84.8831 36.4983
  652 645.844 -9.80337 -22.7965
  653 580.993 -0.528470 -20.0164
  654 275.560 -9.46160 -87.7810
  655 276.299 -9.69662 87.1368
  656 547.875 -46.7132 -30.3929
  657 814.731 177.019 -0.171971
  658 639.070 86.3335 -18.5602
  659 433.868 -3.55168 -10.8620
  660 433.979 -3.50387 10.7917
  661 591.830 -17.0371 -0.334890
  662 591.940 -17.0421 0.443186
  663 1074.88 139.751 61.9344
  664 688.170 -2.22706 1.05704
  665 669.776 -2.99502 7.82584
  666 667.653 -2.98970 -9.35448
  667 636.234 -59.4718 2.90699
  668 479.951 -5.22436 -2.87211
  669 480.008 -5.19158 2.86221
  670 684.433 109.034 38.5213
  671 867.858 191.953 -17.4171
  672 485.502 -35.2108 -43.8585
  673 485.420 -34.8895 43.6740
  674 598.716 -61.5905 -18.1406
  675 635.569 37.9259 -56.7851
  676 742.528 2.55420 16.7080
  677 505.660 -9.07352 -6.04656
  678 505.687 -9.02369 6.02806
  679 437.375 -37.9509 -86.4019
  680 630.417 -61.1645 2.70412
  681 527.508 -58.4346 78.6828
  682 256.319 79.9501 -171.599
  683 495.677 -45.3215 60.7161
  684 598.365 0.180306 18.3468
  685 437.809 -37.5355 85.8818
  686 618.494 -27.6268 13.5498
  687 495.764 -45.1128 -61.2038
  688 517.735 7.19270 4.58318
  689 401.598 -10.1595 31.8250
  690 401.264 -10.1618 -32.0122
  691 527.659 -59.9408 -79.5178
  692 648.361 -43.0124 -33.5073
  693 596.016 -8.92044 -0.166219
  694 596.110 -8.99960 0.167707
  695 661.763 -42.5252 32.5734
  696 603.000 -62.9937 20.6740
  697 730.100 67.2771 50.4814
  698 661.034 -12.6322 56.7223
  699 636.165 -23.2122 33.6117
  700 614.528 50.8143 -36.0015
  701 731.061 122.466 40.2347
  702 632.717 -8.93762 -33.8366
  703 628.052 -21.2850 15.7836
  704 655.434 102.093 9.98228
  705 639.979 -11.1968 28.9156
  706 205.661 141.138 180.443
  707 594.684 -68.5725 -51.9772
  708 688.324 12.4022 57.0196
  709 692.943 -21.5699 -37.7664
  710 685.965 -1.27484 2.29284
  711 635.135 -22.2715 -25.8254
  712 595.691 -69.0989 47.7174
  713 1121.60 99.5888 -16.5176
  714 371.464 -1.40065 12.1461
  715 371.064 -1.41498 -12.2435
  716 642.185 -12.3011 -11.2653
  717 689.676 -1.00321 -2.27923
  718 547.001 -47.4861 30.5388
  719 652.536 -24.5622 51.0050
  720 969.845 240.784 -86.5461
  721 618.586 -44.9394 12.6882
  722 682.074 -45.1981 -15.5245
  723 628.247 -20.7471 -15.5161
  724 688.576 -1.58184 -0.589273
  725 639.502 -0.126218 60.5011
  726 31.1410 35.1895 41.9419
  727 708.322 -25.6678 -112.804
  728 774.355 47.6289 18.4579
  729 647.911 -66.5234 37.9923
  730 474.720 -10.8279 14.0438
  731 474.700 -10.9695 -14.0962
  732 585.787 322.521 -320.830
  733 661.941 -44.1131 -29.5551
  734 515.885 3.22696 -8.77370
  735 591.059 3.52454 39.6794
  736 640.427 -32.3455 40.2124
  737 613.830 -51.7307 3.29473
  738 633.472 -58.1732 -92.4547
  739 610.364 -48.2927 -4.67312
  740 714.410 -34.0681 1.07140
  741 658.962 -6.04468 6.43015
  742 593.732 -35.6019 0.940656
  743 1054.68 210.666 -114.581
  744 630.550 -17.4198 12.2412
  745 629.164 10.4718 -59.5131
  746 531.230 -5.51321 187.055
  747 671.655 53.9845 59.8537
  748 578.172 -45.2257 10.8450
  749 452.707 -34.9023 -63.4712
  750 452.794 -34.8247 63.0181
  751 619.553 69.7876 -8.33677
  752 626.342 -7.32553 52.5867
  753 631.749 -15.2053 -44.1435
  754 594.373 -36.3599 -1.08807
  755 575.374 -51.2223 19.5752
  756 660.211 108.253 -11.1239
  757 613.108 -53.0791 -0.892032
  758 614.799 -39.0400 12.6531
  759 621.031 -8.67037 1.61894
  760 621.366 -8.46314 -1.59604
  761 834.275 181.325 -0.387397
  762 679.768 -58.0801 -28.3186
  763 636.991 -19.9357 25.8395
  764 658.985 -6.04912 -5.76161
  765 670.924 4.36075 -59.8408
  766 757.645 41.1191 -29.2474
  767 391.213 -0.229496 -5.75926
  768 391.457 -0.224764 5.71133
  769 6.24487 -9.59261 -6.54092
  770 650.584 -0.954667 10.9082
  771 602.897 -0.720433 -43.6114
  772 620.174 -5.83745 37.9002
  773 554.363 73.7026 270.903
  774 705.006 143.379 -1.34179
  775 505.202 -35.3348 35.0423
  776 98.2955 1.82677 -35.2628
  777 100.620 1.31395 35.6186
  778 615.372 -4.33275 -43.0013
  779 506.413 -35.6621 -35.0592
  780 655.220 -6.62192 4.66118
  781 349.566 -14.3841 59.1821
  782 346.782 -14.3250 -59.1555
  783 630.469 -16.9391 -11.9030
  784 416.287 -9.84618 -27.8128
  785 416.488 -9.78901 27.6042
  786 655.403 -6.70621 -15.4844
  787 509.983 -13.1784 -10.3169
  788 510.014 -13.1037 10.3228
  789 714.287 -4.33071 -37.2537
  790 647.996 -6.87635 -60.1850
  791 344.869 -2.00563 -15.3531
  792 345.453 -1.98660 15.1958
  793 22.8265 8.38334 -22.4127
  794 25.5539 8.86367 23.5104
  795 537.750 2.75431 -15.7450
  796 590.594 -66.3387 -39.9981
  797 -6.46785 -4.35873 11.4771
  798 -5.78371 -5.36616 -11.5648
  799 613.920 -12.8847 3.70193
  800 663.820 -52.1422 -13.3794
  801 690.544 101.916 -44.7348
  802 657.711 -6.00262 -4.45554
  803 1353.09 279.567 -253.834
  804 613.789 -12.8550 -3.64512
  805 915.826 172.646 16.3390
  806 659.268 19.1974 -62.9918
  807 724.003 55.0287 -52.0653
  808 134.712 -1.53974 -32.2107
  809 136.750 -1.71577 32.1630
  810 423.875 -5.65047 16.6957
  811 423.722 -5.69353 -16.8184
  812 408.521 -0.784727 3.16857
  813 408.383 -0.793458 -3.18880
  814 734.499 123.359 -39.6255
  815 447.689 -2.44102 -4.79937
  816 447.780 -2.41422 4.77887
  817 628.196 -6.30428 -54.9814
  818 881.595 99.6504 89.5470
  819 572.468 13.3310 -34.5253
  820 208.946 -1.76074 34.0960
  821 207.469 -1.77784 -34.3331
  822 712.753 23.7276 197.042
  823 641.672 -12.3991 11.6240
  824 585.200 39.3514 -14.3570
  825 281.710 -0.318845 22.9909
  826 280.481 -0.194661 -23.1376
  827 415.288 -1.82837 -8.26542
  828 415.444 -1.80211 8.20367
  829 76.1367 67.0355 60.9017
  830 606.916 14.8007 50.8423
  831 671.963 98.3058 -38.8635
  832 718.381 83.5746 -52.7133
  833 481.569 -17.4686 -22.1554
  834 481.331 -17.3569 22.1458
  835 745.996 157.062 17.4255
  836 639.057 -6.09344 -0.473657
  837 639.110 -6.05028 0.573021
  838 636.487 -19.4718 -34.2383
  839 537.618 -35.2136 22.0153
  840 587.254 -65.9448 40.0294
  841 683.131 -55.9253 61.5314
  842 533.949 -15.2216 -6.97184
  843 533.957 -15.1780 6.93892
  844 611.512 56.9360 23.2112
  845 577.099 8.30713 -37.1840
  846 159.646 202.598 187.497
  847 577.061 -50.7857 -18.1991
  848 579.373 -25.8361 -2.20890
  849 579.673 -25.9113 2.16788
  850 637.109 -9.49847 57.3999
  851 629.374 -41.5767 -22.9014
  852 565.307 -37.0179 -11.3038
  853 1233.68 39.9110 -59.4762
  854 538.261 -50.3327 40.3918
  855 537.787 -50.9564 -40.9739
  856 635.634 -7.80093 28.6924
  857 941.240 246.306 -65.0332
  858 506.940 -45.2900 -48.9228
  859 556.223 -62.3102 47.9417
  860 506.878 -44.7716 48.5383
  861 548.257 -21.7645 -8.43063
  862 548.263 -21.7084 8.38693
  863 86.6493 35.0564 52.6664
  864 682.572 51.0219 -59.9788
  865 527.836 -20.1474 -11.7739
  866 527.944 -19.9607 11.8088
  867 522.299 -8.47826 -1.45480
  868 522.300 -8.42864 1.44767
  869 569.720 -11.5724 -1.24641
  870 569.658 -11.5084 1.23954
  871 471.505 -8.68922 -12.0602
  872 471.558 -8.59897 12.0218
  873 529.381 -27.2234 -17.1225
  874 529.461 -27.0635 17.1993
  875 14.0381 0.276870 -9.52350
  876 786.274 147.823 25.7196
  877 677.377 -24.0108 -45.4918
  878 555.675 -61.3893 -48.3675
  879 598.797 -19.5872 2.48012
  880 598.551 -19.4074 -2.33905
  881 653.459 0.698073 61.5403
  882 701.738 -49.9400 -38.1815
  883 617.504 48.3100 -236.193
  884 293.780 -5.52439 118.778
  885 -6.27921 6.84651 -9.67268
  886 -5.00813 7.75087 10.4997
  887 86.2695 37.2688 -53.8400
  888 636.183 -18.7896 19.7963
  889 665.530 -4.91870 -8.20009
  890 600.038 -58.1661 104.689
  891 293.128 -5.27562 -119.200
  892 668.621 -55.1566 6.85005
  893 736.751 -19.6305 94.3727
  894 555.192 2.36334 16.6490
  895 628.529 59.8854 39.2571
  896 347.100 -19.2804 86.6078
  897 345.834 -19.4321 -87.1123
  898 415.339 -18.9841 -48.7543
  899 428.181 -21.8203 -150.562
  900 671.319 -15.9712 52.5244
  901 910.479 218.572 45.4971
  902 675.581 25.8741 61.1693
  903 638.395 -13.9734 -31.4883
  904 436.729 -19.5406 154.247
  905 808.041 150.209 -15.4385
  906 85.7021 71.6010 -74.3939
  907 596.850 -1.08146 -17.5004
  908 415.760 -18.8387 48.3776
  909 501.919 -10.6623 8.98384
  910 501.889 -10.7252 -8.99740
  911 630.232 -41.3469 23.8142
  912 649.820 -4.91542 1.56975
  913 481.298 3.97036 -186.108
  914 682.965 -1.79001 3.85376
  915 679.034 -1.50776 -5.08651
  916 526.838 4.84130 -14.5550
  917 660.022 -2.81516 -9.58979
  918 502.658 -22.7850 -21.0526
  919 502.987 -22.4654 21.1256
  920 -14.8538 6.52801 -8.31993
  921 -21.2663 3.94432 9.11831
  922 649.772 -4.61164 -1.64541
  923 227.607 -5.35239 80.3261
  924 226.426 -4.91371 -80.7359
  925 700.953 101.816 46.8439
  926 1206.21 21.9616 18.1181
  927 661.893 73.4190 50.7012
  928 736.851 -24.8767 33.4986
  929 647.707 -36.3594 40.0652
  930 804.069 167.994 -11.9060
  931 516.897 2.57207 10.9910
  932 622.451 -15.2323 -6.62849
  933 650.918 35.0880 -61.5077
  934 773.890 24.9401 -2.03675
  935 608.474 -37.6485 -9.01521
  936 326.704 -1.63237 -17.1088
  937 326.964 -1.57332 16.8877
  938 640.513 -15.5301 -23.8412
  939 23.9547 29.5022 9.04750
  940 615.120 -63.8320 -12.6199
  941 546.384 16.8548 -1.49738
  942 799.874 174.233 -7.85754
  943 132.254 97.9425 -120.003
  944 620.178 -4.64762 -33.9581
  945 440.080 -6.80487 -15.7543
  946 440.177 -6.72985 15.6452
  947 4.54673 -16.6211 12.3316
  948 427.438 -31.0875 -69.9414
  949 627.098 -36.5029 -22.4405
  950 407.830 0.891519 -1.34469
  951 407.949 0.894689 1.33778
  952 639.105 77.4873 -31.2344
  953 671.479 -2.62005 -0.766349
  954 671.531 -2.64098 1.03788
  955 427.660 -31.0192 69.5272
  956 636.696 -1.06041 -13.2412
  957 725.509 5.49723 35.2128
  958 644.828 -9.74997 8.77366
  959 111.190 26.4328 -65.0653
  960 666.637 -4.58851 7.36501
  961 614.838 5.21291 54.1196
  962 648.177 89.4606 27.7503
  963 645.534 7.52171 -62.6887
  964 452.653 -23.4127 -42.4009
  965 690.920 -24.7841 36.1626
  966 452.954 -23.3390 42.0276
  967 23.1472 24.2808 -5.21592
  968 83.7575 13.0812 47.8340
  969 375.762 -6.18165 28.5778
  970 375.348 -6.17870 -28.7099
  971 622.897 -15.4851 7.08693
  972 675.520 116.624 15.0750
  973 346.051 30.6895 -177.269
  974 564.375 -34.8655 10.2037
  975 530.037 -54.9934 -58.9417
  976 766.468 146.327 28.8015
  977 591.732 -10.8660 -0.281987
  978 591.704 -10.8162 0.274864
  979 645.093 -12.4940 -16.6513
  980 606.220 52.6936 -21.3963
  981 1294.96 396.491 265.804
  982 134.838 6.79262 -61.4630
  983 136.616 5.62465 61.5664
  984 10.0685 -7.34809 5.92045
  985 607.309 34.0521 43.9223
  986 529.996 -55.3478 58.5550
  987 652.315 -31.0800 -46.4567
  988 708.935 57.9469 57.8189
  989 675.777 -54.5720 -73.6701
  990 982.048 206.083 72.6376
  991 581.793 -9.78460 -0.651071
  992 581.721 -9.71533 0.650142
  993 676.613 -27.9184 42.7542
  994 48.5723 91.2987 87.8218
  995 319.704 -6.31410 40.7317
  996 318.824 -6.23107 -41.1075
  997 376.532 -17.7006 56.0144
  998 375.326 -17.4120 -56.1827
  999 422.151 -16.6702 40.6466
  1000 461.500 -3.28520 -2.11497
  1001 461.578 -3.26295 2.10804
  1002 1081.09 361.388 -234.740
  1003 998.689 251.170 109.568
  1004 421.819 -16.7429 -40.9388
  1005 696.511 -3.36532 47.4775
  1006 631.383 65.5756 -37.6759
  1007 446.371 -38.8393 125.062
  1008 568.043 -67.2287 -70.1875
  1009 648.226 -5.61418 -19.0068
  1010 299.377 19.3087 145.168
  1011 383.704 -29.1776 99.8235
  1012 583.051 30.4250 -27.6795
  1013 656.504 -13.1931 -57.5760
  1014 798.732 359.174 362.426
  1015 553.941 17.5039 19.8542
  1016 739.592 157.392 -2.15202
  1017 537.557 22.1689 -210.859
  1018 553.662 -57.8069 -41.7547
  1019 689.803 -1.11635 -1.82872
  1020 673.290 61.7983 -58.2391
  1021 408.771 -2.31759 10.4961
  1022 408.581 -2.34044 -10.5777
  1023 15.7215 15.5559 -25.3349
  1024 453.503 -19.8906 -35.4771
  1025 383.219 -29.5451 -100.495
  1026 453.215 -19.8606 35.1423
  1027 642.489 -19.7699 53.2999
  1028 577.762 -35.4740 -5.36385
  1029 610.406 11.4988 -52.5834
  1030 628.549 78.4320 11.0086
  1031 828.462 55.3425 42.2096
  1032 634.739 -48.4337 21.9176
  1033 410.604 -32.1770 -76.5216
  1034 606.062 21.8233 -49.4340
  1035 449.889 -38.3622 -125.615
  1036 851.892 182.584 -5.40740
  1037 591.327 39.2772 25.1809
  1038 730.172 -3.77592 -24.6711
  1039 557.036 -57.8650 38.9237
  1040 636.222 -20.4633 40.6806
  1041 631.160 -33.5805 27.3777
  1042 627.675 -31.8378 23.2863
  1043 770.569 98.9786 -37.9243
  1044 629.429 -10.3132 42.3089
  1045 567.302 -67.4134 69.1071
  1046 605.452 -24.9994 5.62828
  1047 410.869 -32.2530 76.1658
  1048 570.684 -41.6147 -12.1463
  1049 338.996 -16.7099 -106.709
  1050 476.374 -49.1575 85.4859
  1051 639.530 -4.60112 -22.3417
  1052 625.268 -7.11105 -48.5353
  1053 542.924 -42.3153 -26.5157
  1054 339.548 -17.1455 105.964
  1055 588.257 1.64729 -34.4732
  1056 440.873 -28.3907 -54.5569
  1057 780.815 164.742 17.3024
  1058 182.544 28.6390 -103.656
  1059 1282.50 90.3758 120.771
  1060 319.582 22.4537 -151.579
  1061 627.175 -52.0953 -11.0276
  1062 441.018 -28.1671 54.1691
  1063 582.819 6.56247 38.7623
  1064 336.505 -6.42405 33.7499
  1065 336.376 -6.57921 -34.0579
  1066 636.898 -17.8926 -49.5749
  1067 669.076 -3.98665 2.65728
  1068 660.505 -1.71896 9.63248
  1069 657.248 21.7331 62.9950
  1070 617.524 -4.63107 45.8376
  1071 473.773 51.5548 227.630
  1072 693.640 -0.779001 0.791947
  1073 663.917 89.6055 40.2976
  1074 568.962 8.67620 33.5497
  1075 667.433 -2.79471 9.15023
  1076 444.518 -4.30370 -8.95081
  1077 444.609 -4.25667 8.90497
  1078 287.692 -7.80705 -56.4515
  1079 288.678 -8.09169 56.1281
  1080 570.897 29.0569 14.1305
  1081 829.483 49.6725 -72.3984
  1082 762.602 2.71347 -125.168
  1083 623.352 -0.642416 -13.8696
  1084 476.461 -49.5116 -86.0865
  1085 544.078 -40.2551 24.0915
  1086 626.553 -1.51046 14.4530
  1087 651.105 -47.5586 -26.4133
  1088 422.706 -0.731500 5.23080
  1089 422.587 -0.746114 -5.25704
  1090 626.014 -53.5855 11.0054
  1091 596.157 -12.6263 0.188916
  1092 596.057 -12.6431 -0.159101
  1093 580.741 -58.2108 26.7933
  1094 738.318 -23.1552 -17.4552
  1095 354.186 -0.552008 -9.58582
  1096 354.695 -0.532716 9.49847
  1097 509.057 -32.9068 -143.972
  1098 545.894 -12.9521 4.18605
  1099 545.932 -13.0112 -4.21180
  1100 327.143 181.263 250.234
  1101 745.917 61.9804 -44.5613
  1102 116.779 55.1066 -80.5568
  1103 645.066 -10.2462 -8.45246
  1104 180.131 59.8421 -119.061
  1105 370.817 -22.7050 -72.3930
  1106 693.238 -1.08131 0.582680
  1107 693.438 -1.03436 -0.411551
  1108 637.523 -36.6671 -33.8708
  1109 564.153 -63.7008 -94.6676
  1110 182.726 24.3855 98.7687
  1111 694.412 68.6362 55.7666
  1112 627.180 -7.06359 -0.610841
  1113 627.264 -7.06436 0.663114
  1114 679.452 -42.8566 115.415
  1115 713.153 141.422 21.0158
  1116 434.021 -9.81647 -22.3430
  1117 434.140 -9.77758 22.2128
  1118 325.214 36.2057 179.135
  1119 608.768 3.30968 -50.7728
  1120 195.804 61.5644 127.523
  1121 763.865 -11.3593 -45.8880
  1122 762.147 166.212 5.86006
  1123 528.243 -41.0632 31.2384
  1124 499.719 3.01690 -2.14717
  1125 660.760 -6.25656 11.3014
  1126 681.627 -1.14095 4.36590
  1127 164.424 0.202320 -28.6453
  1128 166.281 0.134224 28.4716
  1129 553.096 9.77318 -24.9442
  1130 561.679 -16.4744 -4.03383
  1131 561.570 -16.4137 4.01761
  1132 60.7927 109.436 -93.7464
  1133 94.5380 225.241 -180.466
  1134 568.276 -22.1009 4.28786
  1135 568.465 -22.0804 -4.32845
  1136 585.695 -14.3804 -0.0475135
  1137 585.616 -14.3610 0.0863036
  1138 158.575 100.621 129.211
  1139 471.828 -5.42195 -4.46498
  1140 471.895 -5.38706 4.44886
  1141 588.652 44.9471 -0.558092
  1142 721.683 101.646 -261.530
  1143 709.251 121.646 -36.1139
  1144 645.733 -25.0084 -49.8493
  1145 635.743 -31.9982 -34.8457
  1146 528.451 -41.4255 -31.7213
  1147 540.029 1.96716 15.3942
  1148 600.366 37.8386 -36.7690
  1149 592.704 32.3079 35.2240
  1150 605.079 -24.3022 -5.49300
  1151 579.158 -34.7875 4.90443
  1152 529.639 -33.5309 -23.9523
  1153 627.372 -3.80305 26.8707
  1154 1077.92 108.406 14.9288
  1155 631.046 -13.5879 48.8464
  1156 635.367 41.7918 54.5946
  1157 583.379 -57.1169 -21.4138
  1158 79.8918 11.9776 -46.2222
  1159 594.297 -27.5834 -2.71228
  1160 410.598 -0.469802 -0.299277
  1161 410.709 -0.467512 0.297084
  1162 717.308 -18.9790 20.0124
  1163 683.223 -57.6821 32.5588
  1164 975.530 173.291 44.7803
  1165 251.262 -0.371196 -23.6064
  1166 252.536 -0.319904 23.4523
  1167 535.154 -10.7165 -3.16714
  1168 535.138 -10.6597 3.14999
  1169 595.832 -52.3901 -6.85222
  1170 503.779 2.52995 7.05329
  1171 609.739 -43.4389 7.95361
  1172 37.3471 44.3226 -24.4327
  1173 115.380 55.9486 78.6671
  1174 412.346 -23.1239 139.002
  1175 707.314 133.653 -25.8542
  1176 669.657 -2.02393 -7.25130
  1177 695.936 -1.28393 0.320506
  1178 696.500 -1.67990 -0.163452
  1179 425.071 -0.757159 -0.911675
  1180 425.179 -0.750561 0.906613
  1181 652.247 41.6767 61.5232
  1182 949.153 160.253 -3.44995
  1183 673.076 110.615 -27.0576
  1184 501.388 -37.4963 143.083
  1185 410.188 -22.3221 -138.713
  1186 458.909 -29.8501 -49.2334
  1187 623.440 -17.9130 9.40970
  1188 863.842 191.988 16.7847
  1189 458.982 -29.6914 48.8975
  1190 635.665 -11.7459 7.11592
  1191 578.513 21.9901 33.7012
  1192 631.616 19.7186 59.4733
  1193 886.830 197.534 28.0902
  1194 536.034 -13.7915 5.82037
  1195 536.049 -13.8459 -5.85088
  1196 644.423 -12.6618 17.3323
  1197 397.154 -3.88497 16.3192
  1198 396.891 -3.92222 -16.4442
  1199 629.849 -9.23204 -2.75323
  1200 262.759 158.448 -243.323
  1201 545.648 -31.0855 -153.327
  1202 522.361 -15.9732 -9.97614
  1203 522.424 -15.9128 9.98065
  1204 671.344 -3.70351 2.51562
  1205 638.938 -9.04364 5.64099
  1206 37.5149 49.2134 37.3730
  1207 690.087 -0.985426 2.16825
  1208 86.4155 112.813 111.798
  1209 625.067 -9.98159 -3.63231
  1210 -0.423112 -14.8370 -13.0829
  1211 447.906 -43.8104 -107.885
  1212 446.798 -42.7700 106.872
  1213 690.051 -1.40517 -2.43706
  1214 597.883 -31.5844 -3.57373
  1215 671.029 -3.43976 -2.48520
  1216 546.783 -17.4994 -6.20810
  1217 546.745 -17.4499 6.16041
  1218 629.466 -9.17851 2.54701
  1219 593.885 -27.0296 2.68502
  1220 572.826 -18.4998 2.39201
  1221 573.006 -18.5347 -2.33464
  1222 670.317 -3.53871 -2.00082
  1223 582.440 -61.7533 -106.352
  1224 657.171 -4.74625 -1.94446
  1225 627.553 -10.2325 4.02033
  1226 451.151 -4.49555 -6.75407
  1227 451.238 -4.45390 6.72338
  1228 498.869 -7.03610 -3.72320
  1229 498.904 -6.99414 3.70920
  1230 789.975 124.237 30.1208
  1231 665.212 -51.4983 17.4005
  1232 459.224 -2.61114 176.121
  1233 382.659 -0.493862 6.27675
  1234 382.359 -0.499858 -6.32959
  1235 634.097 -11.9276 36.3475
  1236 605.418 -9.72043 0.289988
  1237 605.433 -9.69317 -0.289995
  1238 696.779 134.413 12.2036
  1239 631.231 -66.3790 86.0891
  1240 381.342 -4.99678 22.6832
  1241 380.998 -5.03045 -22.8242
  1242 604.878 -15.1761 2.43755
  1243 604.743 -15.2873 -2.31726
  1244 623.089 -17.7204 -9.00189
  1245 581.945 0.183324 17.8103
  1246 977.411 243.543 -86.7748
  1247 635.512 -23.6008 -30.9215
  1248 115.949 26.1368 66.7349
  1249 655.766 -35.2523 42.5981
  1250 539.737 12.3686 -13.6705
  1251 44.6551 30.6961 26.1302
  1252 852.099 99.7944 -19.7888
  1253 641.438 -29.4087 -43.9370
  1254 542.059 8.17697 20.9732
  1255 373.273 -22.7563 72.3330
  1256 649.967 -50.6031 22.8733
  1257 928.548 187.047 70.5774
  1258 225.748 32.0610 125.002
  1259 652.130 -8.30691 -15.0180
  1260 1215.19 13.8645 -11.9338
  1261 1252.61 18.5902 52.6779
  1262 1332.88 44.1469 -126.042
  1263 635.485 -20.1323 -39.4929
  1264 634.702 -29.2764 32.5274
  1265 644.053 -46.1217 28.7634
  1266 -18.7461 2.45827 11.6547
  1267 -16.9631 2.05686 -12.7992
  1268 625.563 -69.4533 -43.3803
  1269 639.454 -64.9972 -62.3810
  1270 506.987 3.47582 -8.68484
  1271 622.630 -70.6241 61.8868
  1272 666.530 -31.8732 -43.0092
  1273 15.7589 21.0770 4.75767
  1274 547.390 -10.0384 1.89388
  1275 547.422 -10.1001 -1.89879
  1276 660.002 -5.83800 9.99908
  1277 635.565 -11.5536 -6.61840
  1278 600.625 -65.5331 -25.1951
  1279 552.433 -29.4880 11.8656
  1280 549.804 -29.0535 -12.5531
  1281 643.078 -14.0279 24.6239
  1282 659.385 -24.4612 -50.8992
  1283 46.2705 32.0021 -25.6480
</Section>

newXOutput 89

<Section columns = "stress_xx | stress_yy | stress_xy">
  1 706.953 -0.383853 1.24499
  2 706.939 -0.367362 -1.24735
  3 409.491 -0.0565270 -0.446931
  4 -5.08373 -5.00208 -7.31557
  5 1223.03 519.411 402.546
  6 1212.14 536.826 -398.446
  7 -5.91353 -4.72872 7.81835
  8 409.378 -0.0577648 0.445988
  9 711.396 -1.29001 0.339721
  10 710.183 -1.99461 -0.443432
  11 709.046 -1.43248 1.33636
  12 707.861 -1.88232 0.205935
  13 705.256 -1.62197 2.09779
  14 702.842 -1.61931 1.42735
  15 696.764 -1.42152 3.06313
  16 687.670 -1.13896 4.55477
  17 679.659 -1.12951 5.16545
  18 667.420 -1.42992 6.34606
  19 650.026 -0.247161 9.51578
  20 633.970 -1.04605 9.16094
  21 615.175 -1.27141 13.0584
  22 588.084 0.881471 11.4747
  23 568.078 1.45807 13.6648
  24 541.934 2.37985 10.7818
  25 523.675 2.68751 10.9136
  26 497.246 3.58872 5.59005
  27 491.595 5.62153 6.02742
  28 488.156 4.70953 -1.79404
  29 492.760 2.90206 -3.88358
  30 501.281 2.69541 -4.77798
  31 521.102 3.30514 -9.50565
  32 540.368 2.61637 -11.9369
  33 568.282 0.710756 -14.1002
  34 590.549 -0.233949 -12.7027
  35 613.998 -1.00018 -12.3526
  36 635.076 -0.829564 -8.64522
  37 652.910 -0.911381 -7.30334
  38 667.397 -1.41138 -6.04323
  39 680.184 -1.06412 -4.09047
  40 687.919 -1.31892 -4.28537
  41 695.408 -1.52468 -3.10654
  42 702.288 -1.77081 -1.21582
  43 705.745 -1.45325 -1.53166
  44 707.334 -0.987886 -0.895148
  45 705.494 -0.690279 -0.822157
  46 710.785 -1.97913 0.332219
  47 711.560 -1.33056 -0.349456
  48 690.852 -0.992801 -0.772371
  49 677.034 -3.48475 -1.48848
  50 659.924 -4.97694 -0.830286
  51 638.909 -7.05548 -1.17649
  52 618.788 -7.61299 -1.39043
  53 597.169 -9.18856 -1.34853
  54 577.904 -10.0209 -0.640776
  55 560.997 -10.9362 -0.103647
  56 541.437 -8.99928 -0.0710562
  57 518.879 -8.26827 -0.319174
  58 497.181 -6.39339 0.0535196
  59 476.670 -3.94135 0.104261
  60 457.238 -2.71202 0.165269
  61 440.292 -1.26529 0.285621
  62 423.096 -0.243058 -0.499258
  63 409.611 0.596925 0.782540
  64 403.429 1.48144 0.580153
  65 407.190 0.0695198 1.27796
  66 402.120 -0.126197 1.56607
  67 397.219 -0.222172 1.94436
  68 390.680 0.0400718 2.48092
  69 382.456 0.0292089 3.08727
  70 376.015 -0.357173 5.78974
  71 358.996 0.518394 6.29061
  72 346.783 0.0119011 7.11215
  73 328.609 -0.252291 8.09409
  74 307.779 -0.456617 9.82488
  75 281.691 -0.0655820 11.9341
  76 249.899 0.178238 13.2213
  77 221.890 -0.194276 18.9339
  78 167.506 1.69777 18.0072
  79 129.786 1.45937 19.0962
  80 83.9664 -0.428666 21.3853
  81 45.2897 3.33754 22.5161
  82 0.934691 5.12726 14.0626
  83 -32.0906 5.24237 5.64270
  84 -33.0334 5.21241 -0.837007
  85 -33.2680 4.40081 -9.71379
  86 -19.7611 -1.15709 -9.49806
  87 -2.24518 -18.9660 -10.5507
  88 2.15783 -34.5370 -12.8685
  89 5.56773 -52.7942 -6.19216
  90 12.1059 -50.5832 2.75807
  91 25.2203 -0.600792 35.9126
  92 73.1390 132.133 114.222
  93 407.899 417.914 363.809
  94 1487.30 225.713 244.672
  95 1348.60 32.0551 78.6554
  96 1261.00 13.5574 24.0725
  97 1228.79 11.6536 1.77394
  98 1246.34 15.3279 -21.0578
  99 1346.63 30.1921 -62.3801
  100 1566.96 108.887 -208.349
  101 244.430 432.206 -306.487
  102 54.6765 103.355 -95.9358
  103 27.6684 2.17676 -38.8937
  104 11.3862 -49.8731 -8.51538
  105 3.52342 -39.5611 6.97854
  106 4.20368 -43.6872 11.0483
  107 0.302370 -16.2667 11.7044
  108 -20.6628 -0.639718 8.95284
  109 -34.3107 3.30589 8.41301
  110 -34.8408 6.31427 1.00874
  111 -33.0730 5.13703 -5.31685
  112 -1.45434 5.25387 -13.2401
  113 43.2353 3.36514 -21.5056
  114 81.8800 -0.0644968 -21.0381
  115 127.616 1.57569 -19.1272
  116 165.537 1.73939 -18.1311
  117 220.366 -0.202044 -19.0764
  118 248.599 0.194789 -13.3363
  119 280.553 -0.0624532 -12.0713
  120 307.208 -0.511796 -9.88633
  121 327.814 -0.235373 -8.10875
  122 346.174 0.0333879 -7.17763
  123 358.493 0.512969 -6.35069
  124 375.646 -0.361182 -5.84051
  125 382.154 0.0265918 -3.11815
  126 390.443 0.0375344 -2.50618
  127 397.031 -0.226418 -1.96425
  128 401.967 -0.129843 -1.57985
  129 407.058 0.0664925 -1.28665
  130 403.308 1.48022 -0.584105
  131 409.496 0.596260 -0.785060
  132 422.985 -0.246407 0.498138
  133 440.190 -1.27374 -0.288586
  134 457.149 -2.73041 -0.168701
  135 476.601 -3.96684 -0.107533
  136 497.137 -6.43026 -0.0568534
  137 518.864 -8.31534 0.316469
  138 541.454 -9.05425 0.0680286
  139 561.039 -10.9988 0.102063
  140 577.965 -10.0838 0.642686
  141 597.260 -9.24582 1.35503
  142 618.872 -7.65181 1.41379
  143 638.978 -7.09027 1.29108
  144 660.047 -4.74261 0.848031
  145 677.491 -3.40745 1.45471
  146 690.989 -1.10114 0.759581
  147 625.958 -58.8814 1.88837
  148 625.388 -58.0758 -1.67169
  149 662.188 94.8007 -29.1990
  150 700.156 41.2171 60.1596
  151 531.090 -51.6418 -120.999
  152 535.513 -51.5253 117.305
  153 522.230 -21.5777 16.1802
  154 522.254 -21.8603 -16.1833
  155 738.525 27.1051 -42.5372
  156 624.365 -22.8458 9.96974
  157 624.092 -22.3230 -9.85647
  158 806.532 177.848 5.30176
  159 642.257 -0.985149 -60.3903
  160 480.286 -36.9475 -54.7328
  161 480.347 -36.6595 54.3080
  162 642.484 -14.7012 53.8192
  163 615.608 45.2419 36.7686
  164 258.137 39.9772 -144.717
  165 284.921 37.9948 152.277
  166 775.089 10.3640 -3.77690
  167 642.521 -24.9532 -36.0046
  168 845.604 185.657 4.40029
  169 580.943 -16.5274 -2.00774
  170 580.833 -16.4900 2.04843
  171 646.516 -8.53654 -4.22925
  172 648.312 -7.75565 3.60910
  173 465.953 -6.20045 -9.09048
  174 466.024 -6.14037 9.05397
  175 687.834 -16.2519 154.070
  176 597.299 25.2408 -39.7017
  177 393.870 -29.0862 -86.2267
  178 395.007 -28.8817 85.7348
  179 443.961 -13.8360 -28.6472
  180 444.016 -13.6864 28.4689
  181 645.301 -17.3201 30.6680
  182 588.470 -40.1547 -5.68812
  183 586.545 -39.8568 6.52874
  184 663.479 -64.5730 -18.3289
  185 667.120 -61.5208 10.1972
  186 912.104 215.573 -39.7714
  187 674.672 107.687 27.1689
  188 673.247 41.3759 -61.6770
  189 684.441 -3.31338 -177.665
  190 665.118 -37.8632 -40.2202
  191 670.991 -27.1381 48.5138
  192 561.721 -63.6455 61.5319
  193 561.741 -63.1702 -61.3775
  194 606.000 7.98486 47.4306
  195 283.396 -7.40548 -106.019
  196 284.014 -7.94978 105.436
  197 1021.52 151.915 22.5729
  198 630.927 -37.7887 20.2514
  199 652.817 -12.4955 -19.4571
  200 525.569 -12.5377 -7.72240
  201 525.591 -12.4845 7.70417
  202 631.334 -8.29028 -41.7640
  203 716.342 104.917 -48.0035
  204 606.622 54.8237 -7.33870
  205 401.729 -13.5324 39.6812
  206 401.158 -13.5660 -39.9347
  207 660.624 -7.95233 10.1002
  208 649.621 12.2647 62.2500
  209 530.986 -37.9326 -28.2798
  210 527.750 -35.8962 28.7362
  211 760.342 113.042 41.3596
  212 882.341 127.377 32.9100
  213 65.5900 49.6161 -44.1165
  214 60.8171 45.8581 37.7088
  215 370.163 107.783 250.314
  216 624.782 -41.6374 -14.2474
  217 662.662 -7.62592 -9.10062
  218 599.778 5.58137 -43.7270
  219 429.435 -3.85806 -12.7832
  220 429.577 -3.81627 12.6902
  221 565.700 -26.2691 -8.12618
  222 565.968 -26.4495 7.81612
  223 636.035 -8.70188 35.3056
  224 722.623 -41.5257 24.8045
  225 727.352 147.155 -13.5672
  226 570.488 -54.6819 -31.2671
  227 714.823 -12.4881 34.7002
  228 612.226 -10.8232 0.957761
  229 612.222 -10.7447 -0.957350
  230 566.618 -54.4322 32.2175
  231 645.944 -41.2631 32.1230
  232 890.759 123.268 -69.8254
  233 206.401 122.728 -185.038
  234 559.151 20.2267 9.60696
  235 653.302 57.5822 52.6530
  236 690.301 -4.95633 -52.7306
  237 647.079 -23.5034 -49.6394
  238 357.199 -10.9565 -49.2949
  239 358.331 -10.7991 49.1785
  240 647.589 -8.13570 -26.8076
  241 616.635 -16.0611 4.56591
  242 616.353 -16.0529 -4.35158
  243 138.546 11.7527 -69.3296
  244 140.450 10.2889 69.0667
  245 681.353 -59.8475 -60.0065
  246 673.260 -3.06650 1.12391
  247 673.863 -3.11760 -1.30498
  248 639.165 53.1286 -48.4629
  249 569.013 11.4731 28.9109
  250 1137.12 182.025 122.792
  251 1126.70 128.334 -76.0708
  252 835.770 178.113 1.26754
  253 522.801 -25.6636 159.667
  254 481.265 -17.2134 -166.647
  255 555.473 -11.4046 -3.18725
  256 555.431 -11.3427 3.16998
  257 468.050 -11.8930 18.0539
  258 468.027 -12.0477 -18.1865
  259 660.958 -7.62366 15.8905
  260 643.208 -46.0357 -25.2576
  261 432.726 -0.575970 -3.07443
  262 432.836 -0.564339 3.05948
  263 635.254 -26.1058 -20.5568
  264 281.787 -8.96110 -68.7497
  265 282.861 -8.98739 68.3120
  266 643.836 -28.2004 38.8800
  267 495.098 -52.5598 97.4887
  268 496.214 -53.4932 -97.1809
  269 566.505 22.2967 -13.4616
  270 489.168 -7.08650 -6.15864
  271 489.221 -7.04389 6.13997
  272 609.616 -1.37166 34.7482
  273 722.965 131.412 33.0207
  274 400.686 -4.47447 21.2221
  275 400.401 -4.50892 -21.3764
  276 659.159 -55.3988 14.9814
  277 610.141 -68.8236 -68.3372
  278 676.268 -3.88205 4.49331
  279 482.340 -27.6928 -37.7939
  280 481.608 -27.3998 37.6774
  281 817.293 97.5937 223.438
  282 403.254 -32.7548 115.417
  283 645.984 90.4568 -3.08304
  284 801.781 90.9397 -21.6694
  285 610.892 -47.1866 2.39756
  286 610.840 -70.6659 62.1605
  287 404.337 -32.2564 -116.590
  288 77.6069 96.1925 89.6106
  289 635.366 -26.1782 20.9627
  290 824.749 110.514 14.0111
  291 680.950 -3.47573 -3.89937
  292 628.340 22.2598 -55.8275
  293 615.447 -34.9211 9.11071
  294 603.057 -50.7581 6.73870
  295 626.435 28.9748 53.9129
  296 656.191 -55.3755 -12.7637
  297 922.865 177.614 -18.0625
  298 615.290 -33.5861 -8.67195
  299 500.016 150.418 -302.920
  300 627.393 -66.6638 -18.4383
  301 623.126 -68.5095 25.4264
  302 465.244 -41.5159 -76.3730
  303 428.663 -1.37515 -6.61397
  304 428.791 -1.35069 6.57193
  305 465.490 -41.5651 76.0038
  306 665.828 -1.17482 -61.5058
  307 712.978 -29.5380 -20.1364
  308 551.046 -32.6472 -16.4585
  309 550.763 -32.7260 16.7286
  310 648.226 -55.8200 106.524
  311 652.495 -5.53158 20.2660
  312 781.640 6.48576 45.2340
  313 541.135 -18.7393 -9.36679
  314 541.184 -18.6906 9.32772
  315 496.827 -12.3921 -12.3445
  316 496.846 -12.2861 12.3330
  317 563.701 7.97558 -27.9388
  318 708.352 52.0511 -57.9515
  319 1073.45 292.601 -144.301
  320 642.574 -6.42272 -1.29953
  321 642.259 -6.34372 1.35073
  322 352.336 -1.64414 144.107
  323 493.576 -21.6183 -25.6386
  324 492.746 -21.5659 25.7106
  325 352.264 -2.51745 -143.552
  326 678.751 79.9431 -50.5997
  327 751.333 37.8998 39.5681
  328 647.691 -46.1520 -117.580
  329 602.253 -23.4380 2.66060
  330 601.684 -23.2893 -2.42367
  331 639.703 -13.8984 -9.27394
  332 609.961 -1.04971 -32.4677
  333 677.266 2.72140 59.6829
  334 671.441 -5.19038 -10.8149
  335 416.626 -24.4701 57.9863
  336 416.175 -24.5928 -58.3754
  337 633.706 -1.34329 57.5692
  338 403.886 -2.94230 -12.7215
  339 404.131 -2.91583 12.6243
  340 644.743 -15.3891 15.5671
  341 774.673 157.284 -21.8965
  342 639.477 -13.9810 9.67389
  343 685.965 85.8048 50.5829
  344 655.149 -12.3532 58.5597
  345 525.141 -9.60562 2.99256
  346 525.134 -9.65607 -3.00714
  347 623.543 -2.11394 -51.2018
  348 816.101 170.941 10.6556
  349 685.689 124.657 1.03755
  350 418.602 48.2623 -212.339
  351 48.7834 19.2123 -31.9122
  352 52.8926 20.8256 34.0664
  353 -0.639910 5.69838 11.2866
  354 1.64835 3.72352 -11.9164
  355 1159.36 80.6091 26.9715
  356 567.394 -45.5680 -19.8474
  357 645.129 -14.9094 -15.1662
  358 585.795 -10.6647 -0.00548963
  359 585.731 -10.5909 -6.54412e-05
  360 631.189 69.7835 -26.2916
  361 536.787 -54.1428 50.7362
  362 50.0578 75.3775 -57.3285
  363 537.179 -54.1008 -51.5427
  364 638.889 72.6810 27.9582
  365 645.147 -17.6266 -29.0648
  366 682.055 -38.3650 -32.5497
  367 732.178 152.833 9.26839
  368 683.207 -43.0351 25.4074
  369 297.870 -7.00095 45.8958
  370 296.287 -6.86175 -46.1409
  371 171.926 3.72792 -64.8977
  372 173.462 3.10984 64.6285
  373 571.668 2.36107 28.1603
  374 1041.41 311.125 130.243
  375 664.835 -4.63341 -14.1999
  376 524.554 -43.4951 -39.2025
  377 524.212 -43.4166 39.1561
  378 642.493 -15.1211 -37.7926
  379 723.949 -34.9253 -3.82118
  380 567.374 -45.5404 20.3361
  381 788.316 8.73560 -75.0462
  382 465.969 -3.37336 -2.56919
  383 466.049 -3.34685 2.55650
  384 633.947 -3.83510 -24.6125
  385 354.974 -4.73845 -29.8129
  386 355.155 -4.90046 29.4850
  387 751.408 96.4312 -46.7805
  388 409.687 28.5490 197.923
  389 592.096 -30.9968 -1.10373
  390 592.655 -30.9533 1.08499
  391 696.956 117.170 -31.5944
  392 657.124 -19.6763 -54.9571
  393 653.988 -67.1677 61.4015
  394 553.636 -14.5955 -5.11744
  395 553.587 -14.5392 5.08289
  396 633.105 -48.9900 15.1414
  397 677.041 -3.65952 7.93655
  398 436.982 -15.1339 -35.5632
  399 437.160 -15.1459 35.3038
  400 646.886 21.8547 -61.5571
  401 607.625 -13.6875 1.33150
  402 607.590 -13.7264 -1.26579
  403 631.577 -7.55965 46.5793
  404 594.994 43.8462 12.8275
  405 651.578 -27.8131 47.2793
  406 931.387 193.485 38.9895
  407 324.876 -17.3505 -92.4143
  408 325.713 -17.3481 91.7855
  409 147.003 76.9640 -114.049
  410 689.137 -2.58357 1.93976
  411 370.187 -2.77598 -18.9160
  412 370.627 -2.71739 18.7764
  413 642.834 -17.0782 36.8282
  414 583.673 -63.1356 35.8987
  415 653.979 -8.86725 6.51268
  416 671.979 34.0773 63.5046
  417 153.414 81.9479 118.335
  418 584.471 -62.7383 -33.4152
  419 603.428 -55.9287 -11.0828
  420 209.491 -4.14982 -58.3506
  421 210.825 -4.28877 57.9887
  422 465.870 -37.9952 -139.146
  423 690.137 -10.5389 51.1714
  424 464.368 -38.4772 138.026
  425 639.078 -36.1572 -28.8827
  426 602.424 41.1448 -27.8967
  427 639.100 -28.0014 27.7685
  428 681.189 -3.60571 -5.10027
  429 22.9436 25.8897 13.8275
  430 143.568 170.095 166.513
  431 620.367 -2.24314 23.9765
  432 531.544 7.82498 12.3513
  433 539.649 9.40344 -16.6882
  434 460.514 -7.03456 -12.7472
  435 460.578 -6.94950 12.6812
  436 630.038 -48.9429 -13.4450
  437 639.085 -12.6761 -51.8224
  438 534.010 10.6541 -4.52819
  439 929.969 222.654 54.4732
  440 137.625 43.6769 -85.8630
  441 150.946 40.0510 91.2605
  442 591.545 -21.2092 -0.317103
  443 591.341 -21.1780 0.455716
  444 786.459 171.334 -1.52417
  445 479.337 214.066 309.563
  446 748.796 -9.57220 -0.799175
  447 444.671 -22.3595 -48.2377
  448 444.892 -22.2215 47.8840
  449 449.767 -9.39023 19.4843
  450 449.670 -9.45194 -19.6300
  451 598.520 13.7558 -45.1599
  452 692.181 -1.47446 -1.22787
  453 583.965 27.3997 25.5584
  454 724.760 89.3962 52.6299
  455 604.900 -44.8128 -0.544899
  456 653.642 -8.49133 -6.35487
  457 683.700 -3.31693 4.69076
  458 690.074 -1.59976 0.695067
  459 690.525 -1.74451 -0.466965
  460 402.837 -0.552929 4.78932
  461 402.637 -0.562081 -4.82977
  462 659.356 -42.2531 34.9363
  463 603.961 24.2682 43.7585
  464 627.611 2.68714 -56.3578
  465 649.239 -14.2481 21.0865
  466 910.039 169.278 -192.901
  467 651.831 -36.4744 -40.3577
  468 9.91953 12.9348 7.36104
  469 9.71120 13.2868 -4.12202
  470 523.134 -28.8909 23.0067
  471 521.527 -28.4713 -22.6794
  472 795.243 20.0032 107.637
  473 226.860 216.541 -238.536
  474 645.013 -2.18341 18.2634
  475 720.425 -41.3346 -64.3271
  476 399.348 -22.2758 66.8625
  477 779.160 138.496 -31.6546
  478 642.608 -35.1051 33.3679
  479 544.913 -25.5298 -12.7235
  480 545.379 -25.1269 12.7028
  481 571.543 3.26639 -24.8280
  482 398.167 -22.1720 -67.2075
  483 584.362 0.519370 24.8421
  484 551.695 -63.3103 -88.3146
  485 550.364 -63.4061 88.7300
  486 661.647 -4.75334 15.7398
  487 611.191 57.9500 5.28910
  488 604.544 12.5683 214.370
  489 893.836 179.590 -1.11405
  490 621.023 -11.1199 2.24020
  491 621.044 -11.0838 -2.37722
  492 488.697 -8.17250 -8.42702
  493 488.745 -8.11152 8.40422
  494 260.834 10.9313 122.200
  495 645.784 -31.4197 -39.9279
  496 587.539 -13.0889 -0.985168
  497 587.482 -13.0534 0.991718
  498 514.213 -54.0343 72.1521
  499 265.621 14.5963 -125.179
  500 645.450 -52.8749 -15.5744
  501 12.6323 5.49669 2.39988
  502 576.207 30.4147 1.91420
  503 622.872 -7.94731 -0.670529
  504 622.870 -8.03919 0.641047
  505 514.409 -53.9167 -72.6703
  506 720.923 -36.0997 79.5834
  507 720.909 26.2889 52.5379
  508 662.619 -5.26705 -2.94820
  509 643.503 -53.5895 15.9254
  510 421.315 -0.222205 -0.924640
  511 421.429 -0.219058 0.919170
  512 644.287 -25.0147 -43.3310
  513 629.529 46.7525 47.5373
  514 712.421 17.7252 -52.0277
  515 418.731 -0.480947 -2.71202
  516 418.857 -0.473227 2.69742
  517 1206.99 174.723 -154.637
  518 653.775 77.6602 41.5334
  519 663.101 -4.94179 2.59568
  520 604.673 -57.1870 12.5704
  521 515.588 -16.5040 13.0375
  522 515.566 -16.6168 -13.0112
  523 698.374 -42.8402 9.96819
  524 674.961 -13.7444 -54.8834
  525 755.735 147.779 28.0355
  526 632.883 11.0541 58.5181
  527 632.017 -12.8225 5.30630
  528 612.989 -65.9088 -86.3163
  529 640.362 -16.1254 43.3556
  530 1190.48 55.0485 -21.5475
  531 692.869 -52.4967 7.18466
  532 658.535 -5.16430 -0.540075
  533 658.697 -5.43791 0.416880
  534 1202.89 80.6321 74.8993
  535 618.304 -0.0434434 49.7896
  536 848.318 146.289 -1.91173
  537 643.733 -18.0519 -20.1175
  538 307.919 -2.64775 -20.3495
  539 308.738 -2.51772 20.1633
  540 443.185 -41.2844 -96.8376
  541 443.595 -40.5994 96.1752
  542 631.658 -12.3363 -5.28669
  543 689.248 25.2894 -60.8201
  544 606.608 -41.2272 2.89871
  545 656.455 75.1856 -42.9528
  546 655.187 -8.11244 21.1431
  547 810.603 43.9501 -20.7154
  548 565.444 -19.2539 -5.31323
  549 565.301 -19.2059 5.27278
  550 610.612 -28.9771 6.14038
  551 886.615 180.300 -25.9448
  552 646.456 28.3653 60.6901
  553 279.739 71.5476 179.580
  554 615.412 -36.7384 145.727
  555 800.780 45.6627 -162.094
  556 660.632 54.6758 -56.1795
  557 580.228 -50.6372 -126.775
  558 629.343 -69.2500 -30.5469
  559 655.105 -66.7679 -42.2083
  560 89.9891 120.447 -113.708
  561 659.118 -9.03206 -12.1834
  562 981.684 190.147 -59.4094
  563 613.662 -27.8820 -7.40889
  564 618.139 -20.5222 6.17294
  565 617.587 -20.0868 -5.83215
  566 441.419 -2.17572 -6.07910
  567 441.525 -2.14791 6.04781
  568 69.8832 6.23848 -36.7028
  569 73.0499 6.56248 37.4981
  570 329.814 -14.8391 -70.2500
  571 332.127 -14.9278 70.1980
  572 626.769 -34.2331 -16.7792
  573 636.256 -69.5447 32.6504
  574 653.862 -62.4448 -3.32090
  575 544.055 -9.56975 -2.50737
  576 544.033 -9.51211 2.49676
  577 512.851 -54.1150 -108.325
  578 569.657 -47.1832 133.742
  579 501.138 -50.9499 108.832
  580 646.497 -14.5119 -55.4796
  581 418.474 -6.41587 21.5195
  582 418.275 -6.47883 -21.6679
  583 621.372 34.7081 -47.8641
  584 620.697 -1.10863 -21.7512
  585 769.647 165.118 -12.0834
  586 511.106 -7.42208 -2.29565
  587 511.132 -7.37997 2.28711
  588 656.009 -2.09850 -11.9132
  589 464.248 -14.8988 -24.3758
  590 464.286 -14.8578 24.1964
  591 374.849 16.3042 170.880
  592 638.527 -29.7195 -28.0023
  593 363.871 -19.7612 123.093
  594 627.563 -32.7806 17.2976
  595 657.721 -9.93228 13.5763
  596 648.486 -6.74204 -2.49143
  597 470.666 -5.36741 -5.83016
  598 470.738 -5.32744 5.80768
  599 739.055 146.298 -25.7470
  600 363.598 -19.0964 -123.484
  601 625.404 -27.4310 -13.4242
  602 567.989 -10.7124 -1.49453
  603 567.937 -10.6453 1.48929
  604 1037.99 138.882 -25.2224
  605 390.816 -2.24632 11.7582
  606 390.505 -2.26710 -11.8510
  607 592.207 14.0120 41.3132
  608 822.107 72.5829 2.40439
  609 398.540 1.71897 -169.390
  610 211.812 4.53992 -93.7673
  611 213.392 3.44453 93.2820
  612 502.532 -28.4890 30.8205
  613 507.359 -29.3310 -30.1023
  614 836.523 169.546 5.14539
  615 646.085 -6.95816 2.16400
  616 569.314 16.6397 -25.0782
  617 698.933 124.627 25.0128
  618 696.788 129.255 -16.6613
  619 572.515 -31.4346 -8.31830
  620 576.601 -30.7746 6.33911
  621 407.864 90.2441 -241.458
  622 498.279 -16.3740 -17.4850
  623 498.337 -16.2002 17.4419
  624 1203.06 247.048 186.254
  625 644.980 -21.3876 47.1702
  626 381.127 -12.8022 -44.9394
  627 970.844 243.302 170.021
  628 381.950 -12.7410 44.8037
  629 609.828 -22.8235 -168.968
  630 448.922 -1.85932 -2.23273
  631 449.018 -1.84367 2.22399
  632 551.233 5.30940 21.9120
  633 259.327 -3.61391 -40.2476
  634 260.556 -3.62474 39.9707
  635 565.435 -39.5618 15.9144
  636 591.071 -47.0698 -8.23746
  637 687.628 -1.81088 -4.44399
  638 409.201 -0.514584 3.60856
  639 409.038 -0.524693 -3.63800
  640 536.565 -11.9125 -4.20731
  641 536.557 -11.8570 4.18520
  642 606.252 -67.6908 86.9984
  643 700.141 78.1166 -55.1930
  644 474.743 -21.3002 -31.3332
  645 474.458 -20.9525 31.1358
  646 555.622 -39.3884 -20.3724
  647 863.631 186.668 10.6590
  648 650.214 -63.2225 6.73001
  649 569.957 -13.7667 -2.99267
  650 569.883 -13.7126 2.98876
  651 773.889 85.8018 36.6507
  652 652.685 -9.91824 -22.9547
  653 587.366 -0.529974 -20.1881
  654 278.737 -9.57176 -88.7726
  655 279.482 -9.80883 88.1228
  656 553.775 -47.2021 -30.8013
  657 823.343 178.835 -0.185667
  658 645.992 87.2654 -18.7150
  659 438.789 -3.58215 -10.9916
  660 438.902 -3.53397 10.9208
  661 598.147 -17.2252 -0.284411
  662 598.258 -17.2299 0.393455
  663 1085.73 141.150 62.5603
  664 695.273 -2.25814 1.05918
  665 676.793 -3.03433 7.87387
  666 674.659 -3.02766 -9.41659
  667 642.962 -60.1063 2.78370
  668 485.289 -5.27326 -2.90909
  669 485.347 -5.24028 2.89913
  670 691.775 110.190 38.8197
  671 876.931 193.942 -17.7356
  672 490.822 -35.5748 -44.3801
  673 490.741 -35.2508 44.1941
  674 605.085 -62.2432 -18.4579
  675 642.420 38.3396 -57.2619
  676 750.264 2.59820 16.6622
  677 511.218 -9.16445 -6.13115
  678 511.247 -9.11432 6.11252
  679 442.184 -38.3583 -87.3787
  680 637.089 -61.8162 2.88185
  681 533.170 -59.0607 79.6093
  682 259.159 80.8141 -173.562
  683 501.068 -45.7994 61.4308
  684 604.879 0.182674 18.5009
  685 442.623 -37.9387 86.8541
  686 625.064 -27.9272 13.5890
  687 501.154 -45.5881 -61.9227
  688 523.581 7.28450 4.62453
  689 406.163 -10.2594 32.1837
  690 405.826 -10.2615 -32.3722
  691 533.320 -60.5828 -80.4533
  692 655.230 -43.4746 -33.6964
  693 602.364 -9.02726 -0.155641
  694 602.458 -9.10708 0.157103
  695 668.755 -42.9824 32.7404
  696 609.408 -63.6626 21.0214
  697 737.799 67.9973 50.8037
  698 668.058 -12.7709 57.1478
  699 642.927 -23.4676 33.8420
  700 621.210 51.3747 -36.3106
  701 738.830 123.759 40.4991
  702 639.478 -9.03734 -34.0990
  703 634.708 -21.5210 15.8543
  704 662.516 103.185 10.0642
  705 646.783 -11.3237 29.1268
  706 207.937 142.733 182.518
  707 600.986 -69.3035 -52.6524
  708 695.612 12.5332 57.4310
  709 700.236 -21.7983 -37.9687
  710 693.067 -1.29613 2.30130
  711 641.873 -22.5181 -25.9865
  712 602.007 -69.8353 48.3472
  713 1132.79 100.591 -16.6798
  714 375.775 -1.41235 12.2822
  715 375.372 -1.42676 -12.3804
  716 648.953 -12.4450 -11.3163
  717 696.808 -1.02051 -2.28888
  718 552.895 -47.9836 30.9489
  719 659.469 -24.8289 51.3755
  720 979.670 243.439 -87.7565
  721 625.160 -45.4192 12.6906
  722 689.238 -45.6787 -15.5018
  723 634.905 -20.9778 -15.5853
  724 695.680 -1.60676 -0.587674
  725 646.352 -0.128101 60.9918
  726 31.5123 35.7535 42.5031
  727 715.616 -25.8941 -114.166
  728 782.410 48.1682 18.4101
  729 654.716 -67.2296 38.5503
  730 479.995 -10.9339 14.2209
  731 479.975 -11.0766 -14.2736
  732 591.532 326.275 -324.261
  733 668.932 -44.5861 -29.6917
  734 521.713 3.27552 -8.85323
  735 597.512 3.56914 40.0207
  736 647.233 -32.6960 40.4847
  737 620.353 -52.2806 3.19724
  738 640.096 -58.7914 -93.5704
  739 616.857 -48.8064 -4.59590
  740 721.860 -34.4185 1.28255
  741 665.860 -6.12275 6.45531
  742 600.071 -35.9799 0.851640
  743 1065.40 212.806 -115.791
  744 637.222 -17.6165 12.2886
  745 635.938 10.5895 -60.0099
  746 536.815 -5.56043 189.150
  747 678.834 54.5615 60.3313
  748 584.363 -45.7024 11.0622
  749 457.696 -35.2683 -64.1955
  750 457.784 -35.1903 63.7386
  751 626.294 70.5509 -8.40717
  752 633.069 -7.40556 53.0135
  753 638.504 -15.3716 -44.4853
  754 600.719 -36.7466 -0.999648
  755 581.532 -51.7619 19.8873
  756 667.339 109.408 -11.2118
  757 619.624 -53.6437 -0.769289
  758 621.338 -39.4579 12.6657
  759 627.594 -8.77725 1.61037
  760 627.931 -8.56802 -1.58716
  761 843.054 183.194 -0.492011
  762 686.871 -58.6927 -28.7926
  763 643.747 -20.1571 26.0040
  764 665.879 -6.12768 -5.78163
  765 678.053 4.40655 -60.2943
  766 765.556 41.5818 -29.3235
  767 395.747 -0.228748 -5.82562
  768 395.993 -0.223981 5.77736
  769 6.33099 -9.64732 -6.57143
  770 657.489 -0.969305 10.9896
  771 609.442 -0.721965 -43.9803
  772 626.849 -5.90095 38.2083
  773 560.067 74.5807 273.858
  774 712.572 144.883 -1.35238
  775 510.714 -35.7000 35.4765
  776 99.5972 1.84314 -35.6793
  777 101.941 1.32498 36.0389
  778 622.012 -4.37821 -43.3565
  779 511.935 -36.0301 -35.4941
  780 662.077 -6.70719 4.67320
  781 353.558 -14.5352 59.8405
  782 350.748 -14.4753 -59.8125
  783 637.139 -17.1309 -11.9485
  784 421.001 -9.94167 -28.1286
  785 421.204 -9.88413 27.9184
  786 662.310 -6.78892 -15.5852
  787 515.575 -13.3114 -10.4596
  788 515.606 -13.2362 10.4656
  789 721.783 -4.36933 -37.4377
  790 654.913 -6.95076 -60.6608
  791 348.900 -2.02430 -15.5225
  792 349.489 -2.00508 15.3639
  793 23.2246 8.47560 -22.7005
  794 25.9767 8.96163 23.8109
  795 543.767 2.78925 -15.8844
  796 596.871 -67.0437 -40.5429
  797 -6.52889 -4.39704 11.5931
  798 -5.84103 -5.41885 -11.6856
  799 620.429 -13.0340 3.69082
  800 670.814 -52.6991 -13.3462
  801 697.933 102.999 -45.0763
  802 664.587 -6.08088 -4.46779
  803 1366.08 282.410 -256.259
  804 620.297 -13.0041 -3.63388
  805 925.345 174.399 16.5556
  806 666.308 19.4042 -63.4949
  807 731.640 55.6216 -52.4079
  808 136.442 -1.55835 -32.5827
  809 138.497 -1.73616 32.5346
  810 428.688 -5.70338 16.8898
  811 428.533 -5.74674 -17.0133
  812 413.242 -0.789590 3.20627
  813 413.103 -0.798389 -3.22663
  814 742.299 124.665 -39.8794
  815 452.747 -2.46007 -4.85898
  816 452.840 -2.43309 4.83836
  817 634.942 -6.37099 -55.4298
  818 890.512 100.880 90.7617
  819 578.773 13.4908 -34.8293
  820 211.496 -1.77949 34.4801
  821 210.007 -1.79678 -34.7192
  822 720.008 24.0736 199.250
  823 648.438 -12.5440 11.6764
  824 591.626 39.7964 -14.4828
  825 285.061 -0.319534 23.2440
  826 283.822 -0.194024 -23.3918
  827 420.048 -1.84242 -8.36317
  828 420.205 -1.81595 8.30099
  829 77.0492 67.8228 61.6850
  830 613.508 14.9698 51.2790
  831 679.185 99.3544 -39.1728
  832 725.998 84.4680 -53.0846
  833 486.892 -17.6438 -22.4283
  834 486.653 -17.5314 22.4190
  835 753.947 158.699 17.5223
  836 645.765 -6.17461 -0.471663
  837 645.820 -6.13092 0.571886
  838 643.257 -19.6878 -34.4814
  839 543.438 -35.5798 22.3215
  840 593.502 -66.6457 40.5713
  841 690.242 -56.5058 62.3504
  842 539.753 -15.3798 -7.08513
  843 539.762 -15.3360 7.05190
  844 618.174 57.5635 23.4125
  845 583.441 8.40856 -37.5090
  846 161.377 205.116 189.640
  847 583.235 -51.3203 -18.4974
  848 585.581 -26.1111 -2.30724
  849 585.883 -26.1877 2.26558
  850 643.928 -9.60209 57.8583
  851 636.058 -42.0232 -23.0022
  852 571.383 -37.4056 -11.5092
  853 1245.74 40.3012 -60.0231
  854 544.066 -50.8611 40.9048
  855 543.585 -51.4907 -41.4929
  856 642.418 -7.88900 28.9129
  857 950.939 248.921 -65.9384
  858 512.449 -45.7637 -49.5124
  859 562.182 -62.9703 48.5508
  860 512.387 -45.2405 49.1243
  861 554.185 -21.9919 -8.57478
  862 554.192 -21.9356 8.53059
  863 87.7110 35.4471 53.3385
  864 689.844 51.5685 -60.4428
  865 533.581 -20.3552 -11.9479
  866 533.690 -20.1670 11.9832
  867 528.005 -8.56605 -1.47681
  868 528.007 -8.51612 1.46962
  869 575.841 -11.7014 -1.28407
  870 575.778 -11.6369 1.27706
  871 476.758 -8.77259 -12.2104
  872 476.812 -8.68164 12.1718
  873 535.133 -27.5037 -17.3636
  874 535.214 -27.3428 17.4416
  875 14.2193 0.392567 -9.70498
  876 794.551 149.391 25.7880
  877 684.531 -24.2690 -45.7836
  878 561.625 -62.0393 -48.9802
  879 605.177 -19.8023 2.43940
  880 604.930 -19.6210 -2.29739
  881 660.432 0.704090 62.0277
  882 709.037 -50.4555 -38.7709
  883 623.845 48.9104 -238.795
  884 297.090 -5.60367 120.134
  885 -6.24507 6.92372 -9.81839
  886 -4.96347 7.83878 10.6539
  887 87.3308 37.6837 -54.5285
  888 642.919 -19.0001 19.9087
  889 672.493 -4.98314 -8.24349
  890 606.347 -58.7884 105.920
  891 296.431 -5.35347 -120.559
  892 675.651 -55.7459 6.74583
  893 744.326 -19.7818 95.5519
  894 561.357 2.39242 16.7955
  895 635.339 60.5380 39.5912
  896 351.017 -19.4912 87.5782
  897 349.739 -19.6445 -88.0868
  898 420.002 -19.1783 -49.3035
  899 432.811 -22.0759 -152.261
  900 678.430 -16.1453 52.8970
  901 919.863 220.934 46.2389
  902 682.771 26.1492 61.6428
  903 645.185 -14.1303 -31.7183
  904 441.441 -19.7694 155.986
  905 816.508 151.816 -15.3788
  906 86.7265 72.4290 -75.3362
  907 603.350 -1.09064 -17.6473
  908 420.427 -19.0317 48.9238
  909 507.442 -10.7695 9.10598
  910 507.412 -10.8327 -9.11960
  911 636.923 -41.7907 23.9235
  912 656.621 -4.98421 1.56783
  913 486.404 4.00225 -188.185
  914 690.065 -1.81510 3.87354
  915 686.118 -1.52964 -5.11682
  916 532.762 4.90217 -14.6855
  917 666.989 -2.84790 -9.65954
  918 508.170 -23.0170 -21.3242
  919 508.502 -22.6946 21.3983
  920 -14.9785 6.60863 -8.38402
  921 -21.4646 3.99320 9.19670
  922 656.572 -4.67705 -1.64510
  923 230.275 -5.41938 81.2464
  924 229.084 -4.97664 -81.6598
  925 708.433 102.896 47.1919
  926 1218.04 22.1811 18.2782
  927 669.003 74.2053 51.1139
  928 744.485 -25.1079 34.0558
  929 654.580 -36.7518 40.3248
  930 812.543 169.757 -11.8657
  931 522.738 2.60972 11.0899
  932 629.040 -15.4068 -6.63319
  933 657.900 35.4680 -62.0127
  934 781.914 25.2494 -1.82024
  935 614.953 -38.0508 -8.99598
  936 330.542 -1.64705 -17.2959
  937 330.803 -1.58745 17.0728
  938 647.298 -15.7060 -23.9957
  939 24.2688 29.8705 9.22371
  940 621.642 -64.5106 -12.8913
  941 552.473 17.0591 -1.51080
  942 808.331 176.043 -7.82943
  943 133.783 99.0666 -121.451
  944 626.852 -4.69835 -34.2342
  945 445.046 -6.86851 -15.9406
  946 445.144 -6.79291 15.8307
  947 4.61477 -16.7758 12.4385
  948 432.178 -31.4146 -70.7296
  949 633.758 -36.8966 -22.5454
  950 412.559 0.902233 -1.36132
  951 412.679 0.905420 1.35437
  952 646.020 78.3257 -31.4954
  953 678.447 -2.66131 -0.769931
  954 678.500 -2.68231 1.04362
  955 432.403 -31.3460 70.3121
  956 643.501 -1.07609 -13.3449
  957 733.110 5.56354 35.3678
  958 651.613 -9.86743 8.80776
  959 112.548 26.7167 -65.8647
  960 673.607 -4.64910 7.40230
  961 621.487 5.27590 54.5774
  962 655.182 90.4216 27.9813
  963 652.445 7.60440 -63.1984
  964 457.678 -23.6520 -42.8902
  965 698.190 -25.0504 36.3487
  966 457.982 -23.5780 42.5138
  967 23.4570 24.5867 -5.34641
  968 84.8263 13.2199 48.4253
  969 380.076 -6.24153 28.8961
  970 379.657 -6.23836 -29.0289
  971 629.491 -15.6618 7.09511
  972 682.796 117.862 15.1937
  973 349.827 31.0018 -179.271
  974 570.444 -35.2313 10.3942
  975 535.743 -55.5755 -59.6542
  976 774.579 147.867 28.9371
  977 598.043 -10.9908 -0.309301
  978 598.015 -10.9406 0.302037
  979 651.902 -12.6390 -16.7478
  980 612.834 53.2779 -21.5816
  981 1307.43 400.593 268.504
  982 136.504 6.85928 -62.1904
  983 138.296 5.67936 62.2942
  984 10.1940 -7.32319 6.04808
  985 613.918 34.4329 44.3028
  986 535.704 -55.9341 59.2639
  987 659.239 -31.4154 -46.7794
  988 716.441 58.5638 58.2343
  989 682.807 -55.1393 -74.6128
  990 992.143 208.192 73.4726
  991 588.019 -9.89702 -0.666193
  992 587.945 -9.82722 0.665224
  993 683.755 -28.2196 43.0187
  994 49.1239 92.5768 88.9057
  995 323.427 -6.37799 41.1815
  996 322.539 -6.29407 -41.5601
  997 380.801 -17.8838 56.6402
  998 379.583 -17.5917 -56.8094
  999 426.892 -16.8396 41.1091
  1000 466.680 -3.31280 -2.14009
  1001 466.759 -3.29042 2.13311
  1002 1091.72 365.325 -237.371
  1003 1008.93 253.769 110.835
  1004 426.556 -16.9126 -41.4036
  1005 703.854 -3.40231 47.7789
  1006 638.220 66.2887 -37.9938
  1007 451.212 -39.2715 126.478
  1008 574.086 -67.9472 -71.0422
  1009 655.100 -5.68062 -19.1466
  1010 302.709 19.4950 146.826
  1011 387.964 -29.4986 100.950
  1012 589.454 30.7723 -27.9232
  1013 663.488 -13.3367 -58.0132
  1014 806.417 363.382 366.220
  1015 560.093 17.7116 20.0323
  1016 747.495 159.032 -2.16552
  1017 543.172 22.4262 -213.199
  1018 559.602 -58.4164 -42.2930
  1019 696.927 -1.13639 -1.83561
  1020 680.489 62.4604 -58.7024
  1021 413.461 -2.33655 10.6176
  1022 413.269 -2.35957 -10.6997
  1023 15.9189 15.9062 -25.7094
  1024 458.548 -20.0922 -35.8890
  1025 387.474 -29.8699 -101.628
  1026 458.259 -20.0622 35.5515
  1027 649.340 -19.9851 53.7063
  1028 583.954 -35.8484 -5.51025
  1029 617.023 11.6305 -53.0317
  1030 635.374 79.2832 11.1015
  1031 836.939 56.0340 42.9164
  1032 641.470 -48.9522 21.9969
  1033 415.168 -32.5191 -77.3841
  1034 612.651 22.0702 -49.8604
  1035 454.761 -38.7900 -127.034
  1036 860.843 184.453 -5.50778
  1037 597.805 39.7189 25.4025
  1038 737.802 -3.80096 -24.7153
  1039 563.011 -58.4759 39.4354
  1040 643.000 -20.6882 40.9789
  1041 637.863 -33.9433 27.5327
  1042 634.341 -32.1823 23.4070
  1043 778.652 100.046 -38.0944
  1044 636.168 -10.4274 42.6435
  1045 573.342 -68.1339 69.9499
  1046 611.897 -25.2710 5.60333
  1047 415.435 -32.5962 77.0259
  1048 576.807 -42.0506 -12.3688
  1049 342.796 -16.9029 -107.912
  1050 481.553 -49.6852 86.4667
  1051 646.345 -4.65641 -22.5124
  1052 631.983 -7.18848 -48.9293
  1053 548.785 -42.7569 -26.8771
  1054 343.354 -17.3425 107.162
  1055 594.686 1.67051 -34.7695
  1056 445.766 -28.6851 -55.1795
  1057 789.087 166.456 17.3604
  1058 184.671 28.9365 -104.877
  1059 1294.96 91.2487 121.884
  1060 323.117 22.6705 -153.302
  1061 633.827 -52.6512 -10.9986
  1062 445.912 -28.4596 54.7885
  1063 589.207 6.64386 39.1001
  1064 340.411 -6.48917 34.1230
  1065 340.283 -6.64582 -34.4337
  1066 643.697 -18.0874 -49.9574
  1067 676.040 -4.04234 2.66162
  1068 667.476 -1.74268 9.70113
  1069 664.272 21.9652 63.5015
  1070 624.181 -4.68041 46.2154
  1071 478.766 52.1244 230.146
  1072 700.791 -0.792738 0.792424
  1073 671.061 90.5633 40.6240
  1074 575.237 8.78230 33.8455
  1075 674.446 -2.83005 9.21303
  1076 449.538 -4.34108 -9.05945
  1077 449.631 -4.29370 9.01331
  1078 291.051 -7.88982 -57.0802
  1079 292.046 -8.17758 56.7545
  1080 577.197 29.3919 14.2561
  1081 837.932 50.3028 -73.3996
  1082 770.379 2.82727 -126.668
  1083 630.058 -0.651472 -13.9813
  1084 481.640 -50.0428 -87.0731
  1085 549.951 -40.6754 24.4273
  1086 633.285 -1.52851 14.5689
  1087 657.994 -48.0690 -26.5247
  1088 427.550 -0.734256 5.29204
  1089 427.429 -0.748977 -5.31846
  1090 632.656 -54.1573 10.9759
  1091 602.508 -12.7703 0.156111
  1092 602.407 -12.7874 -0.126171
  1093 586.942 -58.8258 27.1886
  1094 745.972 -23.3768 -17.8501
  1095 358.326 -0.556616 -9.69198
  1096 358.840 -0.537160 9.60397
  1097 514.473 -33.2742 -145.601
  1098 551.805 -13.0899 4.26077
  1099 551.844 -13.1493 -4.28680
  1100 330.609 183.316 253.000
  1101 753.750 62.6537 -44.8095
  1102 118.166 55.7216 -81.5545
  1103 651.850 -10.3688 -8.48461
  1104 182.205 60.4870 -120.468
  1105 374.999 -22.9461 -73.2031
  1106 700.372 -1.09989 0.585773
  1107 700.573 -1.05247 -0.413263
  1108 644.295 -37.0629 -34.0793
  1109 570.136 -64.3860 -95.7840
  1110 184.857 24.6390 99.9319
  1111 701.806 69.3674 56.1880
  1112 633.791 -7.15465 -0.609290
  1113 633.876 -7.15533 0.661954
  1114 686.481 -43.2783 116.791
  1115 720.789 142.906 21.1632
  1116 438.915 -9.91170 -22.6031
  1117 439.035 -9.87261 22.4720
  1118 328.779 36.5800 181.162
  1119 615.364 3.35110 -51.2032
  1120 198.039 62.2318 129.018
  1121 771.734 -11.4330 -46.5859
  1122 770.263 167.932 5.88818
  1123 533.967 -41.4903 31.6442
  1124 505.412 3.05992 -2.16661
  1125 667.700 -6.33306 11.3686
  1126 688.730 -1.15951 4.39092
  1127 166.501 0.202888 -28.9697
  1128 168.373 0.134178 28.7945
  1129 559.239 9.89462 -25.1663
  1130 567.729 -16.6502 -4.12167
  1131 567.619 -16.5892 4.10518
  1132 61.4853 111.003 -94.9085
  1133 95.5650 228.173 -182.545
  1134 574.384 -22.3357 4.39483
  1135 574.574 -22.3144 -4.43606
  1136 591.957 -14.5398 -0.0903117
  1137 591.876 -14.5204 0.129276
  1138 160.384 101.754 130.745
  1139 477.095 -5.47222 -4.52245
  1140 477.162 -5.43712 4.50623
  1141 595.110 45.4521 -0.562430
  1142 728.942 102.927 -264.388
  1143 716.830 122.933 -36.3701
  1144 652.603 -25.2792 -50.2161
  1145 642.500 -32.3452 -35.0731
  1146 534.175 -41.8559 -32.1326
  1147 546.067 1.99407 15.5312
  1148 606.918 38.2624 -37.0889
  1149 599.188 32.6727 35.5328
  1150 611.520 -24.5670 -5.46750
  1151 585.363 -35.1552 5.04523
  1152 535.386 -33.8774 -24.2731
  1153 634.101 -3.84666 27.0846
  1154 1088.78 109.491 15.0732
  1155 637.803 -13.7363 49.2321
  1156 642.221 42.2460 55.0535
  1157 589.607 -57.7195 -21.7544
  1158 80.9238 12.1035 -46.7956
  1159 600.641 -27.8796 -2.65567
  1160 415.355 -0.471108 -0.303643
  1161 415.467 -0.468802 0.301438
  1162 724.807 -19.1742 20.0151
  1163 690.359 -58.2878 33.0798
  1164 985.571 175.044 45.2854
  1165 254.294 -0.372109 -23.8675
  1166 255.578 -0.320272 23.7122
  1167 540.972 -10.8294 -3.21902
  1168 540.956 -10.7722 3.20170
  1169 602.184 -52.9444 -7.04226
  1170 509.508 2.56489 7.11767
  1171 616.229 -43.9018 7.91480
  1172 37.8146 44.8760 -24.8031
  1173 116.747 56.5749 79.6390
  1174 416.836 -23.3935 140.570
  1175 714.890 135.060 -26.0396
  1176 676.689 -2.04926 -7.30172
  1177 703.092 -1.30108 0.320252
  1178 703.660 -1.70090 -0.161994
  1179 429.945 -0.759619 -0.923496
  1180 430.054 -0.752980 0.918405
  1181 659.245 42.1251 62.0294
  1182 958.957 161.864 -3.48587
  1183 680.322 111.791 -27.2712
  1184 506.738 -37.9126 144.701
  1185 414.657 -22.5846 -140.277
  1186 463.979 -30.1582 -49.8022
  1187 630.044 -18.1144 9.43192
  1188 872.840 194.033 17.1805
  1189 464.054 -29.9984 49.4636
  1190 642.367 -11.8850 7.13280
  1191 584.872 22.2446 33.9988
  1192 638.420 19.9359 59.9720
  1193 896.074 199.584 28.5409
  1194 541.859 -13.9356 5.91421
  1195 541.874 -13.9903 -5.94502
  1196 651.228 -12.8093 17.4338
  1197 401.711 -3.92051 16.5054
  1198 401.446 -3.95805 -16.6313
  1199 636.489 -9.34495 -2.74677
  1200 265.607 160.216 -246.045
  1201 551.403 -31.4218 -155.065
  1202 528.061 -16.1368 -10.1220
  1203 528.125 -16.0761 10.1265
  1204 678.320 -3.75497 2.52331
  1205 645.663 -9.15497 5.65296
  1206 37.9732 49.8639 37.8939
  1207 697.232 -1.00074 2.17745
  1208 87.4138 114.200 113.166
  1209 631.670 -10.1022 -3.62701
  1210 -0.418492 -14.9814 -13.2124
  1211 452.780 -44.2900 -109.108
  1212 451.662 -43.2388 108.084
  1213 697.195 -1.42430 -2.44854
  1214 604.260 -31.9221 -3.51729
  1215 678.006 -3.48888 -2.48997
  1216 552.700 -17.6832 -6.32011
  1217 552.662 -17.6335 6.27193
  1218 636.102 -9.29103 2.53962
  1219 600.224 -27.3195 2.62906
  1220 578.975 -18.6994 2.47149
  1221 579.157 -18.7343 -2.41378
  1222 677.284 -3.58906 -2.00379
  1223 588.583 -62.4161 -107.598
  1224 664.032 -4.81226 -1.94408
  1225 634.177 -10.3555 4.01852
  1226 456.234 -4.53482 -6.83875
  1227 456.322 -4.49286 6.80786
  1228 504.370 -7.10558 -3.77569
  1229 504.406 -7.06337 3.76158
  1230 798.253 125.569 30.2074
  1231 672.218 -52.0497 17.4086
  1232 464.131 -2.65073 178.097
  1233 387.104 -0.495828 6.34858
  1234 386.802 -0.501870 -6.40181
  1235 640.866 -12.0603 36.6258
  1236 611.847 -9.83643 0.272959
  1237 611.862 -9.80897 -0.272980
  1238 704.262 135.828 12.2942
  1239 637.846 -67.0823 87.1398
  1240 385.727 -5.04435 22.9370
  1241 385.380 -5.07823 -23.0791
  1242 611.310 -15.3470 2.41031
  1243 611.173 -15.4596 -2.28917
  1244 629.689 -17.9202 -9.02114
  1245 588.329 0.186973 17.9625
  1246 987.460 246.066 -87.8065
  1247 642.264 -23.8601 -31.1272
  1248 117.355 26.4186 67.5509
  1249 662.715 -35.6328 42.8751
  1250 545.769 12.5211 -13.7928
  1251 45.2385 31.0480 26.4970
  1252 860.842 100.945 -20.2786
  1253 648.259 -29.7270 -44.2472
  1254 548.110 8.28000 21.1618
  1255 377.478 -22.9983 73.1439
  1256 656.840 -51.1451 22.9495
  1257 938.002 189.195 71.6430
  1258 228.316 32.3945 126.457
  1259 659.000 -8.40816 -15.1086
  1260 1227.08 14.0075 -12.0436
  1261 1264.80 18.7653 53.1488
  1262 1345.72 44.5422 -127.190
  1263 642.255 -20.3540 -39.7821
  1264 641.445 -29.5950 32.7370
  1265 650.876 -46.6171 28.9055
  1266 -18.9395 2.49174 11.7687
  1267 -17.1355 2.08703 -12.9274
  1268 632.158 -70.1940 -43.9822
  1269 646.161 -65.6879 -63.1910
  1270 512.743 3.52149 -8.76352
  1271 629.185 -71.3753 62.6818
  1272 673.580 -32.2159 -43.2826
  1273 15.9939 21.3308 4.87209
  1274 553.316 -10.1471 1.91852
  1275 553.348 -10.2091 -1.92349
  1276 666.926 -5.91282 10.0534
  1277 642.265 -11.6908 -6.63199
  1278 607.006 -66.2285 -25.5900
  1279 558.395 -29.7956 12.0613
  1280 555.741 -29.3560 -12.7535
  1281 649.893 -14.1874 24.7906
  1282 666.381 -24.7257 -51.2623
  1283 46.8734 32.3690 -26.0155
</Section>

newXOutput 90

<Section columns = "stress_xx | stress_yy | stress_xy">
  1 714.118 -0.393392 1.25451
  2 714.103 -0.376614 -1.25686
  3 414.202 -0.0550282 -0.450234
  4 -5.14007 -5.05679 -7.39683
  5 1234.25 525.003 406.517
  6 1223.27 542.570 -402.289
  7 -5.97933 -4.77974 7.90618
  8 414.088 -0.0562732 0.449290
  9 718.594 -1.30561 0.341302
  10 717.375 -2.01775 -0.449978
  11 716.238 -1.45143 1.34404
  12 715.051 -1.90532 0.202543
  13 712.439 -1.64263 2.10966
  14 710.018 -1.63953 1.43261
  15 703.911 -1.43907 3.08182
  16 694.761 -1.15644 4.58361
  17 686.706 -1.14528 5.20063
  18 674.388 -1.44675 6.39180
  19 656.871 -0.253341 9.58764
  20 640.701 -1.05812 9.23296
  21 621.762 -1.28404 13.1647
  22 594.463 0.889767 11.5708
  23 574.295 1.47503 13.7815
  24 547.938 2.40575 10.8760
  25 529.525 2.72143 11.0099
  26 502.875 3.63002 5.63994
  27 497.175 5.68554 6.08214
  28 493.705 4.76562 -1.81072
  29 498.349 2.94075 -3.91808
  30 506.942 2.72855 -4.82077
  31 526.930 3.34352 -9.59014
  32 546.358 2.64691 -12.0408
  33 574.498 0.722187 -14.2218
  34 596.945 -0.234406 -12.8090
  35 620.576 -1.00987 -12.4530
  36 641.814 -0.839494 -8.71368
  37 659.776 -0.923261 -7.35904
  38 674.363 -1.42828 -6.08725
  39 687.233 -1.07811 -4.11731
  40 695.012 -1.33736 -4.31207
  41 702.544 -1.54395 -3.12523
  42 709.459 -1.79237 -1.21944
  43 712.932 -1.47152 -1.53915
  44 714.521 -1.00229 -0.897903
  45 712.660 -0.703100 -0.824834
  46 717.981 -2.00140 0.337758
  47 718.758 -1.34638 -0.351057
  48 697.898 -1.01336 -0.778295
  49 683.976 -3.53412 -1.50212
  50 666.732 -5.04471 -0.834820
  51 645.548 -7.14537 -1.18392
  52 625.262 -7.70773 -1.39750
  53 603.462 -9.29589 -1.35609
  54 584.033 -10.1336 -0.641673
  55 566.981 -11.0533 -0.0998554
  56 547.253 -9.09380 -0.0663967
  57 524.501 -8.35184 -0.317763
  58 502.617 -6.45484 0.0584592
  59 481.931 -3.97590 0.108538
  60 462.336 -2.73338 0.169476
  61 445.250 -1.27202 0.290261
  62 427.915 -0.241583 -0.502628
  63 414.322 0.604331 0.791706
  64 408.087 1.49569 0.588040
  65 411.870 0.0715713 1.29358
  66 406.747 -0.125573 1.58574
  67 401.792 -0.222403 1.96861
  68 395.182 0.0423381 2.51077
  69 386.870 0.0307194 3.12363
  70 380.351 -0.358053 5.85458
  71 363.158 0.524261 6.36039
  72 350.814 0.0131601 7.18909
  73 332.447 -0.253409 8.18227
  74 311.397 -0.459564 9.93135
  75 285.033 -0.0648818 12.0636
  76 252.903 0.180938 13.3663
  77 224.584 -0.194042 19.1428
  78 169.619 1.71515 18.2094
  79 131.479 1.47425 19.3113
  80 85.1349 -0.435558 21.6316
  81 45.9999 3.37099 22.7824
  82 1.11121 5.18209 14.2424
  83 -32.3302 5.29924 5.73041
  84 -33.3312 5.27290 -0.819588
  85 -33.6149 4.45357 -9.80748
  86 -19.9721 -1.16481 -9.59674
  87 -2.26472 -19.1685 -10.6621
  88 2.18823 -34.8955 -12.9961
  89 5.63670 -53.2983 -6.22954
  90 12.2496 -50.9804 2.84029
  91 25.5094 -0.297491 36.3857
  92 73.9251 134.027 115.550
  93 411.790 422.792 367.495
  94 1501.12 227.900 246.835
  95 1361.35 32.3593 79.3276
  96 1273.10 13.6930 24.2784
  97 1240.65 11.7738 1.78682
  98 1258.34 15.4813 -21.2438
  99 1359.39 30.4880 -62.9174
  100 1581.30 109.945 -210.134
  101 246.812 437.363 -309.642
  102 55.2621 105.046 -97.0846
  103 27.9889 2.51216 -39.4292
  104 11.5228 -50.2438 -8.67359
  105 3.57337 -39.9222 7.01659
  106 4.25787 -44.1448 11.1549
  107 0.308706 -16.4371 11.8286
  108 -20.8844 -0.640710 9.04437
  109 -34.6682 3.34559 8.49249
  110 -35.1565 6.38699 0.992468
  111 -33.3185 5.19214 -5.40140
  112 -1.29806 5.31004 -13.4110
  113 43.9296 3.39882 -21.7609
  114 83.0326 -0.0674896 -21.2804
  115 129.292 1.59169 -19.3424
  116 167.634 1.75712 -18.3343
  117 223.048 -0.201892 -19.2863
  118 251.593 0.197654 -13.4823
  119 283.886 -0.0617679 -12.2019
  120 310.822 -0.515282 -9.99316
  121 331.646 -0.236278 -8.19693
  122 350.201 0.0348549 -7.25506
  123 362.651 0.518797 -6.42091
  124 379.979 -0.362089 -5.90572
  125 386.565 0.0280839 -3.15473
  126 394.942 0.0397817 -2.53620
  127 401.602 -0.226682 -1.98863
  128 406.592 -0.129247 -1.59961
  129 411.736 0.0685229 -1.30232
  130 407.964 1.49447 -0.592013
  131 414.205 0.603665 -0.794241
  132 427.803 -0.244951 0.501507
  133 445.146 -1.28053 -0.293240
  134 462.246 -2.75188 -0.172923
  135 481.862 -4.00155 -0.111824
  136 502.573 -6.49194 -0.0618105
  137 524.486 -8.39920 0.315042
  138 547.270 -9.14912 0.0633409
  139 567.024 -11.1163 0.0982495
  140 584.095 -10.1970 0.643590
  141 603.554 -9.35357 1.36263
  142 625.347 -7.74681 1.42105
  143 645.619 -7.18039 1.29944
  144 666.856 -4.80795 0.852636
  145 684.437 -3.45601 1.46802
  146 698.037 -1.12283 0.765376
  147 632.519 -59.5005 2.04887
  148 631.942 -58.6861 -1.83005
  149 669.248 95.8051 -29.4334
  150 707.496 41.6503 60.6010
  151 536.675 -52.1985 -122.369
  152 541.148 -52.0794 118.638
  153 527.865 -21.7960 16.3998
  154 527.889 -22.0810 -16.4027
  155 746.178 27.4023 -42.7612
  156 630.912 -23.0944 9.98468
  157 630.635 -22.5665 -9.87161
  158 814.968 179.660 5.28796
  159 649.061 -0.993742 -60.8756
  160 485.491 -37.3271 -55.3628
  161 485.553 -37.0367 54.9344
  162 649.270 -14.8599 54.2347
  163 622.230 45.7377 37.0824
  164 261.006 40.3858 -146.364
  165 288.056 38.3862 154.006
  166 783.016 10.5099 -4.04964
  167 649.270 -25.2227 -36.2483
  168 854.362 187.583 4.62787
  169 587.099 -16.7050 -2.07515
  170 586.988 -16.6675 2.11603
  171 653.230 -8.64168 -4.23205
  172 655.039 -7.85301 3.61008
  173 471.112 -6.25691 -9.20338
  174 471.184 -6.19639 9.16665
  175 694.824 -16.3693 155.821
  176 603.755 25.5254 -40.0432
  177 398.208 -29.3961 -87.1836
  178 399.357 -29.1896 86.6879
  179 448.883 -13.9714 -28.9749
  180 448.939 -13.8206 28.7954
  181 652.071 -17.5108 30.8778
  182 594.691 -40.5730 -5.84656
  183 592.749 -40.2720 6.69366
  184 670.364 -65.2521 -18.6863
  185 674.047 -62.1678 10.4730
  186 921.452 217.808 -40.3677
  187 681.853 108.819 27.3833
  188 680.355 41.8154 -62.1612
  189 691.373 -3.28483 -179.652
  190 672.073 -38.2655 -40.4653
  191 678.011 -27.4285 48.8398
  192 567.653 -64.3148 62.2786
  193 567.671 -63.8338 -62.1232
  194 612.516 8.07770 47.8318
  195 286.591 -7.50032 -107.210
  196 287.214 -8.04938 106.622
  197 1031.82 153.423 22.8110
  198 637.548 -38.1900 20.3321
  199 659.632 -12.6379 -19.5774
  200 531.244 -12.6645 -7.83413
  201 531.266 -12.6111 7.81576
  202 638.030 -8.38024 -42.0942
  203 723.880 106.019 -48.3457
  204 613.175 55.4249 -7.40060
  205 406.231 -13.6669 40.1219
  206 405.656 -13.7006 -40.3773
  207 667.476 -8.04949 10.1486
  208 656.502 12.3970 62.7535
  209 536.679 -38.3209 -28.6473
  210 533.417 -36.2631 29.1049
  211 768.269 114.231 41.5865
  212 891.269 128.827 33.5432
  213 66.3924 50.1855 -44.7022
  214 61.5649 46.3842 38.2145
  215 374.063 108.966 253.053
  216 631.343 -42.0774 -14.2667
  217 669.527 -7.71877 -9.14360
  218 606.241 5.64931 -44.0983
  219 434.265 -3.89122 -12.9309
  220 434.409 -3.84911 12.8373
  221 571.720 -26.5414 -8.27850
  222 571.991 -26.7242 7.96541
  223 642.763 -8.79709 35.5791
  224 730.044 -41.9431 25.2595
  225 735.044 148.677 -13.6548
  226 576.527 -55.2503 -31.6946
  227 722.235 -12.6167 34.8553
  228 618.648 -10.9488 0.939070
  229 618.644 -10.8696 -0.938717
  230 572.623 -54.9982 32.6524
  231 652.714 -41.7021 32.3026
  232 899.694 124.707 -70.8395
  233 208.679 124.083 -187.147
  234 565.291 20.4637 9.69279
  235 660.253 58.1962 53.0838
  236 697.514 -5.00927 -53.0897
  237 653.890 -23.7556 -50.0055
  238 361.248 -11.0674 -49.8336
  239 362.391 -10.9086 49.7169
  240 654.392 -8.22892 -27.0034
  241 623.104 -16.2397 4.55181
  242 622.819 -16.2318 -4.33592
  243 140.209 11.8706 -70.1498
  244 142.129 10.3917 69.8830
  245 688.368 -60.4689 -60.7960
  246 680.177 -3.11325 1.12204
  247 680.784 -3.16498 -1.30563
  248 645.992 53.7010 -48.8660
  249 575.233 11.6117 29.1636
  250 1148.37 183.827 124.018
  251 1137.83 129.605 -76.8134
  252 844.475 179.921 1.33263
  253 528.275 -25.9438 161.446
  254 486.338 -17.4143 -168.495
  255 561.409 -11.5257 -3.24281
  256 561.367 -11.4634 3.22534
  257 473.209 -12.0083 18.2722
  258 473.186 -12.1643 -18.4058
  259 667.840 -7.71486 15.9905
  260 649.947 -46.5234 -25.3670
  261 437.616 -0.576795 -3.11179
  262 437.728 -0.565087 3.09675
  263 641.912 -26.3886 -20.6599
  264 285.030 -9.05792 -69.5111
  265 286.113 -9.08444 69.0699
  266 650.600 -28.5034 39.1449
  267 500.381 -53.1215 98.5956
  268 501.506 -54.0647 -98.2840
  269 572.707 22.5558 -13.5794
  270 494.533 -7.15377 -6.23585
  271 494.587 -7.11090 6.21705
  272 616.153 -1.38273 35.0361
  273 730.594 132.779 33.2486
  274 405.222 -4.51508 21.4582
  275 404.934 -4.54976 -21.6135
  276 666.033 -55.9847 14.9683
  277 616.502 -69.5504 -69.1814
  278 683.227 -3.93626 4.50956
  279 487.592 -27.9726 -38.2372
  280 486.853 -27.6770 38.1200
  281 825.353 98.8400 225.906
  282 407.637 -33.1163 116.706
  283 652.901 91.4207 -3.10747
  284 810.027 91.9335 -21.6423
  285 617.318 -47.6813 2.29987
  286 617.214 -71.4112 62.9408
  287 408.729 -32.6133 -117.890
  288 78.5106 97.3253 90.7143
  289 642.025 -26.4613 21.0685
  290 833.204 111.714 13.8953
  291 687.943 -3.52445 -3.91358
  292 635.051 22.5051 -56.2932
  293 621.918 -35.2908 9.09650
  294 609.408 -51.2890 6.92694
  295 633.135 29.2910 54.3657
  296 663.038 -55.9602 -12.7315
  297 932.337 179.397 -18.3005
  298 621.760 -33.9421 -8.65700
  299 505.073 152.101 -306.152
  300 633.950 -67.3644 -18.7739
  301 629.642 -69.2303 25.8316
  302 470.279 -41.9513 -77.2338
  303 433.505 -1.38440 -6.69273
  304 433.635 -1.35975 6.65042
  305 470.529 -42.0014 76.8615
  306 672.835 -1.18715 -61.9774
  307 720.351 -29.8425 -20.1444
  308 556.929 -32.9823 -16.7026
  309 556.645 -33.0620 16.9762
  310 654.903 -56.3956 107.780
  311 659.340 -5.59676 20.4134
  312 789.590 6.61965 45.9305
  313 546.942 -18.9311 -9.51128
  314 546.991 -18.8822 9.47187
  315 502.247 -12.5140 -12.5035
  316 502.267 -12.4071 12.4919
  317 569.875 8.07252 -28.1825
  318 715.772 52.6025 -58.3668
  319 1084.21 295.608 -145.892
  320 649.245 -6.50644 -1.29679
  321 648.929 -6.42655 1.34845
  322 356.178 -1.68510 145.721
  323 498.946 -21.8347 -25.9530
  324 498.109 -21.7824 26.0260
  325 356.105 -2.56918 -145.160
  326 685.940 80.7884 -50.9963
  327 759.105 38.3117 39.7530
  328 654.350 -46.6247 -118.950
  329 608.599 -23.6889 2.61180
  330 608.026 -23.5392 -2.37295
  331 646.376 -14.0577 -9.30195
  332 616.500 -1.05847 -32.7360
  333 684.373 2.74732 60.1263
  334 678.395 -5.25530 -10.8796
  335 421.234 -24.7210 58.6334
  336 420.778 -24.8447 -59.0255
  337 640.439 -1.35479 58.0375
  338 408.475 -2.96737 -12.8658
  339 408.723 -2.94071 12.7679
  340 651.474 -15.5627 15.6458
  341 782.786 158.913 -21.9848
  342 646.149 -14.1408 9.70465
  343 693.221 86.7073 50.9741
  344 662.050 -12.4863 59.0080
  345 530.816 -9.70327 3.03906
  346 530.809 -9.75403 -3.05377
  347 630.189 -2.13344 -51.6214
  348 824.591 172.709 10.6027
  349 692.985 125.962 1.04495
  350 423.022 48.7637 -214.673
  351 49.4336 19.4223 -32.3302
  352 53.5843 21.0540 34.5067
  353 -0.611227 5.77952 11.3742
  354 1.69464 3.78713 -12.0123
  355 1170.71 81.4045 27.2207
  356 573.418 -46.0396 -20.1483
  357 651.862 -15.0784 -15.2423
  358 591.992 -10.7846 -0.0234249
  359 591.927 -10.7102 0.0177668
  360 637.960 70.5350 -26.5114
  361 542.507 -54.7066 51.3536
  362 50.6616 76.3075 -58.0750
  363 542.901 -54.6635 -52.1673
  364 645.730 73.4612 28.1913
  365 651.913 -17.8210 -29.2599
  366 689.157 -38.7705 -32.7020
  367 739.919 154.411 9.32565
  368 690.311 -43.4903 25.4851
  369 301.318 -7.07203 46.4001
  370 299.721 -6.93132 -46.6467
  371 173.995 3.76242 -65.6394
  372 175.543 3.13846 65.3675
  373 577.908 2.39775 28.4036
  374 1051.83 314.400 131.808
  375 671.760 -4.69069 -14.2965
  376 530.177 -43.9420 -39.6865
  377 529.833 -43.8634 39.6397
  378 649.257 -15.2870 -38.0705
  379 731.398 -35.2814 -4.06358
  380 573.398 -46.0121 20.6423
  381 796.288 8.89751 -76.0443
  382 471.138 -3.40165 -2.60526
  383 471.219 -3.37498 2.59250
  384 640.665 -3.87902 -24.8055
  385 359.041 -4.78370 -30.1369
  386 359.222 -4.94751 29.8062
  387 759.240 97.4509 -47.0594
  388 414.034 28.8438 200.115
  389 598.352 -31.3219 -1.20304
  390 598.916 -31.2781 1.18431
  391 704.344 118.398 -31.8283
  392 664.034 -19.8868 -55.3646
  393 660.756 -67.8706 62.1939
  394 559.554 -14.7480 -5.20898
  395 559.506 -14.6915 5.17406
  396 639.741 -49.5066 15.1563
  397 684.036 -3.70655 7.98148
  398 441.828 -15.2827 -35.9639
  399 442.008 -15.2951 35.7025
  400 653.752 22.0914 -62.0588
  401 614.011 -13.8416 1.29954
  402 613.976 -13.8811 -1.23347
  403 638.277 -7.64214 46.9501
  404 601.444 44.3337 12.9397
  405 658.423 -28.1114 47.6129
  406 940.936 195.439 39.4803
  407 328.518 -17.5418 -93.4429
  408 329.363 -17.5393 92.8089
  409 148.693 77.8090 -115.406
  410 696.184 -2.62176 1.94416
  411 374.428 -2.79958 -19.1226
  412 374.872 -2.74049 18.9820
  413 649.598 -17.2646 37.0943
  414 589.827 -63.7964 36.3873
  415 660.763 -8.97511 6.53105
  416 679.071 34.4382 64.0056
  417 155.161 82.8476 119.731
  418 590.632 -63.3940 -33.8776
  419 609.777 -56.5135 -11.3216
  420 211.982 -4.19776 -59.0065
  421 213.328 -4.33796 58.6415
  422 470.826 -38.4163 -140.701
  423 697.342 -10.6523 51.5128
  424 469.314 -38.9016 139.570
  425 645.783 -36.5423 -29.0437
  426 608.934 41.6020 -28.1359
  427 645.804 -28.3036 27.9327
  428 688.195 -3.65471 -5.12257
  429 23.2317 26.2458 14.0668
  430 145.163 172.092 168.443
  431 626.987 -2.26632 24.1700
  432 537.454 7.92442 12.4615
  433 545.626 9.52013 -16.8356
  434 465.619 -7.09911 -12.9015
  435 465.684 -7.01340 12.8350
  436 636.647 -49.4586 -13.4449
  437 645.843 -12.8131 -52.2271
  438 539.939 10.7871 -4.56807
  439 939.479 224.962 55.2209
  440 139.238 44.1447 -86.8948
  441 152.698 40.4792 92.3465
  442 597.795 -21.4354 -0.386315
  443 597.589 -21.4042 0.525968
  444 794.715 173.080 -1.52458
  445 484.099 216.574 312.861
  446 756.488 -9.64659 -0.589152
  447 449.562 -22.5860 -48.7814
  448 449.786 -22.4471 48.4250
  449 454.762 -9.47938 19.7124
  450 454.663 -9.54149 -19.8592
  451 604.979 13.9155 -45.5464
  452 699.249 -1.49957 -1.22891
  453 590.313 27.7120 25.7815
  454 732.354 90.3347 52.9943
  455 611.273 -45.2826 -0.436693
  456 660.420 -8.59561 -6.37358
  457 690.725 -3.36292 4.71110
  458 697.117 -1.62728 0.695446
  459 697.570 -1.77370 -0.465863
  460 407.446 -0.555495 4.84530
  461 407.245 -0.564716 -4.88603
  462 666.251 -42.7021 35.1306
  463 610.472 24.5407 44.1333
  464 634.298 2.71971 -56.8211
  465 656.024 -14.4092 21.2158
  466 918.976 171.313 -195.130
  467 658.665 -36.8630 -40.6168
  468 10.1070 13.0840 7.49131
  469 9.89291 13.4432 -4.21802
  470 528.767 -29.1847 23.3085
  471 527.145 -28.7601 -22.9760
  472 803.250 20.3275 108.965
  473 229.239 219.041 -241.162
  474 651.813 -2.21121 18.4023
  475 727.788 -41.7415 -65.1842
  476 403.776 -22.5062 67.6030
  477 787.278 139.949 -31.7872
  478 649.349 -35.4800 33.5709
  479 550.748 -25.7910 -12.9160
  480 551.218 -25.3844 12.8952
  481 577.781 3.30695 -25.0417
  482 402.584 -22.4010 -67.9503
  483 590.704 0.530738 25.0532
  484 557.507 -63.9827 -89.3437
  485 556.164 -64.0795 89.7661
  486 668.551 -4.81079 15.8483
  487 617.786 58.5836 5.33497
  488 610.716 12.7478 216.718
  489 903.062 181.395 -1.12503
  490 627.521 -11.2496 2.22528
  491 627.542 -11.2132 -2.36365
  492 494.053 -8.25042 -8.53598
  493 494.102 -8.18902 8.51305
  494 263.756 11.0294 123.594
  495 652.565 -31.7560 -40.1957
  496 593.751 -13.2331 -1.02812
  497 593.694 -13.1973 1.03461
  498 519.704 -54.6022 72.9893
  499 268.591 14.7312 -126.604
  500 652.201 -53.4337 -15.5795
  501 12.7989 5.62602 2.36372
  502 582.494 30.7619 1.93205
  503 629.381 -8.04555 -0.663521
  504 629.380 -8.13823 0.633741
  505 519.900 -54.4829 -73.5126
  506 728.285 -36.4440 80.5929
  507 728.410 26.5679 52.8764
  508 669.459 -5.33759 -2.95112
  509 650.234 -54.1550 15.9348
  510 426.117 -0.220785 -0.936824
  511 426.232 -0.217617 0.931325
  512 651.063 -25.2833 -43.6403
  513 636.268 47.2582 47.9363
  514 719.843 17.9153 -52.3666
  515 423.503 -0.482419 -2.74408
  516 423.630 -0.474643 2.72939
  517 1218.78 176.441 -156.116
  518 660.745 78.4855 41.8740
  519 669.944 -5.00958 2.59734
  520 611.034 -57.7855 12.8256
  521 521.169 -16.6697 13.2149
  522 521.147 -16.7833 -13.1883
  523 705.603 -43.2890 9.87932
  524 682.029 -13.8925 -55.2736
  525 763.671 149.309 28.1937
  526 639.622 11.1764 59.0007
  527 638.615 -12.9704 5.30614
  528 619.360 -66.6053 -87.3493
  529 647.117 -16.3012 43.6813
  530 1202.06 55.5949 -21.7517
  531 700.032 -53.0441 7.44338
  532 665.334 -5.23441 -0.535777
  533 665.497 -5.51071 0.411272
  534 1214.59 81.4160 75.5942
  535 624.913 -0.0399196 50.2011
  536 857.005 147.876 -1.66140
  537 650.465 -18.2523 -20.2312
  538 311.518 -2.67320 -20.5699
  539 312.344 -2.54185 20.3821
  540 447.981 -41.7265 -97.9215
  541 448.396 -41.0345 97.2529
  542 638.252 -12.4795 -5.28745
  543 696.480 25.5570 -61.2722
  544 612.996 -41.6601 2.81611
  545 663.449 75.9866 -43.3017
  546 662.038 -8.20806 21.2878
  547 818.850 44.4773 -21.1805
  548 571.465 -19.4553 -5.42152
  549 571.320 -19.4072 5.38054
  550 617.036 -29.2851 6.10948
  551 895.648 182.245 -26.4880
  552 653.323 28.6700 61.1883
  553 282.781 72.3176 181.605
  554 621.754 -37.1124 147.376
  555 808.770 46.2779 -163.956
  556 667.644 55.2593 -56.6334
  557 586.263 -51.1750 -128.219
  558 635.910 -69.9789 -31.0102
  559 661.893 -67.4694 -42.8037
  560 91.0103 121.900 -115.067
  561 665.964 -9.14073 -12.2467
  562 991.657 192.065 -60.0923
  563 620.114 -28.1802 -7.39211
  564 624.625 -20.7460 6.16133
  565 624.068 -20.3066 -5.81815
  566 446.375 -2.19175 -6.15297
  567 446.482 -2.16374 6.12148
  568 70.8279 6.30168 -37.1445
  569 74.0233 6.62948 37.9482
  570 333.548 -14.9956 -71.0258
  571 335.882 -15.0855 70.9745
  572 633.348 -34.5982 -16.8349
  573 642.884 -70.2771 33.1387
  574 660.671 -63.1031 -3.51833
  575 549.893 -9.67048 -2.54435
  576 549.872 -9.61247 2.53363
  577 518.284 -54.6962 -109.554
  578 575.593 -47.6857 135.257
  579 506.462 -51.4985 110.064
  580 653.320 -14.6677 -55.9073
  581 423.180 -6.47528 21.7632
  582 422.978 -6.53873 -21.9127
  583 628.035 35.0897 -48.2689
  584 627.319 -1.12099 -21.9266
  585 777.737 166.812 -12.1375
  586 516.661 -7.49497 -2.32636
  587 516.687 -7.45260 2.31775
  588 662.889 -2.12390 -12.0016
  589 469.362 -15.0444 -24.6634
  590 469.400 -15.0032 24.4825
  591 378.882 16.4565 172.785
  592 645.226 -30.0387 -28.1660
  593 367.854 -19.9895 124.471
  594 634.149 -33.1303 17.3595
  595 664.560 -10.0497 13.6501
  596 655.210 -6.82893 -2.49028
  597 475.871 -5.41590 -5.90456
  598 475.944 -5.37566 5.88194
  599 746.843 147.813 -25.9057
  600 367.578 -19.3189 -124.865
  601 631.966 -27.7265 -13.4609
  602 574.033 -10.8290 -1.52116
  603 573.981 -10.7614 1.51584
  604 1048.41 140.260 -25.4863
  605 395.278 -2.26583 11.8888
  606 394.965 -2.28676 -11.9823
  607 598.616 14.1741 41.6692
  608 830.484 73.4128 2.69664
  609 402.810 1.71352 -171.273
  610 214.256 4.57385 -94.8415
  611 215.851 3.46836 94.3509
  612 507.973 -28.7773 31.1972
  613 512.844 -29.6279 -30.4735
  614 845.163 171.324 4.98170
  615 652.789 -7.04726 2.16014
  616 575.537 16.8364 -25.2972
  617 706.347 125.929 25.1982
  618 704.187 130.603 -16.7857
  619 578.594 -31.7609 -8.48384
  620 582.718 -31.0951 6.48506
  621 412.131 91.2219 -244.098
  622 503.705 -16.5359 -17.7056
  623 503.764 -16.3607 17.6622
  624 1214.87 249.493 188.094
  625 651.771 -21.6181 47.5168
  626 385.421 -12.9302 -45.4335
  627 980.409 246.107 172.116
  628 386.251 -12.8686 45.2970
  629 616.098 -23.0469 -170.854
  630 453.950 -1.87182 -2.25968
  631 454.047 -1.85607 2.25089
  632 557.306 5.37637 22.1041
  633 262.382 -3.65052 -40.6885
  634 263.622 -3.66150 40.4094
  635 571.446 -39.9708 16.1674
  636 597.312 -47.5600 -8.43099
  637 694.696 -1.83640 -4.46739
  638 413.877 -0.517082 3.65223
  639 413.713 -0.527270 -3.68187
  640 542.337 -12.0354 -4.27631
  641 542.329 -11.9795 4.25399
  642 612.568 -68.4062 88.0347
  643 707.514 78.9405 -55.6059
  644 479.938 -21.5128 -31.7012
  645 479.651 -21.1619 31.5022
  646 561.543 -39.7935 -20.6665
  647 872.574 188.574 10.8874
  648 656.989 -63.8883 6.95907
  649 576.017 -13.9148 -3.05901
  650 575.943 -13.8603 3.05495
  651 781.895 86.7193 36.7980
  652 659.514 -10.0331 -23.1109
  653 593.732 -0.531389 -20.3587
  654 281.914 -9.68193 -89.7636
  655 282.665 -9.92103 89.1082
  656 559.667 -47.6901 -31.2107
  657 831.939 180.646 -0.199579
  658 652.906 88.1960 -18.8687
  659 443.708 -3.61242 -11.1213
  660 443.822 -3.56387 11.0499
  661 604.453 -17.4131 -0.232988
  662 604.565 -17.4175 0.342770
  663 1096.55 142.545 63.1845
  664 702.359 -2.28931 1.06115
  665 683.795 -3.07372 7.92115
  666 681.651 -3.06568 -9.47788
  667 649.678 -60.7397 2.65754
  668 490.623 -5.32192 -2.94612
  669 490.682 -5.28875 2.93609
  670 699.106 111.344 39.1153
  671 885.984 195.926 -18.0562
  672 496.137 -35.9379 -44.9018
  673 496.056 -35.6113 44.7144
  674 611.444 -62.8948 -18.7772
  675 649.261 38.7530 -57.7353
  676 757.983 2.64261 16.6120
  677 516.771 -9.25509 -6.21598
  678 516.800 -9.20467 6.19720
  679 446.989 -38.7650 -88.3550
  680 643.748 -62.4669 3.06226
  681 538.824 -59.6858 80.5360
  682 261.996 81.6769 -175.525
  683 506.452 -46.2765 62.1455
  684 611.384 0.185046 18.6539
  685 447.433 -38.3413 87.8259
  686 631.623 -28.2272 13.6261
  687 506.537 -46.0625 -62.6417
  688 529.423 7.37648 4.66565
  689 410.726 -10.3589 32.5421
  690 410.386 -10.3608 -32.7319
  691 538.972 -61.2238 -81.3889
  692 662.087 -43.9361 -33.8818
  693 608.701 -9.13410 -0.144848
  694 608.796 -9.21459 0.146283
  695 675.734 -43.4389 32.9034
  696 615.805 -64.3304 21.3707
  697 745.483 68.7164 51.1211
  698 675.070 -12.9094 57.5691
  699 649.677 -23.7227 34.0694
  700 627.883 51.9346 -36.6177
  701 746.585 125.049 40.7598
  702 646.228 -9.13698 -34.3591
  703 641.353 -21.7568 15.9231
  704 669.589 104.276 10.1454
  705 653.576 -11.4505 29.3357
  706 210.210 144.327 184.593
  707 607.277 -70.0334 -53.3289
  708 702.888 12.6640 57.8377
  709 707.515 -22.0263 -38.1666
  710 700.153 -1.31754 2.30944
  711 648.599 -22.7644 -26.1452
  712 608.312 -70.5705 48.9784
  713 1143.96 101.590 -16.8414
  714 380.086 -1.42395 12.4182
  715 379.680 -1.43846 -12.5171
  716 655.709 -12.5888 -11.3658
  717 703.924 -1.03790 -2.29825
  718 558.780 -48.4800 31.3599
  719 666.389 -25.0953 51.7419
  720 989.469 246.092 -88.9701
  721 631.723 -45.8981 12.6904
  722 696.389 -46.1585 -15.4753
  723 641.551 -21.2084 -15.6524
  724 702.767 -1.63178 -0.585934
  725 653.192 -0.129951 61.4786
  726 31.8838 36.3207 43.0659
  727 722.892 -26.1189 -115.529
  728 790.448 48.7073 18.3576
  729 661.507 -67.9346 39.1105
  730 485.266 -11.0395 14.3982
  731 485.246 -11.1834 -14.4513
  732 597.257 330.030 -327.687
  733 675.910 -45.0583 -29.8245
  734 527.538 3.32429 -8.93232
  735 603.957 3.61383 40.3599
  736 654.027 -33.0460 40.7535
  737 626.865 -52.8295 3.09729
  738 646.706 -59.4085 -94.6869
  739 623.339 -49.3193 -4.51631
  740 729.295 -34.7680 1.49739
  741 672.744 -6.20096 6.47961
  742 606.400 -36.3573 0.760848
  743 1076.09 214.942 -116.999
  744 643.881 -17.8131 12.3344
  745 642.702 10.7073 -60.5030
  746 542.389 -5.60729 191.242
  747 686.001 55.1377 60.8047
  748 590.544 -46.1782 11.2811
  749 462.679 -35.6335 -64.9194
  750 462.770 -35.5551 64.4588
  751 633.026 71.3135 -8.47708
  752 639.787 -7.48547 53.4369
  753 645.248 -15.5377 -44.8241
  754 607.054 -37.1327 -0.909432
  755 587.680 -52.3005 20.2009
  756 674.457 110.561 -11.2989
  757 626.129 -54.2074 -0.644135
  758 627.865 -39.8752 12.6759
  759 634.144 -8.88421 1.60133
  760 634.484 -8.67300 -1.57780
  761 851.815 185.058 -0.598423
  762 693.960 -59.3041 -29.2694
  763 650.491 -20.3784 26.1660
  764 672.759 -6.20639 -5.80084
  765 685.169 4.45234 -60.7433
  766 773.451 42.0443 -29.3947
  767 400.281 -0.227935 -5.89196
  768 400.529 -0.223133 5.84336
  769 6.41740 -9.70087 -6.60100
  770 664.382 -0.984012 11.0702
  771 615.979 -0.723356 -44.3466
  772 633.514 -5.96437 38.5138
  773 565.758 75.4595 276.808
  774 720.128 146.385 -1.36288
  775 516.220 -36.0644 35.9111
  776 100.902 1.85943 -36.0960
  777 103.266 1.33594 36.4593
  778 628.641 -4.42358 -43.7090
  779 517.450 -36.3972 -35.9295
  780 668.920 -6.79258 4.68450
  781 357.550 -14.6860 60.4984
  782 354.712 -14.6252 -60.4689
  783 643.797 -17.3226 -11.9924
  784 425.712 -10.0368 -28.4442
  785 425.917 -9.97890 28.2325
  786 669.203 -6.87172 -15.6847
  787 521.160 -13.4440 -10.6026
  788 521.192 -13.3683 10.6088
  789 729.263 -4.40764 -37.6170
  790 661.819 -7.02504 -61.1324
  791 352.932 -2.04288 -15.6916
  792 353.525 -2.02348 15.5318
  793 23.6256 8.56777 -22.9890
  794 26.4021 9.05950 24.1119
  795 549.780 2.82426 -16.0229
  796 603.138 -67.7474 -41.0892
  797 -6.58966 -4.43510 11.7089
  798 -5.89816 -5.47135 -11.8060
  799 626.926 -13.1831 3.67877
  800 677.794 -53.2550 -13.3095
  801 705.310 104.080 -45.4145
  802 671.449 -6.15928 -4.47936
  803 1379.03 285.245 -258.675
  804 626.793 -13.1532 -3.62170
  805 934.842 176.147 16.7726
  806 673.337 19.6109 -63.9938
  807 739.262 56.2138 -52.7457
  808 138.175 -1.57698 -32.9547
  809 140.246 -1.75654 32.9063
  810 433.500 -5.75604 17.0837
  811 433.342 -5.79970 -17.2081
  812 417.963 -0.794373 3.24397
  813 417.823 -0.803240 -3.26447
  814 750.084 125.968 -40.1294
  815 457.802 -2.47895 -4.91864
  816 457.896 -2.45178 4.89790
  817 641.678 -6.43755 -55.8747
  818 899.405 102.112 91.9794
  819 585.071 13.6507 -35.1314
  820 214.049 -1.79820 34.8639
  821 212.549 -1.81569 -35.1050
  822 727.243 24.4211 201.456
  823 655.191 -12.6890 11.7274
  824 598.045 40.2411 -14.6078
  825 288.414 -0.320160 23.4968
  826 287.166 -0.193325 -23.6457
  827 424.806 -1.85633 -8.46093
  828 424.965 -1.82966 8.39832
  829 77.9622 68.6103 62.4699
  830 620.091 15.1390 51.7127
  831 686.397 100.401 -39.4795
  832 733.602 85.3601 -53.4514
  833 492.210 -17.8184 -22.7014
  834 491.969 -17.7054 22.6924
  835 761.885 160.333 17.6170
  836 652.461 -6.25593 -0.469541
  837 652.516 -6.21172 0.570618
  838 650.015 -19.9038 -34.7218
  839 549.250 -35.9452 22.6285
  840 599.739 -67.3454 41.1147
  841 697.338 -57.0849 63.1713
  842 545.550 -15.5376 -7.19896
  843 545.559 -15.4937 7.16543
  844 624.828 58.1905 23.6125
  845 589.775 8.51010 -37.8320
  846 163.106 207.638 191.782
  847 589.399 -51.8538 -18.7973
  848 591.778 -26.3857 -2.40686
  849 592.084 -26.4635 2.36454
  850 650.735 -9.70556 58.3128
  851 642.729 -42.4691 -23.1000
  852 577.450 -37.7924 -11.7160
  853 1257.76 40.6900 -60.5674
  854 549.862 -51.3885 41.4186
  855 549.375 -52.0239 -42.0126
  856 649.191 -7.97703 29.1313
  857 960.615 251.531 -66.8461
  858 517.950 -46.2364 -50.1024
  859 568.131 -63.6293 49.1608
  860 517.890 -45.7084 49.7106
  861 560.105 -22.2188 -8.71972
  862 560.112 -22.1624 8.67505
  863 88.7740 35.8374 54.0118
  864 697.105 52.1143 -60.9024
  865 539.319 -20.5626 -12.1225
  866 539.429 -20.3728 12.1583
  867 533.706 -8.65362 -1.49891
  868 533.708 -8.60337 1.49165
  869 581.952 -11.8303 -1.32212
  870 581.889 -11.7653 1.31498
  871 482.007 -8.85562 -12.3608
  872 482.061 -8.76398 12.3219
  873 540.877 -27.7834 -17.6055
  874 540.960 -27.6214 17.6845
  875 14.4008 0.510609 -9.88794
  876 802.812 150.956 25.8521
  877 691.672 -24.5267 -46.0710
  878 567.567 -62.6880 -49.5939
  879 611.548 -20.0171 2.39747
  880 611.298 -19.8343 -2.25451
  881 667.394 0.710120 62.5110
  882 716.320 -50.9697 -39.3631
  883 630.170 49.5116 -241.394
  884 300.398 -5.68327 121.489
  885 -6.20870 7.00091 -9.96480
  886 -4.91667 7.92667 10.8087
  887 88.3933 38.0984 -55.2184
  888 649.643 -19.2106 20.0190
  889 679.443 -5.04770 -8.28598
  890 612.644 -59.4097 107.153
  891 299.733 -5.43166 -121.918
  892 682.667 -56.3343 6.63821
  893 751.883 -19.9316 96.7327
  894 567.517 2.42154 16.9410
  895 642.139 61.1898 39.9231
  896 354.933 -19.7018 88.5479
  897 353.642 -19.8566 -89.0606
  898 424.662 -19.3720 -49.8523
  899 437.435 -22.3317 -153.958
  900 685.528 -16.3190 53.2653
  901 929.224 223.293 46.9843
  902 689.949 26.4239 62.1117
  903 651.965 -14.2871 -31.9458
  904 446.146 -19.9982 157.724
  905 824.957 153.420 -15.3148
  906 87.7515 73.2571 -76.2802
  907 609.842 -1.09975 -17.7933
  908 425.091 -19.2242 49.4697
  909 512.959 -10.8762 9.22841
  910 512.928 -10.9399 -9.24210
  911 643.602 -42.2339 24.0298
  912 663.409 -5.05319 1.56556
  913 491.502 4.03388 -190.261
  914 697.151 -1.84026 3.89290
  915 693.188 -1.55160 -5.14663
  916 538.682 4.96313 -14.8153
  917 673.942 -2.88065 -9.72854
  918 513.675 -23.2483 -21.5962
  919 514.011 -22.9232 21.6715
  920 -15.1023 6.68936 -8.44745
  921 -21.6620 4.04215 9.27454
  922 663.358 -4.74264 -1.64446
  923 232.944 -5.48647 82.1665
  924 231.744 -5.03968 -82.5835
  925 715.901 103.973 47.5363
  926 1229.82 22.3999 18.4375
  927 676.103 74.9904 51.5233
  928 752.102 -25.3378 34.6162
  929 661.440 -37.1436 40.5805
  930 821.001 171.517 -11.8221
  931 528.576 2.64754 11.1883
  932 635.617 -15.5814 -6.63663
  933 664.870 35.8477 -62.5138
  934 789.919 25.5592 -1.59930
  935 621.421 -38.4525 -8.97452
  936 334.381 -1.66165 -17.4827
  937 334.643 -1.60148 17.2577
  938 654.072 -15.8818 -24.1480
  939 24.5836 30.2395 9.40142
  940 628.153 -65.1880 -13.1651
  941 558.557 17.2635 -1.52414
  942 816.773 177.849 -7.79916
  943 135.311 100.191 -122.899
  944 633.516 -4.74902 -34.5080
  945 450.009 -6.93185 -16.1269
  946 450.109 -6.85567 16.0163
  947 4.68315 -16.9298 12.5448
  948 436.914 -31.7412 -71.5174
  949 640.407 -37.2897 -22.6476
  950 417.287 0.912955 -1.37797
  951 417.409 0.916158 1.37098
  952 652.925 79.1630 -31.7546
  953 685.399 -2.70274 -0.773420
  954 685.453 -2.72382 1.04924
  955 437.142 -31.6722 71.0965
  956 650.294 -1.09184 -13.4476
  957 740.696 5.63001 35.5180
  958 658.384 -9.98495 8.84068
  959 113.907 27.0002 -66.6652
  960 680.562 -4.70981 7.43875
  961 628.128 5.33896 55.0320
  962 662.176 91.3812 28.2105
  963 659.344 7.68704 -63.7039
  964 462.699 -23.8907 -43.3794
  965 705.446 -25.3162 36.5305
  966 463.006 -23.8164 42.9998
  967 23.7678 24.8931 -5.47835
  968 85.8972 13.3584 49.0173
  969 384.388 -6.30118 29.2140
  970 383.966 -6.29778 -29.3477
  971 636.073 -15.8384 7.10200
  972 690.062 119.098 15.3112
  973 353.599 31.3132 -181.272
  974 576.504 -35.5963 10.5859
  975 541.441 -56.1565 -60.3672
  976 782.674 149.404 29.0690
  977 604.345 -11.1155 -0.337028
  978 604.316 -11.0650 0.329622
  979 658.697 -12.7840 -16.8427
  980 619.439 53.8617 -21.7658
  981 1319.86 404.686 271.195
  982 138.172 6.92571 -62.9180
  983 139.979 5.73387 63.0223
  984 10.3197 -7.29599 6.17693
  985 620.519 34.8136 44.6808
  986 541.403 -56.5193 59.9733
  987 666.151 -31.7503 -47.0982
  988 723.934 59.1797 58.6449
  989 689.823 -55.7054 -75.5572
  990 1002.21 210.296 74.3072
  991 594.234 -10.0094 -0.681442
  992 594.160 -9.93906 0.680433
  993 690.885 -28.5203 43.2789
  994 49.6753 93.8593 89.9908
  995 327.150 -6.44169 41.6308
  996 326.254 -6.35688 -42.0121
  997 385.068 -18.0666 57.2654
  998 383.838 -17.7711 -57.4356
  999 431.630 -17.0085 41.5713
  1000 471.857 -3.34020 -2.16520
  1001 471.937 -3.31769 2.15818
  1002 1102.31 369.257 -240.000
  1003 1019.14 256.362 112.100
  1004 431.291 -17.0819 -41.8680
  1005 711.183 -3.43917 48.0757
  1006 645.049 67.0009 -38.3095
  1007 456.047 -39.7034 127.892
  1008 580.119 -68.6647 -71.8976
  1009 661.961 -5.74709 -19.2849
  1010 306.039 19.6805 148.485
  1011 392.221 -29.8193 102.076
  1012 595.849 31.1195 -28.1655
  1013 670.460 -13.4801 -58.4460
  1014 814.072 367.590 370.005
  1015 566.241 17.9194 20.2094
  1016 755.385 160.668 -2.17881
  1017 548.775 22.6836 -215.536
  1018 565.533 -59.0247 -42.8322
  1019 704.035 -1.15654 -1.84226
  1020 687.677 63.1216 -59.1617
  1021 418.150 -2.35537 10.7390
  1022 417.956 -2.37856 -10.8217
  1023 16.1167 16.2600 -26.0855
  1024 463.589 -20.2931 -36.3008
  1025 391.725 -30.1944 -102.759
  1026 463.298 -20.2632 35.9607
  1027 656.180 -20.2000 54.1088
  1028 590.136 -36.2220 -5.65813
  1029 623.632 11.7622 -53.4771
  1030 642.189 80.1333 11.1938
  1031 845.394 56.7267 43.6271
  1032 648.189 -49.4699 22.0729
  1033 419.728 -32.8606 -78.2462
  1034 619.231 22.3171 -50.2840
  1035 459.626 -39.2175 -128.453
  1036 869.776 186.318 -5.60881
  1037 604.275 40.1604 25.6228
  1038 745.417 -3.82554 -24.7551
  1039 568.977 -59.0856 39.9481
  1040 649.765 -20.9129 41.2739
  1041 644.555 -34.3056 27.6847
  1042 640.995 -32.5263 23.5251
  1043 786.718 101.113 -38.2596
  1044 642.897 -10.5416 42.9751
  1045 579.371 -68.8532 70.7935
  1046 618.330 -25.5423 5.57678
  1047 419.998 -32.9389 77.8855
  1048 582.919 -42.4856 -12.5927
  1049 346.594 -17.0958 -109.115
  1050 486.725 -50.2120 87.4472
  1051 653.149 -4.71173 -22.6815
  1052 638.687 -7.26581 -49.3202
  1053 554.637 -43.1975 -27.2395
  1054 347.157 -17.5394 108.358
  1055 601.107 1.69381 -35.0639
  1056 450.654 -28.9788 -55.8018
  1057 797.343 168.167 17.4158
  1058 186.798 29.2333 -106.098
  1059 1307.37 92.1184 122.991
  1060 326.649 22.8865 -155.024
  1061 640.468 -53.2061 -10.9666
  1062 450.803 -28.7515 55.4077
  1063 595.588 6.72537 39.4357
  1064 344.318 -6.55411 34.4958
  1065 344.189 -6.71225 -34.8091
  1066 650.485 -18.2819 -50.3364
  1067 682.989 -4.09818 2.66550
  1068 674.433 -1.76647 9.76902
  1069 671.284 22.1969 64.0039
  1070 630.829 -4.72967 46.5903
  1071 483.749 52.6935 232.660
  1072 707.925 -0.806554 0.792754
  1073 678.195 91.5196 40.9478
  1074 581.506 8.88851 34.1396
  1075 681.445 -2.86543 9.27506
  1076 454.557 -4.37823 -9.16814
  1077 454.651 -4.33048 9.12171
  1078 294.411 -7.97243 -57.7083
  1079 295.414 -8.26330 57.3805
  1080 583.491 29.7268 14.3810
  1081 846.358 50.9345 -74.4037
  1082 778.136 2.94279 -128.169
  1083 636.754 -0.660562 -14.0921
  1084 486.811 -50.5731 -88.0595
  1085 555.816 -41.0947 24.7640
  1086 640.006 -1.54657 14.6838
  1087 664.870 -48.5786 -26.6325
  1088 432.392 -0.736902 5.35327
  1089 432.269 -0.751730 -5.37986
  1090 639.285 -54.7282 10.9435
  1091 608.849 -12.9141 0.122702
  1092 608.746 -12.9315 -0.0926418
  1093 593.133 -59.4397 27.5855
  1094 753.609 -23.5974 -18.2485
  1095 362.467 -0.561188 -9.79802
  1096 362.984 -0.541571 9.70936
  1097 519.881 -33.6415 -147.228
  1098 557.709 -13.2274 4.33593
  1099 557.748 -13.2871 -4.36225
  1100 334.067 185.368 255.763
  1101 761.568 63.3263 -45.0527
  1102 119.555 56.3361 -82.5535
  1103 658.621 -10.4914 -8.51561
  1104 184.279 61.1309 -121.875
  1105 379.178 -23.1868 -74.0126
  1106 707.489 -1.11858 0.588802
  1107 707.692 -1.07068 -0.414922
  1108 651.054 -37.4581 -34.2845
  1109 576.108 -65.0703 -96.9008
  1110 186.988 24.8919 101.096
  1111 709.186 70.0976 56.6051
  1112 640.389 -7.24583 -0.607590
  1113 640.475 -7.24642 0.660643
  1114 693.494 -43.6985 118.167
  1115 728.413 144.387 21.3087
  1116 443.806 -10.0066 -22.8631
  1117 443.928 -9.96729 22.7311
  1118 332.341 36.9535 183.189
  1119 621.952 3.39259 -51.6306
  1120 200.272 62.8984 130.514
  1121 779.584 -11.5055 -47.2868
  1122 778.366 169.647 5.91557
  1123 539.684 -41.9165 32.0507
  1124 511.103 3.10310 -2.18594
  1125 674.625 -6.40963 11.4348
  1126 695.818 -1.17816 4.41550
  1127 168.583 0.203426 -29.2940
  1128 170.469 0.134106 29.1173
  1129 565.376 10.0162 -25.3872
  1130 573.770 -16.8257 -4.21021
  1131 573.660 -16.7644 4.19345
  1132 62.1776 112.576 -96.0720
  1133 96.5904 231.112 -184.624
  1134 580.483 -22.5700 4.50280
  1135 580.674 -22.5481 -4.54467
  1136 598.208 -14.6989 -0.133840
  1137 598.127 -14.6796 0.172974
  1138 162.192 102.888 132.281
  1139 482.357 -5.52225 -4.58001
  1140 482.425 -5.48693 4.56368
  1141 601.561 45.9567 -0.566731
  1142 736.179 104.210 -267.243
  1143 724.396 124.218 -36.6234
  1144 659.462 -25.5496 -50.5789
  1145 649.244 -32.6917 -35.2972
  1146 539.891 -42.2854 -32.5447
  1147 552.102 2.02106 15.6674
  1148 613.461 38.6860 -37.4068
  1149 605.665 33.0374 35.8397
  1150 617.950 -24.8314 -5.44042
  1151 591.558 -35.5222 5.18752
  1152 541.125 -34.2231 -24.5946
  1153 640.821 -3.89026 27.2968
  1154 1099.61 110.572 15.2170
  1155 644.549 -13.8846 49.6144
  1156 649.064 42.6996 55.5092
  1157 595.824 -58.3209 -22.0967
  1158 81.9579 12.2293 -47.3697
  1159 606.974 -28.1755 -2.59752
  1160 420.111 -0.472336 -0.308022
  1161 420.225 -0.470014 0.305807
  1162 732.291 -19.3690 20.0136
  1163 697.479 -58.8923 33.6036
  1164 995.588 176.792 45.7900
  1165 257.328 -0.372951 -24.1283
  1166 258.622 -0.320569 23.9718
  1167 546.783 -10.9420 -3.27116
  1168 546.767 -10.8845 3.25367
  1169 608.526 -53.4976 -7.23429
  1170 515.235 2.59994 7.18171
  1171 622.708 -44.3639 7.87364
  1172 38.2828 45.4304 -25.1752
  1173 118.114 57.2008 80.6121
  1174 421.321 -23.6632 142.138
  1175 722.455 136.465 -26.2229
  1176 683.706 -2.07463 -7.35155
  1177 710.232 -1.31826 0.319933
  1178 710.803 -1.72192 -0.160480
  1179 434.816 -0.761959 -0.935335
  1180 434.927 -0.755279 0.930216
  1181 666.231 42.5729 62.5317
  1182 968.738 163.470 -3.52171
  1183 687.557 112.965 -27.4829
  1184 512.080 -38.3286 146.319
  1185 419.119 -22.8472 -141.840
  1186 469.044 -30.4656 -50.3710
  1187 636.637 -18.3157 9.45261
  1188 881.819 196.075 17.5798
  1189 469.120 -30.3046 50.0296
  1190 649.056 -12.0242 7.14853
  1191 591.225 22.4993 34.2946
  1192 645.214 20.1531 60.4670
  1193 905.297 201.629 28.9937
  1194 547.676 -14.0793 6.00849
  1195 547.691 -14.1343 -6.03959
  1196 658.020 -12.9567 17.5335
  1197 406.268 -3.95586 16.6915
  1198 406.000 -3.99369 -16.8183
  1199 643.117 -9.45794 -2.73964
  1200 268.450 161.983 -248.764
  1201 557.146 -31.7576 -156.802
  1202 533.754 -16.3000 -10.2683
  1203 533.819 -16.2389 10.2729
  1204 685.281 -3.80656 2.53064
  1205 652.374 -9.26640 5.66401
  1206 38.4321 50.5162 38.4165
  1207 704.361 -1.01611 2.18637
  1208 88.4121 115.587 114.536
  1209 638.261 -10.2229 -3.62089
  1210 -0.413672 -15.1251 -13.3414
  1211 457.647 -44.7691 -110.330
  1212 456.520 -43.7071 109.297
  1213 704.324 -1.44347 -2.45974
  1214 610.627 -32.2592 -3.45910
  1215 684.968 -3.53816 -2.49434
  1216 558.608 -17.8666 -6.43280
  1217 558.571 -17.8168 6.38413
  1218 642.726 -9.40364 2.53159
  1219 606.554 -27.6091 2.57157
  1220 585.114 -18.8987 2.55186
  1221 585.297 -18.9336 -2.49383
  1222 684.235 -3.63956 -2.00641
  1223 594.714 -63.0778 -108.843
  1224 670.878 -4.87845 -1.94331
  1225 640.789 -10.4786 4.01586
  1226 461.314 -4.57384 -6.92352
  1227 461.403 -4.53158 6.89244
  1228 509.866 -7.17482 -3.82833
  1229 509.902 -7.13235 3.81412
  1230 806.514 126.900 30.2892
  1231 679.210 -52.6002 17.4131
  1232 469.029 -2.69051 180.072
  1233 391.550 -0.497722 6.42038
  1234 391.245 -0.503809 -6.47398
  1235 647.623 -12.1929 36.9014
  1236 618.264 -9.95245 0.255579
  1237 618.279 -9.92480 -0.255616
  1238 711.733 137.241 12.3838
  1239 644.448 -67.7843 88.1915
  1240 390.111 -5.09171 23.1907
  1241 389.761 -5.12581 -23.3337
  1242 617.730 -15.5179 2.38210
  1243 617.592 -15.6319 -2.26012
  1244 636.277 -18.1199 -9.03888
  1245 594.706 0.190651 18.1136
  1246 997.484 248.584 -88.8383
  1247 649.004 -24.1192 -31.3302
  1248 118.762 26.7000 68.3678
  1249 669.652 -36.0128 43.1482
  1250 551.796 12.6738 -13.9144
  1251 45.8233 31.3999 26.8652
  1252 869.564 102.095 -20.7730
  1253 655.068 -30.0448 -44.5538
  1254 554.156 8.38321 21.3493
  1255 381.682 -23.2399 73.9543
  1256 663.699 -51.6862 23.0223
  1257 947.431 191.343 72.7128
  1258 230.883 32.7273 127.911
  1259 665.858 -8.50950 -15.1977
  1260 1238.93 14.1501 -12.1529
  1261 1276.94 18.9397 53.6172
  1262 1358.52 44.9353 -128.331
  1263 649.014 -20.5756 -40.0683
  1264 648.176 -29.9133 32.9434
  1265 657.686 -47.1117 29.0441
  1266 -19.1323 2.52533 11.8822
  1267 -17.3074 2.11733 -13.0552
  1268 638.741 -70.9334 -44.5859
  1269 652.854 -66.3773 -64.0026
  1270 518.496 3.56727 -8.84177
  1271 635.728 -72.1252 63.4782
  1272 680.617 -32.5581 -43.5519
  1273 16.2299 21.5848 4.98774
  1274 559.234 -10.2555 1.94320
  1275 559.267 -10.3181 -1.94822
  1276 673.836 -5.98777 10.1067
  1277 648.951 -11.8281 -6.64447
  1278 613.376 -66.9227 -25.9868
  1279 564.348 -30.1025 12.2581
  1280 561.670 -29.6578 -12.9549
  1281 656.695 -14.3468 24.9552
  1282 673.365 -24.9899 -51.6212
  1283 47.4776 32.7360 -26.3845
</Section>

newXOutput 91

<Section columns = "stress_xx | stress_yy | stress_xy">
  1 721.266 -0.403015 1.26395
  2 721.250 -0.385949 -1.26628
  3 418.914 -0.0534894 -0.453504
  4 -5.19638 -5.11144 -7.47805
  5 1245.42 530.587 410.476
  6 1234.35 548.306 -406.118
  7 -6.04510 -4.83070 7.99398
  8 418.798 -0.0547415 0.452560
  9 725.775 -1.32122 0.342843
  10 724.550 -2.04089 -0.456545
  11 723.412 -1.47042 1.35158
  12 722.223 -1.92834 0.199057
  13 719.606 -1.66333 2.12132
  14 717.178 -1.65978 1.43769
  15 711.042 -1.45664 3.10022
  16 701.839 -1.17400 4.61204
  17 693.738 -1.16111 5.23538
  18 681.343 -1.46360 6.43707
  19 663.704 -0.259586 9.65883
  20 647.423 -1.07019 9.30438
  21 628.340 -1.29665 13.2701
  22 600.835 0.898028 11.6661
  23 580.506 1.49200 13.8974
  24 553.937 2.43163 10.9696
  25 535.372 2.75542 11.1057
  26 508.502 3.67132 5.68955
  27 502.754 5.74955 6.13658
  28 499.253 4.82177 -1.82731
  29 503.935 2.97957 -3.95238
  30 512.602 2.76174 -4.86334
  31 532.754 3.38192 -9.67416
  32 552.344 2.67746 -12.1442
  33 580.709 0.733683 -14.3427
  34 603.333 -0.234821 -12.9145
  35 627.144 -1.01953 -12.5526
  36 648.541 -0.849433 -8.78160
  37 666.630 -0.935169 -7.41423
  38 681.315 -1.44520 -6.13083
  39 694.267 -1.09213 -4.14380
  40 702.090 -1.35586 -4.33838
  41 709.665 -1.56324 -3.14364
  42 716.614 -1.81396 -1.22289
  43 720.102 -1.48980 -1.54647
  44 721.692 -1.01674 -0.900532
  45 719.809 -0.716003 -0.827397
  46 725.160 -2.02365 0.343323
  47 725.940 -1.36221 -0.352617
  48 704.928 -1.03407 -0.784168
  49 690.902 -3.58363 -1.51569
  50 673.526 -5.11263 -0.839267
  51 652.175 -7.23538 -1.19124
  52 631.724 -7.80257 -1.40443
  53 609.745 -9.40323 -1.36351
  54 590.152 -10.2464 -0.642459
  55 572.957 -11.1702 -0.0959802
  56 553.062 -9.18812 -0.0616444
  57 530.117 -8.43518 -0.316266
  58 508.048 -6.51606 0.0634717
  59 487.189 -4.01026 0.112867
  60 467.431 -2.75456 0.173721
  61 450.205 -1.27861 0.294923
  62 432.732 -0.240028 -0.505956
  63 419.032 0.611748 0.800872
  64 412.745 1.50989 0.595945
  65 416.549 0.0736464 1.30921
  66 411.374 -0.124910 1.60543
  67 406.364 -0.222590 1.99288
  68 399.684 0.0446383 2.54064
  69 391.284 0.0322526 3.15999
  70 384.688 -0.358871 5.91937
  71 367.321 0.530127 6.43011
  72 354.847 0.0144416 7.26593
  73 336.287 -0.254492 8.27035
  74 315.016 -0.462464 10.0377
  75 288.376 -0.0641504 12.1929
  76 255.909 0.183654 13.5112
  77 227.280 -0.193755 19.3515
  78 171.735 1.73250 18.4114
  79 133.176 1.48909 19.5263
  80 86.3076 -0.442482 21.8778
  81 46.7140 3.40434 23.0489
  82 1.29116 5.23686 14.4226
  83 -32.5671 5.35605 5.81860
  84 -33.6274 5.33341 -0.801608
  85 -33.9612 4.50638 -9.90082
  86 -20.1829 -1.17241 -9.69522
  87 -2.28413 -19.3707 -10.7733
  88 2.21876 -35.2532 -13.1233
  89 5.70578 -53.8004 -6.26622
  90 12.3933 -51.3740 2.92354
  91 25.7985 0.0121290 36.8600
  92 74.7100 135.929 116.879
  93 415.666 427.671 371.171
  94 1514.88 230.079 248.985
  95 1374.05 32.6623 79.9958
  96 1285.16 13.8282 24.4831
  97 1252.47 11.8936 1.79957
  98 1270.30 15.6344 -21.4289
  99 1372.10 30.7830 -63.4517
  100 1595.57 110.999 -211.908
  101 249.187 442.522 -312.791
  102 55.8469 106.746 -98.2341
  103 28.3096 2.85389 -39.9666
  104 11.6596 -50.6103 -8.83306
  105 3.62352 -40.2816 7.05378
  106 4.31219 -44.6016 11.2611
  107 0.315101 -16.6072 11.9525
  108 -21.1058 -0.641572 9.13568
  109 -35.0250 3.38533 8.57163
  110 -35.4706 6.45973 0.975617
  111 -33.5613 5.24719 -5.48644
  112 -1.13820 5.36614 -13.5823
  113 44.6280 3.43242 -22.0164
  114 84.1897 -0.0705192 -21.5228
  115 130.973 1.60766 -19.5575
  116 169.735 1.77480 -18.5374
  117 225.733 -0.201687 -19.4962
  118 254.590 0.200535 -13.6281
  119 287.220 -0.0610521 -12.3324
  120 314.438 -0.518720 -10.0999
  121 335.479 -0.237148 -8.28499
  122 354.229 0.0363436 -7.33239
  123 366.810 0.524625 -6.49107
  124 384.313 -0.362934 -5.97087
  125 390.976 0.0295989 -3.19131
  126 399.442 0.0420631 -2.56624
  127 406.172 -0.226902 -2.01304
  128 411.218 -0.128613 -1.61939
  129 416.413 0.0705771 -1.31801
  130 412.620 1.50867 -0.599939
  131 418.914 0.611081 -0.803422
  132 432.619 -0.243415 0.504834
  133 450.101 -1.28717 -0.297915
  134 467.340 -2.77316 -0.177183
  135 487.119 -4.03604 -0.116166
  136 508.003 -6.55337 -0.0668404
  137 530.101 -8.48282 0.313527
  138 553.078 -9.24380 0.0585606
  139 573.000 -11.2337 0.0943525
  140 590.214 -10.3102 0.644383
  141 609.838 -9.46131 1.37010
  142 631.810 -7.84191 1.42814
  143 652.247 -7.27064 1.30770
  144 673.651 -4.87345 0.857152
  145 691.367 -3.50472 1.48126
  146 705.068 -1.14467 0.771119
  147 639.068 -60.1186 2.21186
  148 638.484 -59.2954 -1.99091
  149 676.298 96.8079 -29.6659
  150 714.823 42.0830 61.0377
  151 542.251 -52.7545 -123.739
  152 546.773 -52.6329 119.971
  153 533.494 -22.0136 16.6199
  154 533.517 -22.3011 -16.6227
  155 753.816 27.6994 -42.9804
  156 637.447 -23.3426 9.99789
  157 637.167 -22.8097 -9.88504
  158 823.388 181.469 5.27282
  159 655.854 -1.00225 -61.3570
  160 490.691 -37.7060 -55.9928
  161 490.754 -37.4131 55.5608
  162 656.044 -15.0184 54.6466
  163 628.844 46.2330 37.3942
  164 263.874 40.7935 -148.012
  165 291.189 38.7767 155.734
  166 790.925 10.6565 -4.32657
  167 656.008 -25.4919 -36.4889
  168 863.102 189.504 4.85858
  169 593.246 -16.8823 -2.14331
  170 593.134 -16.8448 2.18439
  171 659.931 -8.74693 -4.23406
  172 661.752 -7.95048 3.61037
  173 476.268 -6.31309 -9.31640
  174 476.340 -6.25214 9.27945
  175 701.797 -16.4854 157.572
  176 610.204 25.8100 -40.3825
  177 402.544 -29.7055 -88.1399
  178 403.703 -29.4970 87.6405
  179 453.802 -14.1064 -29.3026
  180 453.859 -13.9544 29.1218
  181 658.830 -17.7013 31.0850
  182 600.902 -40.9906 -6.00662
  183 598.944 -40.6864 6.86015
  184 677.235 -65.9300 -19.0463
  185 680.961 -62.8136 10.7518
  186 930.778 220.040 -40.9663
  187 689.023 109.949 27.5958
  188 687.452 42.2543 -62.6413
  189 698.287 -3.25492 -181.639
  190 679.015 -38.6671 -40.7064
  191 685.019 -27.7184 49.1616
  192 573.576 -64.9830 63.0261
  193 573.591 -64.4963 -62.8695
  194 619.023 8.17058 48.2304
  195 289.785 -7.59537 -108.401
  196 290.413 -8.14916 107.808
  197 1042.10 154.927 23.0487
  198 644.157 -38.5907 20.4101
  199 666.434 -12.7804 -19.6959
  200 536.912 -12.7911 -7.94624
  201 536.934 -12.7374 7.92773
  202 644.715 -8.47010 -42.4217
  203 731.406 107.118 -48.6841
  204 619.721 56.0255 -7.46210
  205 410.732 -13.8010 40.5623
  206 410.151 -13.8348 -40.8195
  207 674.315 -8.14675 10.1958
  208 663.372 12.5292 63.2532
  209 542.365 -38.7083 -29.0154
  210 539.076 -36.6292 29.4742
  211 776.181 115.418 41.8089
  212 900.174 130.278 34.1808
  213 67.1959 50.7549 -45.2895
  214 62.3137 46.9102 38.7216
  215 377.955 110.147 255.789
  216 637.892 -42.5167 -14.2835
  217 676.379 -7.81169 -9.18552
  218 612.697 5.71734 -44.4671
  219 439.094 -3.92417 -13.0785
  220 439.239 -3.88175 12.9843
  221 577.731 -26.8131 -8.43183
  222 578.006 -26.9982 8.11572
  223 649.481 -8.89222 35.8503
  224 737.449 -42.3593 25.7177
  225 742.723 150.196 -13.7412
  226 582.556 -55.8175 -32.1233
  227 729.631 -12.7450 35.0059
  228 625.059 -11.0744 0.919874
  229 625.055 -10.9946 -0.919581
  230 578.619 -55.5631 33.0885
  231 659.472 -42.1406 32.4789
  232 908.606 126.147 -71.8573
  233 210.955 125.437 -189.256
  234 571.426 20.7008 9.77817
  235 667.194 58.8094 53.5114
  236 704.714 -5.06206 -53.4444
  237 660.690 -24.0074 -50.3679
  238 365.297 -11.1780 -50.3718
  239 366.450 -11.0178 50.2548
  240 661.184 -8.32214 -27.1972
  241 629.561 -16.4182 4.53657
  242 629.273 -16.4105 -4.31914
  243 141.873 11.9882 -70.9705
  244 143.809 10.4943 70.6999
  245 695.368 -61.0892 -61.5874
  246 687.079 -3.16017 1.11992
  247 687.690 -3.21254 -1.30603
  248 652.809 54.2729 -49.2663
  249 581.446 11.7503 29.4148
  250 1159.59 185.624 125.240
  251 1148.92 130.873 -77.5535
  252 853.162 181.725 1.39861
  253 533.740 -26.2237 163.224
  254 491.402 -17.6152 -170.343
  255 567.337 -11.6466 -3.29869
  256 567.295 -11.5839 3.28102
  257 478.364 -12.1232 18.4906
  258 478.341 -12.2805 -18.6252
  259 674.708 -7.80612 16.0892
  260 656.673 -47.0104 -25.4731
  261 442.505 -0.577512 -3.14917
  262 442.618 -0.565728 3.13404
  263 648.559 -26.6710 -20.7606
  264 288.272 -9.15462 -70.2719
  265 289.364 -9.18138 69.8272
  266 657.352 -28.8060 39.4065
  267 505.656 -53.6825 99.7022
  268 506.790 -54.6354 -99.3869
  269 578.903 22.8151 -13.6965
  270 499.893 -7.22076 -6.31315
  271 499.947 -7.17763 6.29423
  272 622.681 -1.39371 35.3220
  273 738.211 134.143 33.4737
  274 409.756 -4.55549 21.6940
  275 409.465 -4.59040 -21.8505
  276 672.895 -56.5696 14.9517
  277 622.852 -70.2761 -70.0268
  278 690.172 -3.99064 4.52521
  279 492.838 -28.2516 -38.6807
  280 492.094 -27.9534 38.5627
  281 833.389 100.089 228.371
  282 412.016 -33.4775 117.996
  283 659.809 92.3833 -3.13171
  284 818.255 92.9267 -21.6101
  285 623.733 -48.1752 2.19996
  286 623.576 -72.1553 63.7223
  287 413.116 -32.9699 -119.190
  288 79.4146 98.4588 91.8196
  289 648.673 -26.7441 21.1720
  290 841.640 112.913 13.7744
  291 694.921 -3.57332 -3.92727
  292 641.753 22.7503 -56.7556
  293 628.378 -35.6600 9.08019
  294 615.748 -51.8190 7.11715
  295 639.825 29.6070 54.8153
  296 669.873 -56.5440 -12.6960
  297 941.787 181.175 -18.5389
  298 628.218 -34.2976 -8.64004
  299 510.117 153.783 -309.379
  300 640.495 -68.0639 -19.1118
  301 636.146 -69.9499 26.2388
  302 475.309 -42.3859 -78.0942
  303 438.346 -1.39352 -6.77152
  304 438.477 -1.36870 6.72894
  305 475.562 -42.4369 77.7188
  306 679.830 -1.19940 -62.4446
  307 727.710 -30.1462 -20.1483
  308 562.804 -33.3166 -16.9477
  309 562.519 -33.3973 17.2247
  310 661.566 -56.9699 109.037
  311 666.173 -5.66196 20.5593
  312 797.521 6.75483 46.6301
  313 552.741 -19.1224 -9.65638
  314 552.791 -19.0734 9.61663
  315 507.663 -12.6354 -12.6627
  316 507.683 -12.5278 12.6512
  317 576.043 8.16959 -28.4248
  318 723.179 53.1532 -58.7776
  319 1094.93 298.607 -147.481
  320 655.904 -6.59031 -1.29376
  321 655.585 -6.50953 1.34587
  322 360.016 -1.72650 147.334
  323 504.310 -22.0506 -26.2677
  324 503.466 -21.9982 26.3417
  325 359.943 -2.62137 -146.767
  326 693.118 81.6326 -51.3894
  327 766.862 38.7234 39.9329
  328 660.996 -47.0963 -120.322
  329 614.935 -23.9394 2.56162
  330 614.356 -23.7887 -2.32088
  331 653.036 -14.2170 -9.32861
  332 623.030 -1.06717 -33.0024
  333 691.469 2.77322 60.5652
  334 685.336 -5.32031 -10.9432
  335 425.838 -24.9714 59.2800
  336 425.378 -25.0960 -59.6751
  337 647.162 -1.36618 58.5024
  338 413.063 -2.99228 -13.0101
  339 413.313 -2.96542 12.9115
  340 658.193 -15.7362 15.7228
  341 790.884 160.539 -22.0702
  342 652.809 -14.3005 9.73403
  343 700.465 87.6084 51.3619
  344 668.940 -12.6192 59.4522
  345 536.484 -9.80067 3.08576
  346 536.477 -9.85172 -3.10060
  347 636.826 -2.15283 -52.0380
  348 833.065 174.474 10.5468
  349 700.270 127.264 1.05226
  350 427.434 49.2641 -217.005
  351 50.0857 19.6320 -32.7494
  352 54.2778 21.2822 34.9481
  353 -0.581798 5.86099 11.4609
  354 1.74151 3.85118 -12.1073
  355 1182.03 82.1975 27.4688
  356 579.432 -46.5103 -20.4505
  357 658.583 -15.2473 -15.3167
  358 598.179 -10.9044 -0.0416638
  359 598.113 -10.8294 0.0359021
  360 644.722 71.2857 -26.7297
  361 548.218 -55.2693 51.9716
  362 51.2659 77.2388 -58.8232
  363 548.614 -55.2250 -52.7925
  364 652.562 74.2404 28.4227
  365 658.668 -18.0152 -29.4526
  366 696.245 -39.1754 -32.8503
  367 747.648 155.985 9.38199
  368 697.402 -43.9447 25.5588
  369 304.766 -7.14293 46.9039
  370 303.156 -7.00070 -47.1520
  371 176.067 3.79678 -66.3811
  372 177.626 3.16694 66.1066
  373 584.141 2.43461 28.6454
  374 1062.22 317.670 133.373
  375 678.672 -4.74805 -14.3918
  376 535.792 -44.3879 -40.1710
  377 535.446 -44.3093 40.1237
  378 656.010 -15.4527 -38.3457
  379 738.831 -35.6365 -4.30962
  380 579.412 -46.4828 20.9498
  381 804.241 9.06076 -77.0448
  382 476.303 -3.42975 -2.64144
  383 476.385 -3.40292 2.62861
  384 647.373 -3.92295 -24.9968
  385 363.107 -4.82876 -30.4606
  386 363.289 -4.99437 30.1271
  387 767.057 98.4690 -47.3337
  388 418.374 29.1379 202.304
  389 604.598 -31.6464 -1.30386
  390 605.168 -31.6024 1.28514
  391 711.720 119.623 -32.0598
  392 670.933 -20.0969 -55.7680
  393 667.511 -68.5723 62.9880
  394 565.465 -14.9003 -5.30107
  395 565.416 -14.8435 5.26577
  396 646.366 -50.0223 15.1682
  397 691.015 -3.75368 8.02561
  398 446.670 -15.4310 -36.3644
  399 446.852 -15.4438 36.1010
  400 660.608 22.3279 -62.5568
  401 620.387 -13.9956 1.26678
  402 620.351 -14.0357 -1.20036
  403 644.968 -7.72454 47.3178
  404 607.886 44.8210 13.0512
  405 665.256 -28.4093 47.9426
  406 950.462 197.388 39.9717
  407 332.159 -17.7330 -94.4710
  408 333.012 -17.7303 93.8316
  409 150.383 78.6533 -116.765
  410 703.214 -2.66008 1.94826
  411 378.670 -2.82302 -19.3290
  412 379.117 -2.76344 19.1873
  413 656.350 -17.4509 37.3577
  414 595.970 -64.4561 36.8772
  415 667.533 -9.08306 6.54846
  416 686.152 34.7986 64.5025
  417 156.909 83.7465 121.128
  418 596.783 -64.0485 -34.3414
  419 616.116 -57.0971 -11.5624
  420 214.476 -4.24570 -59.6622
  421 215.831 -4.38714 59.2941
  422 475.775 -38.8371 -142.255
  423 704.534 -10.7655 51.8498
  424 474.252 -39.3257 141.114
  425 652.477 -36.9268 -29.2016
  426 615.437 42.0589 -28.3736
  427 652.496 -28.6054 28.0942
  428 695.185 -3.70384 -5.14425
  429 23.5204 26.6032 14.3078
  430 146.757 174.091 170.374
  431 633.599 -2.28946 24.3621
  432 543.361 8.02406 12.5711
  433 551.598 9.63700 -16.9822
  434 470.721 -7.16337 -13.0558
  435 470.787 -7.07700 12.9889
  436 643.244 -49.9734 -13.4420
  437 652.589 -12.9500 -52.6284
  438 545.865 10.9203 -4.60772
  439 948.968 227.264 55.9706
  440 140.852 44.6119 -87.9275
  441 154.451 40.9068 93.4334
  442 604.036 -21.6611 -0.456654
  443 603.828 -21.6301 0.597338
  444 802.955 174.822 -1.52468
  445 488.847 219.083 316.153
  446 764.164 -9.72019 -0.375119
  447 454.449 -22.8120 -49.3249
  448 454.676 -22.6721 48.9657
  449 459.753 -9.56817 19.9406
  450 459.653 -9.63068 -20.0885
  451 611.431 14.0753 -45.9304
  452 706.300 -1.52482 -1.22972
  453 596.655 28.0243 26.0032
  454 739.934 91.2717 53.3542
  455 617.635 -45.7516 -0.326464
  456 667.186 -8.70000 -6.39136
  457 697.734 -3.40904 4.73087
  458 704.144 -1.65495 0.695699
  459 704.600 -1.80303 -0.464654
  460 412.056 -0.557989 4.90128
  461 411.852 -0.567279 -4.94228
  462 673.133 -43.1505 35.3211
  463 616.976 24.8132 44.5058
  464 640.975 2.75234 -57.2811
  465 662.797 -14.5702 21.3432
  466 927.885 173.350 -197.359
  467 665.488 -37.2509 -40.8723
  468 10.2960 13.2332 7.62255
  469 10.0761 13.5997 -4.31501
  470 534.393 -29.4779 23.6110
  471 532.757 -29.0482 -23.2732
  472 811.237 20.6537 110.296
  473 231.614 221.541 -243.785
  474 658.602 -2.23907 18.5401
  475 735.134 -42.1472 -66.0434
  476 408.201 -22.7362 68.3429
  477 795.381 141.399 -31.9157
  478 656.079 -35.8544 33.7707
  479 556.575 -26.0516 -13.1092
  480 557.050 -25.6414 13.0883
  481 584.013 3.34757 -25.2540
  482 406.997 -22.6295 -68.6925
  483 597.039 0.542210 25.2630
  484 563.310 -64.6542 -90.3730
  485 561.954 -64.7520 90.8026
  486 675.442 -4.86829 15.9556
  487 624.373 59.2167 5.38055
  488 616.875 12.9282 219.065
  489 912.269 183.196 -1.13598
  490 634.008 -11.3794 2.20967
  491 634.029 -11.3427 -2.34938
  492 499.405 -8.32803 -8.64513
  493 499.454 -8.26622 8.62207
  494 266.677 11.1270 124.987
  495 659.334 -32.0919 -40.4600
  496 599.954 -13.3771 -1.07161
  497 599.895 -13.3412 1.07803
  498 525.187 -55.1691 73.8266
  499 271.560 14.8654 -128.029
  500 658.939 -53.9915 -15.5815
  501 12.9660 5.75672 2.32626
  502 588.774 31.1091 1.94982
  503 635.879 -8.14389 -0.656264
  504 635.877 -8.23736 0.626187
  505 525.382 -55.0480 -74.3550
  506 735.630 -36.7869 81.6043
  507 735.897 26.8466 53.2101
  508 676.285 -5.40829 -2.95352
  509 656.953 -54.7197 15.9411
  510 430.918 -0.219291 -0.949031
  511 431.034 -0.216103 0.943503
  512 657.827 -25.5516 -43.9462
  513 642.998 47.7633 48.3325
  514 727.250 18.1054 -52.7007
  515 428.274 -0.483814 -2.77615
  516 428.403 -0.475984 2.76137
  517 1230.53 178.153 -157.589
  518 667.705 79.3096 42.2120
  519 676.772 -5.07754 2.59852
  520 617.383 -58.3830 13.0827
  521 526.745 -16.8349 13.3928
  522 526.721 -16.9494 -13.3658
  523 712.817 -43.7369 9.78673
  524 689.085 -14.0403 -55.6595
  525 771.593 150.836 28.3490
  526 646.351 11.2987 59.4799
  527 645.201 -13.1182 5.30493
  528 625.720 -67.3006 -88.3831
  529 653.861 -16.4768 44.0040
  530 1213.60 56.1398 -21.9551
  531 707.180 -53.5904 7.70533
  532 672.119 -5.30469 -0.531303
  533 672.283 -5.58366 0.405490
  534 1226.26 82.1972 76.2861
  535 631.512 -0.0363032 50.6096
  536 865.673 149.461 -1.40619
  537 657.185 -18.4526 -20.3429
  538 315.119 -2.69855 -20.7900
  539 315.951 -2.56589 20.6007
  540 452.772 -42.1682 -99.0048
  541 453.193 -41.4689 98.3300
  542 644.835 -12.6226 -5.28718
  543 703.699 25.8243 -61.7199
  544 619.374 -42.0921 2.73146
  545 670.432 76.7865 -43.6478
  546 668.876 -8.30372 21.4307
  547 827.077 45.0052 -21.6497
  548 577.476 -19.6564 -5.53061
  549 577.331 -19.6082 5.48911
  550 623.450 -29.5925 6.07681
  551 904.660 184.188 -27.0355
  552 660.180 28.9745 61.6829
  553 285.819 73.0866 183.628
  554 628.082 -37.4855 149.024
  555 816.737 46.8951 -165.819
  556 674.644 55.8420 -57.0838
  557 592.286 -51.7121 -129.663
  558 642.464 -70.7067 -31.4755
  559 668.668 -68.1697 -43.4012
  560 92.0313 123.355 -116.427
  561 672.797 -9.24949 -12.3088
  562 1001.60 193.978 -60.7750
  563 626.555 -28.4780 -7.37355
  564 631.100 -20.9696 6.14830
  565 630.538 -20.5261 -5.80275
  566 451.329 -2.20761 -6.22689
  567 451.438 -2.17941 6.19521
  568 71.7757 6.36473 -37.5866
  569 74.9995 6.69632 38.3986
  570 337.281 -15.1518 -71.8009
  571 339.637 -15.2428 71.7503
  572 639.917 -34.9629 -16.8881
  573 649.501 -71.0082 33.6291
  574 667.468 -63.7603 -3.71865
  575 555.723 -9.77102 -2.58147
  576 555.702 -9.71264 2.57063
  577 523.709 -55.2768 -110.783
  578 581.518 -48.1874 136.771
  579 511.778 -52.0465 111.296
  580 660.131 -14.8233 -56.3313
  581 427.883 -6.53443 22.0068
  582 427.680 -6.59836 -22.1573
  583 634.689 35.4711 -48.6710
  584 633.931 -1.13335 -22.1007
  585 785.812 168.502 -12.1901
  586 522.210 -7.56761 -2.35714
  587 522.237 -7.52499 2.34846
  588 669.757 -2.14932 -12.0892
  589 474.471 -15.1894 -24.9510
  590 474.510 -15.1481 24.7686
  591 382.911 16.6082 174.688
  592 651.913 -30.3575 -28.3269
  593 371.832 -20.2180 125.849
  594 640.724 -33.4794 17.4190
  595 671.387 -10.1671 13.7224
  596 661.920 -6.91597 -2.48863
  597 481.072 -5.46414 -5.97906
  598 481.146 -5.42364 5.95632
  599 754.617 149.326 -26.0619
  600 371.553 -19.5414 -126.246
  601 638.517 -28.0216 -13.4956
  602 580.068 -10.9454 -1.54795
  603 580.016 -10.8773 1.54255
  604 1058.81 141.634 -25.7497
  605 399.741 -2.28522 12.0194
  606 399.425 -2.30630 -12.1135
  607 605.017 14.3363 42.0230
  608 838.843 74.2429 2.99367
  609 407.074 1.70757 -173.155
  610 216.701 4.60743 -95.9157
  611 218.310 3.49188 95.4198
  612 513.409 -29.0649 31.5741
  613 518.323 -29.9240 -30.8452
  614 853.784 173.100 4.81402
  615 659.480 -7.13651 2.15579
  616 581.753 17.0332 -25.5148
  617 713.749 127.228 25.3818
  618 711.574 131.948 -16.9090
  619 584.665 -32.0865 -8.65059
  620 588.826 -31.4150 6.63228
  621 416.390 92.1987 -246.734
  622 509.125 -16.6974 -17.9264
  623 509.185 -16.5208 17.8829
  624 1226.64 251.930 189.929
  625 658.551 -21.8483 47.8598
  626 389.713 -13.0578 -45.9270
  627 989.944 248.913 174.213
  628 390.551 -12.9959 45.7899
  629 622.355 -23.2696 -172.739
  630 458.975 -1.88415 -2.28665
  631 459.073 -1.86830 2.27781
  632 563.374 5.44347 22.2951
  633 265.440 -3.68703 -41.1290
  634 266.689 -3.69816 40.8477
  635 577.447 -40.3791 16.4217
  636 603.544 -48.0494 -8.62626
  637 701.748 -1.86200 -4.49031
  638 418.552 -0.519517 3.69592
  639 418.387 -0.529781 -3.72576
  640 548.102 -12.1580 -4.34566
  641 548.094 -12.1018 4.32313
  642 618.872 -69.1206 89.0718
  643 714.873 79.7632 -56.0148
  644 485.128 -21.7248 -32.0694
  645 484.839 -21.3707 31.8686
  646 567.454 -40.1978 -20.9616
  647 881.499 190.475 11.1175
  648 663.753 -64.5531 7.19088
  649 582.069 -14.0626 -3.12589
  650 581.994 -14.0079 3.12168
  651 789.886 87.6359 36.9403
  652 666.330 -10.1480 -23.2653
  653 600.091 -0.532715 -20.5281
  654 285.091 -9.79211 -90.7542
  655 285.847 -10.0332 90.0932
  656 565.551 -48.1770 -31.6210
  657 840.519 182.453 -0.213707
  658 659.809 89.1254 -19.0213
  659 448.625 -3.64248 -11.2509
  660 448.740 -3.59357 11.1791
  661 610.749 -17.6008 -0.180630
  662 610.862 -17.6049 0.291141
  663 1107.33 143.935 63.8068
  664 709.429 -2.32056 1.06296
  665 690.784 -3.11320 7.96768
  666 688.629 -3.10376 -9.53835
  667 656.381 -61.3722 2.52852
  668 495.952 -5.37036 -2.98321
  669 496.012 -5.33700 2.97311
  670 706.424 112.496 39.4081
  671 895.019 197.907 -18.3788
  672 501.446 -36.3002 -45.4237
  673 501.365 -35.9709 45.2349
  674 617.792 -63.5453 -19.0984
  675 656.091 39.1659 -58.2053
  676 765.686 2.68742 16.5574
  677 522.318 -9.34545 -6.30103
  678 522.348 -9.29474 6.28212
  679 451.788 -39.1711 -89.3308
  680 650.395 -63.1165 3.24533
  681 544.469 -60.3099 81.4629
  682 264.831 82.5386 -177.487
  683 511.829 -46.7526 62.8603
  684 617.881 0.187423 18.8058
  685 452.237 -38.7433 88.7972
  686 638.171 -28.5268 13.6611
  687 511.913 -46.5360 -63.3607
  688 535.262 7.46863 4.70654
  689 415.288 -10.4581 32.9003
  690 414.945 -10.4598 -33.0913
  691 544.616 -61.8639 -82.3248
  692 668.932 -44.3969 -34.0635
  693 615.027 -9.24097 -0.133843
  694 615.123 -9.32211 0.135250
  695 682.700 -43.8947 33.0626
  696 622.190 -64.9970 21.7219
  697 753.153 69.4346 51.4336
  698 682.069 -13.0477 57.9861
  699 656.415 -23.9776 34.2939
  700 634.548 52.4941 -36.9227
  701 754.326 126.338 41.0166
  702 652.967 -9.23656 -34.6168
  703 647.986 -21.9925 15.9898
  704 676.651 105.365 10.2260
  705 660.357 -11.5773 29.5425
  706 212.481 145.920 186.667
  707 613.557 -70.7621 -54.0067
  708 710.150 12.7947 58.2397
  709 714.779 -22.2537 -38.3602
  710 707.223 -1.33905 2.31728
  711 655.313 -23.0105 -26.3014
  712 614.606 -71.3045 49.6109
  713 1155.08 102.586 -17.0025
  714 384.397 -1.43546 12.5541
  715 383.987 -1.45006 -12.6537
  716 662.452 -12.7326 -11.4139
  717 711.025 -1.05539 -2.30732
  718 564.657 -48.9754 31.7719
  719 673.297 -25.3612 52.1042
  720 999.240 248.743 -90.1872
  721 638.275 -46.3763 12.6876
  722 703.526 -46.6374 -15.4451
  723 648.185 -21.4388 -15.7176
  724 709.839 -1.65692 -0.584053
  725 660.020 -0.131768 61.9615
  726 32.2555 36.8912 43.6302
  727 730.150 -26.3423 -116.893
  728 798.468 49.2465 18.3002
  729 668.284 -68.6384 39.6729
  730 490.533 -11.1448 14.5757
  731 490.512 -11.2898 -14.6291
  732 602.962 333.784 -331.106
  733 682.875 -45.5298 -29.9534
  734 533.360 3.37329 -9.01099
  735 610.395 3.65860 40.6967
  736 660.810 -33.3954 41.0187
  737 633.366 -53.3775 2.99490
  738 653.303 -60.0245 -95.8042
  739 629.810 -49.8312 -4.43436
  740 736.714 -35.1166 1.71590
  741 679.614 -6.27930 6.50305
  742 612.718 -36.7339 0.668295
  743 1086.75 217.071 -118.204
  744 650.528 -18.0096 12.3785
  745 649.456 10.8250 -60.9926
  746 547.951 -5.65380 193.334
  747 693.157 55.7130 61.2741
  748 596.715 -46.6531 11.5015
  749 467.657 -35.9979 -65.6430
  750 467.750 -35.9192 65.1787
  751 639.749 72.0752 -8.54649
  752 646.494 -7.56528 53.8569
  753 651.982 -15.7037 -45.1597
  754 613.378 -37.5182 -0.817435
  755 593.819 -52.8380 20.5160
  756 681.565 111.711 -11.3852
  757 632.623 -54.7700 -0.516586
  758 634.381 -40.2918 12.6837
  759 640.683 -8.99126 1.59183
  760 641.025 -8.77806 -1.56798
  761 860.559 186.918 -0.706616
  762 701.033 -59.9143 -29.7489
  763 657.223 -20.5994 26.3256
  764 679.624 -6.28523 -5.81924
  765 692.273 4.49810 -61.1878
  766 781.330 42.5067 -29.4610
  767 404.814 -0.227057 -5.95828
  768 405.065 -0.222220 5.90934
  769 6.50411 -9.75325 -6.62963
  770 671.263 -0.998788 11.1500
  771 622.507 -0.724608 -44.7103
  772 640.168 -6.02772 38.8170
  773 571.435 76.3389 279.755
  774 727.671 147.883 -1.37330
  775 521.719 -36.4279 36.3461
  776 102.211 1.87563 -36.5129
  777 104.594 1.34683 36.8799
  778 635.261 -4.46885 -44.0589
  779 522.959 -36.7635 -36.3652
  780 675.750 -6.87811 4.69507
  781 361.540 -14.8365 61.1557
  782 358.676 -14.7749 -61.1246
  783 650.442 -17.5142 -12.0348
  784 430.421 -10.1316 -28.7596
  785 430.629 -10.0733 28.5464
  786 676.083 -6.95460 -15.7827
  787 526.739 -13.5762 -10.7461
  788 526.771 -13.5001 10.7523
  789 736.729 -4.44562 -37.7917
  790 668.713 -7.09917 -61.5998
  791 356.964 -2.06137 -15.8606
  792 357.562 -2.04179 15.6995
  793 24.0293 8.65985 -23.2780
  794 26.8302 9.15728 24.4135
  795 555.788 2.85932 -16.1606
  796 609.393 -68.4500 -41.6369
  797 -6.65014 -4.47290 11.8243
  798 -5.95509 -5.52365 -11.9262
  799 633.412 -13.3323 3.66579
  800 684.761 -53.8099 -13.2693
  801 712.675 105.160 -45.7493
  802 678.297 -6.23781 -4.49026
  803 1391.92 288.072 -261.081
  804 633.277 -13.3023 -3.60861
  805 944.318 177.891 16.9900
  806 680.353 19.8173 -64.4884
  807 746.869 56.8053 -53.0786
  808 139.912 -1.59561 -33.3266
  809 142.000 -1.77694 33.2779
  810 438.308 -5.80846 17.2777
  811 438.150 -5.85242 -17.4029
  812 422.684 -0.799076 3.28168
  813 422.542 -0.808010 -3.30230
  814 757.856 127.270 -40.3757
  815 462.855 -2.49764 -4.97836
  816 462.950 -2.47030 4.95749
  817 648.403 -6.50397 -56.3160
  818 908.273 103.345 93.2002
  819 591.363 13.8108 -35.4317
  820 216.605 -1.81687 35.2475
  821 215.093 -1.83456 -35.4905
  822 734.459 24.7701 203.660
  823 661.932 -12.8340 11.7770
  824 604.456 40.6857 -14.7320
  825 291.768 -0.320723 23.7493
  826 290.510 -0.192566 -23.8992
  827 429.563 -1.87010 -8.55869
  828 429.723 -1.84324 8.49566
  829 78.8759 69.3981 63.2563
  830 626.665 15.3081 52.1436
  831 693.597 101.447 -39.7836
  832 741.193 86.2509 -53.8137
  833 497.523 -17.9925 -22.9748
  834 497.280 -17.8788 22.9661
  835 769.809 161.963 17.7099
  836 659.143 -6.33741 -0.467291
  837 659.199 -6.29267 0.569217
  838 656.762 -20.1195 -34.9593
  839 555.054 -36.3098 22.9364
  840 605.965 -68.0439 41.6594
  841 704.419 -57.6628 63.9941
  842 551.339 -15.6950 -7.31333
  843 551.349 -15.6510 7.27950
  844 631.473 58.8168 23.8112
  845 596.103 8.61176 -38.1530
  846 164.832 210.164 193.924
  847 595.553 -52.3863 -19.0987
  848 597.966 -26.6597 -2.50774
  849 598.275 -26.7389 2.46477
  850 657.532 -9.80887 58.7635
  851 649.389 -42.9143 -23.1949
  852 583.507 -38.1785 -11.9240
  853 1269.73 41.0775 -61.1091
  854 555.649 -51.9149 41.9331
  855 555.157 -52.5560 -42.5331
  856 655.953 -8.06501 29.3477
  857 970.268 254.137 -67.7562
  858 523.445 -46.7081 -50.6927
  859 574.070 -64.2871 49.7717
  860 523.385 -46.1753 50.2973
  861 566.017 -22.4453 -8.86544
  862 566.024 -22.3886 8.82030
  863 89.8382 36.2275 54.6865
  864 704.352 52.6593 -61.3578
  865 545.050 -20.7694 -12.2978
  866 545.161 -20.5781 12.3339
  867 539.399 -8.74097 -1.52110
  868 539.401 -8.69041 1.51377
  869 588.054 -11.9590 -1.36057
  870 587.990 -11.8936 1.35329
  871 487.252 -8.93831 -12.5114
  872 487.306 -8.84599 12.4722
  873 546.614 -28.0623 -17.8480
  874 546.698 -27.8993 17.9282
  875 14.5827 0.630987 -10.0724
  876 811.056 152.518 25.9121
  877 698.799 -24.7840 -46.3541
  878 573.498 -63.3356 -50.2085
  879 617.907 -20.2316 2.35433
  880 617.655 -20.0474 -2.21045
  881 674.345 0.716165 62.9900
  882 723.587 -51.4827 -39.9580
  883 636.479 50.1139 -243.990
  884 303.704 -5.76317 122.844
  885 -6.17012 7.07806 -10.1119
  886 -4.86773 8.01453 10.9643
  887 89.4572 38.5127 -55.9096
  888 656.354 -19.4209 20.1273
  889 686.378 -5.11238 -8.32758
  890 618.928 -60.0300 108.385
  891 303.033 -5.51018 -123.277
  892 689.669 -56.9217 6.52722
  893 759.421 -20.0798 97.9150
  894 573.671 2.45069 17.0857
  895 648.930 61.8409 40.2526
  896 358.846 -19.9121 89.5169
  897 357.544 -20.0685 -90.0336
  898 429.319 -19.5653 -50.4008
  899 442.052 -22.5875 -155.655
  900 692.614 -16.4925 53.6291
  901 938.563 225.649 47.7333
  902 697.115 26.6982 62.5763
  903 658.732 -14.4438 -32.1710
  904 450.844 -20.2271 159.461
  905 833.388 155.023 -15.2464
  906 88.7772 74.0851 -77.2259
  907 616.326 -1.10880 -17.9382
  908 429.752 -19.4162 50.0151
  909 518.470 -10.9827 9.35112
  910 518.439 -11.0467 -9.36488
  911 650.270 -42.6765 24.1330
  912 670.182 -5.12236 1.56296
  913 496.590 4.06524 -192.335
  914 704.221 -1.86550 3.91183
  915 700.243 -1.57364 -5.17594
  916 544.598 5.02420 -14.9443
  917 680.882 -2.91340 -9.79682
  918 519.175 -23.4790 -21.8687
  919 519.513 -23.1512 21.9451
  920 -15.2250 6.77020 -8.51022
  921 -21.8583 4.09118 9.35182
  922 670.130 -4.80842 -1.64348
  923 235.614 -5.55366 83.0864
  924 234.404 -5.10284 -83.5070
  925 723.356 105.049 47.8771
  926 1241.57 22.6181 18.5959
  927 683.192 75.7744 51.9295
  928 759.701 -25.5666 35.1797
  929 668.288 -37.5348 40.8325
  930 829.442 173.273 -11.7753
  931 534.410 2.68551 11.2862
  932 642.183 -15.7558 -6.63881
  933 671.829 36.2269 -63.0110
  934 797.906 25.8696 -1.37395
  935 627.877 -38.8536 -8.95086
  936 338.220 -1.67617 -17.6693
  937 338.483 -1.61544 17.4424
  938 660.833 -16.0575 -24.2981
  939 24.8993 30.6090 9.58060
  940 634.652 -65.8642 -13.4411
  941 564.637 17.4682 -1.53740
  942 825.198 179.651 -7.76674
  943 136.840 101.314 -124.348
  944 640.170 -4.79963 -34.7797
  945 454.969 -6.99489 -16.3133
  946 455.070 -6.91815 16.2018
  947 4.75186 -17.0830 12.6502
  948 441.646 -32.0670 -72.3046
  949 647.045 -37.6822 -22.7469
  950 422.016 0.923685 -1.39463
  951 422.139 0.926903 1.38760
  952 659.821 79.9993 -32.0118
  953 692.337 -2.74435 -0.776817
  954 692.392 -2.76550 1.05476
  955 441.876 -31.9978 71.8804
  956 657.076 -1.10766 -13.5495
  957 748.266 5.69665 35.6636
  958 665.143 -10.1025 8.87242
  959 115.268 27.2833 -67.4666
  960 687.503 -4.77065 7.47437
  961 634.759 5.40210 55.4835
  962 669.161 92.3395 28.4379
  963 666.233 7.76966 -64.2054
  964 467.715 -24.1288 -43.8684
  965 712.688 -25.5816 36.7080
  966 468.026 -24.0541 43.4857
  967 24.0794 25.2000 -5.61174
  968 86.9701 13.4966 49.6101
  969 388.699 -6.36060 29.5316
  970 388.274 -6.35697 -29.6661
  971 642.643 -16.0149 7.10761
  972 697.317 120.332 15.4278
  973 357.366 31.6237 -183.272
  974 582.555 -35.9606 10.7789
  975 547.130 -56.7365 -61.0807
  976 790.754 150.937 29.1973
  977 610.636 -11.2402 -0.365164
  978 610.607 -11.1893 0.357615
  979 665.481 -12.9289 -16.9358
  980 626.037 54.4450 -21.9487
  981 1332.24 408.769 273.879
  982 139.842 6.99191 -63.6460
  983 141.663 5.78818 63.7507
  984 10.4456 -7.26652 6.30701
  985 627.111 35.1940 45.0564
  986 547.094 -57.1035 60.6831
  987 673.050 -32.0847 -47.4129
  988 731.413 59.7948 59.0507
  989 696.823 -56.2701 -76.5032
  990 1012.26 212.395 75.1415
  991 600.439 -10.1217 -0.696818
  992 600.365 -10.0508 0.695769
  993 698.000 -28.8205 43.5348
  994 50.2263 95.1464 91.0772
  995 330.873 -6.50521 42.0796
  996 329.970 -6.41950 -42.4637
  997 389.333 -18.2489 57.8902
  998 388.092 -17.9500 -58.0612
  999 436.365 -17.1769 42.0333
  1000 477.030 -3.36739 -2.19032
  1001 477.111 -3.34475 2.18325
  1002 1112.86 373.184 -242.626
  1003 1029.32 258.949 113.366
  1004 436.023 -17.2508 -42.3322
  1005 718.499 -3.47591 48.3678
  1006 651.867 67.7123 -38.6229
  1007 460.876 -40.1349 129.306
  1008 586.142 -69.3809 -72.7538
  1009 668.811 -5.81358 -19.4218
  1010 309.365 19.8653 150.142
  1011 396.474 -30.1397 103.201
  1012 602.237 31.4667 -28.4062
  1013 677.420 -13.6233 -58.8746
  1014 821.699 371.798 373.781
  1015 572.382 18.1274 20.3855
  1016 763.261 162.300 -2.19190
  1017 554.366 22.9410 -217.872
  1018 571.456 -59.6318 -43.3723
  1019 711.127 -1.17681 -1.84866
  1020 694.852 63.7819 -59.6170
  1021 422.838 -2.37403 10.8604
  1022 422.643 -2.39739 -10.9437
  1023 16.3148 16.6173 -26.4633
  1024 468.627 -20.4936 -36.7126
  1025 395.973 -30.5186 -103.890
  1026 468.333 -20.4637 36.3698
  1027 663.008 -20.4146 54.5073
  1028 596.308 -36.5948 -5.80748
  1029 630.231 11.8940 -53.9194
  1030 648.996 80.9823 11.2854
  1031 853.828 57.4205 44.3416
  1032 654.896 -49.9867 22.1458
  1033 424.284 -33.2015 -79.1076
  1034 625.802 22.5638 -50.7049
  1035 464.485 -39.6447 -129.870
  1036 878.691 188.178 -5.71050
  1037 610.737 40.6017 25.8417
  1038 753.015 -3.84965 -24.7903
  1039 574.934 -59.6942 40.4619
  1040 656.520 -21.1373 41.5658
  1041 651.235 -34.6673 27.8339
  1042 647.638 -32.8698 23.6405
  1043 794.768 102.178 -38.4198
  1044 649.616 -10.6556 43.3039
  1045 585.389 -69.5713 71.6378
  1046 624.752 -25.8133 5.54866
  1047 424.558 -33.2810 78.7446
  1048 589.023 -42.9198 -12.8180
  1049 350.389 -17.2887 -110.318
  1050 491.892 -50.7381 88.4274
  1051 659.941 -4.76710 -22.8490
  1052 645.382 -7.34304 -49.7080
  1053 560.481 -43.6372 -27.6029
  1054 350.958 -17.7362 109.554
  1055 607.520 1.71720 -35.3563
  1056 455.538 -29.2719 -56.4239
  1057 805.584 169.874 17.4686
  1058 188.925 29.5295 -107.320
  1059 1319.74 92.9848 124.093
  1060 330.177 23.1016 -156.745
  1061 647.098 -53.7602 -10.9319
  1062 455.689 -29.0427 56.0266
  1063 601.961 6.80700 39.7693
  1064 348.225 -6.61886 34.8682
  1065 348.095 -6.77848 -35.1840
  1066 657.261 -18.4761 -50.7118
  1067 689.923 -4.15417 2.66894
  1068 681.378 -1.79034 9.83614
  1069 678.285 22.4284 64.5021
  1070 637.467 -4.77884 46.9624
  1071 488.723 53.2621 235.171
  1072 715.043 -0.820447 0.792939
  1073 685.318 92.4744 41.2689
  1074 587.769 8.99485 34.4319
  1075 688.430 -2.90087 9.33633
  1076 459.572 -4.41513 -9.27689
  1077 459.667 -4.36703 9.23016
  1078 297.772 -8.05489 -58.3359
  1079 298.783 -8.34887 58.0059
  1080 589.778 30.0618 14.5052
  1081 854.763 51.5674 -75.4106
  1082 785.873 3.06005 -129.671
  1083 643.440 -0.669685 -14.2020
  1084 491.977 -51.1027 -89.0456
  1085 561.673 -41.5132 25.1017
  1086 646.716 -1.56465 14.7978
  1087 671.733 -49.0874 -26.7368
  1088 437.233 -0.739440 5.41450
  1089 437.109 -0.754373 -5.44125
  1090 645.903 -55.2981 10.9082
  1091 615.179 -13.0579 0.0886952
  1092 615.075 -13.0756 -0.0585178
  1093 599.314 -60.0524 27.9838
  1094 761.229 -23.8171 -18.6504
  1095 366.608 -0.565726 -9.90394
  1096 367.129 -0.545947 9.81465
  1097 525.279 -34.0085 -148.854
  1098 563.605 -13.3646 4.41153
  1099 563.644 -13.4247 -4.43813
  1100 337.519 187.420 258.523
  1101 769.370 63.9982 -45.2909
  1102 120.944 56.9502 -83.5539
  1103 665.380 -10.6140 -8.54547
  1104 186.353 61.7740 -123.282
  1105 383.356 -23.4270 -74.8215
  1106 714.590 -1.13736 0.591769
  1107 714.793 -1.08898 -0.416528
  1108 657.802 -37.8528 -34.4863
  1109 582.070 -65.7536 -98.0178
  1110 189.119 25.1442 102.260
  1111 716.555 70.8266 57.0180
  1112 646.975 -7.33715 -0.605744
  1113 647.062 -7.33765 0.659180
  1114 700.491 -44.1172 119.544
  1115 736.025 145.865 21.4525
  1116 448.694 -10.1011 -23.1231
  1117 448.817 -10.0616 22.9902
  1118 335.898 37.3262 185.214
  1119 628.530 3.43416 -52.0550
  1120 202.505 63.5641 132.010
  1121 787.415 -11.5768 -47.9908
  1122 786.455 171.359 5.94221
  1123 545.392 -42.3418 32.4579
  1124 516.791 3.14645 -2.20516
  1125 681.537 -6.48627 11.4998
  1126 702.891 -1.19691 4.43963
  1127 170.667 0.203935 -29.6181
  1128 172.568 0.134008 29.4400
  1129 571.508 10.1380 -25.6068
  1130 579.802 -17.0009 -4.29945
  1131 579.691 -16.9393 4.28241
  1132 62.8696 114.154 -97.2368
  1133 97.6143 234.057 -186.703
  1134 586.573 -22.8039 4.61175
  1135 586.765 -22.7813 -4.65427
  1136 604.449 -14.8579 -0.178093
  1137 604.368 -14.8386 0.217391
  1138 163.999 104.020 133.817
  1139 487.615 -5.57203 -4.63764
  1140 487.684 -5.53650 4.62122
  1141 608.005 46.4611 -0.570995
  1142 743.396 105.495 -270.094
  1143 731.951 125.500 -36.8736
  1144 666.309 -25.8196 -50.9379
  1145 655.978 -33.0378 -35.5181
  1146 545.599 -42.7139 -32.9574
  1147 558.131 2.04814 15.8028
  1148 619.997 39.1094 -37.7226
  1149 612.134 33.4019 36.1447
  1150 624.369 -25.0954 -5.41178
  1151 597.743 -35.8885 5.33127
  1152 546.856 -34.5680 -24.9167
  1153 647.529 -3.93386 27.5072
  1154 1110.40 111.650 15.3602
  1155 651.284 -14.0326 49.9934
  1156 655.897 43.1528 55.9615
  1157 602.031 -58.9213 -22.4406
  1158 82.9943 12.3547 -47.9446
  1159 613.297 -28.4708 -2.53782
  1160 424.867 -0.473487 -0.312416
  1161 424.983 -0.471149 0.310190
  1162 739.760 -19.5631 20.0078
  1163 704.584 -59.4956 34.1299
  1164 1005.58 178.535 46.2943
  1165 260.365 -0.373720 -24.3888
  1166 261.669 -0.320795 24.2312
  1167 552.586 -11.0543 -3.32355
  1168 552.570 -10.9965 3.30589
  1169 614.857 -54.0499 -7.42828
  1170 520.960 2.63511 7.24541
  1171 629.176 -44.8252 7.83013
  1172 38.7518 45.9855 -25.5492
  1173 119.481 57.8263 81.5866
  1174 425.800 -23.9329 143.704
  1175 730.008 137.866 -26.4041
  1176 690.709 -2.10003 -7.40079
  1177 717.355 -1.33547 0.319547
  1178 717.929 -1.74296 -0.158911
  1179 439.687 -0.764180 -0.947191
  1180 439.799 -0.757461 0.942045
  1181 673.206 43.0201 63.0302
  1182 978.496 165.072 -3.55748
  1183 694.781 114.138 -27.6927
  1184 517.413 -38.7442 147.937
  1185 423.576 -23.1100 -143.403
  1186 474.104 -30.7722 -50.9396
  1187 643.217 -18.5168 9.47178
  1188 890.778 198.114 17.9826
  1189 474.182 -30.6101 50.5955
  1190 655.732 -12.1634 7.16313
  1191 597.571 22.7539 34.5887
  1192 651.997 20.3702 60.9585
  1193 914.500 203.669 29.4486
  1194 553.485 -14.2228 6.10321
  1195 553.500 -14.2780 -6.13461
  1196 664.800 -13.1042 17.6315
  1197 410.823 -3.99103 16.8775
  1198 410.553 -4.02914 -17.0052
  1199 649.732 -9.57100 -2.73186
  1200 271.289 163.748 -251.481
  1201 562.879 -32.0931 -158.538
  1202 539.440 -16.4627 -10.4151
  1203 539.506 -16.4014 10.4198
  1204 692.227 -3.85828 2.53760
  1205 659.073 -9.37791 5.67413
  1206 38.8915 51.1702 38.9410
  1207 711.474 -1.03155 2.19503
  1208 89.4102 116.977 115.907
  1209 644.840 -10.3437 -3.61394
  1210 -0.408652 -15.2683 -13.4699
  1211 462.508 -45.2477 -111.552
  1212 461.372 -44.1749 110.509
  1213 711.436 -1.46269 -2.47064
  1214 616.984 -32.5958 -3.39919
  1215 691.915 -3.58758 -2.49830
  1216 564.509 -18.0497 -6.54616
  1217 564.472 -17.9997 6.49700
  1218 649.338 -9.51632 2.52292
  1219 612.873 -27.8981 2.51254
  1220 591.244 -19.0977 2.63312
  1221 591.429 -19.1326 -2.57477
  1222 691.172 -3.69020 -2.00869
  1223 600.833 -63.7386 -110.089
  1224 677.711 -4.94480 -1.94215
  1225 647.389 -10.6018 4.01237
  1226 466.392 -4.61261 -7.00837
  1227 466.481 -4.57005 6.97711
  1228 515.356 -7.24382 -3.88112
  1229 515.393 -7.20110 3.86681
  1230 814.758 128.228 30.3662
  1231 686.189 -53.1498 17.4141
  1232 473.920 -2.73046 182.045
  1233 395.996 -0.499544 6.49214
  1234 395.688 -0.505676 -6.54611
  1235 654.369 -12.3254 37.1744
  1236 624.671 -10.0685 0.237853
  1237 624.685 -10.0407 -0.237905
  1238 719.193 138.651 12.4724
  1239 651.036 -68.4851 89.2441
  1240 394.494 -5.13888 23.4441
  1241 394.141 -5.17318 -23.5880
  1242 624.139 -15.6886 2.35294
  1243 624.000 -15.8040 -2.23013
  1244 642.853 -18.3195 -9.05514
  1245 601.076 0.194359 18.2637
  1246 1007.48 251.096 -89.8702
  1247 655.733 -24.3779 -31.5304
  1248 120.171 26.9811 69.1856
  1249 676.576 -36.3921 43.4172
  1250 557.819 12.8267 -14.0354
  1251 46.4096 31.7518 27.2347
  1252 878.264 103.245 -21.2722
  1253 661.866 -30.3622 -44.8567
  1254 560.198 8.48659 21.5358
  1255 385.883 -23.4810 74.7641
  1256 670.546 -52.2265 23.0916
  1257 956.835 193.490 73.7867
  1258 233.450 33.0593 129.367
  1259 672.702 -8.61091 -15.2854
  1260 1250.74 14.2925 -12.2617
  1261 1289.04 19.1133 54.0831
  1262 1371.28 45.3264 -129.468
  1263 655.761 -20.7968 -40.3513
  1264 654.896 -30.2311 33.1469
  1265 664.485 -47.6056 29.1792
  1266 -19.3248 2.55902 11.9953
  1267 -17.4787 2.14778 -13.1825
  1268 645.311 -71.6716 -45.1914
  1269 659.534 -67.0656 -64.8158
  1270 524.247 3.61317 -8.91960
  1271 642.258 -72.8739 64.2760
  1272 687.642 -32.8997 -43.8169
  1273 16.4671 21.8391 5.10463
  1274 565.144 -10.3639 1.96792
  1275 565.177 -10.4268 -1.97300
  1276 680.733 -6.06284 10.1588
  1277 655.625 -11.9654 -6.65585
  1278 619.735 -67.6158 -26.3854
  1279 570.293 -30.4087 12.4559
  1280 567.591 -29.9590 -13.1572
  1281 663.485 -14.5062 25.1176
  1282 680.336 -25.2536 -51.9759
  1283 48.0833 33.1029 -26.7550
</Section>

newXOutput 92

<Section columns = "stress_xx | stress_yy | stress_xy">
  1 728.397 -0.412721 1.27331
  2 728.380 -0.395365 -1.27562
  3 423.625 -0.0519109 -0.456742
  4 -5.25266 -5.16606 -7.55922
  5 1256.55 536.163 414.422
  6 1245.39 554.033 -409.933
  7 -6.11084 -4.88161 8.08176
  8 423.508 -0.0531699 0.455797
  9 732.938 -1.33684 0.344346
  10 731.708 -2.06403 -0.463133
  11 730.570 -1.48944 1.35900
  12 729.379 -1.95137 0.195479
  13 726.756 -1.68405 2.13277
  14 724.322 -1.68006 1.44259
  15 718.158 -1.47422 3.11835
  16 708.901 -1.19164 4.64007
  17 700.757 -1.17698 5.26972
  18 688.284 -1.48046 6.48186
  19 670.526 -0.265895 9.72937
  20 654.134 -1.08226 9.37521
  21 634.909 -1.30921 13.3748
  22 607.201 0.906257 11.7608
  23 586.711 1.50897 14.0127
  24 559.931 2.45749 11.0626
  25 541.216 2.78947 11.2010
  26 514.128 3.71264 5.73890
  27 508.331 5.81356 6.19075
  28 504.799 4.87797 -1.84384
  29 509.520 3.01849 -3.98649
  30 518.259 2.79498 -4.90568
  31 538.576 3.42034 -9.75771
  32 558.325 2.70803 -12.2469
  33 586.913 0.745242 -14.4628
  34 609.713 -0.235194 -13.0194
  35 633.704 -1.02916 -12.6515
  36 655.257 -0.859382 -8.84896
  37 673.473 -0.947106 -7.46893
  38 688.255 -1.46213 -6.17396
  39 701.288 -1.10619 -4.16994
  40 709.153 -1.37441 -4.36431
  41 716.770 -1.58257 -3.16175
  42 723.752 -1.83557 -1.22617
  43 727.255 -1.50812 -1.55361
  44 728.846 -1.03124 -0.903037
  45 726.941 -0.728985 -0.829848
  46 732.321 -2.04589 0.348914
  47 733.104 -1.37804 -0.354138
  48 711.942 -1.05493 -0.789988
  49 697.814 -3.63328 -1.52920
  50 680.306 -5.18072 -0.843629
  51 658.790 -7.32552 -1.19846
  52 638.175 -7.89751 -1.41120
  53 616.017 -9.51056 -1.37079
  54 596.262 -10.3590 -0.643135
  55 578.925 -11.2869 -0.0920219
  56 558.863 -9.28226 -0.0568002
  57 535.726 -8.51828 -0.314682
  58 513.474 -6.57705 0.0685566
  59 492.443 -4.04440 0.117246
  60 472.523 -2.77555 0.178003
  61 455.159 -1.28505 0.299607
  62 437.549 -0.238395 -0.509243
  63 423.743 0.619175 0.810037
  64 417.403 1.52404 0.603868
  65 421.228 0.0757450 1.32485
  66 416.001 -0.124209 1.62514
  67 410.937 -0.222733 2.01719
  68 404.186 0.0469724 2.57053
  69 395.698 0.0338083 3.19636
  70 389.026 -0.359629 5.98412
  71 371.485 0.535992 6.49977
  72 358.881 0.0157455 7.34266
  73 340.127 -0.255539 8.35833
  74 318.638 -0.465318 10.1439
  75 291.722 -0.0633876 12.3221
  76 258.919 0.186386 13.6560
  77 229.980 -0.193416 19.5600
  78 173.855 1.74980 18.6134
  79 134.878 1.50391 19.7412
  80 87.4845 -0.449438 22.1240
  81 47.4321 3.43761 23.3156
  82 1.47454 5.29155 14.6032
  83 -32.8014 5.41280 5.90728
  84 -33.9219 5.39395 -0.783067
  85 -34.3068 4.55925 -9.99381
  86 -20.3934 -1.17991 -9.79351
  87 -2.30342 -19.5726 -10.8843
  88 2.24940 -35.6103 -13.2501
  89 5.77498 -54.3005 -6.30221
  90 12.5372 -51.7638 3.00784
  91 26.0875 0.328049 37.3355
  92 75.4939 137.838 118.208
  93 419.528 432.551 374.838
  94 1528.58 232.251 251.124
  95 1386.71 32.9643 80.6601
  96 1297.17 13.9631 24.6865
  97 1264.25 12.0133 1.81221
  98 1282.22 15.7870 -21.6131
  99 1384.77 31.0771 -63.9829
  100 1609.79 112.051 -213.672
  101 251.554 447.684 -315.931
  102 56.4308 108.457 -99.3843
  103 28.6303 3.20191 -40.5057
  104 11.7965 -50.9728 -8.99376
  105 3.67388 -40.6390 7.09012
  106 4.36663 -45.0575 11.3669
  107 0.321557 -16.7770 12.0763
  108 -21.3268 -0.642304 9.22677
  109 -35.3811 3.42511 8.65042
  110 -35.7830 6.53250 0.958191
  111 -33.8013 5.30217 -5.57199
  112 -0.974784 5.42217 -13.7540
  113 45.3305 3.46594 -22.2721
  114 85.3511 -0.0735851 -21.7651
  115 132.658 1.62359 -19.7725
  116 171.840 1.79245 -18.7404
  117 228.421 -0.201428 -19.7058
  118 257.590 0.203432 -13.7738
  119 290.558 -0.0603060 -12.4627
  120 318.056 -0.522110 -10.2064
  121 339.313 -0.237981 -8.37296
  122 358.258 0.0378541 -7.40961
  123 370.970 0.530453 -6.56116
  124 388.647 -0.363718 -6.03598
  125 395.387 0.0311366 -3.22789
  126 403.942 0.0443786 -2.59630
  127 410.743 -0.227078 -2.03747
  128 415.843 -0.127940 -1.63919
  129 421.091 0.0726550 -1.33370
  130 417.277 1.52282 -0.607884
  131 423.623 0.618507 -0.812602
  132 437.435 -0.241801 0.508120
  133 455.053 -1.29366 -0.302612
  134 472.431 -2.79426 -0.181480
  135 492.372 -4.07033 -0.120558
  136 513.428 -6.61457 -0.0719423
  137 535.710 -8.56622 0.311926
  138 558.880 -9.33829 0.0536885
  139 578.968 -11.3508 0.0903722
  140 596.325 -10.4233 0.645065
  141 616.111 -9.56905 1.37743
  142 638.262 -7.93711 1.43509
  143 658.862 -7.36101 1.31584
  144 680.433 -4.93911 0.861579
  145 698.283 -3.55357 1.49443
  146 712.084 -1.16666 0.776811
  147 645.606 -60.7357 2.37733
  148 645.015 -59.9036 -2.15425
  149 683.338 97.8093 -29.8966
  150 722.136 42.5150 61.4699
  151 547.817 -53.3099 -125.109
  152 552.388 -53.1857 121.303
  153 539.115 -22.2308 16.8406
  154 539.138 -22.5206 -16.8432
  155 761.438 27.9964 -43.1948
  156 643.971 -23.5906 10.0094
  157 643.688 -23.0527 -9.89678
  158 831.792 183.274 5.25634
  159 662.637 -1.01067 -61.8347
  160 495.884 -38.0840 -56.6227
  161 495.950 -37.7887 56.1871
  162 662.808 -15.1766 55.0548
  163 635.450 46.7280 37.7040
  164 266.739 41.2002 -149.659
  165 294.319 39.1664 157.462
  166 798.815 10.8037 -4.60765
  167 662.734 -25.7607 -36.7266
  168 871.824 191.422 5.09238
  169 599.383 -17.0594 -2.21223
  170 599.270 -17.0218 2.25348
  171 666.619 -8.85229 -4.23531
  172 668.453 -8.04808 3.60998
  173 481.419 -6.36899 -9.42953
  174 481.493 -6.30760 9.39237
  175 708.753 -16.6000 159.323
  176 616.645 26.0946 -40.7197
  177 406.875 -30.0145 -89.0955
  178 408.047 -29.8040 88.5924
  179 458.717 -14.2410 -29.6302
  180 458.775 -14.0878 29.4482
  181 665.576 -17.8917 31.2897
  182 607.103 -41.4073 -6.16829
  183 605.129 -41.1000 7.02820
  184 684.093 -66.6068 -19.4090
  185 687.861 -63.4584 11.0334
  186 940.084 222.267 -41.5672
  187 696.183 111.078 27.8065
  188 694.537 42.6926 -63.1172
  189 705.185 -3.22365 -183.624
  190 685.945 -39.0681 -40.9435
  191 692.014 -28.0079 49.4792
  192 579.489 -65.6501 63.7742
  193 579.502 -65.1577 -63.6166
  194 625.522 8.26351 48.6263
  195 292.977 -7.69061 -109.592
  196 293.611 -8.24911 108.994
  197 1052.34 156.427 23.2859
  198 650.755 -38.9907 20.4855
  199 673.224 -12.9228 -19.8126
  200 542.573 -12.9173 -8.05873
  201 542.596 -12.8633 8.04007
  202 651.390 -8.55987 -42.7464
  203 738.918 108.215 -49.0186
  204 626.258 56.6257 -7.52318
  205 415.230 -13.9347 41.0023
  206 414.645 -13.9685 -41.2613
  207 681.140 -8.24410 10.2419
  208 670.232 12.6613 63.7490
  209 548.043 -39.0948 -29.3843
  210 544.729 -36.9944 29.8441
  211 784.077 116.603 42.0268
  212 909.057 131.729 34.8230
  213 68.0005 51.3245 -45.8785
  214 63.0637 47.4364 39.2303
  215 381.842 111.328 258.522
  216 644.430 -42.9552 -14.2977
  217 683.218 -7.90470 -9.22639
  218 619.145 5.78546 -44.8335
  219 443.921 -3.95691 -13.2262
  220 444.067 -3.91418 13.1313
  221 583.734 -27.0843 -8.58616
  222 584.011 -27.2718 8.26704
  223 656.187 -8.98726 36.1191
  224 744.838 -42.7743 26.1789
  225 750.391 151.712 -13.8263
  226 588.575 -56.3836 -32.5532
  227 737.012 -12.8729 35.1521
  228 631.459 -11.2000 0.900178
  229 631.455 -11.1195 -0.899946
  230 584.606 -56.1269 33.5257
  231 666.218 -42.5784 32.6517
  232 917.494 127.588 -72.8788
  233 213.229 126.790 -191.364
  234 577.555 20.9380 9.86308
  235 674.124 59.4218 53.9358
  236 711.900 -5.11470 -53.7946
  237 667.478 -24.2588 -50.7266
  238 369.345 -11.2883 -50.9094
  239 370.508 -11.1268 50.7921
  240 667.964 -8.41537 -27.3890
  241 636.007 -16.5966 4.52019
  242 635.716 -16.5891 -4.30124
  243 143.540 12.1054 -71.7917
  244 145.490 10.5966 71.5173
  245 702.352 -61.7082 -62.3806
  246 693.966 -3.20729 1.11756
  247 694.581 -3.26028 -1.30620
  248 659.616 54.8441 -49.6637
  249 587.653 11.8892 29.6645
  250 1170.78 187.415 126.458
  251 1159.98 132.137 -78.2912
  252 861.833 183.524 1.46546
  253 539.194 -26.5034 165.001
  254 496.458 -17.8162 -172.189
  255 573.257 -11.7673 -3.35488
  256 573.214 -11.7042 3.33701
  257 483.516 -12.2377 18.7092
  258 483.491 -12.3962 -18.8448
  259 681.563 -7.89745 16.1864
  260 663.388 -47.4966 -25.5759
  261 447.392 -0.578119 -3.18658
  262 447.506 -0.566262 3.17136
  263 655.194 -26.9532 -20.8590
  264 291.515 -9.25120 -71.0321
  265 292.616 -9.27819 70.5840
  266 664.092 -29.1082 39.6648
  267 510.924 -54.2427 100.809
  268 512.067 -55.2054 -100.490
  269 585.093 23.0745 -13.8130
  270 505.247 -7.28748 -6.39055
  271 505.303 -7.24410 6.37151
  272 629.201 -1.40460 35.6058
  273 745.816 135.505 33.6960
  274 414.289 -4.59569 21.9297
  275 413.996 -4.63082 -22.0872
  276 679.743 -57.1536 14.9319
  277 629.190 -71.0006 -70.8731
  278 697.102 -4.04517 4.54027
  279 498.079 -28.5299 -39.1242
  280 497.329 -28.2292 39.0055
  281 841.401 101.341 230.835
  282 416.390 -33.8385 119.284
  283 666.708 93.3445 -3.15574
  284 826.466 93.9192 -21.5730
  285 630.137 -48.6682 2.09784
  286 629.927 -72.8982 64.5050
  287 417.499 -33.3262 -120.488
  288 80.3189 99.5930 92.9265
  289 655.309 -27.0265 21.2730
  290 850.058 114.110 13.6486
  291 701.884 -3.62232 -3.94044
  292 648.445 22.9953 -57.2149
  293 634.827 -36.0286 9.06181
  294 622.078 -52.3481 7.30930
  295 646.507 29.9228 55.2619
  296 676.695 -57.1269 -12.6574
  297 951.216 182.949 -18.7779
  298 634.666 -34.6525 -8.62108
  299 515.148 155.464 -312.602
  300 647.028 -68.7621 -19.4519
  301 642.639 -70.6683 26.6481
  302 480.333 -42.8197 -78.9542
  303 443.184 -1.40253 -6.85033
  304 443.317 -1.37752 6.80748
  305 480.590 -42.8717 78.5757
  306 686.813 -1.21157 -62.9076
  307 735.054 -30.4492 -20.1482
  308 568.671 -33.6503 -17.1938
  309 568.385 -33.7318 17.4741
  310 668.215 -57.5430 110.294
  311 672.994 -5.72720 20.7037
  312 805.433 6.89128 47.3330
  313 558.533 -19.3133 -9.80210
  314 558.584 -19.2642 9.76200
  315 513.073 -12.7564 -12.8222
  316 513.094 -12.6480 12.8106
  317 582.205 8.26677 -28.6656
  318 730.573 53.7032 -59.1837
  319 1105.63 301.600 -149.068
  320 662.550 -6.67433 -1.29042
  321 662.229 -6.59266 1.34299
  322 363.850 -1.76834 148.946
  323 509.668 -22.2658 -26.5826
  324 508.818 -22.2135 26.6576
  325 363.776 -2.67402 -148.373
  326 700.284 82.4754 -51.7792
  327 774.603 39.1348 40.1079
  328 667.627 -47.5668 -121.693
  329 621.260 -24.1896 2.51007
  330 620.677 -24.0379 -2.26745
  331 659.683 -14.3763 -9.35393
  332 629.551 -1.07581 -33.2669
  333 698.551 2.79908 60.9998
  334 692.262 -5.38541 -11.0058
  335 430.439 -25.2213 59.9263
  336 429.974 -25.3467 -60.3243
  337 653.875 -1.37747 58.9637
  338 417.649 -3.01703 -13.1543
  339 417.902 -2.98998 13.0550
  340 664.900 -15.9097 15.7980
  341 798.968 162.162 -22.1526
  342 659.456 -14.4602 9.76202
  343 707.698 88.5081 51.7461
  344 675.819 -12.7518 59.8923
  345 542.146 -9.89781 3.13266
  346 542.138 -9.94916 -3.14763
  347 643.453 -2.17211 -52.4516
  348 841.521 176.235 10.4876
  349 707.544 128.563 1.05948
  350 431.839 49.7636 -219.336
  351 50.7396 19.8416 -33.1696
  352 54.9731 21.5103 35.3905
  353 -0.551625 5.94281 11.5468
  354 1.78894 3.91567 -12.2015
  355 1193.32 82.9882 27.7158
  356 585.438 -46.9800 -20.7539
  357 665.291 -15.4162 -15.3894
  358 604.356 -11.0241 -0.0602036
  359 604.289 -10.9486 0.0543376
  360 651.475 72.0355 -26.9464
  361 553.921 -55.8309 52.5901
  362 51.8709 78.1716 -59.5732
  363 554.319 -55.7855 -53.4183
  364 659.385 75.0187 28.6524
  365 665.410 -18.2094 -29.6429
  366 703.320 -39.5796 -32.9946
  367 755.364 157.557 9.43743
  368 704.479 -44.3984 25.6287
  369 308.215 -7.21365 47.4072
  370 306.591 -7.06990 -47.6568
  371 178.140 3.83098 -67.1227
  372 179.711 3.19530 66.8456
  373 590.368 2.47167 28.8857
  374 1072.58 320.934 134.940
  375 685.570 -4.80549 -14.4861
  376 541.400 -44.8329 -40.6561
  377 541.053 -44.7543 40.6084
  378 662.752 -15.6183 -38.6180
  379 746.248 -35.9908 -4.55926
  380 585.418 -46.9526 21.2586
  381 812.173 9.22533 -78.0478
  382 481.465 -3.45764 -2.67772
  383 481.548 -3.43065 2.66482
  384 654.070 -3.96687 -25.1866
  385 367.173 -4.87365 -30.7839
  386 367.356 -5.04106 30.4477
  387 774.859 99.4858 -47.6032
  388 422.708 29.4315 204.493
  389 610.834 -31.9703 -1.40617
  390 611.409 -31.9261 1.38746
  391 719.085 120.846 -32.2889
  392 677.819 -20.3068 -56.1674
  393 674.251 -69.2727 63.7837
  394 571.367 -15.0522 -5.39370
  395 571.318 -14.9952 5.35804
  396 652.980 -50.5372 15.1774
  397 697.981 -3.80089 8.06894
  398 451.510 -15.5789 -36.7646
  399 451.694 -15.5921 36.4994
  400 667.453 22.5641 -63.0509
  401 626.751 -14.1495 1.23322
  402 626.715 -14.1902 -1.16645
  403 651.648 -7.80685 47.6826
  404 614.321 45.3080 13.1620
  405 672.077 -28.7069 48.2686
  406 959.968 199.333 40.4637
  407 335.799 -17.9240 -95.4984
  408 336.659 -17.9211 94.8538
  409 152.073 79.4970 -118.124
  410 710.230 -2.69855 1.95207
  411 382.911 -2.84630 -19.5351
  412 383.362 -2.78623 19.3924
  413 663.091 -17.6369 37.6182
  414 602.104 -65.1145 37.3684
  415 674.290 -9.19110 6.56490
  416 693.221 35.1585 64.9952
  417 158.656 84.6447 122.525
  418 602.923 -64.7018 -34.8066
  419 622.444 -57.6798 -11.8052
  420 216.971 -4.29363 -60.3176
  421 218.337 -4.43632 59.9464
  422 480.716 -39.2577 -143.809
  423 711.713 -10.8785 52.1822
  424 479.184 -39.7496 142.658
  425 659.160 -37.3108 -29.3565
  426 621.931 42.5157 -28.6098
  427 659.176 -28.9068 28.2529
  428 702.161 -3.75310 -5.16532
  429 23.8096 26.9618 14.5505
  430 148.350 176.091 172.306
  431 640.201 -2.31255 24.5527
  432 549.264 8.12391 12.6801
  433 557.566 9.75406 -17.1279
  434 475.819 -7.22731 -13.2102
  435 475.886 -7.14030 13.1429
  436 649.829 -50.4874 -13.4364
  437 659.325 -13.0866 -53.0262
  438 551.787 11.0538 -4.64714
  439 958.435 229.563 56.7223
  440 142.467 45.0785 -88.9612
  441 156.205 41.3339 94.5211
  442 610.266 -21.8866 -0.528111
  443 610.056 -21.8557 0.669816
  444 811.181 176.560 -1.52448
  445 493.580 221.593 319.441
  446 771.823 -9.79302 -0.157101
  447 459.333 -23.0374 -49.8681
  448 459.562 -22.8965 49.5061
  449 464.741 -9.65660 20.1688
  450 464.640 -9.71951 -20.3177
  451 617.875 14.2351 -46.3119
  452 713.335 -1.55020 -1.23032
  453 602.990 28.3367 26.2236
  454 747.501 92.2072 53.7097
  455 623.986 -46.2197 -0.214229
  456 673.938 -8.80449 -6.40822
  457 704.729 -3.45530 4.75007
  458 711.155 -1.68277 0.695825
  459 711.614 -1.83252 -0.463339
  460 416.664 -0.560413 4.95727
  461 416.459 -0.569770 -4.99854
  462 680.002 -43.5982 35.5079
  463 623.472 25.0855 44.8758
  464 647.642 2.78503 -57.7377
  465 669.557 -14.7311 21.4685
  466 936.766 175.389 -199.588
  467 672.298 -37.6383 -41.1240
  468 10.4866 13.3824 7.75473
  469 10.2607 13.7563 -4.41301
  470 540.012 -29.7703 23.9141
  471 538.363 -29.3356 -23.5709
  472 819.203 20.9820 111.627
  473 233.985 224.042 -246.406
  474 665.379 -2.26698 18.6765
  475 742.463 -42.5514 -66.9048
  476 412.623 -22.9657 69.0823
  477 803.469 142.847 -32.0399
  478 662.796 -36.2282 33.9673
  479 562.394 -26.3116 -13.3032
  480 562.874 -25.8977 13.2823
  481 590.239 3.38826 -25.4650
  482 411.408 -22.8575 -69.4341
  483 603.366 0.553785 25.4713
  484 569.104 -65.3246 -91.4027
  485 567.734 -65.4235 91.8393
  486 682.320 -4.92585 16.0617
  487 630.951 59.8492 5.42585
  488 623.019 13.1093 221.409
  489 921.457 184.991 -1.14689
  490 640.484 -11.5092 2.19337
  491 640.504 -11.4721 -2.33443
  492 504.751 -8.40533 -8.75446
  493 504.801 -8.34312 8.73128
  494 269.596 11.2240 126.381
  495 666.092 -32.4274 -40.7209
  496 606.146 -13.5209 -1.11563
  497 606.087 -13.4849 1.12199
  498 530.662 -55.7352 74.6640
  499 274.527 14.9991 -129.454
  500 665.666 -54.5485 -15.5803
  501 13.1336 5.88880 2.28750
  502 595.048 31.4563 1.96751
  503 642.364 -8.24231 -0.648760
  504 642.363 -8.33657 0.618387
  505 530.857 -55.6122 -75.1975
  506 742.958 -37.1285 82.6174
  507 743.370 27.1250 53.5390
  508 683.097 -5.47915 -2.95540
  509 663.660 -55.2835 15.9442
  510 435.718 -0.217724 -0.961261
  511 435.835 -0.214516 0.955705
  512 664.580 -25.8195 -44.2488
  513 649.718 48.2679 48.7261
  514 734.643 18.2953 -53.0300
  515 433.044 -0.485135 -2.80823
  516 433.175 -0.477251 2.79335
  517 1242.24 179.860 -159.056
  518 674.654 80.1326 42.5474
  519 683.587 -5.14568 2.59923
  520 623.722 -58.9793 13.3418
  521 532.313 -16.9997 13.5711
  522 532.289 -17.1150 -13.5438
  523 720.016 -44.1840 9.69045
  524 696.129 -14.1879 -56.0410
  525 779.502 152.360 28.5013
  526 653.069 11.4210 59.9557
  527 651.776 -13.2661 5.30268
  528 632.067 -67.9949 -89.4177
  529 660.593 -16.6522 44.3235
  530 1225.11 56.6832 -22.1578
  531 714.314 -54.1356 7.97047
  532 678.889 -5.37513 -0.526655
  533 679.056 -5.65678 0.399536
  534 1237.88 82.9759 76.9751
  535 638.102 -0.0325944 51.0152
  536 874.321 151.045 -1.14614
  537 663.892 -18.6527 -20.4526
  538 318.721 -2.72381 -21.0098
  539 319.559 -2.58983 20.8190
  540 457.557 -42.6092 -100.088
  541 457.984 -41.9028 99.4066
  542 651.405 -12.7658 -5.28589
  543 710.905 26.0912 -62.1630
  544 625.741 -42.5234 2.64478
  545 677.406 77.5853 -43.9913
  546 675.701 -8.39944 21.5718
  547 835.285 45.5338 -22.1230
  548 583.479 -19.8570 -5.64049
  549 583.332 -19.8088 5.59847
  550 629.853 -29.8996 6.04238
  551 913.650 186.128 -27.5873
  552 667.026 29.2786 62.1738
  553 288.855 73.8548 185.651
  554 634.397 -37.8577 150.672
  555 824.683 47.5143 -167.681
  556 681.634 56.4240 -57.5306
  557 598.297 -52.2483 -131.106
  558 649.006 -71.4332 -31.9428
  559 675.430 -68.8689 -44.0007
  560 93.0520 124.811 -117.789
  561 679.616 -9.35832 -12.3695
  562 1011.53 195.886 -61.4576
  563 632.986 -28.7754 -7.35323
  564 637.564 -21.1929 6.13386
  565 636.997 -20.7454 -5.78596
  566 456.281 -2.22330 -6.30085
  567 456.391 -2.19490 6.26898
  568 72.7265 6.42762 -38.0291
  569 75.9785 6.76301 38.8495
  570 341.013 -15.3078 -72.5754
  571 343.390 -15.3999 72.5255
  572 646.474 -35.3270 -16.9390
  573 656.105 -71.7381 34.1215
  574 674.251 -64.4165 -3.92185
  575 561.546 -9.87136 -2.61872
  576 561.525 -9.81262 2.60776
  577 529.125 -55.8567 -112.011
  578 587.432 -48.6885 138.286
  579 517.087 -52.5939 112.528
  580 666.931 -14.9786 -56.7515
  581 432.585 -6.59331 22.2503
  582 432.379 -6.65772 -22.4018
  583 641.334 35.8523 -49.0704
  584 640.534 -1.14571 -22.2734
  585 793.874 170.188 -12.2412
  586 527.754 -7.64000 -2.38798
  587 527.780 -7.59715 2.37924
  588 676.612 -2.17477 -12.1759
  589 479.577 -15.3339 -25.2387
  590 479.617 -15.2925 25.0549
  591 386.934 16.7592 176.591
  592 658.589 -30.6759 -28.4850
  593 375.807 -20.4465 127.226
  594 647.287 -33.8280 17.4762
  595 678.200 -10.2846 13.7933
  596 668.617 -7.00314 -2.48647
  597 486.270 -5.51212 -6.05368
  598 486.345 -5.47136 6.03080
  599 762.379 150.835 -26.2156
  600 375.525 -19.7641 -127.626
  601 645.056 -28.3163 -13.5281
  602 586.094 -11.0616 -1.57490
  603 586.042 -10.9931 1.56942
  604 1069.18 143.005 -26.0126
  605 404.202 -2.30449 12.1498
  606 403.884 -2.32572 -12.2446
  607 611.411 14.4986 42.3746
  608 847.181 75.0732 3.29546
  609 411.332 1.70113 -175.036
  610 219.147 4.64066 -96.9900
  611 220.769 3.51510 96.4887
  612 518.838 -29.3517 31.9514
  613 523.795 -30.2194 -31.2172
  614 862.388 174.872 4.64237
  615 666.158 -7.22589 2.15096
  616 587.963 17.2301 -25.7312
  617 721.140 128.525 25.5634
  618 718.950 133.291 -17.0310
  619 590.726 -32.4115 -8.81853
  620 594.924 -31.7342 6.78075
  621 420.641 93.1746 -249.369
  622 514.540 -16.8583 -18.1476
  623 514.600 -16.6803 18.1039
  624 1238.37 254.360 191.758
  625 665.320 -22.0783 48.1993
  626 394.004 -13.1851 -46.4202
  627 999.450 251.719 176.312
  628 394.850 -13.1228 46.2823
  629 628.598 -23.4915 -174.623
  630 463.997 -1.89631 -2.31364
  631 464.096 -1.88037 2.30474
  632 569.437 5.51070 22.4850
  633 268.499 -3.72343 -41.5690
  634 269.757 -3.73472 41.2856
  635 583.440 -40.7865 16.6771
  636 609.765 -48.5378 -8.82326
  637 708.786 -1.88769 -4.51276
  638 423.228 -0.521889 3.73964
  639 423.060 -0.532228 -3.76967
  640 553.859 -12.2803 -4.41535
  641 553.851 -12.2239 4.39261
  642 625.164 -69.8338 90.1095
  643 722.221 80.5846 -56.4196
  644 490.314 -21.9362 -32.4376
  645 490.022 -21.5790 32.2351
  646 573.358 -40.6012 -21.2578
  647 890.405 192.373 11.3495
  648 670.503 -65.2167 7.42543
  649 588.112 -14.2102 -3.19330
  650 588.037 -14.1553 3.18894
  651 797.860 88.5514 37.0777
  652 673.133 -10.2630 -23.4179
  653 606.442 -0.533953 -20.6964
  654 288.267 -9.90229 -91.7442
  655 289.030 -10.1454 91.0777
  656 571.426 -48.6629 -32.0323
  657 849.083 184.255 -0.228049
  658 666.704 90.0535 -19.1727
  659 453.539 -3.67233 -11.3806
  660 453.656 -3.62306 11.3084
  661 617.035 -17.7883 -0.127343
  662 617.149 -17.7921 0.238575
  663 1118.09 145.322 64.4273
  664 716.483 -2.35189 1.06459
  665 697.759 -3.15275 8.01348
  666 695.593 -3.14190 -9.59801
  667 663.072 -62.0035 2.39666
  668 501.277 -5.41856 -3.02035
  669 501.338 -5.38501 3.01019
  670 713.732 113.646 39.6981
  671 904.034 199.883 -18.7034
  672 506.748 -36.6617 -45.9457
  673 506.668 -36.3297 45.7555
  674 624.129 -64.1946 -19.4214
  675 662.912 39.5784 -58.6718
  676 773.372 2.73264 16.4984
  677 527.859 -9.43552 -6.38632
  678 527.889 -9.38453 6.36727
  679 456.582 -39.5765 -90.3060
  680 657.029 -63.7650 3.43105
  681 550.105 -60.9331 82.3900
  682 267.663 83.3991 -179.449
  683 517.200 -47.2278 63.5753
  684 624.370 0.189803 18.9567
  685 457.037 -39.1448 89.7679
  686 644.707 -28.8261 13.6940
  687 517.283 -47.0086 -64.0799
  688 541.097 7.56096 4.74721
  689 419.848 -10.5570 33.2582
  690 419.502 -10.5585 -33.4505
  691 550.251 -62.5029 -83.2608
  692 675.765 -44.8570 -34.2417
  693 621.343 -9.34787 -0.122626
  694 621.440 -9.42966 0.124005
  695 689.653 -44.3498 33.2180
  696 628.565 -65.6625 22.0751
  697 760.808 70.1518 51.7413
  698 689.056 -13.1858 58.3987
  699 663.142 -24.2323 34.5156
  700 641.203 53.0530 -37.2257
  701 762.054 127.624 41.2698
  702 659.695 -9.33606 -34.8722
  703 654.607 -22.2279 16.0546
  704 683.704 106.452 10.3060
  705 667.127 -11.7040 29.7470
  706 214.750 147.513 188.741
  707 619.825 -71.4897 -54.6858
  708 717.398 12.9252 58.6372
  709 722.030 -22.4807 -38.5494
  710 714.278 -1.36067 2.32482
  711 662.015 -23.2563 -26.4551
  712 620.888 -72.0373 50.2448
  713 1166.17 103.580 -17.1630
  714 388.708 -1.44689 12.6899
  715 388.295 -1.46158 -12.7901
  716 669.182 -12.8765 -11.4606
  717 718.109 -1.07297 -2.31612
  718 570.526 -49.4698 32.1849
  719 680.193 -25.6268 52.4625
  720 1008.98 251.392 -91.4075
  721 644.815 -46.8537 12.6821
  722 710.648 -47.1154 -15.4112
  723 654.807 -21.6690 -15.7809
  724 716.894 -1.68215 -0.582035
  725 666.838 -0.133550 62.4405
  726 32.6274 37.4649 44.1961
  727 737.392 -26.5642 -118.258
  728 806.471 49.7856 18.2380
  729 675.049 -69.3410 40.2373
  730 495.795 -11.2496 14.7534
  731 495.773 -11.3958 -14.8071
  732 608.648 337.538 -334.520
  733 689.828 -46.0005 -30.0787
  734 539.179 3.42252 -9.08924
  735 616.824 3.70345 41.0314
  736 667.580 -33.7445 41.2804
  737 639.855 -53.9245 2.89009
  738 659.886 -60.6395 -96.9223
  739 636.270 -50.3423 -4.35007
  740 744.117 -35.4643 1.93805
  741 686.471 -6.35776 6.52565
  742 619.026 -37.1100 0.573996
  743 1097.38 219.195 -119.407
  744 657.163 -18.2060 12.4209
  745 656.200 10.9427 -61.4786
  746 553.503 -5.69996 195.424
  747 700.301 56.2875 61.7394
  748 602.876 -47.1271 11.7235
  749 472.631 -36.3617 -66.3664
  750 472.725 -36.2826 65.8983
  751 646.464 72.8361 -8.61541
  752 653.191 -7.64498 54.2736
  753 658.704 -15.8694 -45.4922
  754 619.692 -37.9029 -0.723668
  755 599.948 -53.3746 20.8326
  756 688.662 112.860 -11.4707
  757 639.105 -55.3317 -0.386659
  758 640.885 -40.7078 12.6892
  759 647.209 -9.09838 1.58186
  760 647.554 -8.88321 -1.55769
  761 869.286 188.774 -0.816579
  762 708.092 -60.5234 -30.2310
  763 663.942 -20.8203 26.4829
  764 686.476 -6.36420 -5.83684
  765 699.365 4.54385 -61.6279
  766 789.192 42.9691 -29.5225
  767 409.348 -0.226114 -6.02456
  768 409.601 -0.221244 5.97529
  769 6.59112 -9.80446 -6.65733
  770 678.131 -1.01363 11.2290
  771 629.026 -0.725719 -45.0715
  772 646.813 -6.09098 39.1178
  773 577.097 77.2189 282.699
  774 735.203 149.379 -1.38363
  775 527.212 -36.7906 36.7815
  776 103.523 1.89174 -36.9299
  777 105.926 1.35763 37.3006
  778 641.872 -4.51402 -44.4061
  779 528.461 -37.1290 -36.8014
  780 682.565 -6.96377 4.70493
  781 365.529 -14.9867 61.8124
  782 362.639 -14.9243 -61.7798
  783 657.076 -17.7057 -12.0754
  784 435.128 -10.2260 -29.0749
  785 435.337 -10.1674 28.8601
  786 682.951 -7.03756 -15.8794
  787 532.311 -13.7081 -10.8898
  788 532.345 -13.6314 10.8962
  789 744.180 -4.48328 -37.9619
  790 675.596 -7.17315 -62.0632
  791 360.997 -2.07978 -16.0293
  792 361.600 -2.06000 15.8670
  793 24.4358 8.75185 -23.5676
  794 27.2610 9.25499 24.7158
  795 561.791 2.89446 -16.2975
  796 615.638 -69.1514 -42.1861
  797 -6.71033 -4.51046 11.9393
  798 -6.01182 -5.57576 -12.0461
  799 639.886 -13.4814 3.65188
  800 691.714 -54.3640 -13.2258
  801 720.029 106.238 -46.0808
  802 685.131 -6.31648 -4.50048
  803 1404.77 290.892 -263.477
  804 639.750 -13.4513 -3.59459
  805 953.772 179.630 17.2078
  806 687.359 20.0235 -64.9788
  807 754.462 57.3961 -53.4067
  808 141.653 -1.61425 -33.6986
  809 143.756 -1.79733 33.6495
  810 443.115 -5.86064 17.4715
  811 442.955 -5.90489 -17.5976
  812 427.404 -0.803700 3.31939
  813 427.260 -0.812701 -3.34014
  814 765.615 128.569 -40.6181
  815 467.905 -2.51615 -5.03812
  816 468.001 -2.48864 5.01714
  817 655.118 -6.57025 -56.7539
  818 917.117 104.581 94.4240
  819 597.648 13.9709 -35.7302
  820 219.163 -1.83550 35.6309
  821 217.640 -1.85339 -35.8758
  822 741.656 25.1207 205.863
  823 668.659 -12.9789 11.8251
  824 610.861 41.1301 -14.8555
  825 295.124 -0.321222 24.0015
  826 293.857 -0.191745 -24.1525
  827 434.318 -1.88374 -8.65645
  828 434.480 -1.85668 8.59301
  829 79.7903 70.1862 64.0444
  830 633.231 15.4772 52.5717
  831 700.787 102.490 -40.0849
  832 748.770 87.1404 -54.1716
  833 502.831 -18.1660 -23.2483
  834 502.587 -18.0517 23.2399
  835 777.719 163.590 17.8008
  836 665.812 -6.41905 -0.464915
  837 665.869 -6.37378 0.567685
  838 663.497 -20.3350 -35.1941
  839 560.850 -36.6735 23.2452
  840 612.181 -68.7412 42.2055
  841 711.484 -58.2393 64.8189
  842 557.121 -15.8521 -7.42823
  843 557.131 -15.8079 7.39411
  844 638.110 59.4426 24.0087
  845 602.423 8.71353 -38.4720
  846 166.556 212.693 196.064
  847 601.697 -52.9178 -19.4016
  848 604.145 -26.9333 -2.60987
  849 604.456 -27.0138 2.56624
  850 664.318 -9.91204 59.2104
  851 656.037 -43.3588 -23.2867
  852 589.556 -38.5638 -12.1334
  853 1281.67 41.4637 -61.6484
  854 561.429 -52.4402 42.4483
  855 560.930 -53.0871 -43.0542
  856 662.703 -8.15295 29.5621
  857 979.897 256.739 -68.6687
  858 528.932 -47.1788 -51.2833
  859 580.001 -64.9437 50.3836
  860 528.873 -46.6413 50.8843
  861 571.920 -22.6712 -9.01194
  862 571.928 -22.6144 8.96632
  863 90.9037 36.6173 55.3625
  864 711.588 53.2036 -61.8088
  865 550.773 -20.9758 -12.4737
  866 550.886 -20.7829 12.5102
  867 545.086 -8.82809 -1.54336
  868 545.088 -8.77723 1.53597
  869 594.147 -12.0876 -1.39941
  870 594.083 -12.0218 1.39199
  871 492.492 -9.02067 -12.6620
  872 492.547 -8.92767 12.6227
  873 552.344 -28.3406 -18.0913
  874 552.429 -28.1766 18.1726
  875 14.7651 0.753697 -10.2583
  876 819.284 154.078 25.9678
  877 705.913 -25.0409 -46.6328
  878 579.421 -63.9821 -50.8240
  879 624.256 -20.4459 2.31000
  880 624.002 -20.2602 -2.16520
  881 681.284 0.722227 63.4649
  882 730.839 -51.9945 -40.5556
  883 642.773 50.7170 -246.584
  884 307.009 -5.84339 124.198
  885 -6.12931 7.15519 -10.2598
  886 -4.81665 8.10237 11.1205
  887 90.5223 38.9268 -56.6022
  888 663.053 -19.6310 20.2334
  889 693.299 -5.17719 -8.36828
  890 625.199 -60.6493 109.618
  891 306.332 -5.58905 -124.635
  892 696.658 -57.5081 6.41288
  893 766.942 -20.2265 99.0988
  894 579.819 2.47988 17.2295
  895 655.712 62.4913 40.5799
  896 362.758 -20.1222 90.4852
  897 361.443 -20.2801 -91.0059
  898 433.973 -19.7580 -50.9488
  899 446.663 -22.8434 -157.351
  900 699.687 -16.6657 53.9886
  901 947.879 228.002 48.4860
  902 704.268 26.9721 63.0365
  903 665.488 -14.6005 -32.3937
  904 455.536 -20.4561 161.197
  905 841.803 156.623 -15.1738
  906 89.8036 74.9132 -78.1732
  907 622.801 -1.11778 -18.0820
  908 434.410 -19.6077 50.5603
  909 523.976 -11.0888 9.47412
  910 523.944 -11.1532 -9.48793
  911 656.925 -43.1183 24.2332
  912 676.942 -5.19170 1.56001
  913 501.670 4.09634 -194.408
  914 711.276 -1.89081 3.93033
  915 707.284 -1.59576 -5.20476
  916 550.510 5.08537 -15.0726
  917 687.810 -2.94616 -9.86435
  918 524.668 -23.7091 -22.1416
  919 525.010 -23.3786 22.2191
  920 -15.3468 6.85116 -8.57231
  921 -22.0537 4.14028 9.42854
  922 676.889 -4.87439 -1.64218
  923 238.284 -5.62094 84.0061
  924 237.065 -5.16611 -84.4303
  925 730.799 106.122 48.2142
  926 1253.27 22.8357 18.7534
  927 690.269 76.5573 52.3323
  928 767.283 -25.7943 35.7463
  929 675.124 -37.9255 41.0808
  930 837.866 175.026 -11.7253
  931 540.241 2.72364 11.3834
  932 648.736 -15.9302 -6.63975
  933 678.778 36.6057 -63.5043
  934 805.875 26.1805 -1.14422
  935 634.323 -39.2540 -8.92501
  936 342.061 -1.69060 -17.8557
  937 342.325 -1.62932 17.6268
  938 667.582 -16.2331 -24.4461
  939 25.2157 30.9791 9.76126
  940 641.140 -66.5393 -13.7193
  941 570.711 17.6730 -1.55060
  942 833.608 181.450 -7.73219
  943 138.369 102.438 -125.799
  944 646.814 -4.85018 -35.0492
  945 459.927 -7.05765 -16.4996
  946 460.029 -6.98034 16.3874
  947 4.82089 -17.2354 12.7550
  948 446.373 -32.3923 -73.0913
  949 653.671 -38.0741 -22.8434
  950 426.744 0.934423 -1.41130
  951 426.869 0.937656 1.40423
  952 666.708 80.8345 -32.2672
  953 699.259 -2.78613 -0.780123
  954 699.315 -2.80734 1.06016
  955 446.607 -32.3228 72.6638
  956 663.847 -1.12354 -13.6504
  957 755.820 5.76346 35.8046
  958 671.889 -10.2202 8.90300
  959 116.630 27.5660 -68.2690
  960 694.430 -4.83161 7.50916
  961 641.380 5.46531 55.9317
  962 676.136 93.2964 28.6637
  963 673.111 7.85224 -64.7029
  964 472.727 -24.3663 -44.3573
  965 719.916 -25.8466 36.8812
  966 473.041 -24.2912 43.9715
  967 24.3919 25.5076 -5.74657
  968 88.0451 13.6347 50.2037
  969 393.009 -6.41980 29.8489
  970 392.581 -6.41592 -29.9841
  971 649.202 -16.1914 7.11193
  972 704.561 121.563 15.5432
  973 361.128 31.9335 -185.270
  974 588.596 -36.3241 10.9732
  975 552.811 -57.3154 -61.7946
  976 798.820 152.468 29.3219
  977 616.916 -11.3648 -0.393705
  978 616.887 -11.3136 0.386013
  979 672.251 -13.0739 -17.0272
  980 632.626 55.0279 -22.1304
  981 1344.57 412.844 276.556
  982 141.514 7.05788 -64.3743
  983 143.350 5.84230 64.4794
  984 10.5717 -7.23477 6.43831
  985 633.695 35.5743 45.4295
  986 552.777 -57.6867 61.3935
  987 679.938 -32.4186 -47.7238
  988 738.878 60.4089 59.4518
  989 703.808 -56.8336 -77.4508
  990 1022.28 214.488 75.9752
  991 606.635 -10.2340 -0.712321
  992 606.560 -10.1626 0.711231
  993 705.103 -29.1202 43.7865
  994 50.7771 96.4379 92.1648
  995 334.597 -6.56855 42.5279
  996 333.687 -6.48194 -42.9147
  997 393.596 -18.4308 58.5144
  998 392.344 -18.1284 -58.6863
  999 441.097 -17.3448 42.4950
  1000 482.200 -3.39438 -2.21544
  1001 482.282 -3.37162 2.20833
  1002 1123.38 377.107 -245.249
  1003 1039.48 261.531 114.630
  1004 440.751 -17.4192 -42.7961
  1005 725.800 -3.51251 48.6553
  1006 658.677 68.4229 -38.9340
  1007 465.698 -40.5661 130.719
  1008 592.154 -70.0961 -73.6107
  1009 675.648 -5.88010 -19.5572
  1010 312.689 20.0493 151.800
  1011 400.724 -30.4597 104.326
  1012 608.618 31.8138 -28.6456
  1013 684.368 -13.7662 -59.2990
  1014 829.297 376.007 377.549
  1015 578.519 18.3354 20.5606
  1016 771.125 163.929 -2.20479
  1017 559.945 23.1986 -220.205
  1018 577.369 -60.2379 -43.9134
  1019 718.203 -1.19719 -1.85482
  1020 702.016 64.4412 -60.0683
  1021 427.525 -2.39254 10.9817
  1022 427.328 -2.41606 -11.0656
  1023 16.5132 16.9782 -26.8428
  1024 473.660 -20.6934 -37.1242
  1025 400.217 -30.8425 -105.021
  1026 473.364 -20.6636 36.7789
  1027 669.825 -20.6289 54.9020
  1028 602.471 -36.9670 -5.95829
  1029 636.822 12.0257 -54.3587
  1030 655.793 81.8303 11.3764
  1031 862.241 58.1156 45.0601
  1032 661.591 -50.5027 22.2155
  1033 428.837 -33.5419 -79.9685
  1034 632.365 22.8105 -51.1230
  1035 469.337 -40.0716 -131.287
  1036 887.588 190.033 -5.81284
  1037 617.192 41.0427 26.0593
  1038 760.598 -3.87330 -24.8211
  1039 580.881 -60.3016 40.9767
  1040 663.262 -21.3615 41.8546
  1041 657.904 -35.0286 27.9801
  1042 654.270 -33.2129 23.7532
  1043 802.801 103.242 -38.5751
  1044 656.323 -10.7695 43.6298
  1045 591.398 -70.2884 72.4829
  1046 631.164 -26.0838 5.51897
  1047 429.113 -33.6225 79.6032
  1048 595.117 -43.3530 -13.0447
  1049 354.182 -17.4817 -111.519
  1050 497.051 -51.2634 89.4074
  1051 666.721 -4.82251 -23.0149
  1052 652.066 -7.42016 -50.0927
  1053 566.317 -44.0760 -27.9671
  1054 354.756 -17.9331 110.750
  1055 613.926 1.74068 -35.6468
  1056 460.418 -29.5642 -57.0457
  1057 813.811 171.578 17.5188
  1058 191.053 29.8251 -108.542
  1059 1332.07 93.8481 125.189
  1060 333.703 23.3159 -158.466
  1061 653.715 -54.3134 -10.8943
  1062 460.571 -29.3332 56.6453
  1063 608.327 6.88874 40.1008
  1064 352.132 -6.68343 35.2401
  1065 352.002 -6.84451 -35.5586
  1066 664.027 -18.6701 -51.0838
  1067 696.843 -4.21032 2.67193
  1068 688.309 -1.81427 9.90251
  1069 685.274 22.6596 64.9961
  1070 644.095 -4.82791 47.3316
  1071 493.687 53.8303 237.680
  1072 722.145 -0.834416 0.792980
  1073 692.430 93.4277 41.5874
  1074 594.025 9.10131 34.7225
  1075 695.401 -2.93636 9.39683
  1076 464.585 -4.45179 -9.38569
  1077 464.681 -4.40335 9.33867
  1078 301.133 -8.13718 -58.9630
  1079 302.152 -8.43427 58.6309
  1080 596.060 30.3967 14.6286
  1081 863.146 52.2015 -76.4204
  1082 793.590 3.17902 -131.174
  1083 650.115 -0.678842 -14.3111
  1084 497.135 -51.6314 -90.0314
  1085 567.521 -41.9308 25.4403
  1086 653.417 -1.58273 14.9109
  1087 678.584 -49.5954 -26.8375
  1088 442.072 -0.741869 5.47571
  1089 441.947 -0.756907 -5.50263
  1090 652.509 -55.8671 10.8701
  1091 621.498 -13.2017 0.0540959
  1092 621.394 -13.2196 -0.0238049
  1093 605.484 -60.6640 28.3836
  1094 768.832 -24.0357 -19.0559
  1095 370.749 -0.570228 -10.0098
  1096 371.275 -0.550289 9.91982
  1097 530.668 -34.3753 -150.480
  1098 569.493 -13.5016 4.48756
  1099 569.532 -13.5620 -4.51445
  1100 340.965 189.471 261.281
  1101 777.157 64.6695 -45.5241
  1102 122.333 57.5639 -84.5556
  1103 672.125 -10.7367 -8.57419
  1104 188.427 62.4161 -124.690
  1105 387.531 -23.6669 -75.6297
  1106 721.674 -1.15624 0.594672
  1107 721.878 -1.10739 -0.418083
  1108 664.538 -38.2469 -34.6848
  1109 588.021 -66.4358 -99.1352
  1110 191.251 25.3960 103.424
  1111 723.910 71.5545 57.4268
  1112 653.548 -7.42859 -0.603751
  1113 653.636 -7.42900 0.657567
  1114 707.472 -44.5344 120.921
  1115 743.624 147.340 21.5945
  1116 453.579 -10.1952 -23.3831
  1117 453.704 -10.1556 23.2493
  1118 339.452 37.6980 187.239
  1119 635.099 3.47581 -52.4765
  1120 204.738 64.2289 133.507
  1121 795.228 -11.6468 -48.6977
  1122 794.530 173.066 5.96812
  1123 551.093 -42.7662 32.8659
  1124 522.477 3.18996 -2.22428
  1125 688.436 -6.56297 11.5637
  1126 709.949 -1.21575 4.46332
  1127 172.755 0.204415 -29.9420
  1128 174.671 0.133884 29.7624
  1129 577.634 10.2600 -25.8251
  1130 585.826 -17.1757 -4.38939
  1131 585.714 -17.1139 4.37206
  1132 63.5613 115.739 -98.4030
  1133 98.6366 237.007 -188.780
  1134 592.653 -23.0373 4.72168
  1135 592.847 -23.0141 -4.76484
  1136 610.680 -15.0168 -0.223064
  1137 610.598 -14.9975 0.262522
  1138 165.806 105.152 135.354
  1139 492.870 -5.62157 -4.69536
  1140 492.940 -5.58583 4.67884
  1141 614.441 46.9653 -0.575225
  1142 750.592 106.783 -272.942
  1143 739.492 126.781 -37.1207
  1144 673.144 -26.0892 -51.2930
  1145 662.699 -33.3834 -35.7359
  1146 551.300 -43.1415 -33.3709
  1147 564.156 2.07530 15.9374
  1148 626.525 39.5325 -38.0364
  1149 618.596 33.7662 36.4478
  1150 630.777 -25.3592 -5.38159
  1151 603.919 -36.2542 5.47648
  1152 552.580 -34.9121 -25.2396
  1153 654.227 -3.97745 27.7158
  1154 1121.17 112.725 15.5029
  1155 658.008 -14.1805 50.3691
  1156 662.721 43.6054 56.4106
  1157 608.228 -59.5205 -22.7861
  1158 84.0330 12.4800 -48.5204
  1159 619.609 -28.7657 -2.47658
  1160 429.623 -0.474561 -0.316823
  1161 429.740 -0.472207 0.314587
  1162 747.213 -19.7567 19.9978
  1163 711.675 -60.0976 34.6589
  1164 1015.55 180.274 46.7980
  1165 263.404 -0.374419 -24.6491
  1166 264.718 -0.320950 24.4904
  1167 558.382 -11.1665 -3.37619
  1168 558.366 -11.1083 3.35835
  1169 621.178 -54.6011 -7.62423
  1170 526.682 2.67039 7.30877
  1171 635.633 -45.2858 7.78430
  1172 39.2215 46.5416 -25.9250
  1173 120.850 58.4514 82.5623
  1174 430.274 -24.2028 145.270
  1175 737.548 139.266 -26.5831
  1176 697.699 -2.12546 -7.44944
  1177 724.461 -1.35272 0.319097
  1178 725.038 -1.76402 -0.157288
  1179 444.556 -0.766283 -0.959065
  1180 444.669 -0.759525 0.953892
  1181 680.171 43.4667 63.5248
  1182 988.231 166.670 -3.59318
  1183 701.994 115.308 -27.9006
  1184 522.737 -39.1596 149.553
  1185 428.028 -23.3728 -144.965
  1186 479.160 -31.0781 -51.5080
  1187 649.786 -18.7177 9.48944
  1188 899.717 200.149 18.3889
  1189 479.239 -30.9148 51.1613
  1190 662.396 -12.3026 7.17660
  1191 603.910 23.0085 34.8810
  1192 658.771 20.5871 61.4464
  1193 923.683 205.706 29.9056
  1194 559.288 -14.3660 6.19836
  1195 559.302 -14.4214 -6.23005
  1196 671.567 -13.2517 17.7277
  1197 415.378 -4.02602 17.0634
  1198 415.106 -4.06440 -17.1919
  1199 656.335 -9.68414 -2.72343
  1200 274.125 165.512 -254.196
  1201 568.601 -32.4280 -160.273
  1202 545.119 -16.6251 -10.5624
  1203 545.186 -16.5634 10.5672
  1204 699.159 -3.91014 2.54419
  1205 665.759 -9.48952 5.68334
  1206 39.3514 51.8259 39.4673
  1207 718.570 -1.04706 2.20341
  1208 90.4082 118.368 117.279
  1209 651.406 -10.4645 -3.60619
  1210 -0.403433 -15.4110 -13.5980
  1211 467.362 -45.7258 -112.773
  1212 466.218 -44.6423 111.720
  1213 718.532 -1.48196 -2.48127
  1214 623.329 -32.9318 -3.33757
  1215 698.848 -3.63714 -2.50185
  1216 570.402 -18.2323 -6.66020
  1217 570.364 -18.1822 6.61055
  1218 655.937 -9.62908 2.51363
  1219 619.181 -28.1867 2.45201
  1220 597.365 -19.2964 2.71525
  1221 597.551 -19.3312 -2.65659
  1222 698.093 -3.74100 -2.01063
  1223 606.941 -64.3984 -111.335
  1224 684.529 -5.01133 -1.94060
  1225 653.977 -10.7249 4.00806
  1226 471.466 -4.65113 -7.09331
  1227 471.556 -4.60828 7.06186
  1228 520.841 -7.31257 -3.93406
  1229 520.879 -7.26961 3.91964
  1230 822.986 129.555 30.4383
  1231 693.154 -53.6986 17.4116
  1232 478.802 -2.77060 184.017
  1233 400.442 -0.501294 6.56386
  1234 400.131 -0.507471 -6.61820
  1235 661.104 -12.4577 37.4448
  1236 631.066 -10.1846 0.219782
  1237 631.080 -10.1565 -0.219850
  1238 726.641 140.058 12.5601
  1239 657.611 -69.1846 90.2977
  1240 398.877 -5.18584 23.6972
  1241 398.521 -5.22034 -23.8422
  1242 630.537 -15.8592 2.32283
  1243 630.396 -15.9760 -2.19919
  1244 649.418 -18.5190 -9.06992
  1245 607.439 0.198095 18.4128
  1246 1017.46 253.602 -90.9022
  1247 662.450 -24.6364 -31.7278
  1248 121.580 27.2617 70.0043
  1249 683.487 -36.7710 43.6823
  1250 563.837 12.9798 -14.1557
  1251 46.9972 32.1037 27.6055
  1252 886.943 104.396 -21.7759
  1253 668.652 -30.6792 -45.1560
  1254 566.235 8.59015 21.7212
  1255 390.081 -23.7218 75.5733
  1256 677.381 -52.7659 23.1575
  1257 966.214 195.637 74.8648
  1258 236.015 33.3905 130.822
  1259 679.533 -8.71241 -15.3716
  1260 1262.51 14.4345 -12.3699
  1261 1301.09 19.2863 54.5465
  1262 1383.98 45.7154 -130.598
  1263 662.497 -21.0179 -40.6313
  1264 661.603 -30.5485 33.3473
  1265 671.271 -48.0987 29.3109
  1266 -19.5167 2.59281 12.1080
  1267 -17.6496 2.17835 -13.3095
  1268 651.868 -72.4086 -45.7987
  1269 666.201 -67.7527 -65.6305
  1270 529.995 3.65918 -8.99701
  1271 648.776 -73.6214 65.0753
  1272 694.654 -33.2408 -44.0779
  1273 16.7054 22.0936 5.22276
  1274 571.046 -10.4720 1.99267
  1275 571.079 -10.5353 -1.99782
  1276 687.616 -6.13803 10.2099
  1277 662.287 -12.1027 -6.66615
  1278 626.082 -68.3076 -26.7858
  1279 576.230 -30.7143 12.6546
  1280 573.503 -30.2595 -13.3605
  1281 670.263 -14.6655 25.2780
  1282 687.295 -25.5169 -52.3265
  1283 48.6904 33.4698 -27.1270
</Section>

newXOutput 93

<Section columns = "stress_xx | stress_yy | stress_xy">
  1 735.510 -0.422510 1.28259
  2 735.493 -0.404863 -1.28488
  3 428.337 -0.0502929 -0.459948
  4 -5.30890 -5.22062 -7.64035
  5 1267.62 541.732 418.354
  6 1256.37 559.751 -413.734
  7 -6.17655 -4.93246 8.16951
  8 428.218 -0.0515587 0.459003
  9 740.084 -1.35246 0.345811
  10 738.848 -2.08717 -0.469741
  11 737.710 -1.50850 1.36629
  12 736.518 -1.97443 0.191809
  13 733.890 -1.70481 2.14401
  14 731.449 -1.70037 1.44730
  15 725.258 -1.49183 3.13619
  16 715.949 -1.20936 4.66770
  17 707.762 -1.19291 5.30365
  18 695.213 -1.49733 6.52619
  19 677.336 -0.272268 9.79925
  20 660.834 -1.09433 9.44545
  21 641.469 -1.32174 13.4788
  22 613.558 0.914452 11.8549
  23 592.910 1.52595 14.1271
  24 565.921 2.48333 11.1551
  25 547.056 2.82359 11.2957
  26 519.751 3.75396 5.78797
  27 513.906 5.87758 6.24465
  28 510.344 4.93422 -1.86029
  29 515.104 3.05752 -4.02041
  30 523.914 2.82827 -4.94778
  31 544.394 3.45877 -9.84080
  32 564.302 2.73861 -12.3490
  33 593.111 0.756865 -14.5821
  34 616.086 -0.235526 -13.1235
  35 640.254 -1.03876 -12.7496
  36 661.963 -0.869340 -8.91578
  37 680.304 -0.959070 -7.52314
  38 695.182 -1.47907 -6.21665
  39 708.295 -1.12028 -4.19574
  40 716.202 -1.39303 -4.38985
  41 723.860 -1.60192 -3.17958
  42 730.875 -1.85720 -1.22927
  43 734.392 -1.52645 -1.56060
  44 735.983 -1.04579 -0.905419
  45 734.056 -0.742046 -0.832187
  46 739.465 -2.06811 0.354529
  47 740.250 -1.39387 -0.355618
  48 718.940 -1.07594 -0.795757
  49 704.711 -3.68308 -1.54265
  50 687.072 -5.24897 -0.847905
  51 665.391 -7.41579 -1.20558
  52 644.615 -7.99255 -1.41782
  53 622.279 -9.61788 -1.37794
  54 602.363 -10.4716 -0.643702
  55 584.884 -11.4034 -0.0879814
  56 564.657 -9.37621 -0.0518650
  57 541.329 -8.60116 -0.313013
  58 518.894 -6.63780 0.0737130
  59 497.692 -4.07834 0.121675
  60 477.612 -2.79636 0.182323
  61 460.111 -1.29135 0.304311
  62 442.365 -0.236683 -0.512488
  63 428.453 0.626614 0.819203
  64 422.062 1.53815 0.611809
  65 425.906 0.0778668 1.34051
  66 420.628 -0.123470 1.64488
  67 415.509 -0.222835 2.04151
  68 408.689 0.0493402 2.60042
  69 400.113 0.0353865 3.23274
  70 393.363 -0.360327 6.04882
  71 375.650 0.541857 6.56937
  72 362.916 0.0170717 7.41930
  73 343.969 -0.256551 8.44620
  74 322.261 -0.468126 10.2500
  75 295.069 -0.0625937 12.4511
  76 261.931 0.189134 13.8006
  77 232.682 -0.193023 19.7683
  78 175.980 1.76707 18.8152
  79 136.584 1.51870 19.9560
  80 88.6658 -0.456425 22.3703
  81 48.1542 3.47080 23.5824
  82 1.66134 5.34618 14.7841
  83 -33.0331 5.46950 5.99645
  84 -34.2148 5.45451 -0.763968
  85 -34.6518 4.61218 -10.0864
  86 -20.6036 -1.18729 -9.89160
  87 -2.32258 -19.7742 -10.9952
  88 2.28017 -35.9666 -13.3766
  89 5.84429 -54.7985 -6.33751
  90 12.6812 -52.1499 3.09318
  91 26.3766 0.650250 37.8122
  92 76.2767 139.755 119.537
  93 423.376 437.431 378.495
  94 1542.22 234.416 253.252
  95 1399.31 33.2651 81.3204
  96 1309.14 14.0976 24.8888
  97 1275.99 12.1327 1.82472
  98 1294.10 15.9392 -21.7963
  99 1397.38 31.3704 -64.5111
  100 1623.93 113.099 -215.425
  101 253.913 452.849 -319.064
  102 57.0138 110.178 -100.535
  103 28.9511 3.55621 -41.0465
  104 11.9336 -51.3312 -9.15571
  105 3.72444 -40.9946 7.12559
  106 4.42121 -45.5126 11.4723
  107 0.328072 -16.9464 12.1998
  108 -21.5476 -0.642905 9.31765
  109 -35.7365 3.46493 8.72888
  110 -36.0937 6.60528 0.940192
  111 -34.0386 5.35709 -5.65803
  112 -0.807812 5.47813 -13.9261
  113 46.0371 3.49937 -22.5281
  114 86.5170 -0.0766871 -22.0075
  115 134.347 1.63950 -19.9875
  116 173.950 1.81006 -18.9432
  117 231.112 -0.201117 -19.9152
  118 260.593 0.206345 -13.9193
  119 293.897 -0.0595296 -12.5929
  120 321.675 -0.525452 -10.3128
  121 343.149 -0.238779 -8.46081
  122 362.288 0.0393861 -7.48673
  123 375.131 0.536281 -6.63118
  124 392.982 -0.364441 -6.10103
  125 399.799 0.0326970 -3.26447
  126 408.442 0.0467279 -2.62636
  127 415.314 -0.227212 -2.06192
  128 420.469 -0.127229 -1.65901
  129 425.768 0.0747565 -1.34940
  130 421.934 1.53692 -0.615846
  131 428.332 0.625945 -0.821782
  132 442.249 -0.240107 0.511364
  133 460.004 -1.30001 -0.307329
  134 477.519 -2.81516 -0.185815
  135 497.620 -4.10441 -0.125000
  136 518.848 -6.67553 -0.0771156
  137 541.313 -8.64938 0.310240
  138 564.673 -9.43259 0.0487254
  139 584.927 -11.4677 0.0863096
  140 602.426 -10.5363 0.645638
  141 622.374 -9.67678 1.38462
  142 644.702 -8.03239 1.44188
  143 665.464 -7.45150 1.32388
  144 687.200 -5.00494 0.865920
  145 705.184 -3.60257 1.50755
  146 719.084 -1.18879 0.782451
  147 652.132 -61.3517 2.54525
  148 651.535 -60.5108 -2.32005
  149 690.368 98.8093 -30.1254
  150 729.437 42.9464 61.8975
  151 553.374 -53.8647 -126.478
  152 557.994 -53.7379 122.636
  153 544.730 -22.4473 17.0618
  154 544.753 -22.7396 -17.0643
  155 769.045 28.2933 -43.4044
  156 650.483 -23.8384 10.0191
  157 650.197 -23.2954 -9.90683
  158 840.182 185.074 5.23854
  159 669.409 -1.01900 -62.3086
  160 501.072 -38.4611 -57.2526
  161 501.139 -38.1635 56.8135
  162 669.560 -15.3347 55.4593
  163 642.047 47.2226 38.0118
  164 269.603 41.6060 -151.306
  165 297.447 39.5553 159.189
  166 806.688 10.9516 -4.89286
  167 669.449 -26.0292 -36.9612
  168 880.529 193.337 5.32926
  169 605.511 -17.2362 -2.28188
  170 605.397 -17.1986 2.32332
  171 673.295 -8.95774 -4.23578
  172 675.141 -8.14581 3.60891
  173 486.568 -6.42462 -9.54278
  174 486.643 -6.36280 9.50540
  175 715.692 -16.7134 161.074
  176 623.079 26.3791 -41.0548
  177 411.204 -30.3230 -90.0505
  178 412.386 -30.1106 89.5437
  179 463.629 -14.3751 -29.9577
  180 463.688 -14.2207 29.7745
  181 672.311 -18.0820 31.4919
  182 613.295 -41.8232 -6.33157
  183 611.304 -41.5129 7.19780
  184 690.937 -67.2824 -19.7743
  185 694.747 -64.1021 11.3179
  186 949.368 224.489 -42.1705
  187 703.333 112.205 28.0154
  188 701.610 43.1304 -63.5891
  189 712.065 -3.19101 -185.609
  190 692.862 -39.4685 -41.1768
  191 698.996 -28.2970 49.7927
  192 585.392 -66.3160 64.5230
  193 585.403 -65.8180 -64.3643
  194 632.013 8.35649 49.0196
  195 296.169 -7.78606 -110.782
  196 296.807 -8.34923 110.180
  197 1062.56 157.922 23.5227
  198 657.341 -39.3902 20.5581
  199 680.001 -13.0652 -19.9274
  200 548.227 -13.0432 -8.17158
  201 548.251 -12.9890 8.15278
  202 658.055 -8.64953 -43.0685
  203 746.418 109.311 -49.3494
  204 632.788 57.2254 -7.58384
  205 419.727 -14.0680 41.4420
  206 419.136 -14.1019 -41.7028
  207 687.952 -8.34154 10.2868
  208 677.080 12.7932 64.2409
  209 553.714 -39.4804 -29.7538
  210 550.374 -37.3587 30.2147
  211 791.959 117.787 42.2401
  212 917.918 133.179 35.4696
  213 68.8062 51.8941 -46.4692
  214 63.8147 47.9626 39.7406
  215 385.721 112.508 261.253
  216 650.956 -43.3931 -14.3093
  217 690.042 -7.99779 -9.26621
  218 625.584 5.85368 -45.1975
  219 448.745 -3.98944 -13.3738
  220 448.893 -3.94640 13.2783
  221 589.728 -27.3550 -8.74147
  222 590.008 -27.5447 8.41935
  223 662.883 -9.08222 36.3855
  224 752.211 -43.1881 26.6432
  225 758.046 153.225 -13.9101
  226 594.586 -56.9486 -32.9843
  227 744.379 -13.0005 35.2938
  228 637.848 -11.3256 0.879986
  229 637.843 -11.2444 -0.879816
  230 590.583 -56.6896 33.9641
  231 672.952 -43.0155 32.8212
  232 926.359 129.030 -73.9039
  233 215.502 128.143 -193.473
  234 583.679 21.1753 9.94753
  235 681.044 60.0335 54.3570
  236 719.074 -5.16720 -54.1403
  237 674.255 -24.5100 -51.0817
  238 373.392 -11.3984 -51.4464
  239 374.565 -11.2355 51.3288
  240 674.732 -8.50859 -27.5789
  241 642.442 -16.7749 4.50269
  242 642.149 -16.7676 -4.28223
  243 145.207 12.2224 -72.6136
  244 147.173 10.6986 72.3353
  245 709.322 -62.3260 -63.1757
  246 700.839 -3.25458 1.11496
  247 701.457 -3.30820 -1.30614
  248 666.414 55.4147 -50.0584
  249 593.854 12.0282 29.9127
  250 1181.93 189.202 127.673
  251 1171.01 133.397 -79.0264
  252 870.487 185.319 1.53317
  253 544.639 -26.7828 166.777
  254 501.506 -18.0174 -174.034
  255 579.168 -11.8878 -3.41138
  256 579.126 -11.8244 3.39331
  257 488.663 -12.3518 18.9279
  258 488.638 -12.5116 -19.0644
  259 688.406 -7.98884 16.2821
  260 670.091 -47.9821 -25.6756
  261 452.277 -0.578619 -3.22401
  262 452.393 -0.566688 3.20871
  263 661.818 -27.2350 -20.9550
  264 294.759 -9.34766 -71.7918
  265 295.868 -9.37488 71.3402
  266 670.821 -29.4101 39.9199
  267 516.185 -54.8022 101.915
  268 517.336 -55.7746 -101.592
  269 591.278 23.3339 -13.9287
  270 510.598 -7.35393 -6.46803
  271 510.654 -7.31029 6.44887
  272 635.712 -1.41540 35.8876
  273 753.408 136.864 33.9156
  274 418.821 -4.63568 22.1652
  275 418.525 -4.67105 -22.3238
  276 686.579 -57.7367 14.9087
  277 635.515 -71.7239 -71.7206
  278 704.018 -4.09986 4.55473
  279 503.315 -28.8075 -39.5679
  280 502.559 -28.5043 39.4484
  281 849.389 102.595 233.296
  282 420.760 -34.1992 120.572
  283 673.597 94.3045 -3.17958
  284 834.658 94.9110 -21.5309
  285 636.531 -49.1603 1.99353
  286 636.266 -73.6400 65.2889
  287 421.877 -33.6824 -121.786
  288 81.2235 100.728 94.0349
  289 661.934 -27.3087 21.3718
  290 858.457 115.307 13.5178
  291 708.832 -3.67147 -3.95311
  292 655.128 23.2402 -57.6709
  293 641.265 -36.3966 9.04137
  294 628.397 -52.8762 7.50339
  295 653.179 30.2383 55.7054
  296 683.505 -57.7087 -12.6155
  297 960.624 184.718 -19.0173
  298 641.102 -35.0069 -8.60013
  299 520.166 157.145 -315.820
  300 653.549 -69.4592 -19.7943
  301 649.119 -71.3854 27.0593
  302 485.351 -43.2527 -79.8139
  303 448.022 -1.41140 -6.92917
  304 448.156 -1.38622 6.88606
  305 485.612 -43.3057 79.4324
  306 693.784 -1.22367 -63.3663
  307 742.383 -30.7515 -20.1441
  308 574.530 -33.9831 -17.4407
  309 574.242 -34.0655 17.7244
  310 674.850 -58.1149 111.552
  311 679.803 -5.79248 20.8466
  312 813.326 7.02901 48.0390
  313 564.317 -19.5038 -9.94841
  314 564.369 -19.4545 9.90797
  315 518.478 -12.8771 -12.9819
  316 518.499 -12.7679 12.9704
  317 588.361 8.36407 -28.9050
  318 737.953 54.2525 -59.5854
  319 1116.29 304.587 -150.654
  320 669.183 -6.75850 -1.28680
  321 668.860 -6.67593 1.33982
  322 367.681 -1.81063 150.558
  323 515.021 -22.4805 -26.8979
  324 514.165 -22.4281 26.9739
  325 367.606 -2.72712 -149.978
  326 707.440 83.3171 -52.1656
  327 782.328 39.5460 40.2780
  328 674.244 -48.0363 -123.065
  329 627.575 -24.4395 2.45718
  330 626.987 -24.2867 -2.21269
  331 666.318 -14.5355 -9.37790
  332 636.064 -1.08438 -33.5296
  333 705.622 2.82492 61.4299
  334 699.175 -5.45060 -11.0674
  335 435.036 -25.4705 60.5721
  336 434.567 -25.5969 -60.9731
  337 660.577 -1.38866 59.4215
  338 422.235 -3.04161 -13.2984
  339 422.490 -3.01437 13.1985
  340 671.594 -16.0831 15.8715
  341 807.036 163.781 -22.2321
  342 666.091 -14.6199 9.78864
  343 714.919 89.4064 52.1268
  344 682.686 -12.8843 60.3283
  345 547.801 -9.99470 3.17976
  346 547.793 -10.0463 -3.19485
  347 650.071 -2.19129 -52.8621
  348 849.962 177.993 10.4254
  349 714.807 129.861 1.06661
  350 436.236 50.2621 -221.665
  351 51.3955 20.0510 -33.5909
  352 55.6701 21.7381 35.8340
  353 -0.520710 6.02496 11.6318
  354 1.83695 3.98059 -12.2949
  355 1204.57 83.7766 27.9617
  356 591.434 -47.4488 -21.0586
  357 671.986 -15.5851 -15.4604
  358 610.523 -11.1438 -0.0790416
  359 610.456 -11.0677 0.0730708
  360 658.219 72.7844 -27.1617
  361 559.617 -56.3915 53.2092
  362 52.4765 79.1057 -60.3251
  363 560.015 -56.3449 -54.0446
  364 666.198 75.7961 28.8806
  365 672.141 -18.4033 -29.8306
  366 710.381 -39.9831 -33.1348
  367 763.068 159.125 9.49196
  368 711.542 -44.8513 25.6947
  369 311.665 -7.28418 47.9101
  370 310.028 -7.13892 -48.1611
  371 180.215 3.86504 -67.8643
  372 181.798 3.22353 67.5847
  373 596.589 2.50891 29.1245
  374 1082.91 324.192 136.506
  375 692.456 -4.86300 -14.5791
  376 547.000 -45.2769 -41.1417
  377 546.651 -45.1983 41.0935
  378 669.482 -15.7838 -38.8876
  379 753.650 -36.3442 -4.81249
  380 591.414 -47.4215 21.5686
  381 820.086 9.39123 -79.0531
  382 486.624 -3.48534 -2.71410
  383 486.708 -3.45820 2.70113
  384 660.756 -4.01081 -25.3747
  385 371.238 -4.91836 -31.1068
  386 371.422 -5.08757 30.7678
  387 782.646 100.501 -47.8681
  388 427.035 29.7245 206.680
  389 617.060 -32.2936 -1.50996
  390 617.641 -32.2492 1.49127
  391 726.439 122.067 -32.5156
  392 684.694 -20.5163 -56.5627
  393 680.978 -69.9718 64.5810
  394 577.262 -15.2039 -5.48687
  395 577.212 -15.1466 5.45084
  396 659.582 -51.0512 15.1837
  397 704.932 -3.84818 8.11150
  398 456.346 -15.7263 -37.1647
  399 456.532 -15.7400 36.8975
  400 674.288 22.8002 -63.5413
  401 633.105 -14.3034 1.19886
  402 633.069 -14.3447 -1.13175
  403 658.318 -7.88908 48.0445
  404 620.749 45.7948 13.2722
  405 678.887 -29.0040 48.5908
  406 969.451 201.273 40.9563
  407 339.437 -18.1149 -96.5253
  408 340.304 -18.1118 95.8755
  409 153.764 80.3400 -119.485
  410 717.229 -2.73714 1.95558
  411 387.152 -2.86942 -19.7410
  412 387.606 -2.80888 19.5973
  413 669.821 -17.8228 37.8760
  414 608.228 -65.7718 37.8610
  415 681.034 -9.29923 6.58040
  416 700.279 35.5180 65.4837
  417 160.404 85.5422 123.924
  418 609.054 -65.3539 -35.2731
  419 628.761 -58.2613 -12.0499
  420 219.469 -4.34157 -60.9727
  421 220.845 -4.48548 60.5984
  422 485.650 -39.6781 -145.361
  423 718.878 -10.9913 52.5102
  424 484.108 -40.1732 144.200
  425 665.830 -37.6942 -29.5083
  426 628.418 42.9722 -28.8445
  427 665.845 -29.2079 28.4089
  428 709.122 -3.80248 -5.18578
  429 24.0994 27.3216 14.7948
  430 149.941 178.091 174.237
  431 646.793 -2.33560 24.7418
  432 555.162 8.22395 12.7885
  433 563.530 9.87131 -17.2728
  434 480.914 -7.29095 -13.3648
  435 480.981 -7.20329 13.2970
  436 656.403 -51.0005 -13.4280
  437 666.051 -13.2232 -53.4206
  438 557.705 11.1875 -4.68634
  439 967.880 231.857 57.4758
  440 144.082 45.5445 -89.9959
  441 157.959 41.7603 95.6096
  442 616.486 -22.1117 -0.600676
  443 616.275 -22.0809 0.743392
  444 819.393 178.294 -1.52399
  445 498.300 224.104 322.724
  446 779.466 -9.86507 0.0648747
  447 464.212 -23.2623 -50.4110
  448 464.444 -23.1203 50.0463
  449 469.726 -9.74469 20.3970
  450 469.623 -9.80799 -20.5469
  451 624.311 14.3950 -46.6911
  452 720.355 -1.57571 -1.23070
  453 609.318 28.6490 26.4426
  454 755.054 93.1412 54.0608
  455 630.326 -46.6871 -0.100002
  456 680.677 -8.90907 -6.42416
  457 711.708 -3.50169 4.76871
  458 718.151 -1.71073 0.695827
  459 718.611 -1.86214 -0.461917
  460 421.273 -0.562767 5.01325
  461 421.065 -0.572191 -5.05479
  462 686.860 -44.0452 35.6909
  463 629.959 25.3578 45.2435
  464 654.299 2.81779 -58.1910
  465 676.305 -14.8920 21.5920
  466 945.620 177.430 -201.816
  467 679.097 -38.0251 -41.3722
  468 10.6787 13.5317 7.88786
  469 10.4468 13.9129 -4.51201
  470 545.624 -30.0620 24.2177
  471 543.961 -29.6223 -23.8693
  472 827.148 21.3122 112.961
  473 236.351 226.543 -249.025
  474 672.145 -2.29495 18.8118
  475 749.776 -42.9544 -67.7684
  476 417.042 -23.1947 69.8211
  477 811.541 144.293 -32.1600
  478 669.502 -36.6016 34.1607
  479 568.206 -26.5710 -13.4979
  480 568.690 -26.1535 13.4770
  481 596.459 3.42902 -25.6747
  482 415.817 -23.0850 -70.1751
  483 609.687 0.565464 25.6784
  484 574.887 -65.9942 -92.4325
  485 573.505 -66.0940 92.8764
  486 689.186 -4.98346 16.1665
  487 637.522 60.4812 5.47087
  488 629.149 13.2912 223.751
  489 930.625 186.783 -1.15777
  490 646.947 -11.6390 2.17638
  491 646.968 -11.6016 -2.31878
  492 510.093 -8.48233 -8.86396
  493 510.144 -8.41972 8.84066
  494 272.514 11.3206 127.774
  495 672.838 -32.7624 -40.9784
  496 612.329 -13.6647 -1.16018
  497 612.270 -13.6285 1.16646
  498 536.130 -56.3002 75.5015
  499 277.492 15.1320 -130.878
  500 672.380 -55.1046 -15.5760
  501 13.3016 6.02224 2.24744
  502 601.315 31.8035 1.98512
  503 648.838 -8.34083 -0.641012
  504 648.837 -8.43587 0.610344
  505 536.325 -56.1754 -76.0401
  506 750.270 -37.4687 83.6322
  507 750.829 27.4032 53.8631
  508 689.895 -5.55016 -2.95676
  509 670.354 -55.8463 15.9443
  510 440.517 -0.216085 -0.973514
  511 440.636 -0.212857 0.967929
  512 671.321 -26.0871 -44.5480
  513 656.430 48.7720 49.1169
  514 742.022 18.4850 -53.3547
  515 437.814 -0.486380 -2.84031
  516 437.945 -0.478443 2.82535
  517 1253.92 181.562 -160.518
  518 681.594 80.9544 42.8804
  519 690.388 -5.21399 2.59948
  520 630.050 -59.5747 13.6029
  521 537.876 -17.1641 13.7498
  522 537.851 -17.2801 -13.7222
  523 727.201 -44.6302 9.59050
  524 703.160 -14.3353 -56.4181
  525 787.396 153.881 28.6506
  526 659.778 11.5433 60.4279
  527 658.338 -13.4139 5.29940
  528 638.402 -68.6880 -90.4530
  529 667.314 -16.8275 44.6399
  530 1236.58 57.2251 -22.3596
  531 721.433 -54.6798 8.23880
  532 685.647 -5.44573 -0.521835
  533 685.814 -5.73004 0.393412
  534 1249.46 83.7521 77.6611
  535 644.683 -0.0287930 51.4179
  536 882.950 152.627 -0.881292
  537 670.588 -18.8527 -20.5603
  538 322.325 -2.74896 -21.2293
  539 323.169 -2.61368 21.0370
  540 462.337 -43.0496 -101.170
  541 462.769 -42.3361 100.483
  542 657.964 -12.9089 -5.28359
  543 718.099 26.3579 -62.6017
  544 632.098 -42.9540 2.55609
  545 684.369 78.3831 -44.3321
  546 682.514 -8.49520 21.7113
  547 843.474 46.0630 -22.6003
  548 589.473 -20.0573 -5.75116
  549 589.325 -20.0091 5.70861
  550 636.245 -30.2061 6.00620
  551 922.620 188.067 -28.1434
  552 673.863 29.5824 62.6611
  553 291.887 74.6220 187.674
  554 640.698 -38.2291 152.320
  555 832.606 48.1354 -169.543
  556 688.614 57.0052 -57.9739
  557 604.296 -52.7838 -132.549
  558 655.536 -72.1585 -32.4121
  559 682.178 -69.5668 -44.6022
  560 94.0724 126.269 -119.151
  561 686.423 -9.46724 -12.4289
  562 1021.43 197.789 -62.1399
  563 639.405 -29.0724 -7.33115
  564 644.016 -21.4160 6.11800
  565 643.444 -20.9645 -5.76778
  566 461.231 -2.23882 -6.37486
  567 461.341 -2.21023 6.34280
  568 73.6803 6.49036 -38.4721
  569 76.9603 6.82955 39.3008
  570 344.745 -15.4635 -73.3493
  571 347.143 -15.5568 73.3001
  572 653.019 -35.6907 -16.9874
  573 662.696 -72.4668 34.6159
  574 681.021 -65.0716 -4.12790
  575 567.362 -9.97152 -2.65609
  576 567.340 -9.91242 2.64503
  577 534.533 -56.4359 -113.239
  578 593.335 -49.1888 139.799
  579 522.387 -53.1406 113.759
  580 673.719 -15.1338 -57.1679
  581 437.284 -6.65191 22.4937
  582 437.077 -6.71681 -22.6462
  583 647.970 36.2331 -49.4672
  584 647.128 -1.15807 -22.4448
  585 801.921 171.871 -12.2907
  586 533.291 -7.71215 -2.41890
  587 533.318 -7.66906 2.41008
  588 683.456 -2.20025 -12.2618
  589 484.678 -15.4780 -25.5265
  590 484.719 -15.4365 25.3412
  591 390.953 16.9095 178.493
  592 665.253 -30.9938 -28.6403
  593 379.779 -20.6750 128.603
  594 653.839 -34.1761 17.5309
  595 685.001 -10.4021 13.8628
  596 675.301 -7.09046 -2.48383
  597 491.464 -5.55985 -6.12840
  598 491.540 -5.51884 6.10539
  599 770.127 152.341 -26.3669
  600 379.494 -19.9869 -129.005
  601 651.584 -28.6106 -13.5587
  602 592.112 -11.1778 -1.60199
  603 592.059 -11.1087 1.59643
  604 1079.52 144.372 -26.2749
  605 408.663 -2.32364 12.2801
  606 408.342 -2.34502 -12.3756
  607 617.798 14.6609 42.7240
  608 855.500 75.9036 3.60196
  609 415.584 1.69419 -176.916
  610 221.592 4.67354 -98.0642
  611 223.229 3.53801 97.5577
  612 524.262 -29.6379 32.3290
  613 529.261 -30.5141 -31.5896
  614 870.973 176.642 4.46679
  615 672.823 -7.31541 2.14565
  616 594.167 17.4271 -25.9463
  617 728.519 129.819 25.7432
  618 726.315 134.632 -17.1518
  619 596.778 -32.7358 -8.98766
  620 601.013 -32.0529 6.93045
  621 424.884 94.1495 -252.000
  622 519.949 -17.0188 -18.3690
  623 520.010 -16.8394 18.3251
  624 1250.06 256.783 193.581
  625 672.077 -22.3079 48.5353
  626 398.293 -13.3120 -46.9128
  627 1008.93 254.525 178.413
  628 399.147 -13.2494 46.7742
  629 634.828 -23.7127 -176.506
  630 469.017 -1.90830 -2.34064
  631 469.118 -1.89228 2.33169
  632 575.495 5.57805 22.6738
  633 271.560 -3.75973 -42.0086
  634 272.828 -3.77118 41.7232
  635 589.424 -41.1930 16.9338
  636 615.976 -49.0253 -9.02197
  637 715.809 -1.91345 -4.53474
  638 427.902 -0.524197 3.78339
  639 427.733 -0.534612 -3.81360
  640 559.609 -12.4023 -4.48537
  641 559.602 -12.3456 4.46242
  642 631.444 -70.5459 91.1480
  643 729.556 81.4048 -56.8203
  644 495.494 -22.1470 -32.8059
  645 495.201 -21.7866 32.6017
  646 579.253 -41.0038 -21.5549
  647 899.294 194.266 11.5833
  648 677.241 -65.8792 7.66270
  649 594.146 -14.3576 -3.26124
  650 594.070 -14.3024 3.25673
  651 805.818 89.4659 37.2101
  652 679.925 -10.3779 -23.5685
  653 612.786 -0.535103 -20.8636
  654 291.444 -10.0125 -92.7337
  655 292.211 -10.2576 92.0617
  656 577.292 -49.1478 -32.4445
  657 857.630 186.054 -0.242603
  658 673.589 90.9804 -19.3230
  659 458.451 -3.70198 -11.5103
  660 458.570 -3.65235 11.4376
  661 623.310 -17.9755 -0.0731360
  662 623.425 -17.9791 0.185080
  663 1128.81 146.704 65.0460
  664 723.521 -2.38330 1.06605
  665 704.719 -3.19238 8.05853
  666 702.543 -3.18009 -9.65688
  667 669.751 -62.6339 2.26198
  668 506.598 -5.46654 -3.05754
  669 506.659 -5.43280 3.04732
  670 721.028 114.794 39.9854
  671 913.030 201.854 -19.0300
  672 512.045 -37.0223 -46.4678
  673 511.965 -36.6877 46.2763
  674 630.455 -64.8427 -19.7464
  675 669.723 39.9904 -59.1350
  676 781.042 2.77826 16.4350
  677 533.395 -9.52531 -6.47182
  678 533.425 -9.47404 6.45264
  679 461.371 -39.9814 -91.2806
  680 663.652 -64.4125 3.61939
  681 555.733 -61.5554 83.3173
  682 270.492 84.2584 -181.410
  683 522.563 -47.7022 64.2903
  684 630.850 0.192188 19.1065
  685 461.831 -39.5456 90.7381
  686 651.232 -29.1249 13.7249
  687 522.646 -47.4803 -64.7991
  688 546.929 7.65347 4.78764
  689 424.406 -10.6555 33.6158
  690 424.057 -10.6568 -33.8094
  691 555.877 -63.1410 -84.1970
  692 682.585 -45.3165 -34.4162
  693 627.648 -9.45478 -0.111200
  694 627.746 -9.53722 0.112550
  695 696.594 -44.8042 33.3695
  696 634.928 -66.3268 22.4301
  697 768.449 70.8680 52.0441
  698 696.031 -13.3237 58.8072
  699 669.857 -24.4866 34.7344
  700 647.851 53.6114 -37.5266
  701 769.768 128.908 41.5192
  702 666.412 -9.43548 -35.1252
  703 661.216 -22.4630 16.1175
  704 690.746 107.537 10.3853
  705 673.884 -11.8307 29.9493
  706 217.016 149.105 190.815
  707 626.082 -72.2160 -55.3662
  708 724.634 13.0556 59.0300
  709 729.267 -22.7073 -38.7343
  710 721.316 -1.38239 2.33205
  711 668.706 -23.5019 -26.6064
  712 627.159 -72.7689 50.8800
  713 1177.23 104.571 -17.3229
  714 393.019 -1.45822 12.8255
  715 392.603 -1.47300 -12.9265
  716 675.899 -13.0203 -11.5060
  717 725.178 -1.09065 -2.32464
  718 576.385 -49.9632 32.5987
  719 687.078 -25.8920 52.8168
  720 1018.70 254.038 -92.6310
  721 651.344 -47.3303 12.6742
  722 717.757 -47.5926 -15.3737
  723 661.418 -21.8990 -15.8422
  724 723.932 -1.70750 -0.579879
  725 673.645 -0.135297 62.9156
  726 32.9995 38.0419 44.7634
  727 744.616 -26.7847 -119.624
  728 814.456 50.3246 18.1711
  729 681.800 -70.0423 40.8039
  730 501.053 -11.3541 14.9313
  731 501.030 -11.5014 -14.9854
  732 614.315 341.293 -337.927
  733 696.767 -46.4705 -30.2001
  734 544.994 3.47197 -9.16706
  735 623.245 3.74839 41.3638
  736 674.339 -34.0930 41.5386
  737 646.333 -54.4706 2.78287
  738 666.455 -61.2535 -98.0412
  739 642.719 -50.8525 -4.26346
  740 751.504 -35.8110 2.16381
  741 693.313 -6.43635 6.54742
  742 625.324 -37.4853 0.477963
  743 1107.99 221.314 -120.607
  744 663.787 -18.4022 12.4617
  745 662.934 11.0604 -61.9610
  746 559.044 -5.74578 197.513
  747 707.433 56.8612 62.2008
  748 609.028 -47.6002 11.9471
  749 477.599 -36.7247 -67.0894
  750 477.695 -36.6453 66.6176
  751 653.171 73.5962 -8.68385
  752 659.878 -7.72457 54.6869
  753 665.415 -16.0350 -45.8216
  754 625.996 -38.2870 -0.628148
  755 606.067 -53.9101 21.1506
  756 695.750 114.007 -11.5555
  757 645.577 -55.8925 -0.254374
  758 647.379 -41.1230 12.6922
  759 653.724 -9.20558 1.57143
  760 654.071 -8.98844 -1.54694
  761 877.995 190.626 -0.928297
  762 715.137 -61.1313 -30.7157
  763 670.650 -21.0410 26.6377
  764 693.314 -6.44331 -5.85365
  765 706.444 4.58958 -62.0636
  766 797.037 43.4313 -29.5793
  767 413.881 -0.225107 -6.09082
  768 414.137 -0.220203 6.04122
  769 6.67842 -9.85451 -6.68410
  770 684.988 -1.02855 11.3072
  771 635.537 -0.726692 -45.4302
  772 653.448 -6.15416 39.4161
  773 582.746 78.0996 285.639
  774 742.723 150.871 -1.39387
  775 532.698 -37.1524 37.2173
  776 104.838 1.90776 -37.3471
  777 107.260 1.36837 37.7215
  778 648.473 -4.55910 -44.7507
  779 533.957 -37.4935 -37.2380
  780 689.367 -7.04955 4.71408
  781 369.517 -15.1366 62.4685
  782 366.600 -15.0733 -62.4343
  783 663.697 -17.8970 -12.1145
  784 439.833 -10.3201 -29.3899
  785 440.044 -10.2611 29.1736
  786 689.805 -7.12061 -15.9747
  787 537.878 -13.8395 -11.0340
  788 537.912 -13.7624 11.0405
  789 751.616 -4.52063 -38.1275
  790 682.467 -7.24699 -62.5225
  791 365.030 -2.09809 -16.1979
  792 365.638 -2.07813 16.0343
  793 24.8451 8.84376 -23.8579
  794 27.6944 9.35261 25.0186
  795 567.790 2.92965 -16.4336
  796 621.872 -69.8516 -42.7366
  797 -6.77025 -4.54777 12.0540
  798 -6.06836 -5.62768 -12.1658
  799 646.349 -13.6305 3.63705
  800 698.655 -54.9171 -13.1788
  801 727.370 107.314 -46.4091
  802 691.952 -6.39528 -4.51003
  803 1417.56 293.705 -265.863
  804 646.211 -13.6003 -3.57966
  805 963.206 181.365 17.4260
  806 694.353 20.2295 -65.4650
  807 762.041 57.9861 -53.7300
  808 143.396 -1.63290 -34.0704
  809 145.516 -1.81773 34.0211
  810 447.920 -5.91257 17.6654
  811 447.758 -5.95712 -17.7923
  812 432.123 -0.808245 3.35710
  813 431.978 -0.817311 -3.37798
  814 773.359 129.866 -40.8568
  815 472.952 -2.53449 -5.09794
  816 473.049 -2.50680 5.07683
  817 661.823 -6.63638 -57.1883
  818 925.936 105.817 95.6508
  819 603.926 14.1312 -36.0269
  820 221.724 -1.85410 36.0140
  821 220.190 -1.87218 -36.2608
  822 748.834 25.4727 208.065
  823 675.374 -13.1239 11.8718
  824 617.258 41.5744 -14.9782
  825 298.482 -0.321658 24.2534
  826 297.205 -0.190863 -24.4055
  827 439.072 -1.89724 -8.75422
  828 439.236 -1.86998 8.69036
  829 80.7053 70.9746 64.8341
  830 639.788 15.6464 52.9969
  831 707.965 103.532 -40.3837
  832 756.333 88.0287 -54.5251
  833 508.134 -18.3391 -23.5221
  834 507.888 -18.2241 23.5140
  835 785.617 165.214 17.8897
  836 672.468 -6.50084 -0.462415
  837 672.526 -6.45504 0.566022
  838 670.220 -20.5504 -35.4262
  839 566.638 -37.0365 23.5547
  840 618.386 -69.4373 42.7529
  841 718.534 -58.8145 65.6456
  842 562.896 -16.0088 -7.54367
  843 562.906 -15.9645 7.50924
  844 644.739 60.0678 24.2048
  845 608.737 8.81542 -38.7891
  846 168.277 215.225 198.204
  847 607.831 -53.4483 -19.7060
  848 610.313 -27.2063 -2.71324
  849 610.628 -27.2882 2.66895
  850 671.093 -10.0150 59.6535
  851 662.674 -43.8027 -23.3756
  852 595.595 -38.9483 -12.3440
  853 1293.56 41.8485 -62.1851
  854 567.200 -52.9644 42.9642
  855 566.695 -53.6171 -43.5761
  856 669.443 -8.24085 29.7745
  857 989.503 259.336 -69.5836
  858 534.413 -47.6486 -51.8742
  859 585.922 -65.5991 50.9963
  860 534.355 -47.1064 51.4716
  861 577.815 -22.8966 -9.15921
  862 577.824 -22.8397 9.11311
  863 91.9703 37.0069 56.0397
  864 718.812 53.7472 -62.2556
  865 556.490 -21.1816 -12.6502
  866 556.604 -20.9873 12.6870
  867 550.766 -8.91500 -1.56571
  868 550.769 -8.86384 1.55826
  869 600.230 -12.2161 -1.43864
  870 600.166 -12.1498 1.43107
  871 497.728 -9.10270 -12.8128
  872 497.784 -9.00902 12.7733
  873 558.066 -28.6182 -18.3352
  874 558.153 -28.4532 18.4176
  875 14.9478 0.878731 -10.4457
  876 827.496 155.635 26.0194
  877 713.014 -25.2973 -46.9072
  878 585.334 -64.6274 -51.4403
  879 630.594 -20.6599 2.26448
  880 630.338 -20.4728 -2.11877
  881 688.211 0.728306 63.9355
  882 738.075 -52.5050 -41.1558
  883 649.051 51.3211 -249.176
  884 310.311 -5.92392 125.552
  885 -6.08630 7.23228 -10.4083
  886 -4.76344 8.19018 11.2774
  887 91.5888 39.3406 -57.2961
  888 669.741 -19.8410 20.3375
  889 700.207 -5.24212 -8.40811
  890 631.459 -61.2677 110.851
  891 309.628 -5.66825 -125.993
  892 703.633 -58.0935 6.29521
  893 774.444 -20.3716 100.284
  894 585.962 2.50911 17.3724
  895 662.485 63.1409 40.9049
  896 366.667 -20.3321 91.4528
  897 365.340 -20.4915 -91.9775
  898 438.624 -19.9502 -51.4965
  899 451.267 -23.0993 -159.046
  900 706.747 -16.8387 54.3437
  901 957.174 230.352 49.2422
  902 711.410 27.2457 63.4924
  903 672.233 -14.7570 -32.6139
  904 460.220 -20.6851 162.932
  905 850.200 158.220 -15.0968
  906 90.8307 75.7413 -79.1221
  907 629.269 -1.12671 -18.2249
  908 439.065 -19.7988 51.1050
  909 529.475 -11.1946 9.59738
  910 529.443 -11.2594 -9.61126
  911 663.570 -43.5595 24.3304
  912 683.688 -5.26123 1.55673
  913 506.740 4.12719 -196.479
  914 718.316 -1.91620 3.94841
  915 714.310 -1.61795 -5.23309
  916 556.418 5.14665 -15.2002
  917 694.724 -2.97891 -9.93117
  918 530.156 -23.9386 -22.4149
  919 530.501 -23.6054 22.4935
  920 -15.4677 6.93224 -8.63375
  921 -22.2481 4.18946 9.50470
  922 683.634 -4.94054 -1.64056
  923 240.955 -5.68831 84.9256
  924 239.726 -5.22950 -85.3533
  925 738.230 107.194 48.5477
  926 1264.93 23.0526 18.9101
  927 697.336 77.3390 52.7319
  928 774.848 -26.0207 36.3160
  929 681.948 -38.3157 41.3253
  930 846.274 176.775 -11.6722
  931 546.069 2.76193 11.4802
  932 655.278 -16.1046 -6.63945
  933 685.716 36.9840 -63.9937
  934 813.827 26.4920 -0.910139
  935 640.758 -39.6538 -8.89698
  936 345.902 -1.70495 -18.0418
  937 346.167 -1.64311 17.8110
  938 674.318 -16.4086 -24.5919
  939 25.5329 31.3498 9.94340
  940 647.616 -67.2133 -13.9998
  941 576.781 17.8781 -1.56372
  942 842.003 183.244 -7.69552
  943 139.897 103.562 -127.251
  944 653.448 -4.90068 -35.3166
  945 464.881 -7.12011 -16.6860
  946 464.985 -7.04224 16.5730
  947 4.89025 -17.3870 12.8590
  948 451.097 -32.7169 -73.8775
  949 660.285 -38.4655 -22.9372
  950 431.471 0.945168 -1.42799
  951 431.598 0.948416 1.42088
  952 673.585 81.6685 -32.5207
  953 706.166 -2.82807 -0.783339
  954 706.223 -2.84935 1.06546
  955 451.333 -32.6471 73.4468
  956 670.607 -1.13948 -13.7505
  957 763.360 5.83045 35.9409
  958 678.621 -10.3379 8.93242
  959 117.993 27.8482 -69.0723
  960 701.343 -4.89269 7.54313
  961 647.993 5.52860 56.3768
  962 683.101 94.2518 28.8878
  963 679.977 7.93479 -65.1963
  964 477.735 -24.6031 -44.8461
  965 727.130 -26.1110 37.0501
  966 478.053 -24.5278 44.4572
  967 24.7053 25.8156 -5.88284
  968 89.1222 13.7724 50.7981
  969 397.319 -6.47876 30.1659
  970 396.887 -6.47465 -30.3019
  971 655.748 -16.3677 7.11499
  972 711.794 122.793 15.6576
  973 364.886 32.2424 -187.268
  974 594.629 -36.6869 11.1687
  975 558.483 -57.8932 -62.5090
  976 806.871 153.996 29.4429
  977 623.187 -11.4894 -0.422648
  978 623.157 -11.4378 0.414812
  979 679.009 -13.2188 -17.1170
  980 639.207 55.6103 -22.3110
  981 1356.86 416.909 279.224
  982 143.189 7.12362 -65.1030
  983 145.038 5.89622 65.2085
  984 10.6980 -7.20075 6.57083
  985 640.270 35.9543 45.8002
  986 558.452 -58.2688 62.1042
  987 686.813 -32.7521 -48.0307
  988 746.330 61.0222 59.8483
  989 710.778 -57.3959 -78.4000
  990 1032.27 216.576 76.8086
  991 612.821 -10.3462 -0.727947
  992 612.745 -10.2743 0.726816
  993 712.192 -29.4195 44.0339
  994 51.3276 97.7339 93.2537
  995 338.321 -6.63169 42.9758
  996 337.404 -6.54420 -43.3652
  997 397.858 -18.6123 59.1381
  998 396.594 -18.3065 -59.3109
  999 445.826 -17.5123 42.9565
  1000 487.367 -3.42117 -2.24056
  1001 487.449 -3.39828 2.23341
  1002 1133.86 381.024 -247.870
  1003 1049.61 264.106 115.894
  1004 445.477 -17.5871 -43.2597
  1005 733.088 -3.54899 48.9383
  1006 665.477 69.1326 -39.2430
  1007 470.514 -40.9971 132.132
  1008 598.156 -70.8101 -74.4682
  1009 682.472 -5.94664 -19.6912
  1010 316.011 20.2326 153.457
  1011 404.970 -30.7795 105.450
  1012 614.992 32.1608 -28.8835
  1013 691.304 -13.9090 -59.7191
  1014 836.866 380.216 381.308
  1015 584.650 18.5436 20.7347
  1016 778.976 165.554 -2.21747
  1017 565.513 23.4562 -222.537
  1018 583.273 -60.8427 -44.4553
  1019 725.262 -1.21770 -1.86074
  1020 709.169 65.0997 -60.5158
  1021 432.211 -2.41090 11.1031
  1022 432.012 -2.43459 -11.1874
  1023 16.7119 17.3426 -27.2238
  1024 478.689 -20.8927 -37.5358
  1025 404.458 -31.1660 -106.150
  1026 478.391 -20.8630 37.1878
  1027 676.631 -20.8429 55.2929
  1028 608.624 -37.3385 -6.11055
  1029 643.403 12.1575 -54.7950
  1030 662.582 82.6772 11.4666
  1031 870.633 58.8119 45.7824
  1032 668.274 -51.0180 22.2821
  1033 433.386 -33.8816 -80.8289
  1034 638.920 23.0570 -51.5383
  1035 474.183 -40.4982 -132.703
  1036 896.467 191.884 -5.91582
  1037 623.640 41.4835 26.2756
  1038 768.165 -3.89647 -24.8475
  1039 586.819 -60.9079 41.4925
  1040 669.994 -21.5854 42.1402
  1041 664.561 -35.3893 28.1234
  1042 660.889 -33.5555 23.8632
  1043 810.819 104.304 -38.7255
  1044 663.020 -10.8833 43.9529
  1045 597.396 -71.0043 73.3286
  1046 637.565 -26.3541 5.48772
  1047 433.665 -33.9635 80.4613
  1048 601.201 -43.7854 -13.2729
  1049 357.973 -17.6746 -112.720
  1050 502.204 -51.7879 90.3871
  1051 673.490 -4.87796 -23.1792
  1052 658.739 -7.49717 -50.4743
  1053 572.145 -44.5139 -28.3322
  1054 358.552 -18.1299 111.944
  1055 620.324 1.76424 -35.9353
  1056 465.294 -29.8560 -57.6671
  1057 822.022 173.278 17.5664
  1058 193.181 30.1199 -109.765
  1059 1344.35 94.7082 126.280
  1060 337.225 23.5293 -160.187
  1061 660.321 -54.8656 -10.8539
  1062 465.449 -29.6231 57.2637
  1063 614.685 6.97060 40.4302
  1064 356.038 -6.74782 35.6117
  1065 355.909 -6.91036 -35.9327
  1066 670.781 -18.8639 -51.4522
  1067 703.747 -4.26661 2.67448
  1068 695.228 -1.83827 9.96813
  1069 692.253 22.8904 65.4860
  1070 650.713 -4.87690 47.6981
  1071 498.641 54.3980 240.186
  1072 729.230 -0.848461 0.792878
  1073 699.531 94.3796 41.9032
  1074 600.275 9.20789 35.0113
  1075 702.359 -2.97190 9.45659
  1076 469.595 -4.48822 -9.49454
  1077 469.692 -4.43943 9.44723
  1078 304.495 -8.21932 -59.5895
  1079 305.521 -8.51951 59.2553
  1080 602.335 30.7316 14.7513
  1081 871.506 52.8370 -77.4330
  1082 801.287 3.29972 -132.677
  1083 656.781 -0.688032 -14.4192
  1084 502.287 -52.1593 -91.0169
  1085 573.361 -42.3475 25.7799
  1086 660.107 -1.60083 15.0231
  1087 685.423 -50.1027 -26.9346
  1088 446.910 -0.744191 5.53691
  1089 446.784 -0.759332 -5.56400
  1090 659.104 -56.4351 10.8292
  1091 627.807 -13.3453 0.0189093
  1092 627.701 -13.3636 0.0114917
  1093 611.645 -61.2745 28.7850
  1094 776.418 -24.2534 -19.4648
  1095 374.891 -0.574696 -10.1154
  1096 375.421 -0.554599 10.0249
  1097 536.048 -34.7418 -152.105
  1098 575.372 -13.6383 4.56402
  1099 575.412 -13.6990 -4.59119
  1100 344.404 191.521 264.035
  1101 784.929 65.3400 -45.7525
  1102 123.724 58.1772 -85.5586
  1103 678.857 -10.8594 -8.60178
  1104 190.501 63.0573 -126.099
  1105 391.704 -23.9063 -76.4373
  1106 728.742 -1.17522 0.597514
  1107 728.946 -1.12589 -0.419586
  1108 671.262 -38.6405 -34.8800
  1109 593.961 -67.1171 -100.253
  1110 193.383 25.6472 104.589
  1111 731.254 72.2813 57.8313
  1112 660.109 -7.52016 -0.601613
  1113 660.198 -7.52047 0.655806
  1114 714.437 -44.9502 122.299
  1115 751.212 148.812 21.7347
  1116 458.462 -10.2890 -23.6430
  1117 458.588 -10.2492 23.5084
  1118 343.001 38.0689 189.263
  1119 641.660 3.51754 -52.8951
  1120 206.970 64.8929 135.004
  1121 803.022 -11.7156 -49.4076
  1122 802.590 174.770 5.99330
  1123 556.786 -43.1896 33.2745
  1124 528.161 3.23363 -2.24329
  1125 695.321 -6.63974 11.6265
  1126 716.993 -1.23469 4.48658
  1127 174.847 0.204866 -30.2658
  1128 176.777 0.133735 30.0848
  1129 583.755 10.3821 -26.0421
  1130 591.840 -17.3502 -4.48000
  1131 591.728 -17.2882 4.46240
  1132 64.2527 117.330 -99.5705
  1133 99.6572 239.965 -190.857
  1134 598.724 -23.2704 4.83257
  1135 598.919 -23.2464 -4.87638
  1136 616.901 -15.1754 -0.268746
  1137 616.818 -15.1562 0.308359
  1138 167.613 106.284 136.891
  1139 498.120 -5.67086 -4.75316
  1140 498.191 -5.63491 4.73655
  1141 620.870 47.4691 -0.579418
  1142 757.767 108.073 -275.786
  1143 747.022 128.059 -37.3649
  1144 679.968 -26.3584 -51.6443
  1145 669.409 -33.7286 -35.9504
  1146 556.993 -43.5682 -33.7850
  1147 570.177 2.10254 16.0712
  1148 633.045 39.9554 -38.3482
  1149 625.050 34.1305 36.7490
  1150 637.174 -25.6226 -5.34986
  1151 610.085 -36.6191 5.62312
  1152 558.296 -35.2554 -25.5632
  1153 660.915 -4.02103 27.9226
  1154 1131.90 113.796 15.6450
  1155 664.722 -14.3282 50.7416
  1156 669.534 44.0575 56.8565
  1157 614.414 -60.1186 -23.1332
  1158 85.0738 12.6050 -49.0969
  1159 625.912 -29.0602 -2.41384
  1160 434.378 -0.475558 -0.321244
  1161 434.497 -0.473190 0.318998
  1162 754.651 -19.9498 19.9837
  1163 718.751 -60.6985 35.1905
  1164 1025.49 182.008 47.3014
  1165 266.446 -0.375045 -24.9091
  1166 267.769 -0.321035 24.7493
  1167 564.171 -11.2784 -3.42907
  1168 564.155 -11.2198 3.41106
  1169 627.488 -55.1514 -7.82212
  1170 532.402 2.70579 7.37180
  1171 642.079 -45.7455 7.73616
  1172 39.6920 47.0985 -26.3025
  1173 122.218 59.0761 83.5392
  1174 434.742 -24.4726 146.835
  1175 745.076 140.662 -26.7600
  1176 704.675 -2.15092 -7.49751
  1177 731.550 -1.37000 0.318582
  1178 732.131 -1.78509 -0.155611
  1179 449.424 -0.768269 -0.970956
  1180 449.539 -0.761471 0.965757
  1181 687.125 43.9128 64.0155
  1182 997.942 168.263 -3.62881
  1183 709.197 116.476 -28.1066
  1184 528.052 -39.5746 151.169
  1185 432.474 -23.6357 -146.526
  1186 484.210 -31.3833 -52.0763
  1187 656.342 -18.9186 9.50560
  1188 908.637 202.182 18.7987
  1189 484.291 -31.2189 51.7270
  1190 669.047 -12.4418 7.18895
  1191 610.242 23.2632 35.1715
  1192 665.535 20.8038 61.9307
  1193 932.847 207.737 30.3647
  1194 565.082 -14.5088 6.29393
  1195 565.096 -14.5645 -6.32592
  1196 678.322 -13.3991 17.8222
  1197 419.931 -4.06082 17.2492
  1198 419.657 -4.09948 -17.3786
  1199 662.925 -9.79734 -2.71434
  1200 276.956 167.275 -256.910
  1201 574.312 -32.7625 -162.008
  1202 550.792 -16.7870 -10.7101
  1203 550.859 -16.7251 10.7151
  1204 706.075 -3.96212 2.55043
  1205 672.432 -9.60121 5.69165
  1206 39.8118 52.4832 39.9954
  1207 725.651 -1.06263 2.21154
  1208 91.4061 119.761 118.653
  1209 657.960 -10.5853 -3.59764
  1210 -0.398014 -15.5530 -13.7256
  1211 472.211 -46.2034 -113.993
  1212 471.057 -45.1091 112.931
  1213 725.613 -1.50128 -2.49161
  1214 629.665 -33.2673 -3.27426
  1215 705.765 -3.68686 -2.50499
  1216 576.286 -18.4146 -6.77490
  1217 576.249 -18.3644 6.72476
  1218 662.524 -9.74192 2.50372
  1219 625.479 -28.4749 2.38998
  1220 603.476 -19.4948 2.79826
  1221 603.663 -19.5296 -2.73929
  1222 705.000 -3.79193 -2.01223
  1223 613.037 -65.0573 -112.581
  1224 691.333 -5.07803 -1.93867
  1225 660.553 -10.8482 4.00292
  1226 476.537 -4.68941 -7.17833
  1227 476.628 -4.64626 7.14670
  1228 526.320 -7.38107 -3.98714
  1229 526.359 -7.33789 3.97262
  1230 831.196 130.880 30.5057
  1231 700.107 -54.2464 17.4055
  1232 483.676 -2.81092 185.988
  1233 404.887 -0.502974 6.63554
  1234 404.574 -0.509195 -6.69025
  1235 667.828 -12.5900 37.7127
  1236 637.449 -10.3006 0.201371
  1237 637.464 -10.2724 -0.201454
  1238 734.077 141.462 12.6468
  1239 664.173 -69.8829 91.3523
  1240 403.259 -5.23260 23.9502
  1241 402.900 -5.26731 -24.0960
  1242 636.924 -16.0296 2.29177
  1243 636.782 -16.1479 -2.16732
  1244 655.971 -18.7184 -9.08323
  1245 613.794 0.201861 18.5610
  1246 1027.41 256.103 -91.9343
  1247 669.155 -24.8946 -31.9226
  1248 122.992 27.5419 70.8239
  1249 690.387 -37.1492 43.9434
  1250 569.850 13.1331 -14.2752
  1251 47.5862 32.4555 27.9777
  1252 895.600 105.547 -22.2843
  1253 675.426 -30.9957 -45.4516
  1254 572.267 8.69388 21.9056
  1255 394.278 -23.9621 76.3819
  1256 684.202 -53.3044 23.2199
  1257 975.568 197.784 75.9470
  1258 238.579 33.7211 132.277
  1259 686.351 -8.81399 -15.4563
  1260 1274.24 14.5761 -12.4777
  1261 1313.10 19.4585 55.0075
  1262 1396.63 46.1023 -131.723
  1263 669.221 -21.2387 -40.9083
  1264 668.299 -30.8656 33.5447
  1265 678.045 -48.5910 29.4391
  1266 -19.7082 2.62672 12.2202
  1267 -17.8200 2.20907 -13.4361
  1268 658.413 -73.1444 -46.4078
  1269 672.854 -68.4386 -66.4468
  1270 535.740 3.70529 -9.07399
  1271 655.281 -74.3675 65.8759
  1272 701.653 -33.5813 -44.3347
  1273 16.9448 22.3483 5.34211
  1274 576.940 -10.5800 2.01747
  1275 576.973 -10.6437 -2.02268
  1276 694.485 -6.21333 10.2600
  1277 668.936 -12.2401 -6.67538
  1278 632.419 -68.9982 -27.1881
  1279 582.158 -31.0192 12.8544
  1280 579.407 -30.5594 -13.5647
  1281 677.029 -14.8248 25.4362
  1282 694.241 -25.7798 -52.6729
  1283 49.2989 33.8366 -27.5004
</Section>

newXOutput 94

<Section columns = "stress_xx | stress_yy | stress_xy">
  1 742.607 -0.432381 1.29178
  2 742.589 -0.414441 -1.29405
  3 433.048 -0.0486357 -0.463122
  4 -5.36511 -5.27514 -7.72144
  5 1278.65 547.293 422.275
  6 1267.31 565.461 -417.520
  7 -6.24222 -4.98325 8.25724
  8 432.928 -0.0499081 0.462177
  9 747.213 -1.36810 0.347238
  10 745.972 -2.11030 -0.476369
  11 744.833 -1.52760 1.37345
  12 743.640 -1.99750 0.188048
  13 741.007 -1.72560 2.15506
  14 738.561 -1.72070 1.45183
  15 732.343 -1.50946 3.15376
  16 722.983 -1.22716 4.69493
  17 714.753 -1.20889 5.33717
  18 702.129 -1.51421 6.57004
  19 684.134 -0.278705 9.86848
  20 667.525 -1.10640 9.51511
  21 648.019 -1.33424 13.5819
  22 619.909 0.922615 11.9483
  23 599.103 1.54294 14.2409
  24 571.907 2.50914 11.2471
  25 552.893 2.85777 11.3898
  26 525.373 3.79530 5.83677
  27 519.481 5.94161 6.29827
  28 515.888 4.99052 -1.87667
  29 520.686 3.09667 -4.05414
  30 529.567 2.86160 -4.98966
  31 550.209 3.49722 -9.92343
  32 570.275 2.76921 -12.4505
  33 599.304 0.768551 -14.7008
  34 622.452 -0.235817 -13.2269
  35 646.796 -1.04833 -12.8470
  36 668.659 -0.879308 -8.98206
  37 687.123 -0.971062 -7.57685
  38 702.096 -1.49603 -6.25890
  39 715.288 -1.13441 -4.22120
  40 723.236 -1.41171 -4.41502
  41 730.935 -1.62131 -3.19712
  42 737.981 -1.87884 -1.23221
  43 741.513 -1.54481 -1.56741
  44 743.103 -1.06039 -0.907678
  45 741.155 -0.755186 -0.834416
  46 746.592 -2.09032 0.360170
  47 747.379 -1.40971 -0.357060
  48 725.922 -1.09709 -0.801474
  49 711.593 -3.73301 -1.55603
  50 693.824 -5.31737 -0.852096
  51 671.980 -7.50617 -1.21259
  52 651.043 -8.08767 -1.42429
  53 628.531 -9.72520 -1.38495
  54 608.454 -10.5840 -0.644161
  55 590.834 -11.5197 -0.0838592
  56 570.443 -9.46997 -0.0468395
  57 546.926 -8.68381 -0.311259
  58 524.310 -6.69832 0.0789404
  59 502.938 -4.11208 0.126154
  60 482.698 -2.81698 0.186680
  61 465.061 -1.29750 0.309036
  62 447.180 -0.234894 -0.515693
  63 433.163 0.634063 0.828368
  64 426.721 1.55220 0.619769
  65 430.585 0.0800118 1.35617
  66 425.255 -0.122692 1.66464
  67 420.082 -0.222893 2.06586
  68 413.191 0.0517413 2.63034
  69 404.528 0.0369870 3.26912
  70 397.701 -0.360965 6.11347
  71 379.815 0.547721 6.63891
  72 366.951 0.0184202 7.49583
  73 347.813 -0.257527 8.53397
  74 325.886 -0.470887 10.3559
  75 298.419 -0.0617685 12.5800
  76 264.946 0.191898 13.9451
  77 235.388 -0.192578 19.9765
  78 178.108 1.78431 19.0170
  79 138.293 1.53345 20.1708
  80 89.8512 -0.463443 22.6166
  81 48.8801 3.50389 23.8495
  82 1.85155 5.40074 14.9655
  83 -33.2621 5.52614 6.08610
  84 -34.5061 5.51510 -0.744310
  85 -34.9961 4.66515 -10.1787
  86 -20.8135 -1.19455 -9.98949
  87 -2.34161 -19.9755 -11.1059
  88 2.31105 -36.3222 -13.5026
  89 5.91372 -55.2946 -6.37212
  90 12.8253 -52.5322 3.17954
  91 26.6657 0.978710 38.2901
  92 77.0583 141.678 120.866
  93 427.209 442.313 382.142
  94 1555.80 236.574 255.368
  95 1411.86 33.5648 81.9769
  96 1321.07 14.2318 25.0898
  97 1287.69 12.2518 1.83711
  98 1305.94 16.0911 -21.9785
  99 1409.95 31.6628 -65.0363
  100 1638.02 114.143 -217.168
  101 256.264 458.016 -322.190
  102 57.5960 111.908 -101.687
  103 29.2720 3.91677 -41.5891
  104 12.0707 -51.6855 -9.31889
  105 3.77520 -41.3484 7.16021
  106 4.47592 -45.9668 11.5773
  107 0.334647 -17.1156 12.3232
  108 -21.7681 -0.643377 9.40831
  109 -36.0912 3.50480 8.80700
  110 -36.4027 6.67808 0.921620
  111 -34.2732 5.41194 -5.74456
  112 -0.637295 5.53402 -14.0986
  113 46.7478 3.53271 -22.7841
  114 87.6872 -0.0798246 -22.2500
  115 136.041 1.65536 -20.2023
  116 176.063 1.82764 -19.1460
  117 233.806 -0.200752 -20.1245
  118 263.599 0.209273 -14.0647
  119 297.239 -0.0587230 -12.7228
  120 325.296 -0.528746 -10.4191
  121 346.986 -0.239541 -8.54856
  122 366.319 0.0409397 -7.56374
  123 379.292 0.542108 -6.70115
  124 397.316 -0.365103 -6.16604
  125 404.212 0.0342799 -3.30106
  126 412.943 0.0491108 -2.65644
  127 419.884 -0.227302 -2.08640
  128 425.094 -0.126479 -1.67886
  129 430.445 0.0768813 -1.36512
  130 426.591 1.55098 -0.623825
  131 433.040 0.633393 -0.830961
  132 447.063 -0.238335 0.514568
  133 464.953 -1.30621 -0.312068
  134 482.604 -2.83589 -0.190185
  135 502.865 -4.13829 -0.129492
  136 524.263 -6.73625 -0.0823596
  137 546.909 -8.73230 0.308469
  138 570.460 -9.52669 0.0436722
  139 590.878 -11.5845 0.0821654
  140 608.518 -10.6492 0.646103
  141 628.626 -9.78450 1.39168
  142 651.131 -8.12777 1.44852
  143 672.054 -7.54211 1.33180
  144 693.953 -5.07093 0.870173
  145 712.070 -3.65171 1.52060
  146 726.068 -1.21107 0.788040
  147 658.647 -61.9667 2.71562
  148 658.042 -61.1170 -2.48830
  149 697.388 99.8077 -30.3523
  150 736.725 43.3772 62.3206
  151 558.921 -54.4189 -127.847
  152 563.591 -54.2894 123.968
  153 550.338 -22.6633 17.2836
  154 550.361 -22.9580 -17.2858
  155 776.637 28.5901 -43.6093
  156 656.984 -24.0859 10.0272
  157 656.695 -23.5379 -9.91521
  158 848.555 186.870 5.21942
  159 676.171 -1.02724 -62.7787
  160 506.254 -38.8375 -57.8824
  161 506.323 -38.5374 57.4398
  162 676.302 -15.4925 55.8602
  163 648.636 47.7169 38.3175
  164 272.466 42.0109 -152.953
  165 300.571 39.9433 160.916
  166 814.543 11.1001 -5.18217
  167 676.152 -26.2975 -37.1928
  168 889.215 195.248 5.56919
  169 611.629 -17.4128 -2.35227
  170 611.514 -17.3751 2.39388
  171 679.957 -9.06330 -4.23550
  172 681.815 -8.24364 3.60718
  173 491.713 -6.47996 -9.65614
  174 491.788 -6.41772 9.61855
  175 722.614 -16.8253 162.824
  176 629.505 26.6635 -41.3878
  177 415.529 -30.6311 -91.0048
  178 416.723 -30.4167 90.4943
  179 468.538 -14.5088 -30.2851
  180 468.598 -14.3532 30.1007
  181 679.034 -18.2721 31.6916
  182 619.476 -42.2384 -6.49644
  183 617.469 -41.9250 7.36892
  184 697.768 -67.9569 -20.1423
  185 701.621 -64.7447 11.6052
  186 958.631 226.708 -42.7760
  187 710.472 113.329 28.2226
  188 708.672 43.5676 -64.0569
  189 718.929 -3.15702 -187.593
  190 699.767 -39.8683 -41.4062
  191 705.966 -28.5856 50.1020
  192 591.286 -66.9809 65.2724
  193 591.294 -66.4772 -65.1128
  194 638.496 8.44951 49.4103
  195 299.360 -7.88170 -111.972
  196 300.003 -8.44952 111.365
  197 1072.75 159.414 23.7591
  198 663.916 -39.7891 20.6281
  199 686.766 -13.2076 -20.0406
  200 553.875 -13.1687 -8.28479
  201 553.899 -13.1143 8.26586
  202 664.710 -8.73910 -43.3879
  203 753.905 110.405 -49.6763
  204 639.310 57.8247 -7.64410
  205 424.221 -14.2009 41.8814
  206 423.625 -14.2349 -42.1439
  207 694.751 -8.43907 10.3306
  208 683.918 12.9251 64.7290
  209 559.378 -39.8652 -30.1240
  210 556.012 -37.7223 30.5858
  211 799.826 118.968 42.4490
  212 926.757 134.630 36.1206
  213 69.6129 52.4638 -47.0614
  214 64.5668 48.4889 40.2523
  215 389.594 113.687 263.982
  216 657.472 -43.8303 -14.3185
  217 696.854 -8.09096 -9.30500
  218 632.016 5.92199 -45.5591
  219 453.568 -4.02177 -13.5214
  220 453.717 -3.97842 13.4253
  221 595.713 -27.6250 -8.89777
  222 595.996 -27.8172 8.57265
  223 669.569 -9.17710 36.6496
  224 759.568 -43.6009 27.1106
  225 765.688 154.734 -13.9928
  226 600.586 -57.5126 -33.4165
  227 751.732 -13.1277 35.4312
  228 644.226 -11.4512 0.859303
  229 644.221 -11.3694 -0.859195
  230 596.551 -57.2513 34.4035
  231 679.675 -43.4520 32.9873
  232 935.200 130.472 -74.9326
  233 217.772 129.494 -195.581
  234 589.797 21.4128 10.0315
  235 687.954 60.6443 54.7750
  236 726.234 -5.21954 -54.4815
  237 681.020 -24.7608 -51.4331
  238 377.438 -11.5081 -51.9829
  239 378.621 -11.3438 51.8651
  240 681.489 -8.60181 -27.7668
  241 648.865 -16.9530 4.48407
  242 648.569 -16.9459 -4.26211
  243 146.876 12.3390 -73.4359
  244 148.858 10.8003 73.1537
  245 716.277 -62.9426 -63.9725
  246 707.697 -3.30205 1.11211
  247 708.319 -3.35631 -1.30584
  248 673.203 55.9846 -50.4502
  249 600.050 12.1673 30.1594
  250 1193.05 190.983 128.885
  251 1182.01 134.654 -79.7592
  252 879.124 187.110 1.60174
  253 550.074 -27.0620 168.552
  254 506.545 -18.2186 -175.878
  255 585.071 -12.0081 -3.46819
  256 585.029 -11.9443 3.44991
  257 493.806 -12.4655 19.1467
  258 493.781 -12.6265 -19.2842
  259 695.235 -8.08029 16.3765
  260 676.782 -48.4669 -25.7720
  261 457.161 -0.579012 -3.26147
  262 457.278 -0.567009 3.24608
  263 668.429 -27.5165 -21.0488
  264 298.002 -9.44400 -72.5509
  265 299.120 -9.47145 72.0960
  266 677.539 -29.7116 40.1718
  267 521.438 -55.3609 103.021
  268 522.597 -56.3430 -102.694
  269 597.456 23.5935 -14.0438
  270 515.943 -7.42011 -6.54560
  271 516.000 -7.37623 6.52632
  272 642.214 -1.42611 36.1674
  273 760.987 138.221 34.1324
  274 423.351 -4.67548 22.4005
  275 423.053 -4.71106 -22.5601
  276 693.402 -58.3189 14.8822
  277 641.829 -72.4462 -72.5691
  278 710.918 -4.15470 4.56861
  279 508.545 -29.0843 -40.0116
  280 507.784 -28.7787 39.8914
  281 857.352 103.852 235.756
  282 425.125 -34.5597 121.860
  283 680.476 95.2631 -3.20322
  284 842.833 95.9021 -21.4839
  285 642.914 -49.6516 1.88705
  286 642.593 -74.3805 66.0740
  287 426.250 -34.0383 -123.083
  288 82.1283 101.864 95.1448
  289 668.547 -27.5905 21.4682
  290 866.837 116.503 13.3822
  291 715.765 -3.72076 -3.96526
  292 661.802 23.4850 -58.1237
  293 647.692 -36.7640 9.01887
  294 634.706 -53.4034 7.69940
  295 659.842 30.5535 56.1459
  296 690.302 -58.2897 -12.5704
  297 970.011 186.482 -19.2572
  298 647.528 -35.3607 -8.57721
  299 525.172 158.826 -319.034
  300 660.059 -70.1550 -20.1388
  301 655.588 -72.1014 27.4726
  302 490.364 -43.6851 -80.6732
  303 452.857 -1.42016 -7.00804
  304 452.993 -1.39480 6.96466
  305 490.628 -43.7389 80.2886
  306 700.743 -1.23568 -63.8208
  307 749.697 -31.0531 -20.1359
  308 580.380 -34.3153 -17.6886
  309 580.092 -34.3985 17.9757
  310 681.471 -58.6857 112.811
  311 686.600 -5.85778 20.9880
  312 821.200 7.16801 48.7481
  313 570.094 -19.6937 -10.0953
  314 570.146 -19.6443 10.0545
  315 523.877 -12.9974 -13.1419
  316 523.899 -12.8874 13.1304
  317 594.512 8.46150 -29.1430
  318 745.321 54.8011 -59.9824
  319 1126.93 307.567 -152.238
  320 675.803 -6.84280 -1.28288
  321 675.478 -6.75935 1.33635
  322 371.508 -1.85336 152.169
  323 520.369 -22.6945 -27.2134
  324 519.506 -22.6422 27.2904
  325 371.432 -2.78068 -151.582
  326 714.584 84.1575 -52.5486
  327 790.037 39.9569 40.4432
  328 680.846 -48.5047 -124.438
  329 633.879 -24.6890 2.40294
  330 633.286 -24.5352 -2.15660
  331 672.941 -14.6947 -9.40055
  332 642.568 -1.09289 -33.7903
  333 712.680 2.85074 61.8556
  334 706.073 -5.51588 -11.1280
  335 439.631 -25.7193 61.2174
  336 439.157 -25.8465 -61.6214
  337 667.270 -1.39975 59.8759
  338 426.820 -3.06603 -13.4425
  339 427.077 -3.03860 13.3419
  340 678.276 -16.2564 15.9433
  341 815.091 165.398 -22.3087
  342 672.714 -14.7795 9.81391
  343 722.129 90.3032 52.5041
  344 689.542 -13.0166 60.7603
  345 553.450 -10.0913 3.22704
  346 553.441 -10.1433 -3.24226
  347 656.679 -2.21037 -53.2695
  348 858.386 179.747 10.3601
  349 722.060 131.156 1.07365
  350 440.627 50.7597 -223.991
  351 52.0532 20.2603 -34.0134
  352 56.3690 21.9658 36.2785
  353 -0.489055 6.10744 11.7160
  354 1.88552 4.04596 -12.3875
  355 1215.78 84.5627 28.2066
  356 597.422 -47.9167 -21.3645
  357 678.670 -15.7539 -15.5297
  358 616.680 -11.2633 -0.0981751
  359 616.613 -11.1867 0.0920988
  360 664.955 73.5325 -27.3754
  361 565.303 -56.9510 53.8289
  362 53.0827 80.0412 -61.0787
  363 565.704 -56.9032 -54.6714
  364 673.002 76.5725 29.1071
  365 678.860 -18.5971 -30.0160
  366 717.429 -40.3860 -33.2711
  367 770.759 160.690 9.54560
  368 718.592 -45.3035 25.7569
  369 315.116 -7.35453 48.4125
  370 313.465 -7.20776 -48.6650
  371 182.293 3.89895 -68.6059
  372 183.887 3.25163 68.3236
  373 602.803 2.54634 29.3619
  374 1093.21 327.446 138.074
  375 699.329 -4.92058 -14.6710
  376 552.593 -45.7199 -41.6278
  377 552.243 -45.6414 41.5792
  378 676.201 -15.9491 -39.1544
  379 761.036 -36.6967 -5.06927
  380 597.401 -47.8894 21.8798
  381 827.979 9.55845 -80.0609
  382 491.779 -3.51284 -2.75058
  383 491.864 -3.48554 2.73755
  384 667.433 -4.05474 -25.5612
  385 375.304 -4.96290 -31.4293
  386 375.489 -5.13390 31.0876
  387 790.419 101.515 -48.1283
  388 431.355 30.0169 208.866
  389 623.276 -32.6163 -1.61522
  390 623.862 -32.5718 1.59656
  391 733.781 123.286 -32.7400
  392 691.557 -20.7255 -56.9540
  393 687.692 -70.6698 65.3798
  394 583.148 -15.3552 -5.58057
  395 583.098 -15.2977 5.54417
  396 666.172 -51.5644 15.1872
  397 711.870 -3.89556 8.15327
  398 461.179 -15.8733 -37.5645
  399 461.367 -15.8873 37.2954
  400 681.112 23.0361 -64.0280
  401 639.448 -14.4572 1.16373
  402 639.411 -14.4990 -1.09627
  403 664.978 -7.97122 48.4034
  404 627.170 46.2814 13.3818
  405 685.685 -29.3007 48.9093
  406 978.913 203.207 41.4495
  407 343.073 -18.3057 -97.5515
  408 343.948 -18.3024 96.8965
  409 155.454 81.1824 -120.847
  410 724.213 -2.77588 1.95879
  411 391.393 -2.89239 -19.9466
  412 391.851 -2.83136 19.8020
  413 676.539 -18.0085 38.1310
  414 614.342 -66.4280 38.3549
  415 687.765 -9.40744 6.59495
  416 707.325 35.8770 65.9680
  417 162.151 86.4390 125.323
  418 615.174 -66.0048 -35.7410
  419 635.068 -58.8419 -12.2966
  420 221.968 -4.38951 -61.6276
  421 223.354 -4.53465 61.2503
  422 490.577 -40.0982 -146.913
  423 726.030 -11.1038 52.8337
  424 489.025 -40.5965 145.742
  425 672.489 -38.0771 -29.6572
  426 634.898 43.4284 -29.0777
  427 672.502 -29.5086 28.5623
  428 716.068 -3.85199 -5.20564
  429 24.3897 27.6826 15.0407
  430 151.531 180.093 176.169
  431 653.376 -2.35860 24.9295
  432 561.057 8.32419 12.8963
  433 569.489 9.98874 -17.4169
  434 486.005 -7.35429 -13.5194
  435 486.073 -7.26599 13.4512
  436 662.966 -51.5128 -13.4170
  437 672.765 -13.3595 -53.8115
  438 563.618 11.3214 -4.72530
  439 977.303 234.146 58.2312
  440 145.699 46.0099 -91.0316
  441 159.713 42.1862 96.6990
  442 622.697 -22.3364 -0.674340
  443 622.484 -22.3058 0.818058
  444 827.589 180.024 -1.52320
  445 503.007 226.617 326.001
  446 787.091 -9.93635 0.290783
  447 469.088 -23.4866 -50.9536
  448 469.322 -23.3437 50.5863
  449 474.708 -9.83243 20.6252
  450 474.604 -9.89611 -20.7762
  451 630.739 14.5550 -47.0678
  452 727.359 -1.60135 -1.23087
  453 615.639 28.9613 26.6604
  454 762.594 94.0738 54.4076
  455 636.657 -47.1536 0.0162011
  456 687.402 -9.01376 -6.43920
  457 718.673 -3.54820 4.78680
  458 725.131 -1.73883 0.695705
  459 725.593 -1.89191 -0.460392
  460 425.881 -0.565050 5.06923
  461 425.671 -0.574541 -5.11103
  462 693.704 -44.4915 35.8703
  463 636.439 25.6300 45.6088
  464 660.947 2.85061 -58.6410
  465 683.041 -15.0529 21.7135
  466 954.447 179.474 -204.044
  467 685.883 -38.4114 -41.6166
  468 10.8723 13.6810 8.02194
  469 10.6344 14.0697 -4.61201
  470 551.229 -30.3530 24.5220
  471 549.552 -29.9082 -24.1682
  472 835.073 21.6444 114.296
  473 238.713 229.045 -251.641
  474 678.899 -2.32297 18.9457
  475 757.071 -43.3561 -68.6340
  476 421.459 -23.4232 70.5593
  477 819.597 145.737 -32.2760
  478 676.196 -36.9744 34.3508
  479 574.010 -26.8298 -13.6934
  480 574.499 -26.4087 13.6725
  481 602.672 3.46984 -25.8831
  482 420.222 -23.3121 -70.9156
  483 616.001 0.577245 25.8840
  484 580.661 -66.6627 -93.4626
  485 579.266 -66.7636 93.9138
  486 696.039 -5.04112 16.2700
  487 644.085 61.1126 5.51561
  488 635.264 13.4738 226.091
  489 939.773 188.569 -1.16863
  490 653.399 -11.7688 2.15872
  491 653.420 -11.7310 -2.30246
  492 515.430 -8.55903 -8.97365
  493 515.482 -8.49602 8.95023
  494 275.431 11.4165 129.168
  495 679.572 -33.0969 -41.2326
  496 618.502 -13.8082 -1.20524
  497 618.442 -13.7719 1.21146
  498 541.590 -56.8643 76.3391
  499 280.456 15.2644 -132.303
  500 679.082 -55.6598 -15.5686
  501 13.4702 6.15704 2.20608
  502 607.576 32.1507 2.00266
  503 655.300 -8.43943 -0.633021
  504 655.299 -8.53525 0.602058
  505 541.784 -56.7377 -76.8827
  506 757.564 -37.8075 84.6487
  507 758.273 27.6810 54.1824
  508 696.679 -5.62133 -2.95761
  509 677.037 -56.4083 15.9412
  510 445.315 -0.214373 -0.985788
  511 445.436 -0.211126 0.980176
  512 678.051 -26.3543 -44.8438
  513 663.132 49.2756 49.5051
  514 749.387 18.6747 -53.6748
  515 442.582 -0.487551 -2.87239
  516 442.715 -0.479561 2.85735
  517 1265.55 183.258 -161.975
  518 688.524 81.7751 43.2108
  519 697.174 -5.28247 2.59926
  520 636.367 -60.1689 13.8659
  521 543.432 -17.3279 13.9290
  522 543.407 -17.4448 -13.9010
  523 734.371 -45.0756 9.48690
  524 710.178 -14.4824 -56.7909
  525 795.277 155.399 28.7970
  526 666.477 11.6655 60.8967
  527 664.888 -13.5617 5.29509
  528 644.724 -69.3801 -91.4891
  529 674.025 -17.0026 44.9533
  530 1248.01 57.7655 -22.5607
  531 728.538 -55.2230 8.51029
  532 692.390 -5.51649 -0.516844
  533 692.559 -5.80346 0.387119
  534 1261.01 84.5258 78.3441
  535 651.254 -0.0248992 51.8176
  536 891.560 154.208 -0.611677
  537 677.271 -19.0526 -20.6659
  538 325.929 -2.77403 -21.4486
  539 326.780 -2.63743 21.2547
  540 467.112 -43.4895 -102.251
  541 467.550 -42.7688 101.558
  542 664.510 -13.0521 -5.28028
  543 725.280 26.6242 -63.0359
  544 638.444 -43.3839 2.46540
  545 691.322 79.1798 -44.6703
  546 689.315 -8.59100 21.8491
  547 851.643 46.5929 -23.0817
  548 595.458 -20.2572 -5.86260
  549 595.310 -20.2089 5.81953
  550 642.626 -30.5122 5.96829
  551 931.568 190.004 -28.7036
  552 680.689 29.8858 63.1447
  553 294.916 75.3883 189.695
  554 646.986 -38.5995 153.967
  555 840.508 48.7585 -171.406
  556 695.583 57.5857 -58.4138
  557 610.284 -53.3185 -133.992
  558 662.055 -72.8827 -32.8834
  559 688.912 -70.2636 -45.2056
  560 95.0926 127.729 -120.514
  561 693.216 -9.57623 -12.4869
  562 1031.30 199.688 -62.8220
  563 645.813 -29.3689 -7.30734
  564 650.458 -21.6389 6.10075
  565 649.880 -21.1834 -5.74824
  566 466.178 -2.25418 -6.44892
  567 466.290 -2.22540 6.41668
  568 74.6370 6.55294 -38.9155
  569 77.9450 6.89594 39.7525
  570 348.475 -15.6189 -74.1226
  571 350.894 -15.7133 74.0742
  572 659.553 -36.0538 -17.0334
  573 669.275 -73.1944 35.1124
  574 687.779 -65.7256 -4.33678
  575 573.170 -10.0715 -2.69360
  576 573.148 -10.0120 2.68243
  577 539.932 -57.0143 -114.467
  578 599.226 -49.6885 141.313
  579 527.680 -53.6867 114.990
  580 680.497 -15.2887 -57.5805
  581 441.982 -6.71025 22.7369
  582 441.773 -6.77562 -22.8904
  583 654.597 36.6138 -49.8613
  584 653.712 -1.17042 -22.6149
  585 809.954 173.550 -12.3387
  586 538.823 -7.78406 -2.44987
  587 538.850 -7.74074 2.44099
  588 690.288 -2.22575 -12.3468
  589 489.776 -15.6216 -25.8143
  590 489.817 -15.5800 25.6276
  591 394.966 17.0591 180.393
  592 671.906 -31.3114 -28.7928
  593 383.747 -20.9036 129.978
  594 660.380 -34.5238 17.5832
  595 691.788 -10.5197 13.9310
  596 681.972 -7.17791 -2.48068
  597 496.654 -5.60734 -6.20322
  598 496.730 -5.56608 6.18009
  599 777.863 153.844 -26.5156
  600 383.459 -20.2097 -130.383
  601 658.101 -28.9046 -13.5872
  602 598.121 -11.2937 -1.62925
  603 598.067 -11.2243 1.62360
  604 1089.83 145.734 -26.5368
  605 413.124 -2.34267 12.4103
  606 412.800 -2.36420 -12.5064
  607 624.177 14.8232 43.0713
  608 863.800 76.7343 3.91314
  609 419.831 1.68677 -178.795
  610 224.039 4.70607 -99.1385
  611 225.689 3.56062 98.6266
  612 529.679 -29.9233 32.7070
  613 534.720 -30.8080 -31.9624
  614 879.540 178.409 4.28731
  615 679.475 -7.40505 2.13987
  616 600.365 17.6243 -26.1601
  617 735.887 131.111 25.9212
  618 733.669 135.970 -17.2714
  619 602.821 -33.0594 -9.15796
  620 607.093 -32.3709 7.08139
  621 429.119 95.1235 -254.630
  622 525.352 -17.1788 -18.5907
  623 525.415 -16.9980 18.5467
  624 1261.72 259.199 195.399
  625 678.823 -22.5373 48.8679
  626 402.581 -13.4385 -47.4050
  627 1018.38 257.332 180.516
  628 403.442 -13.3756 47.2657
  629 641.044 -23.9332 -178.388
  630 474.035 -1.92013 -2.36765
  631 474.136 -1.90402 2.35865
  632 581.548 5.64553 22.8615
  633 274.622 -3.79593 -42.4478
  634 275.900 -3.80754 42.1603
  635 595.399 -41.5988 17.1916
  636 622.178 -49.5119 -9.22238
  637 722.817 -1.93929 -4.55627
  638 432.576 -0.526442 3.82716
  639 432.405 -0.536931 -3.85756
  640 565.352 -12.5241 -4.55572
  641 565.345 -12.4671 4.53257
  642 637.713 -71.2569 92.1871
  643 736.879 82.2238 -57.2170
  644 500.670 -22.3572 -33.1742
  645 500.375 -21.9937 32.9684
  646 585.139 -41.4054 -21.8531
  647 908.164 196.155 11.8188
  648 683.965 -66.5406 7.90267
  649 600.171 -14.5048 -3.32970
  650 600.095 -14.4494 3.32504
  651 813.759 90.3793 37.3376
  652 686.704 -10.4929 -23.7173
  653 619.123 -0.536165 -21.0297
  654 294.620 -10.1227 -93.7226
  655 295.393 -10.3698 93.0452
  656 583.150 -49.6317 -32.8576
  657 866.162 187.847 -0.257368
  658 680.464 91.9060 -19.4722
  659 463.361 -3.73143 -11.6401
  660 463.481 -3.68144 11.5669
  661 629.575 -18.1626 -0.0180174
  662 629.691 -18.1659 0.130665
  663 1139.50 148.083 65.6629
  664 730.543 -2.41479 1.06735
  665 711.666 -3.23210 8.10286
  666 709.480 -3.21833 -9.71494
  667 676.418 -63.2632 2.12450
  668 511.914 -5.51428 -3.09478
  669 511.976 -5.48036 3.08449
  670 728.313 115.940 40.2699
  671 922.007 203.821 -19.3585
  672 517.336 -37.3821 -46.9901
  673 517.256 -37.0448 46.7972
  674 636.770 -65.4897 -20.0732
  675 676.523 40.4020 -59.5949
  676 788.695 2.82429 16.3673
  677 538.924 -9.61481 -6.55755
  678 538.955 -9.56328 6.53824
  679 466.155 -40.3856 -92.2547
  680 670.263 -65.0588 3.81033
  681 561.352 -62.1767 84.2448
  682 273.319 85.1166 -183.371
  683 527.920 -48.1756 65.0055
  684 637.322 0.194576 19.2551
  685 466.620 -39.9458 91.7078
  686 657.745 -29.4234 13.7537
  687 528.002 -47.9511 -65.5184
  688 552.758 7.74614 4.82786
  689 428.962 -10.7537 33.9732
  690 428.610 -10.7547 -34.1680
  691 561.494 -63.7781 -85.1334
  692 689.393 -45.7752 -34.5871
  693 633.942 -9.56171 -0.0995664
  694 634.041 -9.64479 0.100887
  695 703.521 -45.2579 33.5171
  696 641.280 -66.9900 22.7871
  697 776.075 71.5833 52.3421
  698 702.993 -13.4615 59.2114
  699 676.560 -24.7407 34.9504
  700 654.489 54.1694 -37.8255
  701 777.469 130.190 41.7649
  702 673.117 -9.53484 -35.3759
  703 667.814 -22.6980 16.1783
  704 697.779 108.621 10.4639
  705 680.630 -11.9573 30.1494
  706 219.281 150.696 192.889
  707 632.328 -72.9411 -56.0478
  708 731.857 13.1858 59.4183
  709 736.489 -22.9333 -38.9149
  710 728.340 -1.40422 2.33898
  711 675.384 -23.7473 -26.7553
  712 633.419 -73.4992 51.5166
  713 1188.26 105.559 -17.4823
  714 397.329 -1.46947 12.9610
  715 396.910 -1.48434 -13.0627
  716 682.604 -13.1641 -11.5500
  717 732.230 -1.10842 -2.33288
  718 582.237 -50.4556 33.0135
  719 693.950 -26.1569 53.1670
  720 1028.39 256.681 -93.8577
  721 657.862 -47.8061 12.6636
  722 724.851 -48.0689 -15.3324
  723 668.017 -22.1288 -15.9016
  724 730.955 -1.73294 -0.577588
  725 680.442 -0.137008 63.3868
  726 33.3718 38.6220 45.3323
  727 751.822 -27.0038 -120.991
  728 822.424 50.8636 18.0995
  729 688.537 -70.7425 41.3726
  730 506.306 -11.4582 15.1094
  731 506.283 -11.6066 -15.1638
  732 619.962 345.047 -341.328
  733 703.693 -46.9398 -30.3179
  734 550.806 3.52164 -9.24445
  735 629.659 3.79340 41.6941
  736 681.086 -34.4411 41.7933
  737 652.800 -55.0158 2.67326
  738 673.011 -61.8664 -99.1608
  739 649.157 -51.3619 -4.17454
  740 758.876 -36.1569 2.39316
  741 700.142 -6.51506 6.56835
  742 631.611 -37.8600 0.380210
  743 1118.56 223.426 -121.805
  744 670.398 -18.5983 12.5009
  745 669.658 11.1781 -62.4398
  746 564.574 -5.79125 199.600
  747 714.554 57.4341 62.6581
  748 615.170 -48.0723 12.1723
  749 482.563 -37.0869 -67.8120
  750 482.660 -37.0072 67.3366
  751 659.869 74.3554 -8.75180
  752 666.554 -7.80404 55.0968
  753 672.116 -16.2003 -46.1480
  754 632.289 -38.6705 -0.530887
  755 612.176 -54.4446 21.4701
  756 702.827 115.153 -11.6395
  757 652.037 -56.4523 -0.119745
  758 653.861 -41.5377 12.6930
  759 660.226 -9.31285 1.56055
  760 660.576 -9.09376 -1.53573
  761 886.688 192.473 -1.04176
  762 722.166 -61.7381 -31.2031
  763 677.347 -21.2615 26.7902
  764 700.138 -6.52254 -5.86967
  765 713.511 4.63530 -62.4949
  766 804.866 43.8935 -29.6312
  767 418.414 -0.224037 -6.15704
  768 418.672 -0.219099 6.10713
  769 6.76602 -9.90340 -6.70993
  770 691.832 -1.04353 11.3846
  771 642.039 -0.727526 -45.7863
  772 660.073 -6.21726 39.7121
  773 588.382 78.9808 288.575
  774 750.231 152.361 -1.40403
  775 538.177 -37.5134 37.6535
  776 106.157 1.92370 -37.7645
  777 108.598 1.37902 38.1425
  778 655.064 -4.60408 -45.0926
  779 539.445 -37.8572 -37.6751
  780 696.154 -7.13546 4.72252
  781 373.504 -15.2861 63.1239
  782 370.561 -15.2220 -63.0882
  783 670.307 -18.0883 -12.1520
  784 444.535 -10.4138 -29.7047
  785 444.748 -10.3544 29.4870
  786 696.646 -7.20375 -16.0686
  787 543.438 -13.9706 -11.1785
  788 543.472 -13.8930 11.1851
  789 759.037 -4.55764 -38.2887
  790 689.327 -7.32069 -62.9778
  791 369.064 -2.11631 -16.3663
  792 369.676 -2.09618 16.2014
  793 25.2572 8.93558 -24.1487
  794 28.1304 9.45014 25.3220
  795 573.784 2.96491 -16.5688
  796 628.095 -70.5505 -43.2886
  797 -6.82988 -4.58484 12.1684
  798 -6.12470 -5.67941 -12.2852
  799 652.800 -13.7795 3.62132
  800 705.582 -55.4694 -13.1284
  801 734.700 108.389 -46.7341
  802 698.758 -6.47421 -4.51893
  803 1430.31 296.510 -268.239
  804 652.661 -13.7493 -3.56384
  805 972.618 183.095 17.6446
  806 701.335 20.4353 -65.9470
  807 769.605 58.5755 -54.0486
  808 145.144 -1.65156 -34.4423
  809 147.280 -1.83813 34.3926
  810 452.722 -5.96427 17.8591
  811 452.559 -6.00910 -17.9869
  812 436.842 -0.812712 3.39481
  813 436.695 -0.821843 -3.41582
  814 781.090 131.161 -41.0917
  815 477.996 -2.55265 -5.15780
  816 478.095 -2.52479 5.13658
  817 668.518 -6.70237 -57.6192
  818 934.732 107.056 96.8804
  819 610.198 14.2916 -36.3217
  820 224.288 -1.87265 36.3969
  821 222.742 -1.89093 -36.6455
  822 755.994 25.8263 210.265
  823 682.077 -13.2688 11.9170
  824 623.649 42.0184 -15.1001
  825 301.842 -0.322031 24.5051
  826 300.556 -0.189921 -24.6582
  827 443.825 -1.91061 -8.85198
  828 443.991 -1.88316 8.78772
  829 81.6209 71.7632 65.6253
  830 646.336 15.8155 53.4192
  831 715.133 104.573 -40.6799
  832 763.882 88.9157 -54.8741
  833 513.432 -18.5116 -23.7961
  834 513.184 -18.3960 23.7884
  835 793.500 166.834 17.9767
  836 679.112 -6.58277 -0.459791
  837 679.169 -6.53645 0.564231
  838 676.932 -20.7655 -35.6555
  839 572.419 -37.3987 23.8651
  840 624.580 -70.1323 43.3017
  841 725.569 -59.3885 66.4741
  842 568.663 -16.1651 -7.65963
  843 568.673 -16.1207 7.62491
  844 651.359 60.6925 24.3997
  845 615.043 8.91742 -39.1041
  846 169.995 217.761 200.342
  847 613.956 -53.9777 -20.0120
  848 616.472 -27.4789 -2.81784
  849 616.790 -27.5622 2.77288
  850 677.857 -10.1179 60.0928
  851 669.299 -44.2459 -23.4616
  852 601.626 -39.3319 -12.5558
  853 1305.41 42.2321 -62.7192
  854 572.962 -53.4877 43.4809
  855 572.452 -54.1461 -44.0987
  856 676.171 -8.32871 29.9849
  857 999.086 261.929 -70.5009
  858 539.886 -48.1173 -52.4654
  859 591.833 -66.2534 51.6099
  860 539.829 -47.5705 52.0592
  861 583.702 -23.1216 -9.30724
  862 583.711 -23.0645 9.26066
  863 93.0382 37.3962 56.7183
  864 726.023 54.2900 -62.6981
  865 562.199 -21.3870 -12.8273
  866 562.314 -21.1911 12.8645
  867 556.439 -9.00169 -1.58814
  868 556.442 -8.95024 1.58062
  869 606.305 -12.3444 -1.47825
  870 606.240 -12.2777 1.47054
  871 502.960 -9.18439 -12.9638
  872 503.017 -9.09004 12.9240
  873 563.781 -28.8951 -18.5798
  874 563.869 -28.7291 18.6634
  875 15.1309 1.00608 -10.6345
  876 835.693 157.190 26.0668
  877 720.102 -25.5533 -47.1773
  878 591.238 -65.2716 -52.0575
  879 636.921 -20.8737 2.21779
  880 636.664 -20.6851 -2.07119
  881 695.127 0.734405 64.4021
  882 745.295 -53.0142 -41.7587
  883 655.313 51.9262 -251.764
  884 313.612 -6.00475 126.906
  885 -6.04109 7.30934 -10.5576
  886 -4.70810 8.27796 11.4349
  887 92.6566 39.7540 -57.9914
  888 676.416 -20.0508 20.4396
  889 707.100 -5.30717 -8.44705
  890 637.706 -61.8851 112.084
  891 312.923 -5.74779 -127.350
  892 710.594 -58.6780 6.17424
  893 781.928 -20.5152 101.471
  894 592.099 2.53836 17.5145
  895 669.248 63.7898 41.2277
  896 370.575 -20.5417 92.4197
  897 369.236 -20.7027 -92.9483
  898 443.272 -20.1420 -52.0437
  899 455.865 -23.3554 -160.740
  900 713.795 -17.0113 54.6946
  901 966.445 232.699 50.0019
  902 718.539 27.5189 63.9439
  903 678.965 -14.9134 -32.8318
  904 464.898 -20.9142 164.666
  905 858.580 159.816 -15.0156
  906 91.8583 76.5695 -80.0726
  907 635.728 -1.13558 -18.3667
  908 443.718 -19.9893 51.6494
  909 534.969 -11.3001 9.72092
  910 534.936 -11.3652 -9.73485
  911 670.202 -44.0000 24.4247
  912 690.420 -5.33093 1.55312
  913 511.801 4.15777 -198.548
  914 725.340 -1.94165 3.96608
  915 721.321 -1.64022 -5.26094
  916 562.323 5.20801 -15.3271
  917 701.626 -3.01167 -9.99726
  918 535.637 -24.1675 -22.6886
  919 535.985 -23.8316 22.7684
  920 -15.5875 7.01343 -8.69452
  921 -22.4416 4.23871 9.58031
  922 690.365 -5.00687 -1.63861
  923 243.627 -5.75578 85.8448
  924 242.389 -5.29299 -86.2761
  925 745.648 108.265 48.8776
  926 1276.56 23.2689 19.0659
  927 704.392 78.1195 53.1282
  928 782.396 -26.2460 36.8886
  929 688.760 -38.7052 41.5662
  930 854.666 178.521 -11.6158
  931 551.893 2.80037 11.5764
  932 661.808 -16.2788 -6.63793
  933 692.643 37.3619 -64.4793
  934 821.760 26.8041 -0.671740
  935 647.182 -40.0529 -8.86680
  936 349.744 -1.71922 -18.2277
  937 350.011 -1.65683 17.9950
  938 681.043 -16.5841 -24.7356
  939 25.8508 31.7211 10.1270
  940 654.081 -67.8861 -14.2825
  941 582.845 18.0833 -1.57678
  942 850.381 185.035 -7.65675
  943 141.426 104.685 -128.703
  944 660.072 -4.95111 -35.5818
  945 469.833 -7.18228 -16.8724
  946 469.938 -7.10385 16.7586
  947 4.95994 -17.5379 12.9623
  948 455.816 -33.0408 -74.6632
  949 666.888 -38.8564 -23.0283
  950 436.199 0.955921 -1.44468
  951 436.327 0.959184 1.43753
  952 680.452 82.5016 -32.7722
  953 713.058 -2.87019 -0.786465
  954 713.116 -2.89153 1.07065
  955 456.056 -32.9708 74.2292
  956 677.356 -1.15550 -13.8497
  957 770.884 5.89762 36.0725
  958 685.341 -10.4556 8.96069
  959 119.358 28.1300 -69.8766
  960 708.242 -4.95389 7.57629
  961 654.596 5.59197 56.8188
  962 690.057 95.2059 29.1102
  963 686.833 8.01731 -65.6858
  964 482.739 -24.8394 -45.3347
  965 734.330 -26.3750 37.2148
  966 483.059 -24.7637 44.9428
  967 25.0196 26.1242 -6.02055
  968 90.2013 13.9100 51.3933
  969 401.628 -6.53750 30.4826
  970 401.192 -6.53314 -30.6193
  971 662.283 -16.5440 7.11679
  972 719.016 124.020 15.7710
  973 368.640 32.5505 -189.265
  974 600.653 -37.0490 11.3654
  975 564.147 -58.4701 -63.2238
  976 814.906 155.522 29.5603
  977 629.446 -11.6139 -0.451990
  978 629.416 -11.5619 0.444008
  979 685.755 -13.3638 -17.2051
  980 645.781 56.1922 -22.4904
  981 1369.10 420.965 281.885
  982 144.865 7.18914 -65.8319
  983 146.729 5.94994 65.9378
  984 10.8245 -7.16447 6.70457
  985 646.837 36.3340 46.1686
  986 564.118 -58.8499 62.8155
  987 693.676 -33.0850 -48.3337
  988 753.768 61.6346 60.2400
  989 717.733 -57.9569 -79.3508
  990 1042.24 218.659 77.6415
  991 618.997 -10.4583 -0.743697
  992 618.920 -10.3859 0.742524
  993 719.269 -29.7183 44.2771
  994 51.8778 99.0344 94.3437
  995 342.045 -6.69466 43.4231
  996 341.121 -6.60627 -43.8152
  997 402.117 -18.7933 59.7612
  998 400.842 -18.4841 -59.9349
  999 450.551 -17.6793 43.4177
  1000 492.529 -3.44776 -2.26568
  1001 492.613 -3.42475 2.25849
  1002 1144.31 384.936 -250.488
  1003 1059.72 266.676 117.158
  1004 450.199 -17.7545 -43.7231
  1005 740.361 -3.58533 49.2167
  1006 672.268 69.8415 -39.5497
  1007 475.323 -41.4277 133.543
  1008 604.147 -71.5230 -75.3264
  1009 689.285 -6.01321 -19.8238
  1010 319.329 20.4152 155.113
  1011 409.213 -31.0989 106.573
  1012 621.359 32.5078 -29.1199
  1013 698.228 -14.0515 -60.1350
  1014 844.408 384.424 385.059
  1015 590.775 18.7518 20.9078
  1016 786.813 167.177 -2.22995
  1017 571.068 23.7139 -224.867
  1018 589.168 -61.4465 -44.9982
  1019 732.306 -1.23832 -1.86643
  1020 716.309 65.7571 -60.9593
  1021 436.895 -2.42911 11.2243
  1022 436.694 -2.45296 -11.3092
  1023 16.9109 17.7105 -27.6066
  1024 483.713 -21.0915 -37.9473
  1025 408.695 -31.4892 -107.279
  1026 483.414 -21.0618 37.5967
  1027 683.425 -21.0566 55.6799
  1028 614.768 -37.7093 -6.26424
  1029 649.976 12.2892 -55.2283
  1030 669.361 83.5231 11.5563
  1031 879.004 59.5094 46.5085
  1032 674.945 -51.5324 22.3456
  1033 437.931 -34.2208 -81.6887
  1034 645.465 23.3036 -51.9510
  1035 479.021 -40.9246 -134.119
  1036 905.328 193.730 -6.01943
  1037 630.080 41.9241 26.4905
  1038 775.716 -3.91917 -24.8695
  1039 592.748 -61.5131 42.0093
  1040 676.714 -21.8091 42.4227
  1041 671.206 -35.7496 28.2639
  1042 667.497 -33.8976 23.9707
  1043 818.820 105.366 -38.8710
  1044 669.706 -10.9969 44.2732
  1045 603.384 -71.7191 74.1750
  1046 643.954 -26.6239 5.45493
  1047 438.212 -34.3038 81.3188
  1048 607.276 -44.2168 -13.5024
  1049 361.761 -17.8675 -113.920
  1050 507.350 -52.3116 91.3665
  1051 680.247 -4.93344 -23.3420
  1052 665.403 -7.57408 -50.8529
  1053 577.964 -44.9508 -28.6982
  1054 362.345 -18.3267 113.138
  1055 626.714 1.78788 -36.2220
  1056 470.166 -30.1470 -58.2883
  1057 830.218 174.974 17.6115
  1058 195.309 30.4141 -110.988
  1059 1356.59 95.5652 127.367
  1060 340.744 23.7419 -161.906
  1061 666.915 -55.4170 -10.8107
  1062 470.322 -29.9124 57.8818
  1063 621.037 7.05257 40.7575
  1064 359.945 -6.81201 35.9829
  1065 359.816 -6.97602 -36.3064
  1066 677.524 -19.0574 -51.8171
  1067 710.637 -4.32305 2.67659
  1068 702.134 -1.86235 10.0330
  1069 699.219 23.1210 65.9717
  1070 657.322 -4.92579 48.0617
  1071 503.586 54.9652 242.691
  1072 736.299 -0.862581 0.792635
  1073 706.622 95.3300 42.2165
  1074 606.518 9.31459 35.2983
  1075 709.303 -3.00749 9.51560
  1076 474.602 -4.52441 -9.60343
  1077 474.700 -4.47527 9.55584
  1078 307.857 -8.30130 -60.2154
  1079 308.891 -8.60459 59.8792
  1080 608.603 31.0665 14.8733
  1081 879.845 53.4737 -78.4484
  1082 808.964 3.42212 -134.182
  1083 663.437 -0.697255 -14.5265
  1084 507.432 -52.6865 -92.0021
  1085 579.193 -42.7633 26.1204
  1086 666.786 -1.61894 15.1343
  1087 692.249 -50.6091 -27.0283
  1088 451.747 -0.746406 5.59811
  1089 451.619 -0.761648 -5.62535
  1090 665.686 -57.0022 10.7855
  1091 634.105 -13.4889 -0.0168593
  1092 633.998 -13.5074 0.0473667
  1093 617.795 -61.8839 29.1877
  1094 783.987 -24.4701 -19.8772
  1095 379.034 -0.579130 -10.2210
  1096 379.568 -0.558874 10.1298
  1097 541.418 -35.1081 -153.729
  1098 581.244 -13.7747 4.64090
  1099 581.284 -13.8357 -4.66836
  1100 347.837 193.571 266.787
  1101 792.684 66.0099 -45.9760
  1102 125.115 58.7900 -86.5629
  1103 685.576 -10.9821 -8.62826
  1104 192.574 63.6976 -127.508
  1105 395.874 -24.1452 -77.2443
  1106 735.793 -1.19428 0.600294
  1107 735.998 -1.14448 -0.421037
  1108 677.975 -39.0334 -35.0719
  1109 599.891 -67.7975 -101.371
  1110 195.515 25.8979 105.754
  1111 738.584 73.0071 58.2318
  1112 666.658 -7.61186 -0.599331
  1113 666.748 -7.61207 0.653897
  1114 721.385 -45.3645 123.678
  1115 758.787 150.282 21.8731
  1116 463.342 -10.3825 -23.9028
  1117 463.469 -10.3425 23.7674
  1118 346.546 38.4389 191.286
  1119 648.211 3.55935 -53.3107
  1120 209.201 65.5559 136.501
  1121 810.797 -11.7831 -50.1205
  1122 810.637 176.471 6.01776
  1123 562.472 -43.6121 33.6838
  1124 533.842 3.27746 -2.26220
  1125 702.192 -6.71657 11.6882
  1126 724.021 -1.25372 4.50941
  1127 176.942 0.205290 -30.5894
  1128 178.886 0.133560 30.4070
  1129 589.871 10.5044 -26.2579
  1130 597.846 -17.5245 -4.57129
  1131 597.733 -17.4622 4.55341
  1132 64.9437 118.927 -100.739
  1133 100.676 242.928 -192.934
  1134 604.787 -23.5030 4.94441
  1135 604.983 -23.4784 -4.98887
  1136 623.113 -15.3339 -0.315133
  1137 623.029 -15.3147 0.354897
  1138 169.418 107.415 138.430
  1139 503.366 -5.71990 -4.81104
  1140 503.437 -5.68376 4.79433
  1141 627.292 47.9727 -0.583577
  1142 764.922 109.365 -278.626
  1143 754.539 129.335 -37.6061
  1144 686.779 -26.6273 -51.9917
  1145 676.108 -34.0733 -36.1619
  1146 562.678 -43.9939 -34.1999
  1147 576.192 2.12986 16.2042
  1148 639.557 40.3780 -38.6581
  1149 631.496 34.4945 37.0484
  1150 643.561 -25.8856 -5.31661
  1151 616.241 -36.9834 5.77120
  1152 564.005 -35.5979 -25.8874
  1153 667.592 -4.06461 28.1277
  1154 1142.60 114.865 15.7866
  1155 671.425 -14.4758 51.1107
  1156 676.338 44.5091 57.2991
  1157 620.591 -60.7156 -23.4819
  1158 86.1169 12.7297 -49.6742
  1159 632.204 -29.3541 -2.34958
  1160 439.133 -0.476480 -0.325679
  1161 439.253 -0.474097 0.323422
  1162 762.073 -20.1422 19.9654
  1163 725.812 -61.2981 35.7247
  1164 1035.41 183.737 47.8043
  1165 269.490 -0.375600 -25.1688
  1166 270.823 -0.321049 25.0079
  1167 569.952 -11.3900 -3.48220
  1168 569.936 -11.3311 3.46402
  1169 633.788 -55.7006 -8.02193
  1170 538.118 2.74130 7.43449
  1171 648.514 -46.2046 7.68572
  1172 40.1632 47.6562 -26.6818
  1173 123.588 59.7004 84.5174
  1174 439.205 -24.7426 148.399
  1175 752.593 142.057 -26.9349
  1176 711.637 -2.17642 -7.54499
  1177 738.623 -1.38731 0.318003
  1178 739.207 -1.80619 -0.153881
  1179 454.291 -0.770137 -0.982864
  1180 454.407 -0.763302 0.977639
  1181 694.068 44.3583 64.5024
  1182 1007.63 169.851 -3.66437
  1183 716.388 117.642 -28.3108
  1184 533.358 -39.9893 152.784
  1185 436.915 -23.8987 -148.086
  1186 489.256 -31.6877 -52.6445
  1187 662.888 -19.1193 9.52027
  1188 917.537 204.211 19.2119
  1189 489.339 -31.5223 52.2925
  1190 675.686 -12.5811 7.20019
  1191 616.568 23.5179 35.4603
  1192 672.288 21.0204 62.4116
  1193 941.990 209.764 30.8258
  1194 570.869 -14.6513 6.38993
  1195 570.883 -14.7072 -6.42222
  1196 685.064 -13.5466 17.9150
  1197 424.484 -4.09545 17.4349
  1198 424.207 -4.13438 -17.5651
  1199 669.503 -9.91062 -2.70462
  1200 279.783 169.037 -259.621
  1201 580.012 -33.0966 -163.742
  1202 556.457 -16.9485 -10.8584
  1203 556.525 -16.8863 10.8634
  1204 712.976 -4.01424 2.55631
  1205 679.092 -9.71299 5.69905
  1206 40.2727 53.1422 40.5252
  1207 732.717 -1.07827 2.21940
  1208 92.4038 121.155 120.028
  1209 664.503 -10.7062 -3.58829
  1210 -0.392396 -15.6946 -13.8528
  1211 477.054 -46.6804 -115.213
  1212 475.891 -45.5755 114.141
  1213 732.678 -1.52063 -2.50168
  1214 635.990 -33.6022 -3.20926
  1215 712.668 -3.73671 -2.50775
  1216 582.163 -18.5965 -6.89025
  1217 582.126 -18.5462 6.83963
  1218 669.098 -9.85483 2.49319
  1219 631.767 -28.7626 2.32646
  1220 609.578 -19.6928 2.88213
  1221 609.767 -19.7276 -2.82286
  1222 711.891 -3.84301 -2.01350
  1223 619.122 -65.7151 -113.827
  1224 698.123 -5.14489 -1.93637
  1225 667.116 -10.9714 3.99697
  1226 481.605 -4.72744 -7.26343
  1227 481.698 -4.68401 7.23162
  1228 531.794 -7.44934 -4.04036
  1229 531.833 -7.40592 4.02575
  1230 839.390 132.203 30.5684
  1231 707.045 -54.7934 17.3960
  1232 488.543 -2.85141 187.958
  1233 409.333 -0.504583 6.70718
  1234 409.017 -0.510847 -6.76225
  1235 674.541 -12.7222 37.9780
  1236 643.822 -10.4168 0.182622
  1237 643.837 -10.3883 -0.182721
  1238 741.503 142.864 12.7326
  1239 670.721 -70.5800 92.4077
  1240 407.639 -5.27916 24.2029
  1241 407.278 -5.31407 -24.3497
  1242 643.301 -16.2000 2.25979
  1243 643.157 -16.3196 -2.13453
  1244 662.512 -18.9176 -9.09509
  1245 620.142 0.205655 18.7081
  1246 1037.33 258.598 -92.9664
  1247 675.848 -25.1525 -32.1146
  1248 124.404 27.8218 71.6445
  1249 697.274 -37.5269 44.2006
  1250 575.858 13.2865 -14.3941
  1251 48.1766 32.8073 28.3512
  1252 904.237 106.698 -22.7972
  1253 682.189 -31.3118 -45.7437
  1254 578.294 8.79778 22.0889
  1255 398.472 -24.2019 77.1899
  1256 691.012 -53.8421 23.2790
  1257 984.898 199.931 77.0333
  1258 241.143 34.0508 133.733
  1259 693.157 -8.91564 -15.5397
  1260 1285.93 14.7175 -12.5850
  1261 1325.07 19.6300 55.4660
  1262 1409.24 46.4871 -132.842
  1263 675.934 -21.4594 -41.1822
  1264 674.984 -31.1822 33.7392
  1265 684.807 -49.0826 29.5638
  1266 -19.8992 2.66074 12.3320
  1267 -17.9900 2.23992 -13.5622
  1268 664.946 -73.8790 -47.0186
  1269 679.494 -69.1233 -67.2646
  1270 541.482 3.75152 -9.15056
  1271 661.773 -75.1125 66.6779
  1272 708.639 -33.9213 -44.5875
  1273 17.1852 22.6033 5.46268
  1274 582.826 -10.6877 2.04230
  1275 582.860 -10.7519 -2.04757
  1276 701.340 -6.28876 10.3090
  1277 675.572 -12.3775 -6.68353
  1278 638.744 -69.6877 -27.5922
  1279 588.077 -31.3235 13.0550
  1280 585.303 -30.8586 -13.7697
  1281 683.783 -14.9840 25.5924
  1282 701.175 -26.0424 -53.0152
  1283 49.9088 34.2034 -27.8752
</Section>

newXOutput 95

<Section columns = "stress_xx | stress_yy | stress_xy">
  1 749.687 -0.442332 1.30090
  2 749.668 -0.424098 -1.30315
  3 437.760 -0.0469395 -0.466264
  4 -5.42129 -5.32960 -7.80249
  5 1289.62 552.846 426.182
  6 1278.20 571.163 -421.292
  7 -6.30786 -5.03398 8.34494
  8 437.638 -0.0482184 0.465320
  9 754.324 -1.38374 0.348626
  10 753.078 -2.13344 -0.483017
  11 751.940 -1.54674 1.38049
  12 750.746 -2.02059 0.184197
  13 748.108 -1.74642 2.16590
  14 745.656 -1.74106 1.45619
  15 739.413 -1.52710 3.17106
  16 730.001 -1.24504 4.72177
  17 721.730 -1.22492 5.37028
  18 709.032 -1.53110 6.61344
  19 690.921 -0.285206 9.93706
  20 674.205 -1.11847 9.58419
  21 654.561 -1.34670 13.6843
  22 626.253 0.930745 12.0411
  23 605.290 1.55994 14.3539
  24 577.888 2.53493 11.3385
  25 558.727 2.89201 11.4834
  26 530.993 3.83665 5.88530
  27 525.053 6.00564 6.35162
  28 521.431 5.04688 -1.89298
  29 526.266 3.13593 -4.08768
  30 535.218 2.89498 -5.03131
  31 556.020 3.53569 -10.0056
  32 576.243 2.79983 -12.5513
  33 605.490 0.780301 -14.8187
  34 628.811 -0.236067 -13.3295
  35 653.328 -1.05788 -12.9437
  36 675.344 -0.889286 -9.04780
  37 693.930 -0.983082 -7.63008
  38 708.997 -1.51300 -6.30073
  39 722.267 -1.14856 -4.24633
  40 730.256 -1.43044 -4.43981
  41 737.994 -1.64072 -3.21438
  42 745.072 -1.90051 -1.23498
  43 748.617 -1.56319 -1.57406
  44 750.207 -1.07504 -0.909816
  45 748.237 -0.768402 -0.836534
  46 753.701 -2.11252 0.365835
  47 754.492 -1.42555 -0.358462
  48 732.888 -1.11838 -0.807140
  49 718.460 -3.78309 -1.56934
  50 700.562 -5.38592 -0.856203
  51 678.556 -7.59667 -1.21950
  52 657.459 -8.18289 -1.43061
  53 634.772 -9.83251 -1.39183
  54 614.536 -10.6964 -0.644512
  55 596.776 -11.6358 -0.0796563
  56 576.222 -9.56354 -0.0417246
  57 552.516 -8.76623 -0.309421
  58 529.720 -6.75860 0.0842381
  59 508.179 -4.14561 0.130682
  60 487.781 -2.83742 0.191074
  61 470.009 -1.30352 0.313782
  62 451.994 -0.233027 -0.518857
  63 437.873 0.641522 0.837533
  64 431.379 1.56621 0.627745
  65 435.263 0.0821798 1.37184
  66 429.882 -0.121877 1.68442
  67 424.655 -0.222909 2.09024
  68 417.694 0.0541757 2.66026
  69 408.943 0.0386097 3.30550
  70 402.039 -0.361542 6.17807
  71 383.981 0.553585 6.70838
  72 370.988 0.0197909 7.57226
  73 351.657 -0.258469 8.62164
  74 329.512 -0.473603 10.4617
  75 301.772 -0.0609122 12.7087
  76 267.964 0.194678 14.0894
  77 238.096 -0.192079 20.1845
  78 180.240 1.80151 19.2186
  79 140.008 1.54818 20.3855
  80 91.0408 -0.470491 22.8630
  81 49.6100 3.53691 24.1167
  82 2.04517 5.45523 15.1473
  83 -33.4886 5.58273 6.17623
  84 -34.7958 5.57571 -0.724095
  85 -35.3397 4.71819 -10.2706
  86 -21.0231 -1.20171 -10.0872
  87 -2.36053 -20.1766 -11.2164
  88 2.34206 -36.6771 -13.6282
  89 5.98327 -55.7885 -6.40604
  90 12.9696 -52.9109 3.26694
  91 26.9547 1.31341 38.7692
  92 77.8389 143.609 122.195
  93 431.029 447.194 385.779
  94 1569.33 238.724 257.472
  95 1424.37 33.8634 82.6294
  96 1332.96 14.3656 25.2897
  97 1299.35 12.3707 1.84938
  98 1317.74 16.2425 -22.1599
  99 1422.46 31.9543 -65.5585
  100 1652.04 115.185 -218.901
  101 258.607 463.186 -325.307
  102 58.1773 113.648 -102.839
  103 29.5930 4.28357 -42.1335
  104 12.2081 -52.0358 -9.48330
  105 3.82616 -41.7003 7.19398
  106 4.53076 -46.4202 11.6819
  107 0.341281 -17.2844 12.4464
  108 -21.9883 -0.643720 9.49876
  109 -36.4453 3.54471 8.88478
  110 -36.7100 6.75090 0.902478
  111 -34.5051 5.46672 -5.83158
  112 -0.463243 5.58985 -14.2714
  113 47.4625 3.56596 -23.0404
  114 88.8618 -0.0829973 -22.4924
  115 137.738 1.67120 -20.4171
  116 178.180 1.84518 -19.3486
  117 236.504 -0.200334 -20.3336
  118 266.607 0.212217 -14.2099
  119 300.582 -0.0578862 -12.8527
  120 328.919 -0.531993 -10.5252
  121 350.825 -0.240268 -8.63621
  122 370.351 0.0425147 -7.64064
  123 383.454 0.547936 -6.77104
  124 401.651 -0.365706 -6.23099
  125 408.624 0.0358853 -3.33764
  126 417.443 0.0515271 -2.68652
  127 424.455 -0.227350 -2.11090
  128 429.719 -0.125692 -1.69872
  129 435.122 0.0790294 -1.38084
  130 431.248 1.56499 -0.631822
  131 437.749 0.640851 -0.840140
  132 451.875 -0.236486 0.517731
  133 469.899 -1.31227 -0.316826
  134 487.686 -2.85642 -0.194592
  135 508.106 -4.17195 -0.134032
  136 529.673 -6.79673 -0.0876735
  137 552.499 -8.81499 0.306614
  138 576.239 -9.62060 0.0385296
  139 596.820 -11.7010 0.0779403
  140 614.601 -10.7620 0.646459
  141 634.868 -9.89221 1.39860
  142 657.548 -8.22323 1.45501
  143 678.631 -7.63283 1.33961
  144 700.692 -5.13707 0.874340
  145 718.941 -3.70098 1.53358
  146 733.036 -1.23348 0.793579
  147 665.150 -62.5806 2.88841
  148 664.539 -61.7222 -2.65897
  149 704.398 100.805 -30.5774
  150 744.000 43.8074 62.7392
  151 564.459 -54.9724 -129.216
  152 569.178 -54.8403 125.299
  153 555.939 -22.8788 17.5058
  154 555.962 -23.1758 -17.5079
  155 784.214 28.8868 -43.8094
  156 663.473 -24.3331 10.0336
  157 663.181 -23.7802 -9.92194
  158 856.913 188.663 5.19898
  159 682.922 -1.03539 -63.2451
  160 511.431 -39.2130 -58.5121
  161 511.501 -38.9106 58.0660
  162 683.033 -15.6501 56.2575
  163 655.216 48.2107 38.6213
  164 275.326 42.4148 -154.600
  165 303.694 40.3305 162.643
  166 822.380 11.2493 -5.47556
  167 682.843 -26.5654 -37.4215
  168 897.884 197.155 5.81215
  169 617.738 -17.5892 -2.42338
  170 617.622 -17.5514 2.46516
  171 686.607 -9.16895 -4.23446
  172 688.477 -8.34160 3.60477
  173 496.854 -6.53503 -9.76962
  174 496.930 -6.47237 9.73182
  175 729.520 -16.9359 164.574
  176 635.924 26.9479 -41.7187
  177 419.851 -30.9387 -91.9585
  178 421.056 -30.7224 91.4443
  179 473.444 -14.6421 -30.6124
  180 473.505 -14.4853 30.4268
  181 685.746 -18.4620 31.8888
  182 625.648 -42.6528 -6.66288
  183 623.624 -42.3363 7.54156
  184 704.586 -68.6303 -20.5128
  185 708.480 -65.3862 11.8953
  186 967.874 228.922 -43.3837
  187 717.600 114.452 28.4279
  188 715.723 44.0043 -64.5207
  189 725.775 -3.12168 -189.575
  190 706.660 -40.2675 -41.6318
  191 712.923 -28.8738 50.4071
  192 597.171 -67.6446 66.0226
  193 597.176 -67.1353 -65.8619
  194 644.970 8.54258 49.7984
  195 302.550 -7.97753 -113.162
  196 303.198 -8.54998 112.549
  197 1082.92 160.901 23.9950
  198 670.479 -40.1874 20.6955
  199 693.518 -13.3499 -20.1519
  200 559.516 -13.2939 -8.39836
  201 559.541 -13.2392 8.37929
  202 671.354 -8.82857 -43.7047
  203 761.379 111.498 -49.9995
  204 645.824 58.4234 -7.70395
  205 428.713 -14.3334 42.3204
  206 428.113 -14.3675 -42.5846
  207 701.536 -8.53668 10.3733
  208 690.746 13.0569 65.2133
  209 565.034 -40.2491 -30.4949
  210 561.642 -38.0850 30.9576
  211 807.678 120.148 42.6535
  212 935.574 136.081 36.7759
  213 70.4207 53.0335 -47.6553
  214 65.3200 49.0152 40.7655
  215 393.460 114.865 266.708
  216 663.976 -44.2668 -14.3251
  217 703.651 -8.18420 -9.34277
  218 638.440 5.99038 -45.9184
  219 458.389 -4.05389 -13.6689
  220 458.539 -4.01024 13.5722
  221 601.689 -27.8946 -9.05503
  222 601.975 -28.0890 8.72693
  223 676.244 -9.27189 36.9114
  224 766.909 -44.0124 27.5810
  225 773.319 156.241 -14.0742
  226 606.578 -58.0755 -33.8499
  227 759.070 -13.2545 35.5643
  228 650.592 -11.5767 0.838133
  229 650.587 -11.4943 -0.838089
  230 602.510 -57.8119 34.8440
  231 686.385 -43.8879 33.1501
  232 944.017 131.916 -75.9648
  233 220.041 130.844 -197.689
  234 595.910 21.6504 10.1151
  235 694.854 61.2544 55.1898
  236 733.381 -5.27173 -54.8184
  237 687.774 -25.0112 -51.7809
  238 381.484 -11.6176 -52.5188
  239 382.676 -11.4520 52.4007
  240 688.234 -8.69503 -27.9527
  241 655.278 -17.1310 4.46434
  242 654.979 -17.1241 -4.24091
  243 148.547 12.4553 -74.2588
  244 150.544 10.9017 73.9727
  245 723.218 -63.5580 -64.7712
  246 714.540 -3.34970 1.10903
  247 715.166 -3.40459 -1.30531
  248 679.982 56.5540 -50.8392
  249 606.239 12.3066 30.4047
  250 1204.13 192.758 130.093
  251 1192.97 135.907 -80.4897
  252 887.744 188.897 1.67117
  253 555.499 -27.3409 170.326
  254 511.576 -18.4199 -177.721
  255 590.967 -12.1281 -3.52530
  256 590.924 -12.0640 3.50682
  257 498.945 -12.5788 19.3657
  258 498.919 -12.7410 -19.5042
  259 702.052 -8.17181 16.4695
  260 683.461 -48.9509 -25.8653
  261 462.044 -0.579298 -3.29894
  262 462.162 -0.567223 3.28347
  263 675.029 -27.7977 -21.1402
  264 301.246 -9.54021 -73.3095
  265 302.373 -9.56789 72.8512
  266 684.245 -30.0126 40.4206
  267 526.684 -55.9189 104.126
  268 527.851 -56.9107 -103.796
  269 603.629 23.8531 -14.1582
  270 521.284 -7.48602 -6.62326
  271 521.341 -7.44189 6.60387
  272 648.707 -1.43673 36.4453
  273 768.554 139.575 34.3465
  274 427.881 -4.71507 22.6356
  275 427.580 -4.75087 -22.7963
  276 700.212 -58.9002 14.8524
  277 648.132 -73.1673 -73.4186
  278 717.805 -4.20969 4.58191
  279 513.770 -29.3605 -40.4553
  280 513.004 -29.0524 40.3345
  281 865.292 105.111 238.214
  282 429.486 -34.9199 123.146
  283 687.347 96.2204 -3.22667
  284 850.991 96.8925 -21.4320
  285 649.286 -50.1420 1.77842
  286 648.908 -75.1199 66.8603
  287 430.619 -34.3940 -124.380
  288 83.0334 103.000 96.2562
  289 675.148 -27.8719 21.5622
  290 875.199 117.697 13.2416
  291 722.683 -3.77019 -3.97692
  292 668.466 23.7296 -58.5734
  293 654.108 -37.1308 8.99435
  294 641.004 -53.9296 7.89730
  295 666.495 30.8685 56.5833
  296 697.086 -58.8697 -12.5222
  297 979.377 188.242 -19.4975
  298 653.942 -35.7140 -8.55234
  299 530.164 160.505 -322.243
  300 666.556 -70.8498 -20.4854
  301 662.046 -72.8163 27.8878
  302 495.371 -44.1166 -81.5322
  303 457.691 -1.42880 -7.08692
  304 457.828 -1.40326 7.04329
  305 495.639 -44.1714 81.1446
  306 707.691 -1.24760 -64.2710
  307 756.996 -31.3540 -20.1238
  308 586.223 -34.6467 -17.9373
  309 585.933 -34.7308 18.2278
  310 688.077 -59.2552 114.070
  311 693.385 -5.92312 21.1279
  312 829.056 7.30828 49.4604
  313 575.863 -19.8833 -10.2428
  314 575.916 -19.8337 10.2017
  315 529.271 -13.1173 -13.3022
  316 529.294 -13.0065 13.2906
  317 600.657 8.55903 -29.3796
  318 752.675 55.3489 -60.3750
  319 1137.53 310.541 -153.820
  320 682.410 -6.92725 -1.27868
  321 682.083 -6.84291 1.33260
  322 375.331 -1.89652 153.779
  323 525.711 -22.9080 -27.5292
  324 524.842 -22.8557 27.6073
  325 375.255 -2.83469 -153.186
  326 721.717 84.9967 -52.9283
  327 797.730 40.3676 40.6037
  328 687.434 -48.9720 -125.811
  329 640.173 -24.9382 2.34738
  330 639.575 -24.7833 -2.09919
  331 679.552 -14.8539 -9.42189
  332 649.063 -1.10134 -34.0492
  333 719.726 2.87654 62.2771
  334 712.959 -5.58124 -11.1876
  335 444.222 -25.9674 61.8624
  336 443.744 -26.0955 -62.2692
  337 673.952 -1.41073 60.3267
  338 431.404 -3.09028 -13.5865
  339 431.663 -3.06267 13.4853
  340 684.946 -16.4297 16.0134
  341 823.130 167.011 -22.3823
  342 679.324 -14.9391 9.83783
  343 729.328 91.1987 52.8780
  344 696.386 -13.1487 61.1883
  345 559.092 -10.1877 3.27452
  346 559.083 -10.2399 -3.28986
  347 663.278 -2.22934 -53.6739
  348 866.793 181.498 10.2917
  349 729.302 132.449 1.08060
  350 445.010 51.2564 -226.316
  351 52.7128 20.4693 -34.4369
  352 57.0696 22.1934 36.7240
  353 -0.456661 6.19026 11.7993
  354 1.93466 4.11176 -12.4793
  355 1226.96 85.3465 28.4504
  356 603.400 -48.3836 -21.6717
  357 685.341 -15.9226 -15.5974
  358 622.828 -11.3828 -0.117601
  359 622.760 -11.3056 0.111419
  360 671.681 74.2798 -27.5876
  361 570.982 -57.5094 54.4491
  362 53.6895 80.9780 -61.8341
  363 571.384 -57.4605 -55.2987
  364 679.797 77.3480 29.3320
  365 685.568 -18.7908 -30.1990
  366 724.464 -40.7881 -33.4035
  367 778.438 162.252 9.59835
  368 725.628 -45.7550 25.8152
  369 318.567 -7.42470 48.9144
  370 316.903 -7.27642 -49.1684
  371 184.372 3.93271 -69.3474
  372 185.978 3.27961 69.0626
  373 609.012 2.58396 29.5978
  374 1103.48 330.694 139.642
  375 706.189 -4.97824 -14.7618
  376 558.179 -46.1619 -42.1145
  377 557.827 -46.0835 42.0654
  378 682.908 -16.1143 -39.4185
  379 768.406 -37.0482 -5.32959
  380 603.379 -48.3564 22.1922
  381 835.853 9.72700 -81.0711
  382 496.930 -3.54014 -2.78717
  383 497.016 -3.51270 2.77406
  384 674.098 -4.09868 -25.7462
  385 379.370 -5.00726 -31.7514
  386 379.555 -5.18006 31.4070
  387 798.176 102.527 -48.3838
  388 435.668 30.3087 211.050
  389 629.482 -32.9385 -1.72194
  390 630.074 -32.8937 1.70330
  391 741.112 124.503 -32.9621
  392 698.408 -20.9345 -57.3413
  393 694.391 -71.3664 66.1802
  394 589.026 -15.5063 -5.67480
  395 588.976 -15.4486 5.63803
  396 672.750 -52.0768 15.1880
  397 718.793 -3.94302 8.19428
  398 466.009 -16.0198 -37.9641
  399 466.198 -16.0342 37.6932
  400 687.926 23.2718 -64.5110
  401 645.780 -14.6108 1.12781
  402 645.743 -14.6533 -1.06002
  403 671.627 -8.05328 48.7593
  404 633.584 46.7677 13.4907
  405 692.471 -29.5970 49.2241
  406 988.354 205.138 41.9432
  407 346.708 -18.4963 -98.5770
  408 347.591 -18.4928 97.9169
  409 157.144 82.0241 -122.210
  410 731.182 -2.81474 1.96172
  411 395.634 -2.91521 -20.1520
  412 396.095 -2.85370 20.0065
  413 683.246 -18.1941 38.3833
  414 620.445 -67.0830 38.8501
  415 694.483 -9.51574 6.60857
  416 714.360 36.2355 66.4482
  417 163.897 87.3351 126.723
  418 621.284 -66.6546 -36.2103
  419 641.364 -59.4214 -12.5452
  420 224.469 -4.43744 -62.2822
  421 225.865 -4.58380 61.9018
  422 495.496 -40.5181 -148.464
  423 733.168 -11.2162 53.1528
  424 493.934 -41.0195 147.283
  425 679.136 -38.4594 -29.8031
  426 641.369 43.8844 -29.3094
  427 679.148 -29.8090 28.7129
  428 722.999 -3.90162 -5.22490
  429 24.6805 28.0450 15.2883
  430 153.120 182.096 178.101
  431 659.949 -2.38156 25.1157
  432 566.948 8.42463 13.0035
  433 575.444 10.1063 -17.5602
  434 491.093 -7.41732 -13.6741
  435 491.162 -7.32839 13.6055
  436 669.517 -52.0242 -13.4032
  437 679.469 -13.4957 -54.1991
  438 569.528 11.4556 -4.76405
  439 986.705 236.431 58.9885
  440 147.316 46.4747 -92.0683
  441 161.468 42.6115 97.7893
  442 628.897 -22.5609 -0.749093
  443 628.683 -22.5304 0.893803
  444 835.772 181.751 -1.52212
  445 507.699 229.131 329.274
  446 794.701 -10.0068 0.520598
  447 473.959 -23.7104 -51.4960
  448 474.196 -23.5664 51.1260
  449 479.686 -9.91982 20.8534
  450 479.581 -9.98388 -21.0054
  451 637.159 14.7150 -47.4421
  452 734.347 -1.62712 -1.23083
  453 621.954 29.2736 26.8769
  454 770.120 95.0049 54.7501
  455 642.976 -47.6193 0.134365
  456 694.115 -9.11854 -6.45334
  457 725.623 -3.59484 4.80434
  458 732.095 -1.76708 0.695461
  459 732.560 -1.92182 -0.458762
  460 430.488 -0.567265 5.12520
  461 430.277 -0.576821 -5.16727
  462 700.537 -44.9372 36.0460
  463 642.911 25.9022 45.9718
  464 667.585 2.88349 -59.0876
  465 689.765 -15.2137 21.8330
  466 963.246 181.519 -206.272
  467 692.658 -38.7970 -41.8575
  468 11.0674 13.8304 8.15696
  469 10.8233 14.2266 -4.71300
  470 556.827 -30.6433 24.8268
  471 555.137 -30.1935 -24.4676
  472 842.977 21.9785 115.632
  473 241.071 231.548 -254.255
  474 685.643 -2.35104 19.0785
  475 764.351 -43.7564 -69.5018
  476 425.873 -23.6513 71.2970
  477 827.639 147.178 -32.3878
  478 682.879 -37.3467 34.5379
  479 579.806 -27.0880 -13.8897
  480 580.299 -26.6633 13.8687
  481 608.879 3.51072 -26.0902
  482 424.624 -23.5386 -71.6554
  483 622.307 0.589129 26.0883
  484 586.426 -67.3303 -94.4930
  485 585.017 -67.4321 94.9514
  486 702.880 -5.09884 16.3723
  487 650.640 61.7435 5.56008
  488 641.366 13.6572 228.429
  489 948.902 190.352 -1.17945
  490 659.840 -11.8986 2.14040
  491 659.861 -11.8605 -2.28546
  492 520.762 -8.63543 -9.08351
  493 520.815 -8.57202 9.05997
  494 278.346 11.5120 130.561
  495 686.295 -33.4310 -41.4834
  496 624.665 -13.9517 -1.25083
  497 624.605 -13.9152 1.25697
  498 547.042 -57.4275 77.1767
  499 283.419 15.3961 -133.727
  500 685.772 -56.2141 -15.5582
  501 13.6391 6.29321 2.16343
  502 613.831 32.4979 2.02011
  503 661.751 -8.53812 -0.624790
  504 661.750 -8.63471 0.593533
  505 547.236 -57.2990 -77.7254
  506 764.842 -38.1450 85.6670
  507 765.703 27.9586 54.4969
  508 703.449 -5.69264 -2.95796
  509 683.708 -56.9693 15.9352
  510 450.112 -0.212590 -0.998084
  511 450.234 -0.209323 0.992445
  512 684.769 -26.6212 -45.1364
  513 669.825 49.7787 49.8905
  514 756.738 18.8642 -53.9902
  515 447.350 -0.488648 -2.90448
  516 447.484 -0.480606 2.88935
  517 1277.15 184.950 -163.426
  518 695.443 82.5946 43.5388
  519 703.947 -5.35111 2.59858
  520 642.674 -60.7621 14.1307
  521 548.982 -17.4914 14.1086
  522 548.956 -17.6090 -14.0803
  523 741.527 -45.5202 9.37969
  524 717.184 -14.6293 -57.1595
  525 803.144 156.914 28.9404
  526 673.167 11.7876 61.3621
  527 671.426 -13.7095 5.28977
  528 651.035 -70.0712 -92.5259
  529 680.724 -17.1775 45.2637
  530 1259.40 58.3043 -22.7610
  531 735.628 -55.7651 8.78491
  532 699.119 -5.58741 -0.511684
  533 699.290 -5.87702 0.380658
  534 1272.52 85.2970 79.0243
  535 657.816 -0.0209131 52.2145
  536 900.150 155.787 -0.337331
  537 683.942 -19.2523 -20.7695
  538 329.535 -2.79899 -21.6676
  539 330.392 -2.66110 21.4722
  540 471.881 -43.9289 -103.332
  541 472.324 -43.2010 102.633
  542 671.044 -13.1952 -5.27597
  543 732.449 26.8903 -63.4657
  544 644.779 -43.8129 2.37272
  545 698.265 79.9755 -45.0059
  546 696.104 -8.68686 21.9852
  547 859.793 47.1234 -23.5670
  548 601.435 -20.4568 -5.97482
  549 601.286 -20.4084 5.93123
  550 648.997 -30.8178 5.92866
  551 940.495 191.938 -29.2680
  552 687.504 30.1890 63.6248
  553 297.941 76.1537 191.717
  554 653.261 -38.9690 155.614
  555 848.388 49.3835 -173.268
  556 702.541 58.1655 -58.8501
  557 616.261 -53.8524 -135.435
  558 668.560 -73.6056 -33.3567
  559 695.633 -70.9591 -45.8110
  560 96.1126 129.190 -121.878
  561 699.996 -9.68530 -12.5438
  562 1041.15 201.582 -63.5039
  563 652.211 -29.6651 -7.28179
  564 656.888 -21.8615 6.08212
  565 656.305 -21.4021 -5.72734
  566 471.123 -2.26937 -6.52302
  567 471.236 -2.24040 6.49060
  568 75.5966 6.61537 -39.3594
  569 78.9324 6.96218 40.2047
  570 352.205 -15.7741 -74.8952
  571 354.645 -15.8696 74.8476
  572 666.076 -36.4164 -17.0771
  573 675.842 -73.9207 35.6108
  574 694.524 -66.3785 -4.54848
  575 578.970 -10.1712 -2.73123
  576 578.949 -10.1114 2.71995
  577 545.323 -57.5921 -115.694
  578 605.107 -50.1875 142.826
  579 532.964 -54.2322 116.221
  580 687.264 -15.4434 -57.9894
  581 446.678 -6.76833 22.9800
  582 446.467 -6.83416 -23.1345
  583 661.215 36.9941 -50.2527
  584 660.286 -1.18277 -22.7837
  585 817.974 175.225 -12.3852
  586 544.348 -7.85573 -2.48091
  587 544.377 -7.81217 2.47197
  588 697.107 -2.25127 -12.4310
  589 494.869 -15.7647 -26.1022
  590 494.911 -15.7230 25.9141
  591 398.975 17.2081 182.293
  592 678.547 -31.6286 -28.9426
  593 387.711 -21.1323 131.354
  594 666.909 -34.8709 17.6333
  595 698.563 -10.6373 13.9977
  596 688.630 -7.26549 -2.47706
  597 501.840 -5.65458 -6.27815
  598 501.917 -5.61307 6.25489
  599 785.585 155.345 -26.6619
  600 387.420 -20.4326 -131.761
  601 664.606 -29.1982 -13.6137
  602 604.121 -11.4095 -1.65665
  603 604.067 -11.3396 1.65092
  604 1100.11 147.093 -26.7981
  605 417.584 -2.36158 12.5404
  606 417.257 -2.38326 -12.6372
  607 630.549 14.9856 43.4164
  608 872.080 77.5652 4.22898
  609 424.071 1.67886 -180.673
  610 226.485 4.73826 -100.213
  611 228.150 3.58293 99.6956
  612 535.090 -30.2079 33.0852
  613 540.174 -31.1012 -32.3355
  614 888.090 180.173 4.10394
  615 686.114 -7.49483 2.13361
  616 606.557 17.8217 -26.3726
  617 743.243 132.401 26.0972
  618 741.012 137.305 -17.3897
  619 608.855 -33.3825 -9.32942
  620 613.164 -32.6884 7.23354
  621 433.347 96.0964 -257.257
  622 530.750 -17.3382 -18.8127
  623 530.814 -17.1561 18.7685
  624 1273.34 261.608 197.210
  625 685.557 -22.7663 49.1970
  626 406.868 -13.5647 -47.8967
  627 1027.79 260.139 182.620
  628 407.736 -13.5014 47.7567
  629 647.247 -24.1529 -180.269
  630 479.050 -1.93179 -2.39467
  631 479.153 -1.91559 2.38563
  632 587.596 5.71314 23.0481
  633 277.686 -3.83203 -42.8866
  634 278.973 -3.84380 42.5970
  635 601.365 -42.0037 17.4506
  636 628.369 -49.9976 -9.42447
  637 729.810 -1.96521 -4.57733
  638 437.250 -0.528624 3.87095
  639 437.077 -0.539187 -3.90153
  640 571.088 -12.6456 -4.62641
  641 571.081 -12.5883 4.60305
  642 643.969 -71.9668 93.2268
  643 744.189 83.0416 -57.6098
  644 505.841 -22.5669 -33.5426
  645 505.544 -22.2002 33.3351
  646 591.017 -41.8063 -22.1522
  647 917.015 198.039 12.0561
  648 690.678 -67.2009 8.14532
  649 606.187 -14.6518 -3.39868
  650 606.110 -14.5961 3.39387
  651 821.685 91.2918 37.4602
  652 693.471 -10.6078 -23.8642
  653 625.453 -0.537141 -21.1947
  654 297.795 -10.2329 -94.7110
  655 298.574 -10.4820 94.0281
  656 588.999 -50.1147 -33.2716
  657 874.677 189.637 -0.272342
  658 687.330 92.8303 -19.6203
  659 468.269 -3.76068 -11.7698
  660 468.390 -3.71034 11.6962
  661 635.830 -18.3494 0.0380050
  662 635.947 -18.3524 0.0753374
  663 1150.16 149.457 66.2780
  664 737.549 -2.44635 1.06849
  665 718.598 -3.27189 8.14647
  666 716.403 -3.25664 -9.77221
  667 683.073 -63.8914 1.98423
  668 517.225 -5.56180 -3.13207
  669 517.288 -5.52770 3.12172
  670 735.586 117.084 40.5517
  671 930.965 205.784 -19.6890
  672 522.621 -37.7411 -47.5125
  673 522.542 -37.4012 47.3183
  674 643.075 -66.1356 -20.4019
  675 683.314 40.8132 -60.0514
  676 796.332 2.87073 16.2952
  677 544.447 -9.70403 -6.64350
  678 544.479 -9.65223 6.62405
  679 470.935 -40.7892 -93.2283
  680 676.862 -65.7041 4.00387
  681 566.962 -62.7970 85.1724
  682 276.143 85.9736 -185.331
  683 533.270 -48.6482 65.7207
  684 643.785 0.196968 19.4028
  685 471.405 -40.3454 92.6770
  686 664.248 -29.7215 13.7805
  687 533.351 -48.4210 -66.2378
  688 558.583 7.83899 4.86785
  689 433.516 -10.8515 34.3303
  690 433.161 -10.8523 -34.5263
  691 567.103 -64.4143 -86.0700
  692 696.188 -46.2332 -34.7545
  693 640.226 -9.66866 -0.0877276
  694 640.326 -9.75238 0.0890181
  695 710.435 -45.7109 33.6611
  696 647.622 -67.6520 23.1459
  697 783.687 72.2976 52.6353
  698 709.944 -13.5990 59.6114
  699 683.252 -24.9946 35.1636
  700 661.119 54.7268 -38.1224
  701 785.156 131.469 42.0069
  702 679.812 -9.63412 -35.6243
  703 674.400 -22.9327 16.2373
  704 704.801 109.703 10.5420
  705 687.364 -12.0839 30.3473
  706 221.543 152.287 194.962
  707 638.563 -73.6651 -56.7307
  708 739.066 13.3159 59.8020
  709 743.698 -23.1589 -39.0913
  710 735.347 -1.42616 2.34561
  711 682.051 -23.9925 -26.9017
  712 639.668 -74.2284 52.1545
  713 1199.25 106.544 -17.6412
  714 401.640 -1.48064 13.0964
  715 401.217 -1.49559 -13.1987
  716 689.296 -13.3080 -11.5926
  717 739.267 -1.12628 -2.34084
  718 588.079 -50.9470 33.4292
  719 700.810 -26.4213 53.5133
  720 1038.06 259.323 -95.0876
  721 664.368 -48.2812 12.6506
  722 731.932 -48.5444 -15.2875
  723 674.604 -22.3584 -15.9592
  724 737.962 -1.75848 -0.575161
  725 687.227 -0.138681 63.8542
  726 33.7444 39.2053 45.9026
  727 759.012 -27.2214 -122.359
  728 830.374 51.4026 18.0232
  729 695.262 -71.4414 41.9434
  730 511.554 -11.5619 15.2877
  731 511.531 -11.7114 -15.3424
  732 625.590 348.801 -344.722
  733 710.607 -47.4082 -30.4320
  734 556.614 3.57152 -9.32143
  735 636.065 3.83850 42.0222
  736 687.822 -34.7887 42.0445
  737 659.256 -55.5600 2.56128
  738 679.553 -62.4782 -100.281
  739 655.584 -51.8703 -4.08333
  740 766.232 -36.5018 2.62608
  741 706.957 -6.59389 6.58845
  742 637.888 -38.2340 0.280753
  743 1129.11 225.534 -123.000
  744 676.997 -18.7943 12.5385
  745 676.372 11.2957 -62.9151
  746 570.093 -5.83638 201.686
  747 721.663 58.0062 63.1115
  748 621.302 -48.5436 12.3991
  749 487.521 -37.4485 -68.5344
  750 487.621 -37.3684 68.0554
  751 666.558 75.1138 -8.81926
  752 673.221 -7.88340 55.5035
  753 678.806 -16.3655 -46.4713
  754 638.572 -39.0532 -0.431899
  755 618.276 -54.9780 21.7911
  756 709.894 116.296 -11.7228
  757 658.486 -57.0112 0.0172085
  758 660.332 -41.9517 12.6914
  759 666.717 -9.42020 1.54922
  760 667.069 -9.19915 -1.52407
  761 895.363 194.316 -1.15694
  762 729.181 -62.3437 -31.6931
  763 684.031 -21.4818 26.9403
  764 706.948 -6.60190 -5.88492
  765 720.565 4.68101 -62.9218
  766 812.679 44.3556 -29.6784
  767 422.946 -0.222903 -6.22324
  768 423.206 -0.217933 6.17300
  769 6.85391 -9.95113 -6.73484
  770 698.664 -1.05858 11.4612
  771 648.533 -0.728222 -46.1400
  772 666.688 -6.28028 40.0057
  773 594.003 79.8628 291.508
  774 757.727 153.848 -1.41410
  775 543.650 -37.8735 38.0902
  776 107.479 1.93956 -38.1820
  777 109.939 1.38961 38.5637
  778 661.646 -4.64897 -45.4320
  779 544.927 -38.2201 -38.1125
  780 702.929 -7.22149 4.73027
  781 377.490 -15.4354 63.7788
  782 374.520 -15.3705 -63.7415
  783 676.904 -18.2795 -12.1880
  784 449.236 -10.5071 -30.0193
  785 449.450 -10.4474 29.8001
  786 703.474 -7.28697 -16.1612
  787 548.992 -14.1013 -11.3233
  788 549.027 -14.0233 11.3300
  789 766.444 -4.59434 -38.4453
  790 696.175 -7.39424 -63.4290
  791 373.098 -2.13445 -16.5344
  792 373.715 -2.11413 16.3684
  793 25.6720 9.02732 -24.4401
  794 28.5690 9.54759 25.6260
  795 579.774 3.00023 -16.7033
  796 634.307 -71.2483 -43.8420
  797 -6.88924 -4.62165 12.2825
  798 -6.18085 -5.73095 -12.4044
  799 659.240 -13.9285 3.60468
  800 712.496 -56.0207 -13.0746
  801 742.018 109.461 -47.0558
  802 705.550 -6.55326 -4.52717
  803 1443.01 299.308 -270.606
  804 659.099 -13.8982 -3.54712
  805 982.009 184.821 17.8635
  806 708.306 20.6408 -66.4249
  807 777.156 59.1642 -54.3624
  808 146.894 -1.67022 -34.8141
  809 149.046 -1.85854 34.7641
  810 457.523 -6.01572 18.0529
  811 457.358 -6.06084 -18.1815
  812 441.560 -0.817100 3.43253
  813 441.411 -0.826296 -3.45366
  814 788.807 132.454 -41.3229
  815 483.038 -2.57063 -5.21771
  816 483.138 -2.54261 5.19637
  817 675.202 -6.76821 -58.0467
  818 943.503 108.296 98.1130
  819 616.464 14.4521 -36.6148
  820 226.854 -1.89117 36.7795
  821 225.297 -1.90964 -37.0300
  822 763.134 26.1813 212.464
  823 688.766 -13.4138 11.9609
  824 630.032 42.4623 -15.2213
  825 305.203 -0.322341 24.7564
  826 303.908 -0.188918 -24.9106
  827 448.576 -1.92384 -8.94974
  828 448.744 -1.89620 8.88508
  829 82.5371 72.5521 66.4181
  830 652.875 15.9845 53.8388
  831 722.290 105.611 -40.9734
  832 771.419 89.8014 -55.2188
  833 518.725 -18.6836 -24.0702
  834 518.475 -18.5674 24.0629
  835 801.370 168.451 18.0619
  836 685.742 -6.66486 -0.457044
  837 685.800 -6.61800 0.562312
  838 683.632 -20.9805 -35.8821
  839 578.191 -37.7601 24.1763
  840 630.764 -70.8261 43.8518
  841 732.589 -59.9611 67.3045
  842 574.423 -16.3211 -7.77611
  843 574.433 -16.2766 7.74109
  844 657.971 61.3165 24.5933
  845 621.343 9.01953 -39.4172
  846 171.711 220.299 202.480
  847 620.071 -54.5062 -20.3194
  848 622.622 -27.7511 -2.92366
  849 622.942 -27.8356 2.87803
  850 684.610 -10.2206 60.5284
  851 675.913 -44.6884 -23.5447
  852 607.647 -39.7149 -12.7689
  853 1317.22 42.6144 -63.2509
  854 578.717 -54.0099 43.9983
  855 578.200 -54.6740 -44.6220
  856 682.888 -8.41652 30.1933
  857 1008.65 264.517 -71.4204
  858 545.353 -48.5852 -53.0570
  859 597.736 -66.9065 52.2244
  860 545.296 -48.0336 52.6472
  861 589.581 -23.3461 -9.45603
  862 589.591 -23.2888 9.40897
  863 94.1073 37.7852 57.3981
  864 733.222 54.8321 -63.1363
  865 567.901 -21.5918 -13.0049
  866 568.017 -21.3945 13.0425
  867 562.106 -9.08816 -1.61064
  868 562.109 -9.03641 1.60307
  869 612.370 -12.4727 -1.51823
  870 612.305 -12.4055 1.51038
  871 508.187 -9.26575 -13.1148
  872 508.245 -9.17073 13.0748
  873 569.489 -29.1714 -18.8251
  874 569.577 -29.0044 18.9098
  875 15.3144 1.13575 -10.8248
  876 843.873 158.742 26.1102
  877 727.177 -25.8089 -47.4432
  878 597.132 -65.9146 -52.6756
  879 643.238 -21.0873 2.16993
  880 642.978 -20.8972 -2.02245
  881 702.031 0.740524 64.8645
  882 752.499 -53.5223 -42.3641
  883 661.560 52.5321 -254.350
  884 316.911 -6.08589 128.259
  885 -5.99367 7.38637 -10.7075
  886 -4.65065 8.36572 11.5932
  887 93.7256 40.1672 -58.6880
  888 683.079 -20.2605 20.5396
  889 713.979 -5.37234 -8.48513
  890 643.941 -62.5016 113.318
  891 316.216 -5.82766 -128.707
  892 717.542 -59.2615 6.04997
  893 789.395 -20.6573 102.659
  894 598.230 2.56766 17.6557
  895 676.002 64.4380 41.5482
  896 374.480 -20.7510 93.3859
  897 373.129 -20.9136 -93.9184
  898 447.917 -20.3332 -52.5906
  899 460.457 -23.6115 -162.433
  900 720.829 -17.1837 55.0411
  901 975.695 235.043 50.7652
  902 725.656 27.7918 64.3911
  903 685.687 -15.0697 -33.0473
  904 469.569 -21.1434 166.399
  905 866.943 161.409 -14.9302
  906 92.8867 77.3977 -81.0248
  907 642.178 -1.14438 -18.5075
  908 448.367 -20.1794 52.1934
  909 540.458 -11.4052 9.84473
  910 540.424 -11.4707 -9.85871
  911 676.823 -44.4398 24.5160
  912 697.139 -5.40081 1.54917
  913 516.853 4.18810 -200.617
  914 732.350 -1.96718 3.98333
  915 728.317 -1.66256 -5.28830
  916 568.223 5.26948 -15.4532
  917 708.514 -3.04443 -10.0626
  918 541.112 -24.3957 -22.9628
  919 541.463 -24.0572 23.0437
  920 -15.7064 7.09473 -8.75463
  921 -22.6340 4.28803 9.65536
  922 697.083 -5.07338 -1.63635
  923 246.299 -5.82334 86.7638
  924 245.052 -5.35660 -87.1986
  925 753.054 109.333 49.2039
  926 1288.14 23.4846 19.2208
  927 711.438 78.8989 53.5213
  928 789.928 -26.4701 37.4643
  929 695.560 -39.0942 41.8034
  930 863.042 180.264 -11.5564
  931 557.714 2.83897 11.6721
  932 668.326 -16.4530 -6.63519
  933 699.559 37.7394 -64.9611
  934 829.676 27.1167 -0.429050
  935 653.595 -40.4513 -8.83448
  936 353.587 -1.73340 -18.4133
  937 353.855 -1.67046 18.1787
  938 687.756 -16.7594 -24.8772
  939 26.1696 32.0929 10.3121
  940 660.534 -68.5577 -14.5674
  941 588.904 18.2887 -1.58976
  942 858.744 186.821 -7.61589
  943 142.954 105.808 -130.157
  944 666.686 -5.00149 -35.8450
  945 474.782 -7.24417 -17.0587
  946 474.888 -7.16519 16.9442
  947 5.02995 -17.6880 13.0648
  948 460.531 -33.3642 -75.4483
  949 673.479 -39.2467 -23.1166
  950 440.925 0.966681 -1.46139
  951 441.055 0.969959 1.45420
  952 687.310 83.3335 -33.0220
  953 719.935 -2.91247 -0.789502
  954 719.994 -2.93386 1.07574
  955 460.774 -33.2939 75.0111
  956 684.093 -1.17157 -13.9479
  957 778.393 5.96496 36.1997
  958 692.047 -10.5734 8.98782
  959 120.725 28.4114 -70.6818
  960 715.127 -5.01521 7.60864
  961 661.189 5.65541 57.2577
  962 697.002 96.1587 29.3309
  963 693.678 8.09980 -66.1713
  964 487.738 -25.0750 -45.8232
  965 741.516 -26.6385 37.3753
  966 488.062 -24.9990 45.4282
  967 25.3348 26.4333 -6.15969
  968 91.2824 14.0473 51.9893
  969 405.935 -6.59601 30.7990
  970 405.496 -6.59140 -30.9365
  971 668.806 -16.7202 7.11734
  972 726.228 125.246 15.8833
  973 372.388 32.8578 -191.261
  974 606.667 -37.4104 11.5633
  975 569.803 -59.0459 -63.9390
  976 822.927 157.044 29.6742
  977 635.696 -11.7383 -0.481725
  978 635.666 -11.6860 0.473598
  979 692.487 -13.5087 -17.2915
  980 652.346 56.7737 -22.6687
  981 1381.29 425.012 284.538
  982 146.544 7.25444 -66.5612
  983 148.422 6.00346 66.6675
  984 10.9511 -7.12593 6.83951
  985 653.396 36.7136 46.5345
  986 569.775 -59.4299 63.5272
  987 700.527 -33.4174 -48.6328
  988 761.193 62.2460 60.6271
  989 724.672 -58.5166 -80.3031
  990 1052.19 220.737 78.4739
  991 625.163 -10.5704 -0.759568
  992 625.086 -10.4975 0.758354
  993 726.331 -30.0166 44.5162
  994 52.4277 100.339 95.4349
  995 345.770 -6.75743 43.8700
  996 344.839 -6.66815 -44.2647
  997 406.375 -18.9739 60.3838
  998 405.088 -18.6613 -60.5583
  999 455.274 -17.8459 43.8786
  1000 497.689 -3.47415 -2.29081
  1001 497.774 -3.45101 2.28357
  1002 1154.72 388.844 -253.103
  1003 1069.80 269.239 118.421
  1004 454.919 -17.9215 -44.1862
  1005 747.621 -3.62154 49.4906
  1006 679.049 70.5495 -39.8542
  1007 480.126 -41.8580 134.954
  1008 610.129 -72.2348 -76.1853
  1009 696.086 -6.07980 -19.9550
  1010 322.645 20.5970 156.769
  1011 413.452 -31.4180 107.696
  1012 627.719 32.8546 -29.3549
  1013 705.140 -14.1938 -60.5468
  1014 851.920 388.633 388.801
  1015 596.895 18.9602 21.0800
  1016 794.638 168.795 -2.24223
  1017 576.612 23.9717 -227.194
  1018 595.054 -62.0491 -45.5419
  1019 739.333 -1.25905 -1.87188
  1020 723.438 66.4137 -61.3989
  1021 441.579 -2.44718 11.3455
  1022 441.376 -2.47119 -11.4310
  1023 17.1103 18.0818 -27.9909
  1024 488.734 -21.2897 -38.3587
  1025 412.928 -31.8121 -108.408
  1026 488.432 -21.2601 38.0056
  1027 690.208 -21.2700 56.0630
  1028 620.902 -38.0794 -6.41935
  1029 656.540 12.4209 -55.6587
  1030 676.132 84.3679 11.6453
  1031 887.353 60.2080 47.2384
  1032 681.604 -52.0460 22.4059
  1033 442.472 -34.5593 -82.5480
  1034 652.003 23.5500 -52.3609
  1035 483.854 -41.3506 -135.533
  1036 914.172 195.572 -6.12367
  1037 636.513 42.3645 26.7042
  1038 783.252 -3.94141 -24.8872
  1039 598.668 -62.1172 42.5271
  1040 683.423 -22.0326 42.7022
  1041 677.840 -36.1093 28.4015
  1042 674.094 -34.2392 24.0755
  1043 826.806 106.426 -39.0116
  1044 676.382 -11.1105 44.5907
  1045 609.362 -72.4327 75.0221
  1046 650.333 -26.8934 5.42060
  1047 442.757 -34.6436 82.1758
  1048 613.342 -44.6474 -13.7333
  1049 365.547 -18.0604 -115.120
  1050 512.490 -52.8345 92.3456
  1051 686.993 -4.98897 -23.5032
  1052 672.056 -7.65088 -51.2284
  1053 583.775 -45.3868 -29.0650
  1054 366.136 -18.5235 114.332
  1055 633.097 1.81161 -36.5067
  1056 475.033 -30.4374 -58.9092
  1057 838.399 176.667 17.6540
  1058 197.438 30.7076 -112.211
  1059 1368.78 96.4190 128.448
  1060 344.259 23.9537 -163.625
  1061 673.497 -55.9674 -10.7647
  1062 475.192 -30.2010 58.4997
  1063 627.381 7.13465 41.0827
  1064 363.852 -6.87603 36.3536
  1065 363.722 -7.04149 -36.6797
  1066 684.256 -19.2506 -52.1787
  1067 717.513 -4.37964 2.67827
  1068 709.026 -1.88649 10.0971
  1069 706.175 23.3513 66.4534
  1070 663.921 -4.97459 48.4225
  1071 508.521 55.5320 245.192
  1072 743.352 -0.876775 0.792253
  1073 713.703 96.2790 42.5271
  1074 612.755 9.42141 35.5837
  1075 716.234 -3.04313 9.57386
  1076 479.606 -4.56036 -9.71237
  1077 479.706 -4.51088 9.66450
  1078 311.220 -8.38312 -60.8408
  1079 312.262 -8.68951 60.5025
  1080 614.865 31.4014 14.9945
  1081 888.163 54.1116 -79.4666
  1082 816.621 3.54624 -135.687
  1083 670.082 -0.706510 -14.6329
  1084 512.571 -53.2128 -92.9870
  1085 585.017 -43.1782 26.4618
  1086 673.456 -1.63707 15.2446
  1087 699.062 -51.1148 -27.1185
  1088 456.582 -0.748514 5.65928
  1089 456.453 -0.763857 -5.68669
  1090 672.258 -57.5684 10.7390
  1091 640.392 -13.6323 -0.0532047
  1092 640.285 -13.6512 0.0838151
  1093 623.935 -62.4921 29.5919
  1094 791.539 -24.6857 -20.2931
  1095 383.177 -0.583529 -10.3265
  1096 383.715 -0.563117 10.2347
  1097 546.779 -35.4741 -155.353
  1098 587.108 -13.9109 4.71821
  1099 587.148 -13.9722 -4.74595
  1100 351.263 195.620 269.537
  1101 800.425 66.6791 -46.1946
  1102 126.507 59.4025 -87.5685
  1103 692.282 -11.1050 -8.65363
  1104 194.647 64.3369 -128.918
  1105 400.043 -24.3838 -78.0507
  1106 742.828 -1.21344 0.603013
  1107 743.034 -1.16317 -0.422439
  1108 684.676 -39.4259 -35.2605
  1109 605.811 -68.4768 -102.489
  1110 197.647 26.1480 106.920
  1111 745.902 73.7317 58.6281
  1112 673.194 -7.70367 -0.596908
  1113 673.285 -7.70378 0.651842
  1114 728.318 -45.7774 125.057
  1115 766.350 151.748 22.0098
  1116 468.219 -10.4756 -24.1626
  1117 468.348 -10.4354 24.0263
  1118 350.088 38.8081 193.308
  1119 654.753 3.60124 -53.7235
  1120 211.431 66.2181 137.999
  1121 818.555 -11.8495 -50.8363
  1122 818.670 178.167 6.04150
  1123 568.150 -44.0337 34.0938
  1124 539.521 3.32146 -2.28100
  1125 709.050 -6.79346 11.7488
  1126 731.035 -1.27285 4.53181
  1127 179.041 0.205685 -30.9129
  1128 180.999 0.133361 30.7290
  1129 595.981 10.6269 -26.4725
  1130 603.843 -17.6984 -4.66326
  1131 603.730 -17.6359 4.64509
  1132 65.6344 120.529 -101.909
  1133 101.694 245.897 -195.009
  1134 610.840 -23.7352 5.05720
  1135 611.037 -23.7098 -5.10232
  1136 629.314 -15.4922 -0.362218
  1137 629.229 -15.4731 0.402128
  1138 171.223 108.545 139.969
  1139 508.608 -5.76870 -4.86900
  1140 508.680 -5.73236 4.85219
  1141 633.707 48.4760 -0.587701
  1142 772.055 110.660 -281.464
  1143 762.044 130.608 -37.8444
  1144 693.580 -26.8957 -52.3354
  1145 682.794 -34.4175 -36.3701
  1146 568.356 -44.4186 -34.6154
  1147 582.203 2.15727 16.3365
  1148 646.061 40.8004 -38.9659
  1149 637.935 34.8584 37.3459
  1150 649.937 -26.1483 -5.28184
  1151 622.388 -37.3470 5.92069
  1152 569.706 -35.9395 -26.2124
  1153 674.258 -4.10818 28.3311
  1154 1153.28 115.930 15.9277
  1155 678.117 -14.6231 51.4767
  1156 683.132 44.9602 57.7385
  1157 626.757 -61.3115 -23.8322
  1158 87.1622 12.8543 -50.2523
  1159 638.485 -29.6477 -2.28384
  1160 443.887 -0.477326 -0.330126
  1161 444.009 -0.474928 0.327860
  1162 769.480 -20.3342 19.9429
  1163 732.858 -61.8966 36.2614
  1164 1045.30 185.462 48.3067
  1165 272.536 -0.376084 -25.4282
  1166 273.878 -0.320993 25.2662
  1167 575.726 -11.5014 -3.53557
  1168 575.710 -11.4422 3.51721
  1169 640.077 -56.2489 -8.22366
  1170 543.833 2.77693 7.49685
  1171 654.937 -46.6628 7.63300
  1172 40.6351 48.2148 -27.0630
  1173 124.958 60.3243 85.4968
  1174 443.662 -25.0125 149.962
  1175 760.097 143.448 -27.1077
  1176 718.586 -2.20195 -7.59190
  1177 745.679 -1.40465 0.317361
  1178 746.266 -1.82730 -0.152097
  1179 459.156 -0.771889 -0.994788
  1180 459.273 -0.765017 0.989537
  1181 701.000 44.8032 64.9855
  1182 1017.30 171.435 -3.69986
  1183 723.569 118.807 -28.5132
  1184 538.655 -40.4037 154.398
  1185 441.350 -24.1617 -149.645
  1186 494.297 -31.9914 -53.2125
  1187 669.421 -19.3198 9.53347
  1188 926.419 206.237 19.6286
  1189 494.381 -31.8249 52.8579
  1190 682.312 -12.7204 7.21033
  1191 622.886 23.7727 35.7474
  1192 679.032 21.2368 62.8889
  1193 951.114 211.787 31.2889
  1194 576.649 -14.7935 6.48635
  1195 576.663 -14.8497 -6.51893
  1196 691.794 -13.6940 18.0061
  1197 429.035 -4.12989 17.6205
  1198 428.755 -4.16909 -17.7515
  1199 676.069 -10.0240 -2.69426
  1200 282.607 170.798 -262.330
  1201 585.701 -33.4302 -165.475
  1202 562.116 -17.1096 -11.0071
  1203 562.185 -17.0471 11.0122
  1204 719.863 -4.06648 2.56183
  1205 685.739 -9.82485 5.70557
  1206 40.7342 53.8029 41.0569
  1207 739.766 -1.09396 2.22699
  1208 93.4014 122.551 121.404
  1209 671.033 -10.8272 -3.57815
  1210 -0.386580 -15.8355 -13.9795
  1211 481.890 -47.1570 -116.433
  1212 480.719 -46.0413 115.350
  1213 739.727 -1.54004 -2.51147
  1214 642.304 -33.9366 -3.14259
  1215 719.555 -3.78671 -2.51010
  1216 588.031 -18.7780 -7.00625
  1217 587.994 -18.7276 6.95514
  1218 675.660 -9.96780 2.48205
  1219 638.045 -29.0498 2.26146
  1220 615.670 -19.8906 2.96686
  1221 615.860 -19.9253 -2.90729
  1222 718.768 -3.89423 -2.01444
  1223 625.195 -66.3720 -115.074
  1224 704.900 -5.21191 -1.93368
  1225 673.667 -11.0948 3.99022
  1226 486.670 -4.76523 -7.34861
  1227 486.764 -4.72151 7.31663
  1228 537.263 -7.51737 -4.09372
  1229 537.302 -7.47372 4.07901
  1230 847.568 133.524 30.6264
  1231 713.971 -55.3395 17.3829
  1232 493.401 -2.89208 189.927
  1233 413.778 -0.506122 6.77877
  1234 413.460 -0.512429 -6.83421
  1235 681.243 -12.8542 38.2407
  1236 650.184 -10.5329 0.163539
  1237 650.199 -10.5043 -0.163653
  1238 748.916 144.264 12.8175
  1239 677.257 -71.2758 93.4641
  1240 412.019 -5.32552 24.4554
  1241 411.655 -5.36062 -24.6031
  1242 649.666 -16.3702 2.22687
  1243 649.521 -16.4913 -2.10082
  1244 669.041 -19.1167 -9.10551
  1245 626.483 0.209478 18.8542
  1246 1047.23 261.088 -93.9986
  1247 682.530 -25.4102 -32.3040
  1248 125.818 28.1012 72.4659
  1249 704.148 -37.9041 44.4539
  1250 581.862 13.4402 -14.5123
  1251 48.7684 33.1590 28.7260
  1252 912.852 107.849 -23.3147
  1253 688.940 -31.6275 -46.0322
  1254 584.316 8.90185 22.2712
  1255 402.663 -24.4414 77.9973
  1256 697.808 -54.3790 23.3347
  1257 994.203 202.078 78.1235
  1258 243.705 34.3799 135.189
  1259 699.949 -9.01738 -15.6215
  1260 1297.58 14.8585 -12.6917
  1261 1337.00 19.8007 55.9220
  1262 1421.80 46.8699 -133.956
  1263 682.636 -21.6797 -41.4532
  1264 681.657 -31.4984 33.9307
  1265 691.557 -49.5735 29.6852
  1266 -20.0897 2.69486 12.4434
  1267 -18.1594 2.27091 -13.6880
  1268 671.466 -74.6124 -47.6311
  1269 686.120 -69.8069 -68.0840
  1270 547.222 3.79786 -9.22670
  1271 668.253 -75.8562 67.4813
  1272 715.612 -34.2608 -44.8362
  1273 17.4268 22.8585 5.58448
  1274 588.704 -10.7953 2.06717
  1275 588.738 -10.8599 -2.07250
  1276 708.182 -6.36429 10.3570
  1277 682.196 -12.5149 -6.69063
  1278 645.059 -70.3759 -27.9980
  1279 593.989 -31.6271 13.2567
  1280 591.190 -31.1571 -13.9757
  1281 690.525 -15.1431 25.7465
  1282 708.097 -26.3045 -53.3534
  1283 50.5201 34.5702 -28.2515
</Section>

newXOutput 96

<Section columns = "stress_xx | stress_yy | stress_xy">
  1 756.751 -0.452364 1.30994
  2 756.730 -0.433834 -1.31217
  3 442.471 -0.0452045 -0.469376
  4 -5.47744 -5.38403 -7.88349
  5 1300.55 558.392 430.077
  6 1289.04 576.856 -425.051
  7 -6.37347 -5.08466 8.43262
  8 442.347 -0.0464898 0.468431
  9 761.419 -1.39939 0.349978
  10 760.167 -2.15657 -0.489684
  11 759.030 -1.56591 1.38740
  12 757.835 -2.04370 0.180257
  13 755.193 -1.76727 2.17655
  14 752.736 -1.76144 1.46036
  15 746.467 -1.54477 3.18809
  16 737.006 -1.26299 4.74823
  17 728.693 -1.24100 5.40299
  18 715.923 -1.54800 6.65638
  19 697.697 -0.291770 10.0050
  20 680.875 -1.13054 9.65269
  21 661.094 -1.35913 13.7858
  22 632.589 0.938842 12.1332
  23 611.471 1.57694 14.4662
  24 583.865 2.56070 11.4293
  25 564.557 2.92632 11.5765
  26 536.611 3.87800 5.93356
  27 530.624 6.06967 6.40470
  28 526.972 5.10328 -1.90921
  29 531.844 3.17529 -4.12103
  30 540.867 2.92842 -5.07273
  31 561.829 3.57417 -10.0873
  32 582.207 2.83046 -12.6516
  33 611.670 0.792113 -14.9358
  34 635.162 -0.236277 -13.4315
  35 659.852 -1.06739 -13.0396
  36 682.019 -0.899273 -9.11300
  37 700.726 -0.995129 -7.68283
  38 715.885 -1.52999 -6.34212
  39 729.233 -1.16275 -4.27111
  40 737.261 -1.44923 -4.46422
  41 745.038 -1.66016 -3.23137
  42 752.146 -1.92219 -1.23759
  43 755.705 -1.58160 -1.58055
  44 757.294 -1.08973 -0.911835
  45 755.302 -0.781695 -0.838544
  46 760.794 -2.13470 0.371524
  47 761.587 -1.44140 -0.359825
  48 739.839 -1.13981 -0.812756
  49 725.312 -3.83329 -1.58259
  50 707.286 -5.45463 -0.860227
  51 685.120 -7.68728 -1.22631
  52 663.864 -8.27819 -1.43678
  53 641.003 -9.93981 -1.39857
  54 620.609 -10.8088 -0.644756
  55 602.710 -11.7518 -0.0753734
  56 581.993 -9.65693 -0.0365212
  57 558.100 -8.84842 -0.307499
  58 535.126 -6.81865 0.0896053
  59 513.417 -4.17893 0.135258
  60 492.862 -2.85768 0.195503
  61 474.954 -1.30939 0.318548
  62 456.807 -0.231083 -0.521980
  63 442.583 0.648991 0.846697
  64 436.038 1.58016 0.635739
  65 439.942 0.0843706 1.38753
  66 434.509 -0.121025 1.70422
  67 429.227 -0.222883 2.11464
  68 422.196 0.0566431 2.69020
  69 413.358 0.0402545 3.34188
  70 406.378 -0.362061 6.24263
  71 388.148 0.559449 6.77780
  72 375.025 0.0211836 7.64859
  73 355.503 -0.259376 8.70920
  74 333.140 -0.476273 10.5674
  75 305.126 -0.0600249 12.8372
  76 270.984 0.197475 14.2336
  77 240.808 -0.191529 20.3923
  78 182.376 1.81867 19.4202
  79 141.726 1.56288 20.6001
  80 92.2347 -0.477569 23.1093
  81 50.3438 3.56984 24.3841
  82 2.24217 5.50965 15.3294
  83 -33.7124 5.63926 6.26683
  84 -35.0838 5.63634 -0.703326
  85 -35.6826 4.77127 -10.3622
  86 -21.2324 -1.20875 -10.1847
  87 -2.37931 -20.3773 -11.3267
  88 2.37319 -37.0312 -13.7535
  89 6.05293 -56.2805 -6.43928
  90 13.1139 -53.2859 3.35537
  91 27.2438 1.65433 39.2494
  92 78.6183 145.547 123.524
  93 434.834 452.077 389.406
  94 1582.80 240.868 259.566
  95 1436.83 34.1608 83.2782
  96 1344.80 14.4991 25.4885
  97 1310.98 12.4894 1.86154
  98 1329.50 16.3936 -22.3403
  99 1434.93 32.2450 -66.0777
  100 1666.00 116.223 -220.623
  101 260.942 468.358 -328.418
  102 58.7577 115.397 -103.992
  103 29.9140 4.65658 -42.6795
  104 12.3455 -52.3819 -9.64894
  105 3.87733 -42.0504 7.22690
  106 4.58573 -46.8728 11.7861
  107 0.347975 -17.4530 12.5694
  108 -22.2083 -0.643934 9.58899
  109 -36.7986 3.58466 8.96223
  110 -37.0157 6.82373 0.882766
  111 -34.7342 5.52144 -5.91909
  112 -0.285665 5.64560 -14.4447
  113 48.1813 3.59913 -23.2969
  114 90.0408 -0.0862048 -22.7349
  115 139.441 1.68701 -20.6317
  116 180.302 1.86267 -19.5512
  117 239.204 -0.199863 -20.5424
  118 269.618 0.215176 -14.3550
  119 303.928 -0.0570192 -12.9823
  120 332.544 -0.535191 -10.6312
  121 354.664 -0.240960 -8.72375
  122 374.383 0.0441110 -7.71744
  123 387.616 0.553764 -6.84087
  124 405.987 -0.366249 -6.29590
  125 413.037 0.0375129 -3.37423
  126 421.944 0.0539765 -2.71662
  127 429.026 -0.227355 -2.13542
  128 434.345 -0.124866 -1.71860
  129 439.798 0.0812005 -1.39657
  130 435.906 1.57894 -0.639835
  131 442.457 0.648320 -0.849317
  132 456.687 -0.234559 0.520855
  133 474.844 -1.31818 -0.321604
  134 492.766 -2.87678 -0.199035
  135 513.343 -4.20541 -0.138621
  136 535.078 -6.85698 -0.0930569
  137 558.083 -8.89745 0.304676
  138 582.010 -9.71432 0.0332985
  139 602.754 -11.8174 0.0736351
  140 620.674 -10.8748 0.646709
  141 641.100 -9.99991 1.40539
  142 663.954 -8.31878 1.46135
  143 685.196 -7.72366 1.34732
  144 707.418 -5.20338 0.878421
  145 725.797 -3.75040 1.54651
  146 739.988 -1.25604 0.799067
  147 671.642 -63.1935 3.06360
  148 671.024 -62.3263 -2.83205
  149 711.397 101.800 -30.8007
  150 751.262 44.2370 63.1533
  151 569.987 -55.5253 -130.584
  152 574.755 -55.3905 126.631
  153 561.534 -23.0937 17.7286
  154 561.556 -23.3930 -17.7306
  155 791.776 29.1834 -44.0048
  156 669.951 -24.5800 10.0383
  157 669.657 -24.0222 -9.92701
  158 865.256 190.451 5.17725
  159 689.662 -1.04345 -63.7078
  160 516.602 -39.5877 -59.1418
  161 516.674 -39.2829 58.6922
  162 689.753 -15.8076 56.6512
  163 661.788 48.7042 38.9232
  164 278.185 42.8178 -156.246
  165 306.814 40.7169 164.370
  166 830.200 11.3992 -5.77299
  167 689.523 -26.8330 -37.6472
  168 906.535 199.059 6.05811
  169 623.837 -17.7653 -2.49521
  170 623.721 -17.7275 2.53716
  171 693.243 -9.27469 -4.23267
  172 695.125 -8.43967 3.60171
  173 501.991 -6.58982 -9.88319
  174 502.069 -6.52675 9.84519
  175 736.410 -17.0451 166.323
  176 642.334 27.2322 -42.0476
  177 424.169 -31.2459 -92.9114
  178 425.386 -31.0277 92.3937
  179 478.347 -14.7749 -30.9396
  180 478.408 -14.6169 30.7528
  181 692.446 -18.6518 32.0836
  182 631.810 -43.0664 -6.83088
  183 629.770 -42.7468 7.71571
  184 711.390 -69.3025 -20.8859
  185 715.327 -66.0266 12.1882
  186 977.095 231.132 -43.9936
  187 724.718 115.574 28.6315
  188 722.762 44.4404 -64.9804
  189 732.605 -3.08498 -191.557
  190 713.539 -40.6660 -41.8535
  191 719.867 -29.1616 50.7082
  192 603.046 -68.3073 66.7734
  193 603.048 -67.7922 -66.6116
  194 651.436 8.63570 50.1839
  195 305.739 -8.07356 -114.351
  196 306.392 -8.65060 113.733
  197 1093.06 162.384 24.2305
  198 677.031 -40.5851 20.7602
  199 700.258 -13.4923 -20.2615
  200 565.151 -13.4188 -8.51228
  201 565.175 -13.3639 8.49308
  202 677.988 -8.91794 -44.0189
  203 768.841 112.588 -50.3189
  204 652.331 59.0217 -7.76340
  205 433.204 -14.4656 42.7590
  206 432.598 -14.4997 -43.0250
  207 708.309 -8.63439 10.4148
  208 697.562 13.1886 65.6938
  209 570.683 -40.6322 -30.8665
  210 567.266 -38.4468 31.3299
  211 815.515 121.326 42.8535
  212 944.368 137.532 37.4356
  213 71.2296 53.6034 -48.2508
  214 66.0742 49.5416 41.2802
  215 397.319 116.042 269.432
  216 670.469 -44.7026 -14.3293
  217 710.436 -8.27752 -9.37951
  218 644.856 6.05887 -46.2753
  219 463.207 -4.08580 -13.8165
  220 463.359 -4.04185 13.7191
  221 607.656 -28.1635 -9.21325
  222 607.945 -28.3604 8.88218
  223 682.908 -9.36659 37.1708
  224 774.234 -44.4228 28.0545
  225 780.937 157.745 -14.1544
  226 612.560 -58.6373 -34.2844
  227 766.393 -13.3810 35.6930
  228 656.948 -11.7023 0.816480
  229 656.943 -11.6192 -0.816500
  230 608.460 -58.3714 35.2856
  231 693.084 -44.3231 33.3096
  232 952.811 133.360 -77.0005
  233 222.309 132.194 -199.797
  234 602.018 21.8881 10.1981
  235 701.743 61.8637 55.6015
  236 740.516 -5.32377 -55.1508
  237 694.516 -25.2613 -52.1252
  238 385.528 -11.7267 -53.0542
  239 386.731 -11.5598 52.9359
  240 694.967 -8.78824 -28.1367
  241 661.679 -17.3088 4.44351
  242 661.378 -17.3022 -4.21861
  243 150.220 12.5713 -75.0822
  244 152.231 11.0029 74.7922
  245 730.143 -64.1721 -65.5716
  246 721.369 -3.39752 1.10571
  247 721.998 -3.45304 -1.30455
  248 686.751 57.1227 -51.2255
  249 612.422 12.4460 30.6485
  250 1215.19 194.529 131.297
  251 1203.90 137.156 -81.2176
  252 896.348 190.679 1.74144
  253 560.914 -27.6196 172.099
  254 516.598 -18.6212 -179.563
  255 596.854 -12.2480 -3.58271
  256 596.811 -12.1835 3.56402
  257 504.080 -12.6917 19.5848
  258 504.054 -12.8551 -19.7242
  259 708.855 -8.26339 16.5611
  260 690.128 -49.4341 -25.9554
  261 466.924 -0.579478 -3.33644
  262 467.044 -0.567333 3.32088
  263 681.618 -28.0786 -21.2294
  264 304.491 -9.63631 -74.0675
  265 305.625 -9.66422 73.6059
  266 690.939 -30.3133 40.6661
  267 531.922 -56.4762 105.231
  268 533.098 -57.4777 -104.897
  269 609.796 24.1129 -14.2719
  270 526.620 -7.55166 -6.70100
  271 526.678 -7.50729 6.68149
  272 655.192 -1.44726 36.7211
  273 776.109 140.927 34.5579
  274 432.408 -4.75446 22.8705
  275 432.106 -4.79048 -23.0322
  276 707.010 -59.4805 14.8194
  277 654.422 -73.8873 -74.2692
  278 724.677 -4.26484 4.59463
  279 518.990 -29.6360 -40.8992
  280 518.218 -29.3253 40.7776
  281 873.207 106.373 240.669
  282 433.842 -35.2799 124.432
  283 694.208 97.1764 -3.24992
  284 859.131 97.8822 -21.3752
  285 655.647 -50.6316 1.66764
  286 655.212 -75.8581 67.6477
  287 434.984 -34.7495 -125.675
  288 83.9388 104.137 97.3691
  289 681.738 -28.1531 21.6540
  290 883.542 118.891 13.0963
  291 729.586 -3.81975 -3.98808
  292 675.121 23.9740 -59.0198
  293 660.513 -37.4971 8.96781
  294 647.292 -54.4549 8.09710
  295 673.140 31.1833 57.0177
  296 703.858 -59.4488 -12.4708
  297 988.722 189.997 -19.7383
  298 660.346 -36.0667 -8.52553
  299 535.145 162.185 -325.447
  300 673.042 -71.5433 -20.8343
  301 668.491 -73.5299 28.3051
  302 500.372 -44.5474 -82.3907
  303 462.523 -1.43731 -7.16582
  304 462.662 -1.41161 7.12194
  305 500.644 -44.6032 82.0001
  306 714.627 -1.25945 -64.7171
  307 764.280 -31.6541 -20.1077
  308 592.057 -34.9773 -18.1870
  309 591.766 -35.0624 18.4809
  310 694.670 -59.8235 115.329
  311 700.158 -5.98850 21.2664
  312 836.893 7.44982 50.1758
  313 581.625 -20.0724 -10.3909
  314 581.679 -20.0227 10.3495
  315 534.660 -13.2368 -13.4627
  316 534.683 -13.1253 13.4511
  317 606.796 8.65669 -29.6147
  318 760.016 55.8961 -60.7631
  319 1148.11 313.508 -155.400
  320 689.005 -7.01183 -1.27419
  321 688.676 -6.92660 1.32855
  322 379.150 -1.94012 155.389
  323 531.048 -23.1209 -27.8452
  324 530.172 -23.0687 27.9243
  325 379.073 -2.88915 -154.790
  326 728.838 85.8346 -53.3046
  327 805.408 40.7780 40.7594
  328 694.009 -49.4383 -127.184
  329 646.457 -25.1870 2.29050
  330 645.854 -25.0311 -2.04048
  331 686.151 -15.0130 -9.44192
  332 655.549 -1.10973 -34.3062
  333 726.759 2.90232 62.6941
  334 719.830 -5.64669 -11.2462
  335 448.810 -26.2150 62.5069
  336 448.327 -26.3439 -62.9166
  337 680.625 -1.42161 60.7741
  338 435.987 -3.11438 -13.7304
  339 436.248 -3.08658 13.6285
  340 691.604 -16.6028 16.0819
  341 831.156 168.622 -22.4532
  342 685.923 -15.0987 9.86042
  343 736.514 92.0927 53.2484
  344 703.219 -13.2805 61.6123
  345 564.727 -10.2838 3.32219
  346 564.718 -10.3363 -3.33765
  347 669.867 -2.24820 -54.0754
  348 875.185 183.246 10.2203
  349 736.533 133.739 1.08746
  350 449.386 51.7521 -228.639
  351 53.3743 20.6782 -34.8614
  352 57.7719 22.4207 37.1705
  353 -0.423531 6.27341 11.8818
  354 1.98437 4.17800 -12.5702
  355 1238.10 86.1280 28.6931
  356 609.370 -48.8495 -21.9800
  357 692.000 -16.0913 -15.6634
  358 628.966 -11.5022 -0.137318
  359 628.898 -11.4244 0.131029
  360 678.399 75.0261 -27.7984
  361 576.653 -58.0668 55.0699
  362 54.2969 81.9162 -62.5912
  363 577.056 -58.0167 -55.9265
  364 686.583 78.1225 29.5552
  365 692.263 -18.9843 -30.3796
  366 731.485 -41.1896 -33.5319
  367 786.104 163.811 9.65021
  368 732.651 -46.2057 25.8698
  369 322.019 -7.49468 49.4159
  370 320.341 -7.34490 -49.6713
  371 186.453 3.96633 -70.0889
  372 188.071 3.30746 69.8015
  373 615.214 2.62176 29.8322
  374 1113.73 333.936 141.210
  375 713.036 -5.03596 -14.8515
  376 563.757 -46.6030 -42.6016
  377 563.404 -46.5246 42.5521
  378 689.605 -16.2793 -39.6799
  379 775.760 -37.3989 -5.59343
  380 609.348 -48.8224 22.5058
  381 843.707 9.89687 -82.0836
  382 502.079 -3.56724 -2.82385
  383 502.165 -3.53965 2.81068
  384 680.754 -4.14261 -25.9296
  385 383.435 -5.05145 -32.0731
  386 383.622 -5.22604 31.7261
  387 805.920 103.538 -48.6348
  388 439.975 30.5999 213.232
  389 635.679 -33.2601 -1.83011
  390 636.275 -33.2152 1.81149
  391 748.431 125.717 -33.1818
  392 705.248 -21.1430 -57.7246
  393 701.078 -72.0619 66.9822
  394 594.896 -15.6570 -5.76955
  395 594.846 -15.5991 5.73242
  396 679.317 -52.5883 15.1860
  397 725.702 -3.99056 8.23451
  398 470.836 -16.1658 -38.3635
  399 471.027 -16.1807 38.0907
  400 694.730 23.5073 -64.9903
  401 652.102 -14.7644 1.09112
  402 652.064 -14.8075 -1.02301
  403 678.267 -8.13524 49.1124
  404 639.990 47.2537 13.5989
  405 699.245 -29.8929 49.5352
  406 997.774 207.063 42.4375
  407 350.342 -18.6868 -99.6020
  408 351.232 -18.6830 98.9368
  409 158.835 82.8651 -123.573
  410 738.135 -2.85373 1.96435
  411 399.874 -2.93786 -20.3572
  412 400.339 -2.87588 20.2107
  413 689.942 -18.3794 38.6329
  414 626.539 -67.7368 39.3466
  415 701.187 -9.62412 6.62126
  416 721.383 36.5936 66.9243
  417 165.644 88.2304 128.123
  418 627.384 -67.3033 -36.6809
  419 647.650 -59.9998 -12.7957
  420 226.972 -4.48537 -62.9366
  421 228.378 -4.63294 62.5531
  422 500.408 -40.9377 -150.014
  423 740.294 -11.3283 53.4676
  424 498.837 -41.4423 148.824
  425 685.772 -38.8412 -29.9460
  426 647.833 44.3402 -29.5396
  427 685.782 -30.1090 28.8609
  428 729.916 -3.95137 -5.24357
  429 24.9719 28.4085 15.5376
  430 154.708 184.100 180.034
  431 666.514 -2.40448 25.3005
  432 572.836 8.52527 13.1101
  433 581.395 10.2241 -17.7026
  434 496.177 -7.48006 -13.8289
  435 496.247 -7.39050 13.7599
  436 676.056 -52.5348 -13.3868
  437 686.162 -13.6317 -54.5833
  438 575.434 11.5899 -4.80257
  439 996.084 238.712 59.7476
  440 148.934 46.9389 -93.1059
  441 163.223 43.0362 98.8803
  442 635.087 -22.7849 -0.824926
  443 634.871 -22.7546 0.970619
  444 843.939 183.473 -1.52075
  445 512.378 231.646 332.542
  446 802.294 -10.0766 0.754294
  447 478.827 -23.9335 -52.0381
  448 479.066 -23.7886 51.6654
  449 484.661 -10.0069 21.0817
  450 484.555 -10.0713 -21.2347
  451 643.572 14.8751 -47.8139
  452 741.319 -1.65302 -1.23058
  453 628.261 29.5860 27.0920
  454 777.633 95.9346 55.0882
  455 649.286 -48.0841 0.254474
  456 700.814 -9.22341 -6.46659
  457 732.558 -3.64160 4.82132
  458 739.043 -1.79547 0.695096
  459 739.510 -1.95187 -0.457030
  460 435.095 -0.569410 5.18118
  461 434.881 -0.579032 -5.22350
  462 707.357 -45.3822 36.2181
  463 649.375 26.1743 46.3325
  464 674.214 2.91643 -59.5310
  465 696.476 -15.3744 21.9507
  466 972.018 183.566 -208.500
  467 699.420 -39.1822 -42.0948
  468 11.2640 13.9798 8.29292
  469 11.0138 14.3836 -4.81498
  470 562.419 -30.9329 25.1322
  471 560.715 -30.4780 -24.7676
  472 850.861 22.3146 116.970
  473 243.424 234.050 -256.867
  474 692.375 -2.37917 19.2100
  475 771.613 -44.1555 -70.3717
  476 430.283 -23.8789 72.0340
  477 835.665 148.616 -32.4956
  478 689.550 -37.7185 34.7218
  479 585.594 -27.3456 -14.0867
  480 586.092 -26.9173 14.0657
  481 615.080 3.55167 -26.2960
  482 429.024 -23.7647 -72.3945
  483 628.606 0.601114 26.2913
  484 592.181 -67.9969 -95.5236
  485 590.759 -68.0998 95.9893
  486 709.707 -5.15660 16.4734
  487 657.187 62.3739 5.60426
  488 647.453 13.8414 230.765
  489 958.012 192.129 -1.19024
  490 666.269 -12.0284 2.12140
  491 666.290 -11.9899 -2.26779
  492 526.090 -8.71152 -9.19353
  493 526.143 -8.64773 9.16988
  494 281.260 11.6069 131.954
  495 693.006 -33.7647 -41.7308
  496 630.818 -14.0950 -1.29692
  497 630.758 -14.0583 1.30299
  498 552.487 -57.9897 78.0145
  499 286.381 15.5272 -135.151
  500 692.450 -56.7676 -15.5448
  501 13.8086 6.43073 2.11949
  502 620.080 32.8451 2.03748
  503 668.189 -8.63688 -0.616320
  504 668.189 -8.73425 0.584771
  505 552.681 -57.8594 -78.5682
  506 772.103 -38.4811 86.6869
  507 773.119 28.2359 54.8067
  508 710.205 -5.76410 -2.95781
  509 690.366 -57.5294 15.9261
  510 454.909 -0.210735 -1.01040
  511 455.032 -0.207450 1.00474
  512 691.476 -26.8877 -45.4256
  513 676.509 50.2813 50.2733
  514 764.075 19.0536 -54.3009
  515 452.116 -0.489672 -2.93657
  516 452.253 -0.481578 2.92136
  517 1288.71 186.636 -164.872
  518 702.353 83.4130 43.8642
  519 710.706 -5.41992 2.59744
  520 648.970 -61.3543 14.3975
  521 554.526 -17.6544 14.2886
  522 554.499 -17.7728 -14.2599
  523 748.668 -45.9639 9.26887
  524 724.177 -14.7760 -57.5238
  525 810.997 158.426 29.0809
  526 679.846 11.9097 61.8241
  527 677.952 -13.8573 5.28345
  528 657.333 -70.7611 -93.5634
  529 687.412 -17.3522 45.5710
  530 1270.75 58.8417 -22.9606
  531 742.704 -56.3062 9.06265
  532 705.835 -5.65848 -0.506356
  533 706.008 -5.95073 0.374032
  534 1283.99 86.0657 79.7015
  535 664.370 -0.0168347 52.6085
  536 908.721 157.366 -0.0582880
  537 690.601 -19.4519 -20.8711
  538 333.143 -2.82386 -21.8863
  539 334.005 -2.68466 21.6895
  540 476.645 -44.3676 -104.413
  541 477.094 -43.6327 103.708
  542 677.567 -13.3384 -5.27068
  543 739.605 27.1560 -63.8910
  544 651.104 -44.2413 2.27808
  545 705.198 80.7700 -45.3388
  546 702.880 -8.78275 22.1196
  547 867.923 47.6546 -24.0563
  548 607.402 -20.6559 -6.08780
  549 607.253 -20.6075 6.04368
  550 655.356 -31.1230 5.88733
  551 949.401 193.871 -29.8365
  552 694.310 30.4919 64.1013
  553 300.964 76.9183 193.737
  554 659.523 -39.3377 157.260
  555 856.245 50.0104 -175.130
  556 709.488 58.7446 -59.2830
  557 622.226 -54.3855 -136.877
  558 675.054 -74.3273 -33.8319
  559 702.341 -71.6535 -46.4184
  560 97.1322 130.652 -123.244
  561 706.763 -9.79444 -12.5993
  562 1050.98 203.471 -64.1856
  563 658.597 -29.9608 -7.25454
  564 663.307 -22.0839 6.06211
  565 662.719 -21.6205 -5.70510
  566 476.066 -2.28439 -6.59716
  567 476.180 -2.25524 6.56456
  568 76.5592 6.67765 -39.8037
  569 79.9227 7.02826 40.6572
  570 355.933 -15.9290 -75.6672
  571 358.395 -16.0257 75.6205
  572 672.588 -36.7785 -17.1185
  573 682.396 -74.6459 36.1113
  574 701.256 -67.0304 -4.76297
  575 584.763 -10.2708 -2.76899
  576 584.741 -10.2107 2.75760
  577 550.706 -58.1692 -116.921
  578 610.976 -50.6858 144.338
  579 538.241 -54.7770 117.451
  580 694.019 -15.5978 -58.3946
  581 451.372 -6.82614 23.2230
  582 451.159 -6.89243 -23.3785
  583 667.825 37.3743 -50.6416
  584 666.851 -1.19512 -22.9511
  585 825.979 176.897 -12.4303
  586 549.868 -7.92715 -2.51202
  587 549.897 -7.88337 2.50301
  588 703.915 -2.27683 -12.5144
  589 499.958 -15.9074 -26.3901
  590 500.001 -15.8656 26.2006
  591 402.978 17.3565 184.192
  592 685.176 -31.9453 -29.0897
  593 391.672 -21.3610 132.728
  594 673.427 -35.2176 17.6809
  595 705.324 -10.7550 14.0630
  596 695.275 -7.35321 -2.47294
  597 507.022 -5.70157 -6.35318
  598 507.101 -5.65981 6.32980
  599 793.295 156.842 -26.8058
  600 391.378 -20.6556 -133.139
  601 671.100 -29.4915 -13.6383
  602 610.112 -11.5252 -1.68420
  603 610.058 -11.4548 1.67839
  604 1110.37 148.448 -27.0590
  605 422.044 -2.38038 12.6704
  606 421.714 -2.40220 -12.7678
  607 636.913 15.1481 43.7593
  608 880.341 78.3962 4.54943
  609 428.307 1.67047 -182.549
  610 228.933 4.77010 -101.287
  611 230.611 3.60494 100.765
  612 540.495 -30.4919 33.4638
  613 545.621 -31.3937 -32.7090
  614 896.622 181.934 3.91673
  615 692.740 -7.58473 2.12689
  616 612.743 18.0191 -26.5839
  617 750.588 133.689 26.2715
  618 748.343 138.638 -17.5069
  619 614.880 -33.7049 -9.50203
  620 619.225 -33.0052 7.38690
  621 437.567 97.0685 -259.881
  622 536.143 -17.4972 -19.0350
  623 536.207 -17.3138 18.9906
  624 1284.92 264.010 199.016
  625 692.280 -22.9951 49.5227
  626 411.153 -13.6905 -48.3879
  627 1037.19 262.947 184.726
  628 412.029 -13.6269 48.2473
  629 653.437 -24.3718 -182.149
  630 484.062 -1.94330 -2.42171
  631 484.166 -1.92701 2.41262
  632 593.639 5.78086 23.2336
  633 280.752 -3.86803 -43.3250
  634 282.048 -3.87996 43.0333
  635 607.323 -42.4077 17.7107
  636 634.550 -50.4823 -9.62823
  637 736.788 -1.99121 -4.59795
  638 441.922 -0.530744 3.91476
  639 441.748 -0.541381 -3.94553
  640 576.817 -12.7668 -4.69742
  641 576.809 -12.7092 4.67385
  642 650.214 -72.6756 94.2672
  643 751.487 83.8582 -57.9986
  644 511.008 -22.7759 -33.9111
  645 510.708 -22.4061 33.7019
  646 596.886 -42.2062 -22.4523
  647 925.849 199.920 12.2952
  648 697.378 -67.8602 8.39062
  649 612.194 -14.7986 -3.46817
  650 612.117 -14.7426 3.46321
  651 829.594 92.2032 37.5780
  652 700.226 -10.7228 -24.0093
  653 631.776 -0.538030 -21.3585
  654 300.971 -10.3431 -95.6989
  655 301.755 -10.5942 95.0106
  656 594.839 -50.5966 -33.6865
  657 883.176 191.422 -0.287525
  658 694.187 93.7534 -19.7673
  659 473.174 -3.78972 -11.8996
  660 473.296 -3.73903 11.8255
  661 642.075 -18.5361 0.0949235
  662 642.192 -18.5388 0.0191052
  663 1160.80 150.828 66.8914
  664 744.539 -2.47800 1.06946
  665 725.517 -3.31176 8.18935
  666 723.312 -3.29499 -9.82870
  667 689.715 -64.5187 1.84121
  668 522.532 -5.60909 -3.16941
  669 522.595 -5.57482 3.15900
  670 742.848 118.226 40.8308
  671 939.904 207.743 -20.0214
  672 527.900 -38.0992 -48.0350
  673 527.821 -37.7567 47.8395
  674 649.369 -66.7803 -20.7324
  675 690.095 41.2240 -60.5046
  676 803.953 2.91757 16.2189
  677 549.965 -9.79297 -6.72966
  678 549.997 -9.74090 6.71009
  679 475.709 -41.1923 -94.2013
  680 683.448 -66.3483 4.19997
  681 572.564 -63.4164 86.1002
  682 278.965 86.8295 -187.291
  683 538.613 -49.1199 66.4360
  684 650.241 0.199365 19.5494
  685 476.184 -40.7444 93.6456
  686 670.739 -30.0192 13.8053
  687 538.693 -48.8900 -66.9572
  688 564.405 7.93201 4.90761
  689 438.068 -10.9490 34.6871
  690 437.710 -10.9496 -34.8843
  691 572.704 -65.0494 -87.0067
  692 702.972 -46.6905 -34.9183
  693 646.499 -9.77563 -0.0756852
  694 646.600 -9.85998 0.0769448
  695 717.337 -46.1632 33.8012
  696 653.952 -68.3129 23.5066
  697 791.284 73.0110 52.9238
  698 716.883 -13.7363 60.0072
  699 689.932 -25.2481 35.3740
  700 667.741 55.2838 -38.4173
  701 792.830 132.746 42.2452
  702 686.496 -9.73333 -35.8704
  703 680.974 -23.1673 16.2943
  704 711.814 110.784 10.6194
  705 694.087 -12.2104 30.5431
  706 223.803 153.877 197.034
  707 644.786 -74.3879 -57.4149
  708 746.263 13.4459 60.1812
  709 750.893 -23.3840 -39.2635
  710 742.339 -1.44820 2.35195
  711 688.706 -24.2375 -27.0458
  712 645.906 -74.9564 52.7937
  713 1210.21 107.527 -17.7995
  714 405.951 -1.49172 13.2317
  715 405.525 -1.50675 -13.3347
  716 695.975 -13.4518 -11.6340
  717 746.288 -1.14423 -2.34853
  718 593.914 -51.4374 33.8458
  719 707.658 -26.6854 53.8556
  720 1047.70 261.962 -96.3206
  721 670.863 -48.7555 12.6350
  722 738.998 -49.0190 -15.2390
  723 681.179 -22.5878 -16.0148
  724 744.953 -1.78413 -0.572602
  725 694.002 -0.140317 64.3178
  726 34.1171 39.7918 46.4744
  727 766.185 -27.4377 -123.728
  728 838.308 51.9415 17.9422
  729 701.973 -72.1391 42.5163
  730 516.798 -11.6653 15.4661
  731 516.774 -11.8159 -15.5212
  732 631.199 352.555 -348.111
  733 717.508 -47.8760 -30.5424
  734 562.419 3.62163 -9.39799
  735 642.463 3.88368 42.3481
  736 694.546 -35.1358 42.2923
  737 665.701 -56.1033 2.44695
  738 686.082 -63.0891 -101.402
  739 662.000 -52.3779 -3.98985
  740 773.573 -36.8458 2.86254
  741 713.758 -6.67284 6.60774
  742 644.155 -38.6074 0.179603
  743 1139.63 227.635 -124.193
  744 683.584 -18.9902 12.5744
  745 683.076 11.4133 -63.3869
  746 575.601 -5.88116 203.771
  747 728.760 58.5774 63.5609
  748 627.425 -49.0140 12.6273
  749 492.474 -37.8093 -69.2564
  750 492.576 -37.7289 68.7738
  751 673.238 75.8714 -8.88624
  752 679.877 -7.96265 55.9068
  753 685.485 -16.5304 -46.7916
  754 644.845 -39.4354 -0.331198
  755 624.366 -55.5105 22.1135
  756 716.951 117.438 -11.8053
  757 664.923 -57.5691 0.156470
  758 666.792 -42.3650 12.6874
  759 673.196 -9.52762 1.53743
  760 673.550 -9.30462 -1.51197
  761 904.021 196.155 -1.27384
  762 736.182 -62.9481 -32.1856
  763 690.703 -21.7019 27.0880
  764 713.745 -6.68139 -5.89939
  765 727.607 4.72671 -63.3444
  766 820.475 44.8176 -29.7210
  767 427.478 -0.221706 -6.28940
  768 427.741 -0.216703 6.23885
  769 6.94209 -9.99771 -6.75882
  770 705.484 -1.07369 11.5370
  771 655.018 -0.728781 -46.4912
  772 673.293 -6.34322 40.2970
  773 599.611 80.7453 294.437
  774 765.212 155.331 -1.42409
  775 549.116 -38.2329 38.5272
  776 108.805 1.95532 -38.5997
  777 111.284 1.40012 38.9851
  778 668.218 -4.69376 -45.7688
  779 550.403 -38.5821 -38.5503
  780 709.689 -7.30764 4.73733
  781 381.474 -15.5844 64.4331
  782 378.479 -15.5186 -64.3942
  783 683.490 -18.4706 -12.2223
  784 453.933 -10.6001 -30.3337
  785 454.150 -10.5401 30.1131
  786 710.290 -7.37026 -16.2524
  787 554.540 -14.2316 -11.4685
  788 554.575 -14.1531 11.4754
  789 773.835 -4.63070 -38.5975
  790 703.013 -7.46764 -63.8762
  791 377.133 -2.15249 -16.7024
  792 377.754 -2.13199 16.5351
  793 26.0896 9.11897 -24.7321
  794 29.0103 9.64496 25.9306
  795 585.759 3.03561 -16.8369
  796 640.508 -71.9450 -44.3968
  797 -6.94831 -4.65822 12.3962
  798 -6.23680 -5.78229 -12.5232
  799 665.668 -14.0774 3.58714
  800 719.396 -56.5711 -13.0175
  801 749.324 110.532 -47.3743
  802 712.329 -6.63244 -4.53477
  803 1455.66 302.099 -272.964
  804 665.526 -14.0471 -3.52951
  805 991.379 186.542 18.0829
  806 715.265 20.8461 -66.8987
  807 784.691 59.7522 -54.6715
  808 148.648 -1.68889 -35.1859
  809 150.816 -1.87894 35.1356
  810 462.321 -6.06694 18.2465
  811 462.154 -6.11234 -18.3759
  812 446.277 -0.821411 3.47025
  813 446.127 -0.830671 -3.49150
  814 796.511 133.744 -41.5503
  815 488.077 -2.58844 -5.27766
  816 488.177 -2.56025 5.25620
  817 681.876 -6.83391 -58.4708
  818 952.249 109.538 99.3484
  819 622.722 14.6128 -36.9061
  820 229.423 -1.90964 37.1619
  821 227.855 -1.92831 -37.4143
  822 770.256 26.5378 214.661
  823 695.444 -13.5588 12.0034
  824 636.408 42.9059 -15.3417
  825 308.566 -0.322589 25.0075
  826 307.261 -0.187854 -25.1627
  827 453.327 -1.93695 -9.04749
  828 453.496 -1.90911 8.98244
  829 83.4540 73.3412 67.2125
  830 659.406 16.1536 54.2555
  831 729.435 106.648 -41.2644
  832 778.941 90.6858 -55.5592
  833 524.013 -18.8551 -24.3446
  834 523.761 -18.7383 24.3376
  835 809.227 170.065 18.1451
  836 692.359 -6.74709 -0.454175
  837 692.418 -6.69970 0.560265
  838 690.321 -21.1953 -36.1060
  839 583.956 -38.1207 24.4884
  840 636.938 -71.5187 44.4033
  841 739.594 -60.5324 68.1368
  842 580.175 -16.4767 -7.89310
  843 580.186 -16.4321 7.85778
  844 664.575 61.9400 24.7856
  845 627.636 9.12176 -39.7283
  846 173.424 222.842 204.617
  847 626.176 -55.0336 -20.6283
  848 628.761 -28.0227 -3.03069
  849 629.084 -28.1087 2.98439
  850 691.353 -10.3232 60.9602
  851 682.515 -45.1303 -23.6249
  852 613.659 -40.0970 -12.9833
  853 1328.99 42.9955 -63.7802
  854 584.463 -54.5310 44.5164
  855 583.940 -55.2009 -45.1459
  856 689.594 -8.50429 30.3998
  857 1018.18 267.101 -72.3422
  858 550.812 -49.0520 -53.6488
  859 603.629 -67.5585 52.8398
  860 550.757 -48.4958 53.2355
  861 595.452 -23.5701 -9.60556
  862 595.462 -23.5127 9.55802
  863 95.1776 38.1739 58.0792
  864 740.409 55.3735 -63.5704
  865 573.595 -21.7962 -13.1832
  866 573.713 -21.5974 13.2212
  867 567.766 -9.17441 -1.63323
  868 567.769 -9.12238 1.62559
  869 618.426 -12.6007 -1.55860
  870 618.360 -12.5332 1.55060
  871 513.411 -9.34677 -13.2660
  872 513.469 -9.25110 13.2258
  873 575.189 -29.4469 -19.0710
  874 575.279 -29.2791 19.1569
  875 15.4983 1.26771 -11.0166
  876 852.037 160.291 26.1495
  877 734.238 -26.0640 -47.7049
  878 603.018 -66.5565 -53.2945
  879 649.545 -21.3005 2.12092
  880 649.283 -21.1091 -1.97256
  881 708.924 0.746665 65.3229
  882 759.688 -54.0291 -42.9722
  883 667.792 53.1390 -256.933
  884 320.208 -6.16734 129.612
  885 -5.94407 7.46337 -10.8582
  886 -4.59109 8.45345 11.7521
  887 94.7959 40.5801 -59.3859
  888 689.730 -20.4700 20.6377
  889 720.845 -5.43763 -8.52234
  890 650.164 -63.1171 114.551
  891 319.507 -5.90787 -130.063
  892 724.476 -59.8441 5.92244
  893 796.843 -20.7978 103.849
  894 604.356 2.59698 17.7960
  895 682.747 65.0854 41.8665
  896 378.384 -20.9601 94.3514
  897 377.021 -21.1242 -94.8878
  898 452.559 -20.5239 -53.1371
  899 465.042 -23.8677 -164.125
  900 727.851 -17.3559 55.3834
  901 984.923 237.384 51.5318
  902 732.760 28.0642 64.8340
  903 692.396 -15.2259 -33.2605
  904 474.234 -21.3726 168.132
  905 875.289 162.999 -14.8406
  906 93.9156 78.2258 -81.9786
  907 648.621 -1.15313 -18.6473
  908 453.013 -20.3690 52.7370
  909 545.940 -11.5100 9.96879
  910 545.906 -11.5759 -9.98284
  911 683.433 -44.8790 24.6045
  912 703.845 -5.47086 1.54490
  913 521.896 4.21817 -202.683
  914 739.344 -1.99278 4.00018
  915 735.299 -1.68498 -5.31518
  916 574.119 5.33105 -15.5786
  917 715.390 -3.07720 -10.1273
  918 546.581 -24.6234 -23.2373
  919 546.935 -24.2822 23.3193
  920 -15.8244 7.17615 -8.81408
  921 -22.8255 4.33742 9.72986
  922 703.788 -5.14006 -1.63377
  923 248.972 -5.89099 87.6826
  924 247.716 -5.42032 -88.1208
  925 760.447 110.400 49.5267
  926 1299.69 23.6996 19.3749
  927 718.472 79.6772 53.9112
  928 797.442 -26.6930 38.0430
  929 702.347 -39.4826 42.0369
  930 871.402 182.003 -11.4938
  931 563.531 2.87772 11.7672
  932 674.833 -16.6272 -6.63124
  933 706.464 38.1164 -65.4391
  934 837.574 27.4299 -0.182097
  935 659.997 -40.8491 -8.80003
  936 357.431 -1.74750 -18.5987
  937 357.699 -1.68401 18.3622
  938 694.456 -16.9347 -25.0166
  939 26.4891 32.4653 10.4986
  940 666.976 -69.2282 -14.8545
  941 594.959 18.4943 -1.60267
  942 867.091 188.604 -7.57297
  943 144.482 106.931 -131.612
  944 673.290 -5.05180 -36.1060
  945 479.729 -7.30576 -17.2451
  946 479.836 -7.22623 17.1298
  947 5.10029 -17.8374 13.1667
  948 465.242 -33.6869 -76.2329
  949 680.059 -39.6364 -23.2022
  950 445.652 0.977449 -1.47811
  951 445.783 0.980740 1.47088
  952 694.158 84.1644 -33.2698
  953 726.797 -2.95491 -0.792450
  954 726.858 -2.97636 1.08072
  955 465.488 -33.6163 75.7926
  956 690.820 -1.18771 -14.0454
  957 785.886 6.03249 36.3222
  958 698.741 -10.6913 9.01383
  959 122.093 28.6924 -71.4880
  960 721.998 -5.07664 7.64019
  961 667.774 5.71893 57.6935
  962 703.938 97.1100 29.5499
  963 700.512 8.18227 -66.6529
  964 492.733 -25.3100 -46.3115
  965 748.688 -26.9016 37.5317
  966 493.060 -25.2338 45.9135
  967 25.6508 26.7429 -6.30026
  968 92.3656 14.1843 52.5860
  969 410.242 -6.65429 31.1150
  970 409.799 -6.64944 -31.2532
  971 675.317 -16.8964 7.11666
  972 733.429 126.469 15.9946
  973 376.133 33.1643 -193.256
  974 612.673 -37.7710 11.7623
  975 575.451 -59.6207 -64.6547
  976 830.934 158.564 29.7845
  977 641.935 -11.8627 -0.511852
  978 641.905 -11.8101 0.503578
  979 699.208 -13.6536 -17.3763
  980 658.903 57.3547 -22.8457
  981 1393.44 429.049 287.184
  982 148.225 7.31950 -67.2907
  983 150.116 6.05679 67.3974
  984 11.0780 -7.08514 6.97566
  985 659.946 37.0929 46.8981
  986 575.425 -60.0090 64.2393
  987 707.366 -33.7494 -48.9281
  988 768.605 62.8566 61.0096
  989 731.597 -59.0751 -81.2570
  990 1062.11 222.810 79.3058
  991 631.319 -10.6824 -0.775560
  992 631.241 -10.6090 0.774304
  993 733.381 -30.3144 44.7511
  994 52.9773 101.648 96.5272
  995 349.495 -6.82002 44.3164
  996 348.556 -6.72986 -44.7137
  997 410.631 -19.1541 61.0059
  998 409.333 -18.8380 -61.1812
  999 459.994 -18.0120 44.3393
  1000 502.845 -3.50033 -2.31593
  1001 502.930 -3.47708 2.30865
  1002 1165.10 392.746 -255.716
  1003 1079.85 271.797 119.683
  1004 459.635 -18.0880 -44.6490
  1005 754.867 -3.65762 49.7600
  1006 685.821 71.2567 -40.1565
  1007 484.923 -42.2879 136.365
  1008 616.100 -72.9455 -77.0449
  1009 702.874 -6.14642 -20.0848
  1010 325.959 20.7781 158.425
  1011 417.687 -31.7367 108.818
  1012 634.072 33.2014 -29.5885
  1013 712.041 -14.3358 -60.9544
  1014 859.405 392.842 392.535
  1015 603.009 19.1687 21.2511
  1016 802.450 170.411 -2.25432
  1017 582.144 24.2295 -229.520
  1018 600.930 -62.6506 -46.0865
  1019 746.345 -1.27989 -1.87709
  1020 730.556 67.0694 -61.8347
  1021 446.261 -2.46510 11.4667
  1022 446.056 -2.48926 -11.5527
  1023 17.3100 18.4567 -28.3769
  1024 493.750 -21.4873 -38.7700
  1025 417.158 -32.1346 -109.535
  1026 493.447 -21.4578 38.4143
  1027 696.979 -21.4832 56.4424
  1028 627.026 -38.4488 -6.57587
  1029 663.095 12.5527 -56.0861
  1030 682.893 85.2117 11.7336
  1031 895.682 60.9079 47.9720
  1032 688.252 -52.5587 22.4632
  1033 447.009 -34.8973 -83.4067
  1034 658.532 23.7963 -52.7681
  1035 488.680 -41.7763 -136.947
  1036 922.997 197.410 -6.22853
  1037 642.938 42.8047 26.9165
  1038 790.772 -3.96317 -24.9005
  1039 604.578 -62.7202 43.0460
  1040 690.120 -22.2558 42.9786
  1041 684.462 -36.4685 28.5362
  1042 680.679 -34.5804 24.1778
  1043 834.775 107.484 -39.1475
  1044 683.047 -11.2240 44.9055
  1045 615.330 -73.1453 75.8699
  1046 656.701 -27.1626 5.38476
  1047 447.297 -34.9828 83.0323
  1048 619.398 -45.0771 -13.9655
  1049 369.330 -18.2533 -116.319
  1050 517.623 -53.3567 93.3244
  1051 693.728 -5.04453 -23.6629
  1052 678.699 -7.72757 -51.6009
  1053 589.578 -45.8219 -29.4328
  1054 369.924 -18.7202 115.525
  1055 639.472 1.83542 -36.7896
  1056 479.896 -30.7271 -59.5298
  1057 846.565 178.356 17.6939
  1058 199.567 31.0005 -113.435
  1059 1380.93 97.2696 129.524
  1060 347.771 24.1646 -165.344
  1061 680.068 -56.5169 -10.7160
  1062 480.057 -30.4889 59.1173
  1063 633.717 7.21686 41.4059
  1064 367.759 -6.93986 36.7240
  1065 367.629 -7.10677 -37.0526
  1066 690.977 -19.4436 -52.5367
  1067 724.374 -4.43637 2.67951
  1068 715.906 -1.91070 10.1605
  1069 713.119 23.5813 66.9310
  1070 670.511 -5.02330 48.7806
  1071 513.447 56.0983 247.692
  1072 750.389 -0.891043 0.791731
  1073 720.772 97.2266 42.8352
  1074 618.985 9.52834 35.8673
  1075 723.151 -3.07882 9.63139
  1076 484.608 -4.59608 -9.82135
  1077 484.709 -4.54626 9.77320
  1078 314.583 -8.46478 -61.4657
  1079 315.633 -8.77427 61.1254
  1080 621.121 31.7363 15.1151
  1081 896.458 54.7508 -80.4875
  1082 824.259 3.67206 -137.193
  1083 676.717 -0.715799 -14.7384
  1084 517.703 -53.7384 -93.9716
  1085 590.832 -43.5923 26.8042
  1086 680.115 -1.65520 15.3540
  1087 705.863 -51.6197 -27.2052
  1088 461.416 -0.750516 5.72045
  1089 461.285 -0.765960 -5.74801
  1090 678.817 -58.1337 10.6898
  1091 646.669 -13.7757 -0.0901217
  1092 646.561 -13.7949 0.120832
  1093 630.065 -63.0993 29.9975
  1094 799.074 -24.9004 -20.7123
  1095 387.320 -0.587894 -10.4318
  1096 387.862 -0.567326 10.3394
  1097 552.132 -35.8399 -156.975
  1098 592.964 -14.0468 4.79593
  1099 593.004 -14.1084 -4.82395
  1100 354.683 197.668 272.283
  1101 808.150 67.3476 -46.4084
  1102 127.900 60.0145 -88.5754
  1103 698.976 -11.2278 -8.67790
  1104 196.720 64.9754 -130.329
  1105 404.209 -24.6219 -78.8564
  1106 749.846 -1.23270 0.605672
  1107 750.053 -1.18195 -0.423789
  1108 691.365 -39.8177 -35.4458
  1109 611.719 -69.1552 -103.608
  1110 199.780 26.3975 108.086
  1111 753.208 74.4553 59.0203
  1112 679.718 -7.79560 -0.594343
  1113 679.810 -7.79561 0.649643
  1114 735.235 -46.1888 126.437
  1115 773.901 153.212 22.1447
  1116 473.093 -10.5683 -24.4223
  1117 473.223 -10.5280 24.2852
  1118 353.625 39.1765 195.329
  1119 661.287 3.64320 -54.1333
  1120 213.660 66.8795 139.497
  1121 826.293 -11.9146 -51.5551
  1122 826.689 179.859 6.06452
  1123 573.820 -44.4543 34.5045
  1124 545.198 3.36562 -2.29970
  1125 715.895 -6.87042 11.8084
  1126 738.034 -1.29206 4.55378
  1127 181.143 0.206052 -31.2362
  1128 183.115 0.133136 31.0508
  1129 602.085 10.7496 -26.6857
  1130 609.832 -17.8720 -4.75588
  1131 609.718 -17.8093 4.73743
  1132 66.3247 122.138 -103.081
  1133 102.710 248.872 -197.084
  1134 616.883 -23.9669 5.17093
  1135 617.082 -23.9409 -5.21671
  1136 635.505 -15.6504 -0.409996
  1137 635.420 -15.6313 0.450048
  1138 173.028 109.675 141.509
  1139 513.846 -5.81726 -4.92703
  1140 513.919 -5.78072 4.91013
  1141 640.114 48.9790 -0.591790
  1142 779.168 111.956 -284.297
  1143 769.536 131.880 -38.0796
  1144 700.368 -27.1638 -52.6752
  1145 689.470 -34.7613 -36.5753
  1146 574.026 -44.8425 -35.0316
  1147 588.209 2.18475 16.4679
  1148 652.557 41.2225 -39.2718
  1149 644.366 35.2222 37.6416
  1150 656.301 -26.4107 -5.24557
  1151 628.525 -37.7099 6.07159
  1152 575.400 -36.2804 -26.5379
  1153 680.915 -4.15174 28.5327
  1154 1163.92 116.992 16.0682
  1155 684.799 -14.7702 51.8393
  1156 689.916 45.4108 58.1747
  1157 632.913 -61.9063 -24.1840
  1158 88.2096 12.9785 -50.8312
  1159 644.756 -29.9407 -2.21661
  1160 448.641 -0.478097 -0.334587
  1161 448.764 -0.475685 0.332310
  1162 776.871 -20.5255 19.9163
  1163 739.890 -62.4938 36.8007
  1164 1055.17 187.182 48.8087
  1165 275.585 -0.376497 -25.6874
  1166 276.936 -0.320867 25.5243
  1167 581.492 -11.6126 -3.58917
  1168 581.476 -11.5530 3.57064
  1169 646.355 -56.7961 -8.42727
  1170 549.544 2.81266 7.55887
  1171 661.351 -47.1203 7.57803
  1172 41.1078 48.7743 -27.4458
  1173 126.329 60.9478 86.4775
  1174 448.113 -25.2826 151.524
  1175 767.590 144.837 -27.2783
  1176 725.520 -2.22752 -7.63824
  1177 752.718 -1.42201 0.316657
  1178 753.309 -1.84843 -0.150261
  1179 464.020 -0.773526 -1.00673
  1180 464.138 -0.766617 1.00145
  1181 707.921 45.2476 65.4649
  1182 1026.94 173.014 -3.73528
  1183 730.740 119.969 -28.7137
  1184 543.944 -40.8177 156.012
  1185 445.779 -24.4249 -151.204
  1186 499.333 -32.2945 -53.7804
  1187 675.943 -19.5202 9.54521
  1188 935.281 208.259 20.0486
  1189 499.419 -32.1269 53.4232
  1190 688.926 -12.8597 7.21937
  1191 629.198 24.0274 36.0327
  1192 685.766 21.4530 63.3627
  1193 960.217 213.806 31.7540
  1194 582.421 -14.9353 6.58318
  1195 582.435 -14.9918 -6.61605
  1196 698.511 -13.8415 18.0955
  1197 433.585 -4.16415 17.8059
  1198 433.303 -4.20362 -17.9378
  1199 682.622 -10.1374 -2.68327
  1200 285.426 172.557 -265.037
  1201 591.380 -33.7634 -167.207
  1202 567.768 -17.2702 -11.1563
  1203 567.838 -17.2074 11.1615
  1204 726.734 -4.11884 2.56701
  1205 692.374 -9.93679 5.71119
  1206 41.1961 54.4652 41.5903
  1207 746.800 -1.10972 2.23433
  1208 94.3988 123.949 122.782
  1209 677.551 -10.9482 -3.56723
  1210 -0.380567 -15.9760 -14.1058
  1211 486.721 -47.6330 -117.651
  1212 485.541 -46.5067 116.559
  1213 746.761 -1.55949 -2.52099
  1214 648.608 -34.2704 -3.07427
  1215 726.428 -3.83685 -2.51207
  1216 593.892 -18.9592 -7.12290
  1217 593.855 -18.9086 7.07130
  1218 682.210 -10.0809 2.47031
  1219 644.312 -29.3366 2.19500
  1220 621.754 -20.0881 3.05243
  1221 621.945 -20.1227 -2.99258
  1222 725.630 -3.94559 -2.01505
  1223 631.256 -67.0279 -116.320
  1224 711.662 -5.27909 -1.93063
  1225 680.206 -11.2181 3.98267
  1226 491.732 -4.80278 -7.43387
  1227 491.826 -4.75878 7.40171
  1228 542.725 -7.58515 -4.14723
  1229 542.765 -7.54128 4.13241
  1230 855.728 134.843 30.6797
  1231 720.883 -55.8848 17.3665
  1232 498.251 -2.93293 191.894
  1233 418.224 -0.507591 6.85033
  1234 417.902 -0.513941 -6.90612
  1235 687.933 -12.9862 38.5009
  1236 656.535 -10.6490 0.144123
  1237 656.549 -10.6202 -0.144254
  1238 756.318 145.661 12.9014
  1239 683.779 -71.9704 94.5214
  1240 416.399 -5.37168 24.7076
  1241 416.032 -5.40698 -24.8563
  1242 656.020 -16.5402 2.19304
  1243 655.874 -16.6628 -2.06621
  1244 675.559 -19.3156 -9.11449
  1245 632.816 0.213330 18.9993
  1246 1057.11 263.572 -95.0308
  1247 689.200 -25.6676 -32.4907
  1248 127.233 28.3803 73.2882
  1249 711.010 -38.2806 44.7034
  1250 587.861 13.5940 -14.6299
  1251 49.3615 33.5107 29.1021
  1252 921.446 109.000 -23.8366
  1253 695.679 -31.9427 -46.3172
  1254 590.333 9.00609 22.4525
  1255 406.853 -24.6804 78.8040
  1256 704.593 -54.9150 23.3871
  1257 1003.48 204.225 79.2177
  1258 246.267 34.7082 136.645
  1259 706.729 -9.11919 -15.7020
  1260 1309.18 14.9992 -12.7980
  1261 1348.88 19.9708 56.3757
  1262 1434.32 47.2506 -135.064
  1263 689.327 -21.8999 -41.7212
  1264 688.318 -31.8143 34.1192
  1265 698.294 -50.0636 29.8031
  1266 -20.2797 2.72909 12.5544
  1267 -18.3284 2.30203 -13.8133
  1268 677.974 -75.3446 -48.2454
  1269 692.734 -70.4893 -68.9049
  1270 552.958 3.84430 -9.30243
  1271 674.721 -76.5986 68.2860
  1272 722.573 -34.5997 -45.0808
  1273 17.6695 23.1139 5.70749
  1274 594.574 -10.9028 2.09208
  1275 594.608 -10.9677 -2.09747
  1276 715.011 -6.43995 10.4039
  1277 688.808 -12.6523 -6.69667
  1278 651.362 -71.0630 -28.4056
  1279 599.891 -31.9301 13.4593
  1280 597.069 -31.4550 -14.1825
  1281 697.254 -15.3021 25.8985
  1282 715.007 -26.5662 -53.6875
  1283 51.1328 34.9369 -28.6292
</Section>

newXOutput 97

<Section columns = "stress_xx | stress_yy | stress_xy">
  1 763.797 -0.462474 1.31889
  2 763.776 -0.443647 -1.32111
  3 447.182 -0.0434311 -0.472456
  4 -5.53355 -5.43840 -7.96445
  5 1311.42 563.930 433.958
  6 1299.83 582.540 -428.795
  7 -6.43905 -5.13528 8.52027
  8 447.057 -0.0447226 0.471511
  9 768.496 -1.41504 0.351293
  10 767.240 -2.17970 -0.496371
  11 766.103 -1.58511 1.39418
  12 764.907 -2.06682 0.176229
  13 762.262 -1.78815 2.18700
  14 759.800 -1.78185 1.46436
  15 753.506 -1.56246 3.20485
  16 743.996 -1.28101 4.77429
  17 735.643 -1.25713 5.43529
  18 722.801 -1.56491 6.69886
  19 704.461 -0.298397 10.0723
  20 687.534 -1.14261 9.72062
  21 667.617 -1.37152 13.8867
  22 638.918 0.946906 12.2247
  23 617.646 1.59394 14.5778
  24 589.837 2.58644 11.5197
  25 570.384 2.96070 11.6691
  26 542.228 3.91937 5.98155
  27 536.193 6.13370 6.45751
  28 532.511 5.15974 -1.92538
  29 537.421 3.21477 -4.15419
  30 546.514 2.96190 -5.11392
  31 567.634 3.61267 -10.1686
  32 588.167 2.86110 -12.7513
  33 617.844 0.803987 -15.0523
  34 641.505 -0.236446 -13.5328
  35 666.367 -1.07687 -13.1348
  36 688.684 -0.909269 -9.17766
  37 707.510 -1.00720 -7.73509
  38 722.761 -1.54699 -6.38308
  39 736.184 -1.17698 -4.29557
  40 744.252 -1.46807 -4.48827
  41 752.067 -1.67963 -3.24807
  42 759.205 -1.94390 -1.24003
  43 762.776 -1.60002 -1.58687
  44 764.365 -1.10447 -0.913735
  45 762.351 -0.795064 -0.840446
  46 767.870 -2.15687 0.377237
  47 768.665 -1.45725 -0.361150
  48 746.774 -1.16139 -0.818321
  49 732.150 -3.88363 -1.59578
  50 713.997 -5.52348 -0.864168
  51 691.671 -7.77801 -1.23301
  52 670.258 -8.37358 -1.44281
  53 647.224 -10.0471 -1.40519
  54 626.673 -10.9210 -0.644895
  55 608.635 -11.8675 -0.0710111
  56 587.758 -9.75013 -0.0312300
  57 563.678 -8.93038 -0.305495
  58 540.526 -6.87847 0.0950416
  59 518.650 -4.21206 0.139883
  60 497.939 -2.87775 0.199968
  61 479.898 -1.31512 0.323335
  62 461.619 -0.229063 -0.525063
  63 447.293 0.656471 0.855860
  64 440.697 1.59407 0.643750
  65 444.619 0.0865841 1.40322
  66 439.136 -0.120135 1.72405
  67 433.800 -0.222815 2.13906
  68 426.699 0.0591433 2.72015
  69 417.774 0.0419213 3.37827
  70 410.716 -0.362520 6.30714
  71 392.315 0.565312 6.84715
  72 379.064 0.0225982 7.72481
  73 359.349 -0.260248 8.79666
  74 336.770 -0.478897 10.6729
  75 308.482 -0.0591065 12.9656
  76 274.007 0.200287 14.3777
  77 243.522 -0.190925 20.5999
  78 184.516 1.83581 19.6217
  79 143.448 1.57756 20.8146
  80 93.4327 -0.484678 23.3557
  81 51.0815 3.60268 24.6516
  82 2.44256 5.56400 15.5120
  83 -33.9337 5.69574 6.35792
  84 -35.3703 5.69700 -0.682002
  85 -36.0249 4.82442 -10.4535
  86 -21.4414 -1.21568 -10.2820
  87 -2.39798 -20.5778 -11.4368
  88 2.40443 -37.3846 -13.8783
  89 6.12271 -56.7705 -6.47183
  90 13.2584 -53.6572 3.44482
  91 27.5329 2.00145 39.7308
  92 79.3966 147.492 124.853
  93 438.625 456.960 393.024
  94 1596.21 243.004 261.648
  95 1449.24 34.4572 83.9231
  96 1356.60 14.6322 25.6860
  97 1322.56 12.6078 1.87358
  98 1341.21 16.5443 -22.5199
  99 1447.36 32.5349 -66.5940
  100 1679.89 117.258 -222.336
  101 263.270 473.533 -331.520
  102 59.3373 117.157 -105.146
  103 30.2350 5.03579 -43.2273
  104 12.4831 -52.7241 -9.81581
  105 3.92870 -42.3986 7.25896
  106 4.64082 -47.3245 11.8899
  107 0.354728 -17.6212 12.6922
  108 -22.4279 -0.644019 9.67900
  109 -37.1513 3.62465 9.03934
  110 -37.3197 6.89659 0.862486
  111 -34.9607 5.57609 -6.00709
  112 -0.104571 5.70129 -14.6184
  113 48.9041 3.63221 -23.5535
  114 91.2240 -0.0894467 -22.9774
  115 141.147 1.70278 -20.8463
  116 182.427 1.88014 -19.7536
  117 241.907 -0.199339 -20.7511
  118 272.632 0.218151 -14.4999
  119 307.277 -0.0561222 -13.1118
  120 336.170 -0.538342 -10.7371
  121 358.505 -0.241617 -8.81118
  122 378.417 0.0457286 -7.79413
  123 391.780 0.559591 -6.91063
  124 410.322 -0.366732 -6.36075
  125 417.450 0.0391627 -3.41082
  126 426.444 0.0564590 -2.74673
  127 433.596 -0.227319 -2.15996
  128 438.970 -0.124004 -1.73851
  129 444.475 0.0833945 -1.41231
  130 440.563 1.59286 -0.647865
  131 447.166 0.655799 -0.858494
  132 461.498 -0.232556 0.523938
  133 479.786 -1.32396 -0.326403
  134 497.842 -2.89695 -0.203513
  135 518.575 -4.23867 -0.143257
  136 540.477 -6.91699 -0.0985089
  137 563.661 -8.97968 0.302656
  138 587.774 -9.80785 0.0279797
  139 608.680 -11.9335 0.0692505
  140 626.738 -10.9875 0.646853
  141 647.321 -10.1076 1.41205
  142 670.349 -8.41440 1.46754
  143 691.748 -7.81461 1.35491
  144 714.130 -5.26983 0.882418
  145 732.638 -3.79994 1.55937
  146 746.925 -1.27873 0.804505
  147 678.122 -63.8054 3.24118
  148 677.497 -62.9295 -3.00753
  149 718.387 102.794 -31.0222
  150 758.511 44.6660 63.5630
  151 575.507 -56.0776 -131.952
  152 580.323 -55.9401 127.962
  153 567.122 -23.3081 17.9519
  154 567.144 -23.6097 -17.9537
  155 799.322 29.4799 -44.1955
  156 676.418 -24.8267 10.0414
  157 676.120 -24.2639 -9.93046
  158 873.583 192.235 5.15423
  159 696.392 -1.05143 -64.1668
  160 521.767 -39.9616 -59.7714
  161 521.841 -39.6545 59.3184
  162 696.462 -15.9648 57.0414
  163 668.352 49.1972 39.2230
  164 281.042 43.2198 -157.892
  165 309.931 41.1025 166.096
  166 838.002 11.5498 -6.07443
  167 696.191 -27.1003 -37.8700
  168 915.169 200.959 6.30705
  169 629.927 -17.9411 -2.56776
  170 629.810 -17.9033 2.60987
  171 699.867 -9.38053 -4.23014
  172 701.761 -8.53785 3.59800
  173 507.125 -6.64434 -9.99688
  174 507.203 -6.58086 9.95867
  175 743.283 -17.1529 168.072
  176 648.738 27.5165 -42.3743
  177 428.485 -31.5527 -93.8637
  178 429.712 -31.3325 93.3425
  179 483.246 -14.9073 -31.2667
  180 483.308 -14.7481 31.0788
  181 699.134 -18.8414 32.2759
  182 637.962 -43.4792 -7.00043
  183 635.906 -43.1566 7.89135
  184 718.181 -69.9736 -21.2616
  185 722.160 -66.6659 12.4839
  186 986.296 233.338 -44.6057
  187 731.825 116.693 28.8332
  188 729.789 44.8760 -65.4361
  189 739.418 -3.04694 -193.538
  190 720.407 -41.0640 -42.0714
  191 726.799 -29.4490 51.0052
  192 608.912 -68.9688 67.5248
  193 608.911 -68.4481 -67.3621
  194 657.893 8.72886 50.5668
  195 308.927 -8.16978 -115.539
  196 309.584 -8.75139 114.917
  197 1103.17 163.862 24.4655
  198 683.571 -40.9823 20.8224
  199 706.986 -13.6346 -20.3694
  200 570.778 -13.5434 -8.62655
  201 570.804 -13.4882 8.60722
  202 684.612 -9.00721 -44.3304
  203 776.290 113.677 -50.6346
  204 658.830 59.6196 -7.82244
  205 437.692 -14.5973 43.1973
  206 437.082 -14.6316 -43.4650
  207 715.067 -8.73218 10.4553
  208 704.368 13.3202 66.1705
  209 576.324 -41.0143 -31.2387
  210 572.882 -38.8079 31.7029
  211 823.338 122.503 43.0492
  212 953.141 138.983 38.0995
  213 72.0394 54.1733 -48.8479
  214 66.8295 50.0681 41.7964
  215 401.172 117.218 272.153
  216 676.950 -45.1377 -14.3310
  217 717.207 -8.37091 -9.41524
  218 651.263 6.12744 -46.6298
  219 468.024 -4.11750 -13.9640
  220 468.178 -4.07327 13.8660
  221 613.615 -28.4320 -9.37243
  222 613.907 -28.6312 9.03839
  223 689.561 -9.46121 37.4280
  224 781.543 -44.8321 28.5309
  225 788.542 159.246 -14.2334
  226 618.532 -59.1980 -34.7201
  227 773.701 -13.5071 35.8174
  228 663.292 -11.8278 0.794349
  229 663.287 -11.7441 -0.794434
  230 614.400 -58.9299 35.7282
  231 699.771 -44.7577 33.4658
  232 961.581 134.805 -78.0397
  233 224.574 133.543 -201.904
  234 608.120 22.1259 10.2808
  235 708.622 62.4722 56.0101
  236 747.637 -5.37566 -55.4789
  237 701.247 -25.5111 -52.4658
  238 389.572 -11.8356 -53.5890
  239 390.784 -11.6674 53.4704
  240 701.689 -8.88146 -28.3189
  241 668.069 -17.4865 4.42159
  242 667.765 -17.4802 -4.19524
  243 151.894 12.6869 -75.9062
  244 153.920 11.1037 75.6122
  245 737.054 -64.7851 -66.3737
  246 728.184 -3.44551 1.10215
  247 728.816 -3.50167 -1.30356
  248 693.511 57.6908 -51.6089
  249 618.599 12.5856 30.8908
  250 1226.20 196.295 132.498
  251 1214.79 138.402 -81.9432
  252 904.935 192.457 1.81255
  253 566.320 -27.8980 173.872
  254 521.612 -18.8227 -181.403
  255 602.733 -12.3677 -3.64041
  256 602.689 -12.3028 3.62152
  257 509.211 -12.8042 19.8040
  258 509.184 -12.9689 -19.9444
  259 715.646 -8.35502 16.6513
  260 696.783 -49.9166 -26.0424
  261 471.803 -0.579553 -3.37396
  262 471.924 -0.567338 3.35832
  263 688.195 -28.3591 -21.3164
  264 307.735 -9.73229 -74.8250
  265 308.878 -9.76042 74.3601
  266 697.622 -30.6136 40.9085
  267 537.153 -57.0327 106.336
  268 538.337 -58.0438 -105.999
  269 615.957 24.3727 -14.3850
  270 531.951 -7.61703 -6.77882
  271 532.010 -7.57243 6.75920
  272 661.668 -1.45771 36.9950
  273 783.651 142.276 34.7665
  274 436.935 -4.79365 23.1052
  275 436.630 -4.82988 -23.2680
  276 713.795 -60.0599 14.7831
  277 660.701 -74.6061 -75.1208
  278 731.534 -4.32013 4.60679
  279 524.204 -29.9107 -41.3431
  280 523.427 -29.5976 41.2209
  281 881.099 107.638 243.123
  282 438.194 -35.6396 125.718
  283 701.059 98.1310 -3.27298
  284 867.253 98.8713 -21.3137
  285 661.997 -51.1203 1.55474
  286 661.504 -76.5951 68.4363
  287 439.343 -35.1047 -126.970
  288 84.8444 105.274 98.4835
  289 688.316 -28.4339 21.7435
  290 891.866 120.084 12.9461
  291 736.475 -3.86945 -3.99875
  292 681.766 24.2184 -59.4632
  293 666.907 -37.8628 8.93926
  294 653.569 -54.9792 8.29876
  295 679.775 31.4978 57.4492
  296 710.617 -60.0270 -12.4164
  297 998.045 191.747 -19.9795
  298 666.739 -36.4189 -8.49679
  299 540.112 163.863 -328.646
  300 679.515 -72.2357 -21.1852
  301 674.925 -74.2424 28.7242
  302 505.368 -44.9775 -83.2489
  303 467.354 -1.44571 -7.24475
  304 467.493 -1.41983 7.20061
  305 505.643 -45.0342 82.8553
  306 721.551 -1.27121 -65.1589
  307 771.550 -31.9536 -20.0877
  308 597.883 -35.3073 -18.4375
  309 597.591 -35.3932 18.7348
  310 701.248 -60.3907 116.590
  311 706.920 -6.05390 21.4034
  312 844.712 7.59262 50.8942
  313 587.379 -20.2610 -10.5396
  314 587.434 -20.2113 10.4978
  315 540.044 -13.3559 -13.6234
  316 540.067 -13.2436 13.6119
  317 612.929 8.75446 -29.8485
  318 767.344 56.4425 -61.1468
  319 1158.66 316.469 -156.979
  320 695.587 -7.09655 -1.26942
  321 695.256 -7.01043 1.32422
  322 382.965 -1.98416 156.997
  323 536.379 -23.3331 -28.1615
  324 535.496 -23.2810 28.2417
  325 382.888 -2.94406 -156.392
  326 735.949 86.6714 -53.6776
  327 813.071 41.1881 40.9103
  328 700.568 -49.9035 -128.557
  329 652.730 -25.4354 2.23231
  330 652.122 -25.2786 -1.98048
  331 692.737 -15.1721 -9.46066
  332 662.027 -1.11806 -34.5613
  333 733.780 2.92808 63.1069
  334 726.688 -5.71222 -11.3038
  335 453.395 -26.4621 63.1510
  336 452.907 -26.5918 -63.5636
  337 687.287 -1.43239 61.2181
  338 440.569 -3.13831 -13.8742
  339 440.832 -3.11033 13.7717
  340 698.249 -16.7760 16.1486
  341 839.166 170.229 -22.5211
  342 692.509 -15.2582 9.88168
  343 743.690 92.9854 53.6154
  344 710.041 -13.4122 62.0324
  345 570.356 -10.3797 3.37004
  346 570.346 -10.4325 -3.38563
  347 676.446 -2.26696 -54.4738
  348 883.559 184.990 10.1458
  349 743.754 135.027 1.09423
  350 453.754 52.2469 -230.961
  351 54.0376 20.8869 -35.2871
  352 58.4760 22.6479 37.6181
  353 -0.389665 6.35689 11.9634
  354 2.03464 4.24468 -12.6603
  355 1249.21 86.9073 28.9347
  356 615.330 -49.3146 -22.2896
  357 698.646 -16.2599 -15.7277
  358 635.095 -11.6215 -0.157322
  359 635.026 -11.5432 0.150926
  360 685.108 75.7717 -28.0076
  361 582.315 -58.6232 55.6911
  362 54.9049 82.8558 -63.3501
  363 582.720 -58.5719 -56.5548
  364 693.360 78.8961 29.7769
  365 698.947 -19.1777 -30.5578
  366 738.493 -41.5904 -33.6565
  367 793.758 165.366 9.70119
  368 739.660 -46.6556 25.9206
  369 325.471 -7.56448 49.9169
  370 323.781 -7.41319 -50.1736
  371 188.537 3.99979 -70.8303
  372 190.166 3.33519 70.5404
  373 621.409 2.65974 30.0652
  374 1123.95 337.174 142.779
  375 719.870 -5.09376 -14.9400
  376 569.328 -47.0431 -43.0893
  377 568.973 -46.9648 43.0393
  378 696.290 -16.4442 -39.9386
  379 783.098 -37.7487 -5.86076
  380 615.309 -49.2875 22.8207
  381 851.542 10.0680 -83.0984
  382 507.223 -3.59415 -2.86062
  383 507.311 -3.56642 2.84739
  384 687.398 -4.18656 -26.1115
  385 387.500 -5.09546 -32.3944
  386 387.688 -5.27185 32.0448
  387 813.648 104.548 -48.8812
  388 444.275 30.8906 215.414
  389 641.865 -33.5811 -1.93970
  390 642.467 -33.5360 1.92112
  391 755.739 126.930 -33.3992
  392 712.076 -21.3513 -58.1040
  393 707.750 -72.7561 67.7856
  394 600.758 -15.8075 -5.86482
  395 600.708 -15.7494 5.82732
  396 685.873 -53.0990 15.1812
  397 732.597 -4.03818 8.27399
  398 475.659 -16.3113 -38.7627
  399 475.852 -16.3267 38.4880
  400 701.523 23.7426 -65.4659
  401 658.412 -14.9179 1.05366
  402 658.374 -14.9616 -0.985232
  403 684.896 -8.21712 49.4626
  404 646.389 47.7395 13.7065
  405 706.008 -30.1884 49.8426
  406 1007.17 208.983 42.9324
  407 353.974 -18.8771 -100.626
  408 354.871 -18.8731 99.9560
  409 160.526 83.7055 -124.938
  410 745.072 -2.89286 1.96671
  411 404.114 -2.96037 -20.5622
  412 404.583 -2.89792 20.4147
  413 696.626 -18.5646 38.8797
  414 632.622 -68.3895 39.8444
  415 707.879 -9.73258 6.63304
  416 728.394 36.9512 67.3964
  417 167.390 89.1251 129.525
  418 633.475 -67.9507 -37.1527
  419 653.925 -60.5773 -13.0481
  420 229.477 -4.53330 -63.5906
  421 230.892 -4.68208 63.2042
  422 505.313 -41.3571 -151.564
  423 747.406 -11.4402 53.7779
  424 503.733 -41.8648 150.363
  425 692.396 -39.2224 -30.0859
  426 654.290 44.7958 -29.7684
  427 692.404 -30.4087 29.0062
  428 736.818 -4.00123 -5.26165
  429 25.2638 28.7732 15.7884
  430 156.295 186.104 181.966
  431 673.068 -2.42735 25.4838
  432 578.719 8.62611 13.2161
  433 587.341 10.3421 -17.8442
  434 501.258 -7.54249 -13.9837
  435 501.329 -7.45231 13.9143
  436 682.584 -53.0445 -13.3677
  437 692.844 -13.7676 -54.9642
  438 581.335 11.7245 -4.84087
  439 1005.44 240.988 60.5085
  440 150.553 47.4024 -94.1446
  441 164.979 43.4604 99.9722
  442 641.268 -23.0087 -0.901829
  443 641.050 -22.9785 1.04850
  444 852.093 185.191 -1.51909
  445 517.044 234.162 335.805
  446 809.870 -10.1455 0.991845
  447 483.690 -24.1562 -52.5799
  448 483.932 -24.0103 52.2046
  449 489.633 -10.0936 21.3099
  450 489.526 -10.1584 -21.4639
  451 649.977 15.0352 -48.1835
  452 748.276 -1.67904 -1.23012
  453 634.562 29.8983 27.3059
  454 785.132 96.8628 55.4221
  455 655.584 -48.5482 0.376515
  456 707.500 -9.32837 -6.47895
  457 739.478 -3.68849 4.83777
  458 745.976 -1.82399 0.694610
  459 746.445 -1.98206 -0.455196
  460 439.701 -0.571486 5.23715
  461 439.486 -0.581173 -5.27973
  462 714.165 -45.8265 36.3865
  463 655.830 26.4463 46.6909
  464 680.833 2.94944 -59.9710
  465 703.175 -15.5351 22.0664
  466 980.763 185.615 -210.727
  467 706.171 -39.5667 -42.3285
  468 11.4621 14.1293 8.42982
  469 11.2056 14.5407 -4.91795
  470 568.003 -31.2218 25.4382
  471 566.286 -30.7619 -25.0682
  472 858.724 22.6526 118.310
  473 245.773 236.554 -259.477
  474 699.096 -2.40735 19.3403
  475 778.859 -44.5532 -71.2436
  476 434.691 -24.1060 72.7705
  477 843.676 150.053 -32.5994
  478 696.209 -38.0898 34.9026
  479 591.375 -27.6026 -14.2844
  480 591.877 -27.1708 14.2634
  481 621.275 3.59269 -26.5005
  482 433.421 -23.9904 -73.1331
  483 634.899 0.613200 26.4930
  484 597.926 -68.6626 -96.5544
  485 596.492 -68.7664 97.0275
  486 716.523 -5.21442 16.5733
  487 663.727 63.0037 5.64817
  488 653.526 14.0263 233.099
  489 967.102 193.902 -1.20100
  490 672.687 -12.1582 2.10175
  491 672.707 -12.1194 -2.24946
  492 531.413 -8.78731 -9.30373
  493 531.466 -8.72314 9.27997
  494 284.173 11.7014 133.347
  495 699.706 -34.0978 -41.9750
  496 636.962 -14.2381 -1.34353
  497 636.901 -14.2013 1.34952
  498 557.924 -58.5509 78.8523
  499 289.341 15.6577 -136.575
  500 699.116 -57.3201 -15.5283
  501 13.9785 6.56961 2.07427
  502 626.323 33.1923 2.05478
  503 674.617 -8.73573 -0.607615
  504 674.616 -8.83387 0.575773
  505 558.117 -58.4188 -79.4111
  506 779.347 -38.8159 87.7085
  507 780.520 28.5129 55.1118
  508 716.948 -5.83571 -2.95716
  509 697.013 -58.0886 15.9139
  510 459.704 -0.208810 -1.02274
  511 459.829 -0.205506 1.01705
  512 698.172 -27.1539 -45.7116
  513 683.184 50.7834 50.6534
  514 771.399 19.2428 -54.6071
  515 456.882 -0.490622 -2.96867
  516 457.020 -0.482477 2.95337
  517 1300.23 188.317 -166.312
  518 709.253 84.2303 44.1872
  519 717.451 -5.48888 2.59585
  520 655.255 -61.9454 14.6662
  521 560.063 -17.8169 14.4691
  522 560.036 -17.9361 -14.4400
  523 755.795 -46.4068 9.15448
  524 731.158 -14.9224 -57.8838
  525 818.836 159.935 29.2185
  526 686.516 12.0318 62.2827
  527 684.467 -14.0050 5.27612
  528 663.619 -71.4500 -94.6017
  529 694.089 -17.5268 45.8754
  530 1282.07 59.3775 -23.1594
  531 749.765 -56.8463 9.34348
  532 712.537 -5.72970 -0.500861
  533 712.711 -6.02459 0.367242
  534 1295.43 86.8319 80.3758
  535 670.914 -0.0126641 52.9996
  536 917.273 158.942 0.225417
  537 697.249 -19.6514 -20.9707
  538 336.751 -2.84863 -22.1047
  539 337.620 -2.70814 21.9064
  540 481.404 -44.8058 -105.493
  541 481.858 -44.0638 104.782
  542 684.077 -13.4815 -5.26441
  543 746.749 27.4214 -64.3120
  544 657.418 -44.6689 2.18148
  545 712.121 81.5636 -45.6691
  546 709.644 -8.87869 22.2524
  547 876.034 48.1865 -24.5496
  548 613.362 -20.8547 -6.20154
  549 613.211 -20.8063 6.15689
  550 661.706 -31.4277 5.84430
  551 958.286 195.801 -30.4091
  552 701.105 30.7944 64.5742
  553 303.983 77.6819 195.757
  554 665.771 -39.7054 158.906
  555 864.082 50.6393 -176.991
  556 716.425 59.3229 -59.7125
  557 628.179 -54.9179 -138.319
  558 681.536 -75.0479 -34.3091
  559 709.036 -72.3468 -47.0277
  560 98.1516 132.116 -124.610
  561 713.517 -9.90366 -12.6535
  562 1060.78 205.355 -64.8671
  563 664.973 -30.2561 -7.22558
  564 669.715 -22.3061 6.04074
  565 669.122 -21.8387 -5.68152
  566 481.006 -2.29926 -6.67135
  567 481.122 -2.26992 6.63857
  568 77.5248 6.73978 -40.2484
  569 80.9157 7.09420 41.1102
  570 359.661 -16.0836 -76.4386
  571 362.143 -16.1815 76.3927
  572 679.089 -37.1401 -17.1575
  573 688.938 -75.3699 36.6136
  574 707.976 -67.6812 -4.98024
  575 590.548 -10.3702 -2.80688
  576 590.527 -10.3097 2.79537
  577 556.080 -58.7456 -118.148
  578 616.835 -51.1833 145.850
  579 543.510 -55.3212 118.681
  580 700.764 -15.7521 -58.7961
  581 456.064 -6.88368 23.4659
  582 455.849 -6.95044 -23.6223
  583 674.426 37.7541 -51.0278
  584 673.407 -1.20746 -23.1173
  585 833.970 178.565 -12.4739
  586 555.382 -7.99833 -2.54318
  587 555.411 -7.95433 2.53411
  588 710.711 -2.30240 -12.5969
  589 505.043 -16.0496 -26.6781
  590 505.087 -16.0076 26.4872
  591 406.976 17.5042 186.090
  592 691.794 -32.2617 -29.2341
  593 395.629 -21.5898 134.102
  594 679.934 -35.5637 17.7263
  595 712.073 -10.8727 14.1270
  596 701.907 -7.44105 -2.46835
  597 512.201 -5.74831 -6.42831
  598 512.280 -5.70632 6.40481
  599 800.991 158.337 -26.9473
  600 395.332 -20.8787 -134.515
  601 677.582 -29.7844 -13.6608
  602 616.094 -11.6407 -1.71190
  603 616.040 -11.5699 1.70601
  604 1120.60 149.799 -27.3193
  605 426.502 -2.39906 12.8003
  606 426.171 -2.42102 -12.8982
  607 643.270 15.3106 44.1000
  608 888.582 79.2275 4.87447
  609 432.536 1.66159 -184.425
  610 231.380 4.80160 -102.361
  611 233.072 3.62665 101.834
  612 545.894 -30.7752 33.8427
  613 551.061 -31.6854 -33.0828
  614 905.136 183.692 3.72569
  615 699.353 -7.67475 2.11971
  616 618.923 18.2167 -26.7939
  617 757.922 134.974 26.4439
  618 755.663 139.969 -17.6229
  619 620.896 -34.0266 -9.67578
  620 625.277 -33.3214 7.54145
  621 441.779 98.0395 -262.503
  622 541.530 -17.6557 -19.2576
  623 541.595 -17.4710 19.2130
  624 1296.47 266.404 200.817
  625 698.992 -23.2236 49.8449
  626 415.436 -13.8160 -48.8787
  627 1046.55 265.754 186.833
  628 416.320 -13.7521 48.7374
  629 659.613 -24.5900 -184.028
  630 489.072 -1.95463 -2.44876
  631 489.177 -1.93826 2.43962
  632 599.677 5.84871 23.4180
  633 283.820 -3.90393 -43.7629
  634 285.125 -3.91601 43.4692
  635 613.271 -42.8110 17.9720
  636 640.722 -50.9662 -9.83365
  637 743.752 -2.01728 -4.61811
  638 446.594 -0.532802 3.95860
  639 446.418 -0.543511 -3.98954
  640 582.538 -12.8878 -4.76874
  641 582.531 -12.8299 4.74498
  642 656.447 -73.3833 95.3082
  643 758.773 84.6736 -58.3834
  644 516.169 -22.9844 -34.2796
  645 515.868 -22.6114 34.0688
  646 602.747 -42.6053 -22.7533
  647 934.664 201.796 12.5359
  648 704.065 -68.5183 8.63858
  649 618.192 -14.9452 -3.53817
  650 618.115 -14.8890 3.53305
  651 837.487 93.1136 37.6910
  652 706.969 -10.8379 -24.1526
  653 638.091 -0.538833 -21.5213
  654 304.146 -10.4533 -96.6862
  655 304.936 -10.7063 95.9926
  656 600.671 -51.0776 -34.1024
  657 891.659 193.203 -0.302913
  658 701.034 94.6753 -19.9132
  659 478.077 -3.81856 -12.0293
  660 478.200 -3.76753 11.9548
  661 648.309 -18.7225 0.152730
  662 648.427 -18.7249 -0.0380235
  663 1171.40 152.194 67.5029
  664 751.513 -2.50972 1.07027
  665 732.422 -3.35170 8.23153
  666 730.208 -3.33340 -9.88441
  667 696.345 -65.1449 1.69544
  668 527.834 -5.65615 -3.20679
  669 527.899 -5.62170 3.19632
  670 750.098 119.367 41.1072
  671 948.824 209.697 -20.3557
  672 533.173 -38.4565 -48.5576
  673 533.095 -38.1114 48.3608
  674 655.652 -67.4239 -21.0647
  675 696.866 41.6344 -60.9544
  676 811.557 2.96483 16.1384
  677 555.476 -9.88162 -6.81603
  678 555.509 -9.82930 6.79633
  679 480.478 -41.5947 -95.1737
  680 690.023 -66.9915 4.39862
  681 578.157 -64.0349 87.0282
  682 281.784 87.6842 -189.251
  683 543.949 -49.5907 67.1514
  684 656.687 0.201764 19.6949
  685 480.959 -41.1428 94.6137
  686 677.218 -30.3165 13.8281
  687 544.029 -49.3581 -67.6766
  688 570.223 8.02520 4.94715
  689 442.619 -11.0461 35.0436
  690 442.258 -11.0465 -35.2420
  691 578.295 -65.6836 -87.9435
  692 709.744 -47.1471 -35.0786
  693 652.762 -9.88261 -0.0634411
  694 652.864 -9.96758 0.0646691
  695 724.226 -46.6148 33.9376
  696 660.272 -68.9727 23.8691
  697 798.867 73.7234 53.2076
  698 723.809 -13.8734 60.3988
  699 696.601 -25.5014 35.5816
  700 674.354 55.8402 -38.7103
  701 800.491 134.021 42.4800
  702 693.170 -9.83246 -36.1142
  703 687.536 -23.4016 16.3495
  704 718.816 111.863 10.6962
  705 700.798 -12.3368 30.7367
  706 226.060 155.466 199.107
  707 650.999 -75.1095 -58.1002
  708 753.446 13.5757 60.5559
  709 758.074 -23.6086 -39.4314
  710 749.316 -1.47034 2.35800
  711 695.350 -24.4822 -27.1874
  712 652.133 -75.6832 53.4342
  713 1221.13 108.507 -17.9573
  714 410.261 -1.50271 13.3669
  715 409.832 -1.51783 -13.4705
  716 702.642 -13.5956 -11.6739
  717 753.293 -1.16227 -2.35595
  718 599.739 -51.9268 34.2632
  719 714.495 -26.9491 54.1940
  720 1057.31 264.598 -97.5567
  721 677.347 -49.2290 12.6169
  722 746.051 -49.4928 -15.1869
  723 687.742 -22.8170 -16.0685
  724 751.928 -1.80987 -0.569910
  725 700.766 -0.141913 64.7776
  726 34.4900 40.3814 47.0478
  727 773.340 -27.6524 -125.097
  728 846.224 52.4804 17.8566
  729 708.671 -72.8356 43.0912
  730 522.038 -11.7683 15.6448
  731 522.013 -11.9200 -15.7001
  732 636.789 356.309 -351.493
  733 724.396 -48.3430 -30.6491
  734 568.221 3.67196 -9.47413
  735 648.853 3.92894 42.6718
  736 701.258 -35.4824 42.5367
  737 672.134 -56.6457 2.33028
  738 692.597 -63.6988 -102.524
  739 668.404 -52.8847 -3.89411
  740 780.898 -37.1890 3.10253
  741 720.545 -6.75191 6.62622
  742 650.412 -38.9801 0.0767749
  743 1150.12 229.731 -125.383
  744 690.159 -19.1859 12.6088
  745 689.770 11.5309 -63.8552
  746 581.098 -5.92560 205.854
  747 735.846 59.1478 64.0064
  748 633.537 -49.4836 12.8572
  749 497.423 -38.1694 -69.9781
  750 497.526 -38.0887 69.4919
  751 679.911 76.6282 -8.95275
  752 686.523 -8.04179 56.3069
  753 692.153 -16.6952 -47.1089
  754 651.108 -39.8168 -0.228798
  755 630.446 -56.0420 22.4372
  756 723.997 118.577 -11.8871
  757 671.350 -58.1261 0.298024
  758 673.242 -42.7776 12.6812
  759 679.662 -9.63510 1.52521
  760 680.020 -9.41017 -1.49942
  761 912.661 197.989 -1.39245
  762 743.168 -63.5514 -32.6807
  763 697.364 -21.9218 27.2335
  764 720.527 -6.76101 -5.91310
  765 734.637 4.77240 -63.7626
  766 828.255 45.2795 -29.7588
  767 432.010 -0.220447 -6.35553
  768 432.275 -0.215412 6.30467
  769 7.03056 -10.0431 -6.78188
  770 712.292 -1.08887 11.6121
  771 661.494 -0.729202 -46.8399
  772 679.888 -6.40608 40.5859
  773 605.205 81.6285 297.363
  774 772.685 156.812 -1.43400
  775 554.575 -38.5913 38.9646
  776 110.133 1.97101 -39.0175
  777 112.631 1.41055 39.4066
  778 674.780 -4.73845 -46.1031
  779 555.871 -38.9432 -38.9885
  780 716.436 -7.39391 4.74370
  781 385.457 -15.7330 65.0868
  782 382.436 -15.6664 -65.0462
  783 690.063 -18.6615 -12.2552
  784 458.629 -10.6928 -30.6479
  785 458.847 -10.6324 30.4258
  786 717.092 -7.45364 -16.3423
  787 560.081 -14.3615 -11.6140
  788 560.117 -14.2826 11.6210
  789 781.213 -4.66674 -38.7453
  790 709.839 -7.54089 -64.3194
  791 381.168 -2.17045 -16.8702
  792 381.794 -2.14977 16.7017
  793 26.5099 9.21054 -25.0247
  794 29.4541 9.74225 26.2358
  795 591.739 3.07106 -16.9697
  796 646.699 -72.6404 -44.9529
  797 -7.00711 -4.69454 12.5095
  798 -6.29256 -5.83345 -12.6419
  799 672.085 -14.2263 3.56872
  800 726.284 -57.1206 -12.9571
  801 756.619 111.602 -47.6896
  802 719.093 -6.71174 -4.54172
  803 1468.26 304.882 -275.311
  804 671.942 -14.1959 -3.51103
  805 1000.73 188.258 18.3025
  806 722.213 21.0512 -67.3684
  807 792.213 60.3395 -54.9759
  808 150.406 -1.70757 -35.5576
  809 152.589 -1.89935 35.5070
  810 467.117 -6.11792 18.4401
  811 466.949 -6.16360 -18.5703
  812 450.993 -0.825645 3.50797
  813 450.842 -0.834969 -3.52933
  814 804.200 135.033 -41.7741
  815 493.113 -2.60608 -5.33766
  816 493.214 -2.57773 5.31609
  817 688.540 -6.89946 -58.8915
  818 960.972 110.782 100.587
  819 628.974 14.7735 -37.1956
  820 231.994 -1.92808 37.5440
  821 230.416 -1.94694 -37.7983
  822 777.359 26.8958 216.856
  823 702.108 -13.7037 12.0445
  824 642.777 43.3494 -15.4614
  825 311.930 -0.322774 25.2583
  826 310.616 -0.186730 -25.4144
  827 458.075 -1.94991 -9.14525
  828 458.246 -1.92189 9.07980
  829 84.3714 74.1307 68.0084
  830 665.929 16.3227 54.6694
  831 736.570 107.684 -41.5528
  832 786.450 91.5690 -55.8952
  833 529.295 -19.0260 -24.6192
  834 529.042 -18.9087 24.6125
  835 817.071 171.675 18.2264
  836 698.963 -6.82946 -0.451186
  837 699.023 -6.78154 0.558093
  838 696.999 -21.4099 -36.3272
  839 589.712 -38.4805 24.8012
  840 643.100 -72.2101 44.9560
  841 746.583 -61.1025 68.9710
  842 585.920 -16.6319 -8.01059
  843 585.931 -16.5872 7.97498
  844 671.170 62.5629 24.9767
  845 633.922 9.22410 -40.0375
  846 175.134 225.387 206.753
  847 632.271 -55.5600 -20.9386
  848 634.891 -28.2939 -3.13892
  849 635.217 -28.3812 3.09194
  850 698.084 -10.4256 61.3883
  851 689.105 -45.5715 -23.7023
  852 619.662 -40.4783 -13.1988
  853 1340.72 43.3752 -64.3069
  854 590.200 -55.0512 45.0351
  855 589.672 -55.7267 -45.6706
  856 696.288 -8.59201 30.6042
  857 1027.70 269.680 -73.2663
  858 556.264 -49.5179 -54.2409
  859 609.512 -68.2093 53.4560
  860 556.210 -48.9571 53.8240
  861 601.314 -23.7936 -9.75582
  862 601.325 -23.7360 9.70781
  863 96.2491 38.5623 58.7615
  864 747.583 55.9142 -64.0003
  865 579.283 -22.0001 -13.3621
  866 579.402 -21.7998 13.4004
  867 573.419 -9.26044 -1.65589
  868 573.422 -9.20812 1.64819
  869 624.473 -12.7287 -1.59933
  870 624.407 -12.6607 1.59119
  871 518.630 -9.42747 -13.4173
  872 518.689 -9.33115 13.3769
  873 580.882 -29.7218 -19.3176
  874 580.972 -29.5531 19.4046
  875 15.6826 1.40198 -11.2098
  876 860.186 161.839 26.1847
  877 741.287 -26.3187 -47.9623
  878 608.894 -67.1972 -53.9142
  879 655.841 -21.5136 2.07075
  880 655.577 -21.3207 -1.92154
  881 715.806 0.752829 65.7771
  882 766.861 -54.5346 -43.5829
  883 674.008 53.7469 -259.514
  884 323.503 -6.24909 130.965
  885 -5.89228 7.54034 -11.0095
  886 -4.52941 8.54116 11.9118
  887 95.8675 40.9926 -60.0851
  888 696.369 -20.6794 20.7337
  889 727.696 -5.50303 -8.55870
  890 656.375 -63.7317 115.785
  891 322.796 -5.98840 -131.419
  892 731.397 -60.4257 5.79167
  893 804.273 -20.9368 105.040
  894 610.476 2.62634 17.9355
  895 689.483 65.7321 42.1825
  896 382.285 -21.1690 95.3161
  897 380.910 -21.3346 -95.8564
  898 457.198 -20.7142 -53.6831
  899 469.621 -24.1240 -165.816
  900 734.861 -17.5277 55.7215
  901 994.128 239.721 52.3019
  902 739.853 28.3363 65.2727
  903 699.095 -15.3821 -33.4713
  904 478.891 -21.6020 169.863
  905 883.618 164.587 -14.7469
  906 94.9452 79.0540 -82.9339
  907 655.055 -1.16181 -18.7861
  908 457.656 -20.5581 53.2802
  909 551.417 -11.6145 10.0931
  910 551.382 -11.6807 -10.1072
  911 690.030 -45.3175 24.6900
  912 710.537 -5.54108 1.54031
  913 526.931 4.24799 -204.748
  914 746.324 -2.01844 4.01661
  915 742.266 -1.70747 -5.34159
  916 580.012 5.39271 -15.7033
  917 722.253 -3.10996 -10.1913
  918 552.043 -24.8504 -23.5122
  919 552.401 -24.5066 23.5954
  920 -15.9413 7.25768 -8.87287
  921 -23.0160 4.38689 9.80380
  922 710.479 -5.20691 -1.63087
  923 251.645 -5.95873 88.6011
  924 250.380 -5.48415 -89.0429
  925 767.828 111.465 49.8460
  926 1311.20 23.9141 19.5281
  927 725.496 80.4544 54.2978
  928 804.939 -26.9148 38.6247
  929 709.123 -39.8705 42.2668
  930 879.745 183.739 -11.4281
  931 569.345 2.91663 11.8618
  932 681.327 -16.8012 -6.62611
  933 713.359 38.4931 -65.9134
  934 845.455 27.7436 0.0690900
  935 666.389 -41.2463 -8.76347
  936 361.276 -1.76152 -18.7838
  937 361.545 -1.69748 18.5455
  938 701.145 -17.1099 -25.1540
  939 26.8094 32.8383 10.6866
  940 673.407 -69.8976 -15.1437
  941 601.008 18.7001 -1.61551
  942 875.422 190.384 -7.52798
  943 146.010 108.054 -133.068
  944 679.884 -5.10206 -36.3650
  945 484.672 -7.36707 -17.4314
  946 484.780 -7.28700 17.3155
  947 5.17095 -17.9859 13.2678
  948 469.949 -34.0090 -77.0170
  949 686.628 -40.0256 -23.2851
  950 450.378 0.988224 -1.49484
  951 450.510 0.991529 1.48758
  952 700.997 84.9942 -33.5158
  953 733.645 -2.99751 -0.795311
  954 733.706 -3.01902 1.08559
  955 470.198 -33.9382 76.5735
  956 697.536 -1.20392 -14.1419
  957 793.365 6.10020 36.4403
  958 705.422 -10.8092 9.03871
  959 123.462 28.9730 -72.2950
  960 728.854 -5.13819 7.67095
  961 674.349 5.78252 58.1262
  962 710.863 98.0600 29.7672
  963 707.335 8.26471 -67.1306
  964 497.723 -25.5444 -46.7996
  965 755.846 -27.1642 37.6838
  966 498.053 -25.4679 46.3987
  967 25.9677 27.0531 -6.44225
  968 93.4508 14.3211 53.1835
  969 414.547 -6.71235 31.4308
  970 414.101 -6.70724 -31.5697
  971 681.816 -17.0724 7.11475
  972 740.619 127.690 16.1048
  973 379.872 33.4699 -195.250
  974 618.669 -38.1309 11.9626
  975 581.090 -60.1944 -65.3708
  976 838.925 160.081 29.8912
  977 648.164 -11.9870 -0.542365
  978 648.133 -11.9340 0.533944
  979 705.916 -13.7985 -17.4594
  980 665.452 57.9352 -23.0217
  981 1405.54 433.078 289.821
  982 149.908 7.38435 -68.0206
  983 151.813 6.10992 68.1276
  984 11.2050 -7.04210 7.11301
  985 666.488 37.4720 47.2592
  986 581.066 -60.5870 64.9519
  987 714.194 -34.0808 -49.2195
  988 776.003 63.4664 61.3875
  989 738.507 -59.6324 -82.2124
  990 1072.01 224.878 80.1373
  991 637.466 -10.7944 -0.791672
  992 637.387 -10.7204 0.790373
  993 740.418 -30.6118 44.9819
  994 53.5266 102.962 97.6208
  995 353.220 -6.88243 44.7623
  996 352.274 -6.79138 -45.1622
  997 414.884 -19.3339 61.6274
  998 413.575 -19.0143 -61.8036
  999 464.711 -18.1777 44.7997
  1000 507.997 -3.52632 -2.34106
  1001 508.084 -3.50295 2.33373
  1002 1175.44 396.644 -258.325
  1003 1089.88 274.349 120.945
  1004 464.349 -18.2540 -45.1114
  1005 762.100 -3.69355 50.0250
  1006 692.584 71.9631 -40.4567
  1007 489.713 -42.7176 137.775
  1008 622.061 -73.6550 -77.9051
  1009 709.650 -6.21306 -20.2132
  1010 329.269 20.9585 160.080
  1011 421.919 -32.0552 109.939
  1012 640.418 33.5482 -29.8206
  1013 718.930 -14.4777 -61.3579
  1014 866.862 397.051 396.260
  1015 609.118 19.3773 21.4213
  1016 810.249 172.023 -2.26620
  1017 587.665 24.4874 -231.843
  1018 606.798 -63.2509 -46.6319
  1019 753.341 -1.30085 -1.88208
  1020 737.662 67.7241 -62.2666
  1021 450.942 -2.48287 11.5878
  1022 450.735 -2.50719 -11.6743
  1023 17.5100 18.8350 -28.7646
  1024 498.763 -21.6844 -39.1812
  1025 421.384 -32.4568 -110.662
  1026 498.457 -21.6550 38.8230
  1027 703.739 -21.6960 56.8180
  1028 633.141 -38.8174 -6.73379
  1029 669.641 12.6845 -56.5106
  1030 689.646 86.0544 11.8213
  1031 903.990 61.6089 48.7094
  1032 694.887 -53.0707 22.5175
  1033 451.543 -35.2347 -84.2649
  1034 665.052 24.0426 -53.1727
  1035 493.499 -42.2018 -138.361
  1036 931.805 199.242 -6.33401
  1037 649.356 43.2446 27.1275
  1038 798.277 -3.98446 -24.9095
  1039 610.480 -63.3221 43.5657
  1040 696.806 -22.4788 43.2519
  1041 691.072 -36.8273 28.6682
  1042 687.253 -34.9211 24.2774
  1043 842.728 108.542 -39.2785
  1044 689.701 -11.3374 45.2174
  1045 621.288 -73.8567 76.7184
  1046 663.059 -27.4313 5.34741
  1047 451.833 -35.3214 83.8883
  1048 625.445 -45.5060 -14.1992
  1049 373.110 -18.4462 -117.517
  1050 522.750 -53.8781 94.3030
  1051 700.452 -5.10013 -23.8211
  1052 685.332 -7.80416 -51.9703
  1053 595.372 -46.2561 -29.8013
  1054 373.710 -18.9169 116.717
  1055 645.839 1.85931 -37.0706
  1056 484.755 -31.0162 -60.1501
  1057 854.716 180.042 17.7314
  1058 201.696 31.2927 -114.660
  1059 1393.03 98.1172 130.594
  1060 351.280 24.3747 -167.062
  1061 686.627 -57.0656 -10.6646
  1062 484.917 -30.7763 59.7346
  1063 640.047 7.29917 41.7270
  1064 371.666 -7.00351 37.0939
  1065 371.536 -7.17186 -37.4250
  1066 697.687 -19.6363 -52.8914
  1067 731.220 -4.49324 2.68033
  1068 722.773 -1.93499 10.2232
  1069 720.051 23.8109 67.4045
  1070 677.091 -5.07192 49.1359
  1071 518.363 56.6642 250.189
  1072 757.409 -0.905383 0.791072
  1073 727.831 98.1727 43.1406
  1074 625.209 9.63540 36.1491
  1075 730.055 -3.11457 9.68819
  1076 489.606 -4.63156 -9.93037
  1077 489.708 -4.58142 9.88195
  1078 317.947 -8.54628 -62.0900
  1079 319.004 -8.85887 61.7477
  1080 627.370 32.0712 15.2349
  1081 904.732 55.3913 -81.5111
  1082 831.877 3.79957 -138.700
  1083 683.343 -0.725121 -14.8431
  1084 522.829 -54.2631 -94.9558
  1085 596.639 -44.0055 27.1474
  1086 686.764 -1.67335 15.4625
  1087 712.652 -52.1238 -27.2885
  1088 466.248 -0.752413 5.78160
  1089 466.116 -0.767955 -5.80931
  1090 685.365 -58.6980 10.6379
  1091 652.936 -13.9190 -0.127605
  1092 652.827 -13.9385 0.158411
  1093 636.186 -63.7053 30.4046
  1094 806.593 -25.1142 -21.1350
  1095 391.464 -0.592225 -10.5370
  1096 392.010 -0.571502 10.4440
  1097 557.474 -36.2055 -158.597
  1098 598.811 -14.1825 4.87406
  1099 598.851 -14.2444 -4.90237
  1100 358.096 199.715 275.027
  1101 815.860 68.0155 -46.6174
  1102 129.293 60.6261 -89.5837
  1103 705.656 -11.3507 -8.70108
  1104 198.793 65.6129 -131.740
  1105 408.373 -24.8596 -79.6614
  1106 756.849 -1.25204 0.608271
  1107 757.056 -1.20083 -0.425090
  1108 698.042 -40.2091 -35.6280
  1109 617.618 -69.8327 -104.726
  1110 201.913 26.6465 109.253
  1111 760.501 75.1778 59.4084
  1112 686.230 -7.88765 -0.591638
  1113 686.323 -7.88756 0.647300
  1114 742.137 -46.5988 127.817
  1115 781.439 154.673 22.2778
  1116 477.964 -10.6607 -24.6820
  1117 478.096 -10.6202 24.5440
  1118 357.159 39.5440 197.349
  1119 667.811 3.68524 -54.5403
  1120 215.889 67.5399 140.995
  1121 834.014 -11.9785 -52.2767
  1122 834.695 181.548 6.08683
  1123 579.483 -44.8741 34.9159
  1124 550.872 3.40993 -2.31830
  1125 722.726 -6.94743 11.8668
  1126 745.018 -1.31136 4.57534
  1127 183.248 0.206392 -31.5593
  1128 185.234 0.132887 31.3725
  1129 608.184 10.8724 -26.8978
  1130 615.811 -18.0453 -4.84917
  1131 615.696 -17.9824 4.83043
  1132 67.0147 123.752 -104.253
  1133 103.724 251.853 -199.158
  1134 622.918 -24.1983 5.28559
  1135 623.118 -24.1715 -5.33203
  1136 641.686 -15.8083 -0.458460
  1137 641.600 -15.7893 0.498649
  1138 174.832 110.804 143.049
  1139 519.079 -5.86558 -4.98513
  1140 519.153 -5.82885 4.96814
  1141 646.514 49.4818 -0.595845
  1142 786.261 113.255 -287.127
  1143 777.016 133.149 -38.3120
  1144 707.145 -27.4315 -53.0114
  1145 696.133 -35.1046 -36.7774
  1146 579.688 -45.2654 -35.4485
  1147 594.211 2.21232 16.5987
  1148 659.045 41.6444 -39.5758
  1149 650.790 35.5858 37.9354
  1150 662.655 -26.6728 -5.20781
  1151 634.652 -38.0721 6.22388
  1152 581.086 -36.6205 -26.8642
  1153 687.560 -4.19530 28.7326
  1154 1174.53 118.052 16.2082
  1155 691.470 -14.9172 52.1988
  1156 696.690 45.8609 58.6077
  1157 639.059 -62.5000 -24.5374
  1158 89.2593 13.1026 -51.4109
  1159 651.017 -30.2333 -2.14792
  1160 453.394 -0.478794 -0.339060
  1161 453.519 -0.476368 0.336774
  1162 784.248 -20.7163 19.8857
  1163 746.907 -63.0898 37.3425
  1164 1065.02 188.897 49.3102
  1165 278.636 -0.376839 -25.9463
  1166 279.997 -0.320672 25.7822
  1167 587.251 -11.7235 -3.64301
  1168 587.235 -11.6636 3.62431
  1169 652.624 -57.3424 -8.63276
  1170 555.253 2.84851 7.62057
  1171 667.753 -47.5770 7.52081
  1172 41.5812 49.3346 -27.8305
  1173 127.700 61.5710 87.4593
  1174 452.559 -25.5527 153.086
  1175 775.070 146.223 -27.4470
  1176 732.442 -2.25311 -7.68401
  1177 759.742 -1.43941 0.315890
  1178 760.335 -1.86957 -0.148373
  1179 468.882 -0.775048 -1.01868
  1180 469.001 -0.768102 1.01338
  1181 714.832 45.6913 65.9404
  1182 1036.56 174.589 -3.77063
  1183 737.899 121.130 -28.9125
  1184 549.224 -41.2315 157.624
  1185 450.203 -24.6882 -152.761
  1186 504.364 -32.5968 -54.3481
  1187 682.453 -19.7205 9.55550
  1188 944.123 210.279 20.4720
  1189 504.452 -32.4281 53.9883
  1190 695.528 -12.9990 7.22733
  1191 635.502 24.2822 36.3163
  1192 692.490 21.6691 63.8331
  1193 969.301 215.820 32.2210
  1194 588.185 -15.0769 6.68043
  1195 588.199 -15.1335 -6.71358
  1196 705.216 -13.9889 18.1832
  1197 438.134 -4.19823 17.9912
  1198 437.850 -4.23797 -18.1240
  1199 689.163 -10.2508 -2.67166
  1200 288.241 174.316 -267.742
  1201 597.048 -34.0962 -168.938
  1202 573.413 -17.4305 -11.3060
  1203 573.484 -17.3674 11.3112
  1204 733.591 -4.17133 2.57183
  1205 698.996 -10.0488 5.71595
  1206 41.6584 55.1292 42.1255
  1207 753.819 -1.12554 2.24142
  1208 95.3961 125.348 124.161
  1209 684.057 -11.0692 -3.55554
  1210 -0.374356 -16.1158 -14.2317
  1211 491.545 -48.1085 -118.870
  1212 490.356 -46.9716 117.768
  1213 753.779 -1.57898 -2.53023
  1214 654.902 -34.6037 -3.00431
  1215 733.287 -3.88713 -2.51364
  1216 599.744 -19.1399 -7.24018
  1217 599.707 -19.0893 7.18809
  1218 688.747 -10.1940 2.45796
  1219 650.569 -29.6230 2.12709
  1220 627.828 -20.2853 3.13885
  1221 628.020 -20.3198 -3.07871
  1222 732.478 -3.99708 -2.01533
  1223 637.306 -67.6828 -117.567
  1224 718.410 -5.34644 -1.92720
  1225 686.733 -11.3415 3.97432
  1226 496.790 -4.84009 -7.51920
  1227 496.886 -4.79581 7.48687
  1228 548.183 -7.65270 -4.20086
  1229 548.223 -7.60860 4.18595
  1230 863.872 136.161 30.7283
  1231 727.782 -56.4291 17.3466
  1232 503.094 -2.97396 193.860
  1233 422.669 -0.508990 6.92184
  1234 422.345 -0.515382 -6.97798
  1235 694.613 -13.1180 38.7586
  1236 662.874 -10.7652 0.124380
  1237 662.889 -10.7362 -0.124526
  1238 763.709 147.055 12.9844
  1239 690.288 -72.6638 95.5796
  1240 420.777 -5.41765 24.9597
  1241 420.407 -5.45314 -25.1092
  1242 662.364 -16.7102 2.15830
  1243 662.216 -16.8341 -2.03069
  1244 682.065 -19.5144 -9.12205
  1245 639.142 0.217210 19.1434
  1246 1066.96 266.051 -96.0630
  1247 695.859 -25.9247 -32.6747
  1248 128.650 28.6589 74.1113
  1249 717.860 -38.6567 44.9489
  1250 593.856 13.7481 -14.7467
  1251 49.9561 33.8624 29.4796
  1252 930.018 110.151 -24.3631
  1253 702.407 -32.2574 -46.5987
  1254 596.346 9.11050 22.6328
  1255 411.040 -24.9191 79.6102
  1256 711.365 -55.4501 23.4361
  1257 1012.74 206.371 80.3159
  1258 248.828 35.0358 138.101
  1259 713.495 -9.22107 -15.7811
  1260 1320.75 15.1396 -12.9038
  1261 1360.73 20.1401 56.8270
  1262 1446.78 47.6293 -136.167
  1263 696.006 -22.1198 -41.9862
  1264 694.968 -32.1297 34.3049
  1265 705.020 -50.5529 29.9177
  1266 -20.4693 2.76342 12.6649
  1267 -18.4968 2.33329 -13.9383
  1268 684.470 -76.0757 -48.8614
  1269 699.334 -71.1705 -69.7273
  1270 558.692 3.89086 -9.37775
  1271 681.176 -77.3398 69.0920
  1272 729.521 -34.9380 -45.3215
  1273 17.9132 23.3695 5.83172
  1274 600.436 -11.0100 2.11702
  1275 600.470 -11.0754 -2.12247
  1276 721.826 -6.51571 10.4498
  1277 695.407 -12.7898 -6.70167
  1278 657.655 -71.7488 -28.8150
  1279 605.786 -32.2324 13.6628
  1280 602.940 -31.7523 -14.3903
  1281 703.972 -15.4611 26.0485
  1282 721.905 -26.8276 -54.0176
  1283 51.7468 35.3036 -29.0084
</Section>

newXOutput 98

<Section columns = "stress_xx | stress_yy | stress_xy">
  1 770.827 -0.472663 1.32777
  2 770.805 -0.453538 -1.32996
  3 451.892 -0.0416194 -0.475505
  4 -5.58963 -5.49273 -8.04537
  5 1322.25 569.460 437.828
  6 1310.57 588.216 -432.526
  7 -6.50460 -5.18584 8.60790
  8 451.766 -0.0429170 0.474560
  9 775.557 -1.43071 0.352570
  10 774.295 -2.20282 -0.503076
  11 773.159 -1.60435 1.40084
  12 771.963 -2.08997 0.172113
  13 769.314 -1.80906 2.19725
  14 766.848 -1.80228 1.46819
  15 760.530 -1.58016 3.22134
  16 750.971 -1.29911 4.79997
  17 742.579 -1.27331 5.46720
  18 729.666 -1.58183 6.74089
  19 711.214 -0.305087 10.1390
  20 694.184 -1.15468 9.78798
  21 674.132 -1.38388 13.9867
  22 645.239 0.954938 12.3156
  23 623.815 1.61095 14.6886
  24 595.805 2.61216 11.6094
  25 576.207 2.99514 11.7611
  26 547.842 3.96075 6.02928
  27 541.761 6.19775 6.51005
  28 538.049 5.21624 -1.94147
  29 542.996 3.25436 -4.18716
  30 552.158 2.99542 -5.15489
  31 573.436 3.65118 -10.2494
  32 594.122 2.89176 -12.8503
  33 624.013 0.815924 -15.1680
  34 647.841 -0.236575 -13.6334
  35 672.872 -1.08633 -13.2293
  36 695.338 -0.919275 -9.24180
  37 714.283 -1.01930 -7.78687
  38 729.624 -1.56400 -6.42362
  39 743.122 -1.19123 -4.31969
  40 751.228 -1.48698 -4.51195
  41 759.081 -1.69913 -3.26450
  42 766.248 -1.96562 -1.24231
  43 769.832 -1.61847 -1.59304
  44 771.419 -1.11926 -0.915516
  45 769.384 -0.808508 -0.842242
  46 774.929 -2.17902 0.382973
  47 775.726 -1.47310 -0.362437
  48 753.694 -1.18310 -0.823837
  49 738.972 -3.93411 -1.60890
  50 720.694 -5.59248 -0.868027
  51 698.210 -7.86885 -1.23962
  52 676.640 -8.46905 -1.44869
  53 653.434 -10.1544 -1.41168
  54 632.727 -11.0332 -0.644929
  55 614.552 -11.9831 -0.0665703
  56 593.514 -9.84314 -0.0258518
  57 569.250 -9.01212 -0.303409
  58 545.921 -6.93806 0.100546
  59 523.880 -4.24498 0.144556
  60 503.013 -2.89764 0.204469
  61 484.840 -1.32070 0.328141
  62 466.430 -0.226967 -0.528106
  63 452.002 0.663961 0.865022
  64 445.356 1.60793 0.651778
  65 449.297 0.0888201 1.41892
  66 443.762 -0.119208 1.74389
  67 438.372 -0.222706 2.16350
  68 431.202 0.0616761 2.75011
  69 422.189 0.0436099 3.41466
  70 415.055 -0.362921 6.37160
  71 396.482 0.571174 6.91644
  72 383.103 0.0240348 7.80094
  73 363.197 -0.261086 8.88401
  74 340.401 -0.481475 10.7783
  75 311.840 -0.0581572 13.0938
  76 277.033 0.203116 14.5216
  77 246.239 -0.190269 20.8074
  78 186.659 1.85290 19.8230
  79 145.174 1.59220 21.0290
  80 94.6349 -0.491815 23.6021
  81 51.8231 3.63544 24.9193
  82 2.64632 5.61829 15.6949
  83 -34.1523 5.75216 6.44948
  84 -35.6551 5.75768 -0.660126
  85 -36.3665 4.87761 -10.5443
  86 -21.6502 -1.22250 -10.3791
  87 -2.41651 -20.7781 -11.5468
  88 2.43580 -37.7373 -14.0028
  89 6.19260 -57.2584 -6.50370
  90 13.4029 -54.0248 3.53529
  91 27.8219 2.35476 40.2134
  92 80.1737 149.445 126.182
  93 442.402 461.843 396.632
  94 1609.56 245.133 263.718
  95 1461.61 34.7526 84.5642
  96 1368.36 14.7650 25.8824
  97 1334.10 12.7260 1.88551
  98 1352.89 16.6946 -22.6985
  99 1459.74 32.8239 -67.1074
  100 1693.73 118.290 -224.038
  101 265.590 478.710 -334.615
  102 59.9160 118.925 -106.300
  103 30.5562 5.42118 -43.7768
  104 12.6208 -53.0622 -9.98389
  105 3.98027 -42.7450 7.29018
  106 4.69605 -47.7755 11.9933
  107 0.361540 -17.7891 12.8149
  108 -22.6473 -0.643976 9.76881
  109 -37.5033 3.66468 9.11611
  110 -37.6221 6.96946 0.841639
  111 -35.1845 5.63068 -6.09558
  112 0.0800301 5.75690 -14.7925
  113 49.6310 3.66521 -23.8104
  114 92.4116 -0.0927227 -23.2199
  115 142.858 1.71852 -21.0608
  116 184.556 1.89756 -19.9560
  117 244.614 -0.198763 -20.9597
  118 275.649 0.221142 -14.6447
  119 310.627 -0.0551951 -13.2412
  120 339.798 -0.541446 -10.8428
  121 362.347 -0.242239 -8.89850
  122 382.451 0.0473673 -7.87072
  123 395.943 0.565419 -6.98032
  124 414.658 -0.367156 -6.42555
  125 421.863 0.0408345 -3.44740
  126 430.945 0.0589743 -2.77685
  127 438.167 -0.227240 -2.18453
  128 443.594 -0.123103 -1.75843
  129 449.151 0.0856113 -1.42806
  130 445.221 1.60672 -0.655912
  131 451.873 0.663288 -0.867669
  132 466.307 -0.230476 0.526981
  133 484.727 -1.32959 -0.331221
  134 502.915 -2.91693 -0.208027
  135 523.804 -4.27172 -0.147941
  136 545.872 -6.97677 -0.104029
  137 569.232 -9.06168 0.300553
  138 593.531 -9.90118 0.0225739
  139 614.597 -12.0495 0.0647873
  140 632.793 -11.1001 0.646892
  141 653.533 -10.2153 1.41858
  142 676.732 -8.51011 1.47358
  143 698.287 -7.90566 1.36241
  144 720.828 -5.33644 0.886330
  145 739.464 -3.84963 1.57216
  146 753.846 -1.30156 0.809893
  147 684.591 -64.4163 3.42113
  148 683.959 -63.5316 -3.18538
  149 725.366 103.787 -31.2418
  150 765.748 45.0943 63.9682
  151 581.016 -56.6292 -133.319
  152 585.882 -56.4890 129.293
  153 572.703 -23.5219 18.1757
  154 572.725 -23.8258 -18.1773
  155 806.854 29.7763 -44.3816
  156 682.874 -25.0731 10.0428
  157 682.573 -24.5054 -9.93228
  158 881.895 194.015 5.12992
  159 703.112 -1.05931 -64.6221
  160 526.926 -40.3347 -60.4009
  161 527.002 -40.0252 59.9445
  162 703.160 -16.1218 57.4280
  163 674.907 49.6899 39.5209
  164 283.898 43.6209 -159.538
  165 313.046 41.4872 167.822
  166 845.786 11.7011 -6.37987
  167 702.848 -27.3672 -38.0899
  168 923.785 202.855 6.55894
  169 636.008 -18.1167 -2.64101
  170 635.890 -18.0789 2.68328
  171 706.479 -9.48646 -4.22687
  172 708.384 -8.63614 3.59363
  173 512.255 -6.69859 -10.1107
  174 512.334 -6.63470 10.0723
  175 750.139 -17.2594 169.821
  176 655.134 27.8008 -42.6990
  177 432.796 -31.8590 -94.8154
  178 434.035 -31.6369 94.2906
  179 488.141 -15.0392 -31.5937
  180 488.204 -14.8789 31.4046
  181 705.810 -19.0309 32.4658
  182 644.105 -43.8912 -7.17151
  183 642.032 -43.5655 8.06847
  184 724.958 -70.6436 -21.6399
  185 728.979 -67.3042 12.7824
  186 995.476 235.540 -45.2200
  187 738.922 117.811 29.0333
  188 736.805 45.3110 -65.8878
  189 746.214 -3.00756 -195.517
  190 727.262 -41.4613 -42.2855
  191 733.719 -29.7359 51.2982
  192 614.768 -69.6293 68.2769
  193 614.764 -69.1029 -68.1132
  194 664.343 8.82206 50.9472
  195 312.115 -8.26619 -116.727
  196 312.776 -8.85235 116.100
  197 1113.26 165.337 24.7001
  198 690.100 -41.3788 20.8819
  199 713.701 -13.7768 -20.4755
  200 576.399 -13.6676 -8.74117
  201 576.425 -13.6122 8.72170
  202 691.225 -9.09638 -44.6393
  203 783.726 114.764 -50.9466
  204 665.321 60.2169 -7.88109
  205 442.178 -14.7287 43.6353
  206 441.563 -14.7630 -43.9046
  207 721.813 -8.83005 10.4946
  208 711.164 13.4517 66.6434
  209 581.958 -41.3956 -31.6115
  210 578.490 -39.1681 32.0764
  211 831.145 123.677 43.2405
  212 961.893 140.434 38.7678
  213 72.8504 54.7433 -49.4466
  214 67.5858 50.5946 42.3140
  215 405.018 118.394 274.871
  216 683.421 -45.5721 -14.3302
  217 723.964 -8.46437 -9.44997
  218 657.663 6.19611 -46.9820
  219 472.838 -4.14901 -14.1114
  220 472.994 -4.10448 14.0129
  221 619.565 -28.6998 -9.53254
  222 619.860 -28.9014 9.19555
  223 696.204 -9.55575 37.6829
  224 788.836 -45.2402 29.0103
  225 796.136 160.744 -14.3112
  226 624.496 -59.7576 -35.1568
  227 780.996 -13.6328 35.9376
  228 669.626 -11.9533 0.771743
  229 669.620 -11.8689 -0.771894
  230 620.331 -59.4873 36.1719
  231 706.446 -45.1917 33.6188
  232 970.329 136.250 -79.0823
  233 226.837 134.890 -204.011
  234 614.217 22.3638 10.3630
  235 715.491 63.0799 56.4155
  236 754.745 -5.42738 -55.8027
  237 707.967 -25.7605 -52.8029
  238 393.614 -11.9442 -54.1232
  239 394.836 -11.7746 54.0044
  240 708.399 -8.97467 -28.4991
  241 674.448 -17.6641 4.39859
  242 674.142 -17.6580 -4.17081
  243 153.569 12.8023 -76.7306
  244 155.610 11.2043 76.4327
  245 743.950 -65.3969 -67.1776
  246 734.984 -3.49368 1.09837
  247 735.619 -3.55046 -1.30234
  248 700.261 58.2582 -51.9897
  249 624.770 12.7253 31.1318
  250 1237.19 198.055 133.695
  251 1225.66 139.644 -82.6665
  252 913.505 194.231 1.88449
  253 571.716 -28.1762 175.643
  254 526.618 -19.0242 -183.243
  255 608.604 -12.4871 -3.69841
  256 608.560 -12.4219 3.67931
  257 514.338 -12.9163 20.0233
  258 514.310 -13.0822 -20.1646
  259 722.424 -8.44672 16.7401
  260 703.427 -50.3984 -26.1263
  261 476.680 -0.579523 -3.41149
  262 476.803 -0.567239 3.39578
  263 694.760 -28.6394 -21.4011
  264 310.980 -9.82814 -75.5819
  265 312.131 -9.85651 75.1137
  266 704.293 -30.9135 41.1478
  267 542.377 -57.5885 107.441
  268 543.569 -58.6093 -107.100
  269 622.112 24.6326 -14.4974
  270 537.277 -7.68214 -6.85672
  271 537.337 -7.63730 6.83699
  272 668.136 -1.46807 37.2669
  273 791.180 143.623 34.9725
  274 441.460 -4.83264 23.3397
  275 441.153 -4.86909 -23.5035
  276 720.567 -60.6384 14.7437
  277 666.968 -75.3238 -75.9734
  278 738.377 -4.37556 4.61837
  279 529.413 -30.1848 -41.7871
  280 528.631 -29.8693 41.6642
  281 888.967 108.905 245.574
  282 442.541 -35.9991 127.003
  283 707.902 99.0844 -3.29585
  284 875.358 99.8597 -21.2473
  285 668.337 -51.6082 1.43972
  286 667.784 -77.3309 69.2260
  287 443.699 -35.4598 -128.265
  288 85.7503 106.413 99.5994
  289 694.882 -28.7144 21.8307
  290 900.172 121.275 12.7912
  291 743.349 -3.91928 -4.00892
  292 688.402 24.4626 -59.9034
  293 673.291 -38.2279 8.90873
  294 659.836 -55.5026 8.50229
  295 686.401 31.8121 57.8776
  296 717.364 -60.6042 -12.3588
  297 1007.35 193.493 -20.2211
  298 673.121 -36.7705 -8.46615
  299 545.067 165.541 -331.841
  300 685.978 -72.9269 -21.5383
  301 681.347 -74.9536 29.1453
  302 510.358 -45.4068 -84.1067
  303 472.183 -1.45398 -7.32369
  304 472.324 -1.42794 7.27930
  305 510.637 -45.4645 83.7102
  306 728.464 -1.28288 -65.5967
  307 778.805 -32.2524 -20.0638
  308 603.701 -35.6365 -18.6889
  309 603.408 -35.7233 18.9896
  310 707.813 -60.9566 117.851
  311 713.669 -6.11934 21.5389
  312 852.512 7.73668 51.6157
  313 593.126 -20.4493 -10.6888
  314 593.181 -20.3994 10.6467
  315 545.422 -13.4746 -13.7843
  316 545.446 -13.3616 13.7728
  317 619.056 8.85235 -30.0808
  318 774.659 56.9882 -61.5260
  319 1169.18 319.424 -158.556
  320 702.156 -7.18140 -1.26436
  321 701.823 -7.09439 1.31960
  322 386.777 -2.02863 158.605
  323 541.704 -23.5448 -28.4781
  324 540.815 -23.4928 28.5593
  325 386.699 -2.99942 -157.994
  326 743.048 87.5069 -54.0474
  327 820.717 41.5981 41.0564
  328 707.114 -50.3676 -129.931
  329 658.993 -25.6835 2.17282
  330 658.380 -25.5257 -1.91919
  331 699.311 -15.3312 -9.47811
  332 668.495 -1.12633 -34.8147
  333 740.789 2.95382 63.5154
  334 733.532 -5.77784 -11.3604
  335 457.976 -26.7086 63.7946
  336 457.484 -26.8392 -64.2100
  337 693.939 -1.44307 61.6587
  338 445.150 -3.16209 -14.0180
  339 445.415 -3.13392 13.9149
  340 704.882 -16.9490 16.2137
  341 847.162 171.833 -22.5863
  342 699.083 -15.4177 9.90162
  343 750.854 93.8767 53.9790
  344 716.851 -13.5437 62.4484
  345 575.978 -10.4754 3.41808
  346 575.968 -10.5284 -3.43378
  347 683.016 -2.28562 -54.8693
  348 891.918 186.731 10.0684
  349 750.964 136.314 1.10092
  350 458.116 52.7408 -233.280
  351 54.7028 21.0954 -35.7138
  352 59.1819 22.8749 38.0667
  353 -0.355068 6.44070 12.0443
  354 2.08547 4.31178 -12.7497
  355 1260.28 87.6843 29.1754
  356 621.282 -49.7786 -22.6003
  357 705.281 -16.4285 -15.7905
  358 641.213 -11.7407 -0.177611
  359 641.144 -11.6619 0.171107
  360 691.807 76.5163 -28.2154
  361 587.970 -59.1785 56.3129
  362 55.5135 83.7967 -64.1108
  363 588.375 -59.1260 -57.1836
  364 700.127 79.6688 29.9970
  365 705.620 -19.3709 -30.7337
  366 745.488 -41.9906 -33.7772
  367 801.400 166.919 9.75129
  368 746.656 -47.1048 25.9676
  369 328.924 -7.63411 50.4175
  370 327.221 -7.48131 -50.6755
  371 190.622 4.03312 -71.5717
  372 192.262 3.36280 71.2792
  373 627.599 2.69790 30.2967
  374 1134.14 340.406 144.349
  375 726.691 -5.15164 -15.0274
  376 574.891 -47.4823 -43.5774
  377 574.535 -47.4041 43.5270
  378 702.964 -16.6090 -40.1946
  379 790.421 -38.0976 -6.13155
  380 621.260 -49.7517 23.1367
  381 859.357 10.2405 -84.1155
  382 512.364 -3.62086 -2.89749
  383 512.453 -3.59299 2.88420
  384 694.033 -4.23050 -26.2918
  385 391.565 -5.13929 -32.7154
  386 391.753 -5.31748 32.3631
  387 821.362 105.556 -49.1231
  388 448.569 31.1806 217.594
  389 648.041 -33.9016 -2.05072
  390 648.649 -33.8563 2.03218
  391 763.036 128.141 -33.6144
  392 718.892 -21.5593 -58.4795
  393 714.410 -73.4491 68.5906
  394 606.612 -15.9577 -5.96059
  395 606.562 -15.8993 5.92273
  396 692.417 -53.6088 15.1738
  397 739.478 -4.08588 8.31271
  398 480.479 -16.4564 -39.1616
  399 480.674 -16.4722 38.8851
  400 708.306 23.9777 -65.9379
  401 664.712 -15.0713 1.01544
  402 664.674 -15.1156 -0.946704
  403 691.515 -8.29892 49.8099
  404 652.781 48.2251 13.8135
  405 712.759 -30.4835 50.1464
  406 1016.55 210.899 43.4278
  407 357.604 -19.0673 -101.650
  408 358.509 -19.0631 100.975
  409 162.217 84.5452 -126.304
  410 751.995 -2.93211 1.96878
  411 408.354 -2.98272 -20.7669
  412 408.826 -2.91980 20.6184
  413 703.299 -18.7496 39.1239
  414 638.696 -69.0411 40.3434
  415 714.557 -9.84111 6.64390
  416 735.394 37.3084 67.8644
  417 169.137 90.0190 130.927
  418 639.555 -68.5970 -37.6259
  419 660.189 -61.1536 -13.3024
  420 231.983 -4.58122 -64.2444
  421 233.408 -4.73121 63.8550
  422 510.211 -41.7762 -153.113
  423 754.506 -11.5519 54.0840
  424 508.621 -42.2870 151.902
  425 699.009 -39.6031 -30.2230
  426 660.738 45.2511 -29.9956
  427 699.015 -30.7080 29.1489
  428 743.706 -4.05122 -5.27914
  429 25.5562 29.1392 16.0409
  430 157.880 188.110 183.899
  431 679.613 -2.45018 25.6657
  432 584.598 8.72714 13.3215
  433 593.283 10.4603 -17.9851
  434 506.335 -7.60462 -14.1387
  435 506.407 -7.51382 14.0689
  436 689.101 -53.5534 -13.3460
  437 699.516 -13.9032 -55.3418
  438 587.233 11.8593 -4.87894
  439 1014.78 243.260 61.2712
  440 152.172 47.8654 -95.1841
  441 166.735 43.8840 101.065
  442 647.439 -23.2321 -0.979794
  443 647.220 -23.2021 1.12743
  444 860.231 186.905 -1.51714
  445 521.695 236.680 339.062
  446 817.430 -10.2137 1.23323
  447 488.550 -24.3782 -53.1215
  448 488.795 -24.2314 52.7435
  449 494.602 -10.1799 21.5382
  450 494.493 -10.2451 -21.6931
  451 656.374 15.1954 -48.5506
  452 755.217 -1.70519 -1.22946
  453 640.857 30.2106 27.5185
  454 792.619 97.7896 55.7517
  455 661.873 -49.0115 0.500471
  456 714.174 -9.43343 -6.49043
  457 746.384 -3.73550 4.85367
  458 752.893 -1.85265 0.694005
  459 753.365 -2.01238 -0.453261
  460 444.307 -0.573494 5.29312
  461 444.090 -0.583245 -5.33595
  462 720.960 -46.2701 36.5514
  463 662.278 26.7182 47.0469
  464 687.442 2.98251 -60.4078
  465 709.862 -15.6958 22.1803
  466 989.480 187.667 -212.954
  467 712.910 -39.9507 -42.5586
  468 11.6618 14.2788 8.56765
  469 11.3989 14.6979 -5.02191
  470 573.581 -31.5100 25.7447
  471 571.850 -31.0450 -25.3692
  472 866.568 22.9926 119.651
  473 248.117 239.057 -262.084
  474 705.806 -2.43558 19.4694
  475 786.089 -44.9496 -72.1176
  476 439.096 -24.3327 73.5064
  477 851.671 151.487 -32.6991
  478 702.856 -38.4605 35.0803
  479 597.148 -27.8590 -14.4829
  480 597.655 -27.4237 14.4618
  481 627.463 3.63377 -26.7037
  482 437.815 -24.2155 -73.8711
  483 641.184 0.625387 26.6933
  484 603.662 -69.3273 -97.5854
  485 602.215 -69.4321 98.0659
  486 723.325 -5.27228 16.6720
  487 670.258 63.6330 5.69180
  488 659.585 14.2120 235.431
  489 976.173 195.670 -1.21173
  490 679.093 -12.2880 2.08145
  491 679.114 -12.2489 -2.23048
  492 536.730 -8.86281 -9.41409
  493 536.785 -8.79825 9.39022
  494 287.085 11.7952 134.740
  495 706.394 -34.4306 -42.2158
  496 643.096 -14.3811 -1.39063
  497 643.034 -14.3442 1.39654
  498 563.354 -59.1113 79.6902
  499 292.299 15.7876 -137.999
  500 705.770 -57.8718 -15.5088
  501 14.1488 6.70983 2.02777
  502 632.559 33.5395 2.07199
  503 681.032 -8.83466 -0.598675
  504 681.032 -8.93356 0.566542
  505 563.547 -58.9773 -80.2540
  506 786.575 -39.1493 88.7317
  507 787.908 28.7896 55.4123
  508 723.677 -5.90746 -2.95601
  509 703.648 -58.6470 15.8988
  510 464.499 -0.206814 -1.03510
  511 464.625 -0.203492 1.02938
  512 704.856 -27.4197 -45.9943
  513 689.850 51.2850 51.0309
  514 778.708 19.4320 -54.9088
  515 461.647 -0.491499 -3.00077
  516 461.786 -0.483304 2.98539
  517 1311.72 189.993 -167.747
  518 716.142 85.0464 44.5078
  519 724.182 -5.55801 2.59382
  520 661.530 -62.5355 14.9367
  521 565.594 -17.9790 14.6499
  522 565.567 -18.0989 -14.6205
  523 762.908 -46.8489 9.03653
  524 738.127 -15.0686 -58.2396
  525 826.662 161.441 29.3532
  526 693.176 12.1539 62.7379
  527 690.969 -14.1528 5.26781
  528 669.893 -72.1378 -95.6406
  529 700.756 -17.7012 46.1767
  530 1293.35 59.9119 -23.3575
  531 756.812 -57.3853 9.62739
  532 719.226 -5.80108 -0.495202
  533 719.401 -6.09859 0.360288
  534 1306.82 87.5956 81.0472
  535 677.449 -0.00840138 53.3880
  536 925.805 160.517 0.513751
  537 703.884 -19.8507 -21.0684
  538 340.361 -2.87331 -22.3229
  539 341.236 -2.73152 22.1231
  540 486.157 -45.2434 -106.572
  541 486.617 -44.4943 105.855
  542 690.576 -13.6246 -5.25716
  543 753.880 27.6865 -64.7286
  544 663.722 -45.0958 2.08294
  545 719.033 82.3560 -45.9969
  546 716.396 -8.97467 22.3835
  547 884.126 48.7190 -25.0468
  548 619.312 -21.0530 -6.31603
  549 619.161 -21.0047 6.27085
  550 668.044 -31.7319 5.79960
  551 967.151 197.730 -30.9858
  552 707.889 31.0966 65.0435
  553 306.999 78.4446 197.776
  554 672.006 -40.0723 160.551
  555 871.896 51.2701 -178.853
  556 723.351 59.9006 -60.1386
  557 634.121 -55.4495 -139.761
  558 688.006 -75.7673 -34.7883
  559 715.717 -73.0388 -47.6389
  560 99.1707 133.582 -125.977
  561 720.258 -10.0129 -12.7065
  562 1070.56 207.235 -65.5483
  563 671.338 -30.5510 -7.19494
  564 676.112 -22.5280 6.01802
  565 675.514 -22.0567 -5.65661
  566 485.944 -2.31395 -6.74557
  567 486.062 -2.28443 6.71262
  568 78.4932 6.80176 -40.6936
  569 81.9115 7.15999 41.5636
  570 363.388 -16.2380 -77.2094
  571 365.891 -16.3370 77.1643
  572 685.578 -37.5011 -17.1942
  573 695.468 -76.0926 37.1180
  574 714.683 -68.3309 -5.20027
  575 596.326 -10.4694 -2.84488
  576 596.304 -10.4086 2.83326
  577 561.446 -59.3213 -119.375
  578 622.682 -51.6803 147.362
  579 548.770 -55.8648 119.911
  580 707.498 -15.9061 -59.1939
  581 460.754 -6.94096 23.7086
  582 460.537 -7.00818 -23.8660
  583 681.018 38.1337 -51.4114
  584 679.953 -1.21980 -23.2821
  585 841.948 180.230 -12.5160
  586 560.891 -8.06928 -2.57441
  587 560.920 -8.02505 2.56527
  588 717.495 -2.32801 -12.6787
  589 510.124 -16.1913 -26.9661
  590 510.169 -16.1492 26.7739
  591 410.970 17.6512 187.986
  592 698.401 -32.5777 -29.3757
  593 399.583 -21.8186 135.476
  594 686.429 -35.9094 17.7693
  595 718.809 -10.9905 14.1897
  596 708.526 -7.52903 -2.46329
  597 517.375 -5.79481 -6.50353
  598 517.456 -5.75258 6.47991
  599 808.674 159.829 -27.0863
  600 399.283 -21.1019 -135.891
  601 684.054 -30.0769 -13.6814
  602 622.068 -11.7561 -1.73974
  603 622.013 -11.6848 1.73377
  604 1130.80 151.147 -27.5791
  605 430.961 -2.41762 12.9300
  606 430.626 -2.43973 -13.0286
  607 649.619 15.4732 44.4387
  608 896.805 80.0590 5.20407
  609 436.760 1.65223 -186.300
  610 233.828 4.83276 -103.436
  611 235.533 3.64807 102.903
  612 551.287 -31.0577 34.2218
  613 556.496 -31.9763 -33.4570
  614 913.632 185.448 3.53086
  615 705.954 -7.76490 2.11208
  616 625.096 18.4144 -27.0027
  617 765.244 136.257 26.6145
  618 762.972 141.297 -17.7377
  619 626.903 -34.3477 -9.85066
  620 631.320 -33.6370 7.69720
  621 445.983 99.0096 -265.123
  622 546.912 -17.8138 -19.4804
  623 546.978 -17.6277 19.4356
  624 1307.98 268.792 202.611
  625 705.693 -23.4518 50.1638
  626 419.718 -13.9411 -49.3689
  627 1055.88 268.562 188.942
  628 420.609 -13.8769 49.2271
  629 665.775 -24.8075 -185.906
  630 494.080 -1.96581 -2.47582
  631 494.186 -1.94935 2.46663
  632 605.710 5.91669 23.6014
  633 286.889 -3.93973 -44.2004
  634 288.203 -3.95197 43.9046
  635 619.211 -43.2134 18.2344
  636 646.883 -51.4491 -10.0407
  637 750.700 -2.04343 -4.63783
  638 451.266 -0.534799 4.00245
  639 451.088 -0.545580 -4.03357
  640 588.252 -13.0084 -4.84039
  641 588.245 -12.9503 4.81642
  642 662.668 -74.0899 96.3499
  643 766.046 85.4878 -58.7643
  644 521.326 -23.1922 -34.6482
  645 521.023 -22.8162 34.4357
  646 608.600 -43.0035 -23.0554
  647 943.462 203.668 12.7784
  648 710.739 -69.1754 8.88915
  649 624.182 -15.0915 -3.60868
  650 624.104 -15.0351 3.60340
  651 845.364 94.0230 37.7992
  652 713.700 -10.9529 -24.2941
  653 644.399 -0.539550 -21.6830
  654 307.321 -10.5635 -97.6730
  655 308.116 -10.8185 96.9740
  656 606.495 -51.5576 -34.5190
  657 900.126 194.979 -0.318508
  658 707.872 95.5959 -20.0579
  659 482.977 -3.84721 -12.1591
  660 483.102 -3.79584 12.0842
  661 654.533 -18.9087 0.211417
  662 654.652 -18.9108 -0.0960409
  663 1181.97 153.557 68.1127
  664 758.472 -2.54151 1.07092
  665 739.313 -3.39173 8.27299
  666 737.090 -3.37186 -9.93935
  667 702.963 -65.7701 1.54695
  668 533.132 -5.70299 -3.24422
  669 533.197 -5.66837 3.23370
  670 757.337 120.505 41.3809
  671 957.726 211.647 -20.6919
  672 538.441 -38.8130 -49.0804
  673 538.362 -38.4653 48.8822
  674 661.924 -68.0663 -21.3989
  675 703.627 42.0443 -61.4010
  676 819.146 3.01251 16.0536
  677 560.982 -9.97000 -6.90261
  678 561.015 -9.91742 6.88279
  679 485.242 -41.9965 -96.1455
  680 696.586 -67.6336 4.59981
  681 583.742 -64.6524 87.9564
  682 284.600 88.5377 -191.210
  683 549.279 -50.0606 67.8668
  684 663.126 0.204168 19.8394
  685 485.728 -41.5406 95.5812
  686 683.687 -30.6134 13.8489
  687 549.357 -49.8253 -68.3961
  688 576.037 8.11856 4.98647
  689 447.167 -11.1429 35.3999
  690 446.803 -11.1431 -35.5995
  691 583.878 -66.3169 -88.8805
  692 716.503 -47.6030 -35.2354
  693 659.014 -9.98960 -0.0509970
  694 659.117 -10.0752 0.0521928
  695 731.102 -47.0657 34.0703
  696 666.580 -69.6313 24.2334
  697 806.435 74.4349 53.4867
  698 730.723 -14.0103 60.7863
  699 703.258 -25.7545 35.7865
  700 680.958 56.3962 -39.0012
  701 808.138 135.294 42.7111
  702 699.832 -9.93152 -36.3558
  703 694.087 -23.6357 16.4027
  704 725.809 112.940 10.7723
  705 707.498 -12.4632 30.9282
  706 228.316 157.054 201.178
  707 657.200 -75.8300 -58.7868
  708 760.616 13.7054 60.9261
  709 765.241 -23.8327 -39.5952
  710 756.277 -1.49258 2.36376
  711 701.981 -24.7267 -27.3267
  712 658.348 -76.4089 54.0759
  713 1232.02 109.484 -18.1145
  714 414.571 -1.51361 13.5019
  715 414.138 -1.52881 -13.6062
  716 709.296 -13.7395 -11.7126
  717 760.283 -1.18041 -2.36310
  718 605.557 -52.4152 34.6816
  719 721.319 -27.2125 54.5285
  720 1066.90 267.232 -98.7958
  721 683.820 -49.7018 12.5964
  722 753.090 -49.9657 -15.1313
  723 694.294 -23.0460 -16.1204
  724 758.887 -1.83571 -0.567088
  725 707.520 -0.143470 65.2336
  726 34.8631 40.9742 47.6225
  727 780.479 -27.8658 -126.468
  728 854.123 53.0193 17.7663
  729 715.355 -73.5309 43.6681
  730 527.273 -11.8709 15.8236
  731 527.248 -12.0236 -15.8792
  732 642.359 360.062 -354.869
  733 731.271 -48.8093 -30.7522
  734 574.019 3.72250 -9.54986
  735 655.235 3.97427 42.9934
  736 707.958 -35.8286 42.7777
  737 678.557 -57.1871 2.21129
  738 699.099 -64.3075 -103.647
  739 674.798 -53.3906 -3.79614
  740 788.208 -37.5312 3.34601
  741 727.319 -6.83110 6.64389
  742 656.658 -39.3521 -0.0277180
  743 1160.58 231.822 -126.570
  744 696.723 -19.3816 12.6416
  745 696.454 11.6485 -64.3200
  746 586.584 -5.96969 207.936
  747 742.921 59.7175 64.4480
  748 639.641 -49.9522 13.0885
  749 502.366 -38.5287 -70.6994
  750 502.471 -38.4478 70.2097
  751 686.574 77.3842 -9.01878
  752 693.158 -8.12082 56.7037
  753 698.810 -16.8597 -47.4232
  754 657.360 -40.1976 -0.124712
  755 636.517 -56.5724 22.7624
  756 731.034 119.715 -11.9681
  757 677.765 -58.6821 0.441851
  758 679.680 -43.1897 12.6727
  759 686.118 -9.74265 1.51254
  760 686.477 -9.51579 -1.48642
  761 921.285 199.819 -1.51273
  762 750.139 -64.1535 -33.1784
  763 704.013 -22.1416 27.3766
  764 727.296 -6.84074 -5.92604
  765 741.655 4.81809 -64.1765
  766 836.019 45.7414 -29.7920
  767 436.541 -0.219125 -6.42163
  768 436.808 -0.214058 6.37046
  769 7.11933 -10.0874 -6.80402
  770 719.087 -1.10412 11.6864
  771 667.961 -0.729487 -47.1861
  772 686.473 -6.46886 40.8725
  773 610.786 82.5123 300.285
  774 780.146 158.290 -1.44382
  775 560.028 -38.9490 39.4023
  776 111.465 1.98661 -39.4355
  777 113.982 1.42091 39.8283
  778 681.334 -4.78305 -46.4347
  779 561.333 -39.3035 -39.4271
  780 723.169 -7.48030 4.74939
  781 389.439 -15.8814 65.7398
  782 386.392 -15.8139 -65.6976
  783 696.625 -18.8524 -12.2864
  784 463.322 -10.7850 -30.9619
  785 463.542 -10.7244 30.7384
  786 723.882 -7.53710 -16.4309
  787 565.617 -14.4910 -11.7599
  788 565.653 -14.4117 11.7670
  789 788.575 -4.70245 -38.8886
  790 716.654 -7.61400 -64.7587
  791 385.204 -2.18832 -17.0377
  792 385.834 -2.16746 16.8681
  793 26.9329 9.30202 -25.3179
  794 29.9006 9.83945 26.5416
  795 597.715 3.10657 -17.1018
  796 652.879 -73.3347 -45.5104
  797 -7.06563 -4.73062 12.6226
  798 -6.34813 -5.88442 -12.7602
  799 678.491 -14.3752 3.54942
  800 733.158 -57.6692 -12.8934
  801 763.901 112.669 -48.0017
  802 725.844 -6.79117 -4.54803
  803 1480.81 307.657 -277.649
  804 678.346 -14.3447 -3.49167
  805 1010.06 189.970 18.5226
  806 729.150 21.2561 -67.8339
  807 799.720 60.9261 -55.2757
  808 152.167 -1.72625 -35.9293
  809 154.366 -1.91976 35.8784
  810 471.911 -6.16866 18.6337
  811 471.741 -6.21462 -18.7647
  812 455.709 -0.829802 3.54568
  813 455.556 -0.839188 -3.56717
  814 811.877 136.319 -41.9943
  815 498.146 -2.62354 -5.39769
  816 498.249 -2.59503 5.37601
  817 695.194 -6.96487 -59.3088
  818 969.671 112.027 101.828
  819 635.220 14.9344 -37.4834
  820 234.567 -1.94648 37.9259
  821 232.979 -1.96553 -38.1820
  822 784.443 27.2553 219.050
  823 708.761 -13.8487 12.0843
  824 649.139 43.7928 -15.5803
  825 315.296 -0.322897 25.5087
  826 313.973 -0.185546 -25.6659
  827 462.822 -1.96275 -9.24299
  828 462.995 -1.93454 9.17716
  829 85.2895 74.9203 68.8059
  830 672.443 16.4917 55.0806
  831 743.694 108.718 -41.8386
  832 793.946 92.4509 -56.2270
  833 534.573 -19.1965 -24.8939
  834 534.318 -19.0785 24.8876
  835 824.901 173.282 18.3059
  836 705.554 -6.91197 -0.448077
  837 705.615 -6.86351 0.555797
  838 703.665 -21.6243 -36.5457
  839 595.461 -38.8395 25.1148
  840 649.252 -72.9004 45.5101
  841 753.558 -61.6713 69.8069
  842 591.658 -16.7868 -8.12859
  843 591.669 -16.7420 8.09269
  844 677.758 63.1853 25.1665
  845 640.200 9.32655 -40.3447
  846 176.842 227.935 208.888
  847 638.357 -56.0854 -21.2504
  848 641.012 -28.5646 -3.24833
  849 641.341 -28.6533 3.20068
  850 704.805 -10.5278 61.8127
  851 695.684 -46.0120 -23.7768
  852 625.656 -40.8589 -13.4156
  853 1352.41 43.7537 -64.8312
  854 595.930 -55.5703 45.5546
  855 595.395 -56.2514 -46.1958
  856 702.972 -8.67970 30.8068
  857 1037.19 272.256 -74.1926
  858 561.710 -49.9829 -54.8332
  859 615.387 -68.8590 54.0730
  860 561.656 -49.4175 54.4129
  861 607.169 -24.0166 -9.90682
  862 607.180 -23.9589 9.85833
  863 97.3218 38.9505 59.4451
  864 754.746 56.4541 -64.4260
  865 584.963 -22.2034 -13.5415
  866 585.084 -22.0017 13.5802
  867 579.065 -9.34625 -1.67863
  868 579.069 -9.29366 1.67087
  869 630.511 -12.8565 -1.64043
  870 630.444 -12.7881 1.63215
  871 523.844 -9.50784 -13.5688
  872 523.905 -9.41087 13.5281
  873 586.567 -29.9961 -19.5649
  874 586.659 -29.8264 19.6530
  875 15.8673 1.53854 -11.4044
  876 868.318 163.383 26.2158
  877 748.322 -26.5729 -48.2156
  878 614.760 -67.8368 -54.5348
  879 662.126 -21.7264 2.01946
  880 661.860 -21.5321 -1.86940
  881 722.676 0.759018 66.2273
  882 774.019 -55.0390 -44.1961
  883 680.209 54.3556 -262.092
  884 326.797 -6.33114 132.317
  885 -5.83831 7.61728 -11.1616
  886 -4.46564 8.62883 12.0720
  887 96.9403 41.4049 -60.7856
  888 702.996 -20.8887 20.8278
  889 734.534 -5.56855 -8.59420
  890 662.573 -64.3453 117.020
  891 326.084 -6.06927 -132.775
  892 738.304 -61.0064 5.65768
  893 811.685 -21.0743 106.233
  894 616.591 2.65573 18.0741
  895 696.209 66.3781 42.4963
  896 386.184 -21.3776 96.2802
  897 384.798 -21.5447 -96.8242
  898 461.834 -20.9040 -54.2288
  899 474.193 -24.3804 -167.507
  900 741.858 -17.6993 56.0554
  901 1003.31 242.056 53.0754
  902 746.933 28.6081 65.7071
  903 705.781 -15.5381 -33.6798
  904 483.542 -21.8313 171.594
  905 891.930 166.174 -14.6490
  906 95.9754 79.8823 -83.8909
  907 661.481 -1.17044 -18.9239
  908 462.296 -20.7467 53.8231
  909 556.887 -11.7187 10.2177
  910 556.852 -11.7853 -10.2319
  911 696.617 -45.7553 24.7726
  912 717.215 -5.61146 1.53539
  913 531.956 4.27755 -206.812
  914 753.289 -2.04418 4.03265
  915 749.219 -1.73003 -5.36753
  916 585.900 5.45447 -15.8273
  917 729.103 -3.14272 -10.2545
  918 557.500 -25.0768 -23.7875
  919 557.861 -24.7304 23.8718
  920 -16.0573 7.33933 -8.93101
  921 -23.2056 4.43643 9.87720
  922 717.156 -5.27394 -1.62767
  923 254.320 -6.02656 89.5195
  924 253.046 -5.54808 -89.9646
  925 775.197 112.528 50.1617
  926 1322.66 24.1278 19.6805
  927 732.509 81.2305 54.6813
  928 812.419 -27.1354 39.2092
  929 715.887 -40.2578 42.4932
  930 888.072 185.472 -11.3594
  931 575.156 2.95569 11.9558
  932 687.811 -16.9752 -6.61978
  933 720.243 38.8693 -66.3838
  934 853.318 28.0579 0.324483
  935 672.770 -41.6428 -8.72482
  936 365.122 -1.77545 -18.9687
  937 365.391 -1.71087 18.7285
  938 707.821 -17.2850 -25.2893
  939 27.1304 33.2119 10.8760
  940 679.826 -70.5658 -15.4350
  941 607.052 18.9061 -1.62829
  942 883.738 192.159 -7.48096
  943 147.538 109.177 -134.525
  944 686.469 -5.15226 -36.6218
  945 489.613 -7.42809 -17.6178
  946 489.722 -7.34748 17.5011
  947 5.24193 -18.1338 13.3682
  948 474.652 -34.3304 -77.8005
  949 693.184 -40.4142 -23.3654
  950 455.103 0.999006 -1.51158
  951 455.237 1.00232 1.50428
  952 707.826 85.8229 -33.7600
  953 740.477 -3.04028 -0.798085
  954 740.539 -3.06183 1.09037
  955 474.904 -34.2594 77.3539
  956 704.241 -1.22018 -14.2376
  957 800.828 6.16809 36.5538
  958 712.090 -10.9272 9.06249
  959 124.833 29.2531 -73.1030
  960 735.697 -5.19985 7.70092
  961 680.916 5.84620 58.5558
  962 717.779 99.0087 29.9829
  963 714.147 8.34712 -67.6043
  964 502.709 -25.7782 -47.2876
  965 762.991 -27.4264 37.8319
  966 503.043 -25.7014 46.8837
  967 26.2855 27.3638 -6.58566
  968 94.5380 14.4577 53.7817
  969 418.852 -6.77018 31.7462
  970 418.403 -6.76482 -31.8858
  971 688.304 -17.2484 7.11162
  972 747.799 128.909 16.2141
  973 383.607 33.7748 -197.243
  974 624.657 -38.4901 12.1641
  975 586.721 -60.7671 -66.0873
  976 846.902 161.595 29.9945
  977 654.383 -12.1112 -0.573262
  978 654.351 -12.0580 0.564693
  979 712.611 -13.9434 -17.5410
  980 671.993 58.5153 -23.1965
  981 1417.60 437.097 292.452
  982 151.593 7.44897 -68.7507
  983 153.512 6.16287 68.8581
  984 11.3323 -6.99682 7.25157
  985 673.021 37.8509 47.6181
  986 586.699 -61.1639 65.6648
  987 721.009 -34.4118 -49.5071
  988 783.387 64.0752 61.7608
  989 745.401 -60.1884 -83.1694
  990 1081.88 226.940 80.9683
  991 643.602 -10.9063 -0.807902
  992 643.523 -10.8318 0.806560
  993 747.441 -30.9086 45.2086
  994 54.0756 104.280 98.7154
  995 356.945 -6.94465 45.2077
  996 355.993 -6.85271 -45.6101
  997 419.136 -19.5132 62.2484
  998 417.816 -19.1903 -62.4253
  999 469.424 -18.3429 45.2598
  1000 513.146 -3.55211 -2.36618
  1001 513.233 -3.52863 2.35882
  1002 1185.75 400.537 -260.932
  1003 1099.89 276.896 122.206
  1004 469.059 -18.4196 -45.5736
  1005 769.318 -3.72934 50.2855
  1006 699.338 72.6687 -40.7547
  1007 494.497 -43.1470 139.184
  1008 628.011 -74.3635 -78.7660
  1009 716.415 -6.27972 -20.3402
  1010 332.577 21.1381 161.734
  1011 426.147 -32.3733 111.060
  1012 646.757 33.8948 -30.0513
  1013 725.806 -14.6193 -61.7572
  1014 874.291 401.260 399.976
  1015 615.222 19.5860 21.5906
  1016 818.034 173.631 -2.27789
  1017 593.173 24.7454 -234.165
  1018 612.657 -63.8502 -47.1782
  1019 760.321 -1.32191 -1.88684
  1020 744.757 68.3780 -62.6947
  1021 455.621 -2.50049 11.7089
  1022 455.413 -2.52497 -11.7959
  1023 17.7103 19.2168 -29.1538
  1024 503.771 -21.8810 -39.5923
  1025 425.607 -32.7787 -111.788
  1026 503.463 -21.8517 39.2316
  1027 710.488 -21.9086 57.1899
  1028 639.246 -39.1854 -6.89309
  1029 676.178 12.8162 -56.9321
  1030 696.389 86.8961 11.9083
  1031 912.277 62.3111 49.4505
  1032 701.511 -53.5819 22.5686
  1033 456.073 -35.5716 -85.1224
  1034 671.564 24.2888 -53.5746
  1035 498.312 -42.6269 -139.773
  1036 940.595 201.071 -6.44011
  1037 655.766 43.6843 27.3372
  1038 805.765 -4.00527 -24.9143
  1039 616.372 -63.9228 44.0865
  1040 703.481 -22.7016 43.5222
  1041 697.671 -37.1855 28.7973
  1042 693.815 -35.2614 24.3746
  1043 850.665 109.598 -39.4048
  1044 696.345 -11.4506 45.5266
  1045 627.235 -74.5670 77.5675
  1046 669.405 -27.6998 5.30857
  1047 456.366 -35.6594 84.7437
  1048 631.483 -45.9340 -14.4341
  1049 376.889 -18.6390 -118.715
  1050 527.870 -54.3987 95.2812
  1051 707.164 -5.15577 -23.9777
  1052 691.955 -7.88064 -52.3368
  1053 601.159 -46.6893 -30.1708
  1054 377.493 -19.1136 117.909
  1055 652.198 1.88329 -37.3497
  1056 489.610 -31.3046 -60.7700
  1057 862.852 181.724 17.7663
  1058 203.825 31.5843 -115.884
  1059 1405.09 98.9616 131.660
  1060 354.786 24.5839 -168.779
  1061 693.175 -57.6133 -10.6104
  1062 489.774 -31.0629 60.3516
  1063 646.369 7.38160 42.0461
  1064 375.573 -7.06697 37.4635
  1065 375.443 -7.23676 -37.7971
  1066 704.386 -19.8288 -53.2426
  1067 738.052 -4.55025 2.68073
  1068 729.627 -1.95934 10.2851
  1069 726.973 24.0403 67.8740
  1070 683.661 -5.12045 49.4885
  1071 523.269 57.2296 252.684
  1072 764.414 -0.919794 0.790277
  1073 734.880 99.1174 43.4435
  1074 631.427 9.74257 36.4293
  1075 736.945 -3.15036 9.74427
  1076 494.602 -4.66682 -10.0394
  1077 494.705 -4.61634 9.99074
  1078 321.311 -8.62763 -62.7138
  1079 322.376 -8.94330 62.3695
  1080 633.613 32.4061 15.3540
  1081 912.985 56.0331 -82.5373
  1082 839.475 3.92878 -140.207
  1083 689.958 -0.734475 -14.9469
  1084 527.948 -54.7871 -95.9398
  1085 602.438 -44.4179 27.4915
  1086 693.402 -1.69151 15.5701
  1087 719.428 -52.6271 -27.3683
  1088 471.079 -0.754206 5.84273
  1089 470.945 -0.769845 -5.87060
  1090 691.902 -59.2614 10.5832
  1091 659.192 -14.0622 -0.165650
  1092 659.082 -14.0820 0.196549
  1093 642.296 -64.3102 30.8130
  1094 814.094 -25.3269 -21.5610
  1095 395.608 -0.596522 -10.6421
  1096 396.158 -0.575646 10.5485
  1097 562.808 -36.5708 -160.218
  1098 604.651 -14.3179 4.95260
  1099 604.692 -14.3801 -4.98119
  1100 361.503 201.762 277.768
  1101 823.555 68.6827 -46.8216
  1102 130.687 61.2372 -90.5932
  1103 712.324 -11.4736 -8.72318
  1104 200.865 66.2495 -133.151
  1105 412.534 -25.0969 -80.4658
  1106 763.835 -1.27148 0.610810
  1107 764.042 -1.21979 -0.426342
  1108 704.708 -40.5998 -35.8069
  1109 623.505 -70.5091 -105.846
  1110 204.047 26.8949 110.419
  1111 767.782 75.8992 59.7924
  1112 692.729 -7.97981 -0.588795
  1113 692.823 -7.97962 0.644815
  1114 749.022 -47.0073 129.199
  1115 788.966 156.131 22.4093
  1116 482.832 -10.7528 -24.9416
  1117 482.966 -10.7121 24.8028
  1118 360.688 39.9106 199.369
  1119 674.327 3.72736 -54.9445
  1120 218.118 68.1995 142.494
  1121 841.716 -12.0411 -53.0011
  1122 842.686 183.233 6.10843
  1123 585.138 -45.2929 35.3279
  1124 556.544 3.45441 -2.33680
  1125 729.543 -7.02450 11.9243
  1126 751.988 -1.33076 4.59647
  1127 185.357 0.206705 -31.8822
  1128 187.356 0.132614 31.6941
  1129 614.277 10.9954 -27.1085
  1130 621.782 -18.2183 -4.94310
  1131 621.667 -18.1551 4.92408
  1132 67.7044 125.372 -105.427
  1133 104.737 254.841 -201.232
  1134 628.944 -24.4292 5.40117
  1135 629.145 -24.4017 -5.44828
  1136 647.857 -15.9661 -0.507604
  1137 647.771 -15.9472 0.547926
  1138 176.635 111.933 144.591
  1139 524.309 -5.91366 -5.04331
  1140 524.384 -5.87674 5.02623
  1141 652.907 49.9842 -0.599867
  1142 793.333 114.556 -289.954
  1143 784.484 134.416 -38.5414
  1144 713.910 -27.6988 -53.3437
  1145 702.785 -35.4475 -36.9764
  1146 585.342 -45.6873 -35.8660
  1147 600.208 2.23996 16.7286
  1148 665.525 42.0661 -39.8778
  1149 657.206 35.9493 38.2274
  1150 668.999 -26.9345 -5.16858
  1151 640.769 -38.4337 6.37755
  1152 586.765 -36.9598 -27.1911
  1153 694.196 -4.23885 28.9308
  1154 1185.11 119.108 16.3477
  1155 698.130 -15.0640 52.5551
  1156 703.454 46.3105 59.0376
  1157 645.195 -63.0926 -24.8924
  1158 90.3111 13.2264 -51.9914
  1159 657.268 -30.5255 -2.07776
  1160 458.147 -0.479417 -0.343546
  1161 458.273 -0.476977 0.341251
  1162 791.609 -20.9066 19.8510
  1163 753.909 -63.6846 37.8868
  1164 1074.84 190.608 49.8112
  1165 281.689 -0.377110 -26.2050
  1166 283.059 -0.320406 26.0398
  1167 593.002 -11.8342 -3.69708
  1168 592.987 -11.7740 3.67821
  1169 658.881 -57.8877 -8.84012
  1170 560.959 2.88447 7.68194
  1171 674.144 -48.0330 7.46137
  1172 42.0553 49.8957 -28.2169
  1173 129.072 62.1937 88.4424
  1174 456.999 -25.8229 154.647
  1175 782.539 147.607 -27.6136
  1176 739.349 -2.27874 -7.72921
  1177 766.748 -1.45684 0.315062
  1178 767.345 -1.89074 -0.146434
  1179 473.742 -0.776455 -1.03066
  1180 473.863 -0.769474 1.02533
  1181 721.732 46.1346 66.4122
  1182 1046.15 176.160 -3.80591
  1183 745.048 122.288 -29.1094
  1184 554.495 -41.6449 159.236
  1185 454.622 -24.9516 -154.318
  1186 509.391 -32.8983 -54.9156
  1187 688.951 -19.9206 9.56435
  1188 952.947 212.295 20.8987
  1189 509.479 -32.7286 54.5533
  1190 702.117 -13.1384 7.23422
  1191 641.800 24.5369 36.5982
  1192 699.203 21.8850 64.3000
  1193 978.365 217.830 32.6901
  1194 593.942 -15.2181 6.77807
  1195 593.956 -15.2750 -6.81152
  1196 711.908 -14.1364 18.2692
  1197 442.681 -4.23214 18.1765
  1198 442.395 -4.27214 -18.3100
  1199 695.692 -10.3644 -2.65943
  1200 291.052 176.073 -270.445
  1201 602.704 -34.4285 -170.669
  1202 579.051 -17.5903 -11.4561
  1203 579.123 -17.5270 11.4614
  1204 740.434 -4.22393 2.57631
  1205 705.606 -10.1609 5.71983
  1206 42.1213 55.7949 42.6624
  1207 760.822 -1.14143 2.24825
  1208 96.3932 126.749 125.541
  1209 690.551 -11.1903 -3.54307
  1210 -0.367948 -16.2552 -14.3571
  1211 496.363 -48.5835 -120.087
  1212 495.166 -47.4360 118.976
  1213 760.781 -1.59851 -2.53921
  1214 661.185 -34.9365 -2.93271
  1215 740.131 -3.93754 -2.51483
  1216 605.588 -19.3203 -7.35808
  1217 605.551 -19.2696 7.30552
  1218 695.273 -10.3071 2.44502
  1219 656.816 -29.9088 2.05773
  1220 633.892 -20.4821 3.22609
  1221 634.086 -20.5166 -3.16567
  1222 739.311 -4.04871 -2.01529
  1223 643.345 -68.3368 -118.814
  1224 725.144 -5.41393 -1.92341
  1225 693.247 -11.4649 3.96519
  1226 501.846 -4.87716 -7.60460
  1227 501.943 -4.83260 7.57210
  1228 553.634 -7.72000 -4.25463
  1229 553.675 -7.67569 4.23963
  1230 872.000 137.476 30.7724
  1231 734.668 -56.9726 17.3233
  1232 507.928 -3.01516 195.825
  1233 427.113 -0.510321 6.99331
  1234 426.787 -0.516754 -7.04980
  1235 701.281 -13.2497 39.0138
  1236 669.203 -10.8813 0.104310
  1237 669.217 -10.8522 -0.104472
  1238 771.089 148.446 13.0664
  1239 696.783 -73.3560 96.6386
  1240 425.154 -5.46342 25.2114
  1241 424.782 -5.49909 -25.3618
  1242 668.696 -16.8800 2.12266
  1243 668.547 -17.0054 -1.99428
  1244 688.559 -19.7131 -9.12821
  1245 645.461 0.221117 19.2866
  1246 1076.79 268.524 -97.0952
  1247 702.506 -26.1815 -32.8561
  1248 130.068 28.9372 74.9353
  1249 724.698 -39.0321 45.1907
  1250 599.845 13.9023 -14.8629
  1251 50.5519 34.2140 29.8583
  1252 938.570 111.303 -24.8939
  1253 709.123 -32.5717 -46.8767
  1254 602.354 9.21508 22.8120
  1255 415.224 -25.1573 80.4157
  1256 718.124 -55.9845 23.4818
  1257 1021.97 208.518 81.4179
  1258 251.387 35.3626 139.557
  1259 720.249 -9.32303 -15.8587
  1260 1332.28 15.2797 -13.0091
  1261 1372.53 20.3088 57.2759
  1262 1459.20 48.0060 -137.264
  1263 702.674 -22.3395 -42.2483
  1264 701.606 -32.4448 34.4876
  1265 711.733 -51.0415 30.0290
  1266 -20.6584 2.79787 12.7751
  1267 -18.6648 2.36468 -14.0629
  1268 690.954 -76.8055 -49.4791
  1269 705.921 -71.8505 -70.5511
  1270 564.423 3.93752 -9.45265
  1271 687.619 -78.0798 69.8994
  1272 736.456 -35.2758 -45.5581
  1273 18.1581 23.6254 5.95716
  1274 606.290 -11.1171 2.14200
  1275 606.324 -11.1828 -2.14751
  1276 728.627 -6.59159 10.4947
  1277 701.993 -12.9273 -6.70564
  1278 663.936 -72.4335 -29.2261
  1279 611.672 -32.5340 13.8672
  1280 608.802 -32.0489 -14.5988
  1281 710.677 -15.6200 26.1965
  1282 728.790 -27.0885 -54.3436
  1283 52.3622 35.6703 -29.3890
</Section>

newXOutput 99

<Section columns = "stress_xx | stress_yy | stress_xy">
  1 777.840 -0.482929 1.33658
  2 777.818 -0.463504 -1.33874
  3 456.603 -0.0397697 -0.478523
  4 -5.64568 -5.54702 -8.12624
  5 1333.03 574.983 441.684
  6 1321.27 593.883 -436.243
  7 -6.57011 -5.23634 8.69550
  8 456.475 -0.0410733 0.477579
  9 782.600 -1.44638 0.353812
  10 781.334 -2.22594 -0.509799
  11 780.199 -1.62363 1.40738
  12 779.002 -2.11313 0.167912
  13 776.351 -1.83000 2.20731
  14 773.880 -1.82274 1.47184
  15 767.538 -1.59789 3.23756
  16 757.932 -1.31729 4.82527
  17 749.501 -1.28954 5.49872
  18 736.518 -1.59875 6.78246
  19 717.956 -0.311839 10.2050
  20 700.823 -1.16674 9.85477
  21 680.638 -1.39621 14.0861
  22 651.554 0.962938 12.4058
  23 629.978 1.62797 14.7987
  24 601.769 2.63787 11.6987
  25 582.027 3.02964 11.8526
  26 553.454 4.00213 6.07674
  27 547.327 6.26179 6.56232
  28 543.586 5.27280 -1.95749
  29 548.569 3.29405 -4.21995
  30 557.800 3.02900 -5.19563
  31 579.234 3.68971 -10.3297
  32 600.073 2.92244 -12.9488
  33 630.175 0.827922 -15.2830
  34 654.170 -0.236664 -13.7332
  35 679.369 -1.09575 -13.3230
  36 701.982 -0.929291 -9.30541
  37 721.044 -1.03143 -7.83818
  38 736.475 -1.58103 -6.46373
  39 750.046 -1.20552 -4.34349
  40 758.190 -1.50594 -4.53526
  41 766.080 -1.71866 -3.28065
  42 773.276 -1.98736 -1.24443
  43 776.871 -1.63695 -1.59904
  44 778.457 -1.13409 -0.917181
  45 776.400 -0.822026 -0.843931
  46 781.971 -2.20116 0.388733
  47 782.770 -1.48896 -0.363686
  48 760.598 -1.20495 -0.829302
  49 745.780 -3.98471 -1.62196
  50 727.377 -5.66163 -0.871804
  51 704.736 -7.95980 -1.24613
  52 683.011 -8.56460 -1.45443
  53 659.634 -10.2617 -1.41803
  54 638.772 -11.1453 -0.644860
  55 620.461 -12.0985 -0.0620517
  56 599.264 -9.93596 -0.0203874
  57 574.816 -9.09363 -0.301242
  58 551.311 -6.99742 0.106118
  59 529.105 -4.27770 0.149276
  60 508.084 -2.91736 0.209004
  61 489.779 -1.32615 0.332967
  62 471.240 -0.224795 -0.531110
  63 456.711 0.671461 0.874183
  64 450.015 1.62175 0.659822
  65 453.974 0.0910785 1.43463
  66 448.389 -0.118244 1.76375
  67 442.944 -0.222555 2.18797
  68 435.704 0.0642413 2.78008
  69 426.605 0.0453203 3.45105
  70 419.393 -0.363263 6.43601
  71 400.651 0.577036 6.98566
  72 387.142 0.0254931 7.87696
  73 367.046 -0.261889 8.97126
  74 344.034 -0.484008 10.8836
  75 315.201 -0.0571770 13.2219
  76 280.061 0.205960 14.6653
  77 248.959 -0.189561 21.0146
  78 188.806 1.86996 20.0243
  79 146.905 1.60682 21.2433
  80 95.8412 -0.498982 23.8485
  81 52.5685 3.66812 25.1872
  82 2.85345 5.67251 15.8782
  83 -34.3684 5.80852 6.54152
  84 -35.9383 5.81839 -0.637698
  85 -36.7075 4.93086 -10.6349
  86 -21.8586 -1.22920 -10.4760
  87 -2.43493 -20.9780 -11.6566
  88 2.46729 -38.0893 -14.1268
  89 6.26260 -57.7443 -6.53489
  90 13.5476 -54.3887 3.62677
  91 28.1109 2.71422 40.6971
  92 80.9497 151.404 127.511
  93 446.166 466.727 400.230
  94 1622.86 247.256 265.778
  95 1473.92 35.0468 85.2016
  96 1380.08 14.8974 26.0777
  97 1345.60 12.8440 1.89732
  98 1364.52 16.8445 -22.8763
  99 1472.07 33.1120 -67.6179
  100 1707.50 119.319 -225.730
  101 267.902 483.889 -337.702
  102 60.4939 120.704 -107.454
  103 30.8774 5.81272 -44.3279
  104 12.7586 -53.3963 -10.1532
  105 4.03203 -43.0895 7.32056
  106 4.75140 -48.2256 12.0963
  107 0.368410 -17.9567 12.9373
  108 -22.8664 -0.643805 9.85839
  109 -37.8546 3.70476 9.19255
  110 -37.9228 7.04235 0.820227
  111 -35.4056 5.68520 -6.18455
  112 0.268129 5.81245 -14.9670
  113 50.3618 3.69813 -24.0674
  114 93.6035 -0.0960323 -23.4625
  115 144.572 1.73423 -21.2752
  116 186.690 1.91495 -20.1582
  117 247.323 -0.198134 -21.1680
  118 278.668 0.224149 -14.7893
  119 313.979 -0.0542380 -13.3703
  120 343.427 -0.544503 -10.9484
  121 366.190 -0.242826 -8.98571
  122 386.487 0.0490271 -7.94720
  123 400.108 0.571246 -7.04995
  124 418.993 -0.367521 -6.49029
  125 426.276 0.0425282 -3.48399
  126 435.445 0.0615221 -2.80697
  127 442.737 -0.227120 -2.20911
  128 448.219 -0.122166 -1.77837
  129 453.826 0.0878507 -1.44382
  130 449.878 1.62054 -0.663974
  131 456.581 0.670788 -0.876843
  132 471.116 -0.228320 0.529985
  133 489.665 -1.33509 -0.336058
  134 507.985 -2.93674 -0.212575
  135 529.028 -4.30456 -0.152672
  136 551.261 -7.03632 -0.109617
  137 574.797 -9.14344 0.298370
  138 599.280 -9.99433 0.0170821
  139 620.506 -12.1653 0.0602462
  140 638.838 -11.2126 0.646827
  141 659.734 -10.3229 1.42498
  142 683.103 -8.60590 1.47948
  143 704.814 -7.99682 1.36979
  144 727.513 -5.40319 0.890158
  145 746.276 -3.89944 1.58490
  146 760.752 -1.32453 0.815232
  147 691.049 -65.0261 3.60344
  148 690.410 -64.1327 -3.36558
  149 732.336 104.778 -31.4597
  150 772.971 45.5221 64.3691
  151 586.517 -57.1803 -134.686
  152 591.431 -57.0373 130.624
  153 578.278 -23.7351 18.4000
  154 578.300 -24.0414 -18.4014
  155 814.370 30.0726 -44.5631
  156 689.318 -25.3193 10.0426
  157 689.014 -24.7467 -9.93250
  158 890.191 195.791 5.10434
  159 709.821 -1.06710 -65.0737
  160 532.080 -40.7070 -61.0303
  161 532.157 -40.3952 60.5705
  162 709.847 -16.2787 57.8111
  163 681.454 50.1822 39.8168
  164 286.751 44.0211 -161.184
  165 316.158 41.8711 169.548
  166 853.553 11.8530 -6.68927
  167 709.494 -27.6339 -38.3068
  168 932.383 204.748 6.81376
  169 642.079 -18.2921 -2.71497
  170 641.960 -18.2542 2.75739
  171 713.077 -9.59248 -4.22288
  172 714.994 -8.73454 3.58863
  173 517.381 -6.75256 -10.2245
  174 517.461 -6.68827 10.1859
  175 756.979 -17.3646 171.569
  176 661.522 28.0849 -43.0216
  177 437.105 -32.1649 -95.7663
  178 438.354 -31.9409 95.2380
  179 493.034 -15.1708 -31.9206
  180 493.097 -15.0093 31.7303
  181 712.475 -19.2203 32.6533
  182 650.237 -44.3025 -7.34412
  183 648.149 -43.9737 8.24705
  184 731.722 -71.3124 -22.0207
  185 735.786 -67.9413 13.0836
  186 1004.64 237.737 -45.8365
  187 746.008 118.926 29.2316
  188 743.810 45.7455 -66.3356
  189 752.993 -2.96685 -197.496
  190 734.104 -41.8580 -42.4959
  191 740.626 -30.0224 51.5871
  192 620.614 -70.2887 69.0296
  193 620.608 -69.7565 -68.8649
  194 670.784 8.91531 51.3250
  195 315.301 -8.36280 -117.914
  196 315.967 -8.95347 117.283
  197 1123.32 166.808 24.9343
  198 696.618 -41.7747 20.9389
  199 720.404 -13.9191 -20.5800
  200 582.014 -13.7915 -8.85612
  201 582.040 -13.7359 8.83653
  202 697.829 -9.18546 -44.9457
  203 791.150 115.849 -51.2549
  204 671.804 60.8138 -7.93933
  205 446.663 -14.8597 44.0728
  206 446.042 -14.8940 -44.3438
  207 728.546 -8.92801 10.5328
  208 717.949 13.5830 67.1126
  209 587.584 -41.7761 -31.9850
  210 584.092 -39.5275 32.4505
  211 838.938 124.850 43.4274
  212 970.622 141.886 39.4402
  213 73.6623 55.3133 -50.0469
  214 68.3431 51.1211 42.8332
  215 408.857 119.568 277.587
  216 689.880 -46.0058 -14.3271
  217 730.709 -8.55791 -9.48371
  218 664.055 6.26486 -47.3319
  219 477.651 -4.18031 -14.2588
  220 477.808 -4.13549 14.1597
  221 625.507 -28.9672 -9.69359
  222 625.805 -29.1711 9.35366
  223 702.836 -9.65021 37.9355
  224 796.114 -45.6471 29.4926
  225 803.717 162.239 -14.3878
  226 630.450 -60.3162 -35.5947
  227 788.275 -13.7582 36.0535
  228 675.948 -12.0788 0.748668
  229 675.943 -11.9938 -0.748886
  230 626.254 -60.0436 36.6166
  231 713.110 -45.6250 33.7685
  232 979.053 137.696 -80.1284
  233 229.099 136.237 -206.118
  234 620.308 22.6019 10.4447
  235 722.350 63.6869 56.8178
  236 761.840 -5.47895 -56.1221
  237 714.676 -26.0096 -53.1365
  238 397.656 -12.0526 -54.6568
  239 398.888 -11.8816 54.5379
  240 715.098 -9.06787 -28.6774
  241 680.816 -17.8415 4.37452
  242 680.507 -17.8357 -4.14532
  243 155.246 12.9173 -77.5556
  244 157.301 11.3046 77.2537
  245 750.832 -66.0074 -67.9833
  246 741.769 -3.54201 1.09435
  247 742.408 -3.59943 -1.30090
  248 707.002 58.8251 -52.3677
  249 630.935 12.8651 31.3712
  250 1248.14 199.811 134.889
  251 1236.49 140.883 -83.3873
  252 922.059 196.001 1.95725
  253 577.102 -28.4541 177.413
  254 531.615 -19.2259 -185.081
  255 614.466 -12.6064 -3.75670
  256 614.423 -12.5408 3.73740
  257 519.461 -13.0281 20.2427
  258 519.433 -13.1951 -20.3850
  259 729.190 -8.53847 16.8275
  260 710.058 -50.8794 -26.2071
  261 481.556 -0.579389 -3.44905
  262 481.679 -0.567037 3.43325
  263 701.314 -28.9193 -21.4835
  264 314.225 -9.92388 -76.3382
  265 315.385 -9.95247 75.8668
  266 710.953 -31.2131 41.3840
  267 547.593 -58.1435 108.546
  268 548.794 -59.1739 -108.200
  269 628.262 24.8926 -14.6091
  270 542.599 -7.74698 -6.93471
  271 542.659 -7.70191 6.91486
  272 674.594 -1.47834 37.5369
  273 798.698 144.968 35.1758
  274 445.984 -4.87144 23.5740
  275 445.674 -4.90809 -23.7388
  276 727.327 -61.2160 14.7010
  277 673.223 -76.0404 -76.8270
  278 745.206 -4.43114 4.62940
  279 534.617 -30.4581 -42.2311
  280 533.829 -30.1402 42.1075
  281 896.812 110.175 248.024
  282 446.883 -36.3584 128.286
  283 714.735 100.036 -3.31853
  284 883.445 100.847 -21.1762
  285 674.666 -52.0952 1.32262
  286 674.053 -78.0656 70.0168
  287 448.049 -35.8146 -129.558
  288 86.6564 107.552 100.717
  289 701.437 -28.9946 21.9157
  290 908.460 122.466 12.6315
  291 750.209 -3.96925 -4.01861
  292 695.029 24.7067 -60.3404
  293 679.663 -38.5925 8.87623
  294 666.092 -56.0251 8.70765
  295 693.018 32.1261 58.3031
  296 724.099 -61.1805 -12.2981
  297 1016.63 195.235 -20.4632
  298 679.493 -37.1216 -8.43360
  299 550.009 167.219 -335.032
  300 692.428 -73.6170 -21.8935
  301 687.758 -75.6637 29.5683
  302 515.343 -45.8353 -84.9641
  303 477.010 -1.46214 -7.40264
  304 477.152 -1.43593 7.35801
  305 515.625 -45.8940 84.5646
  306 735.365 -1.29447 -66.0303
  307 786.045 -32.5504 -20.0359
  308 609.511 -35.9649 -18.9411
  309 609.216 -36.0526 19.2452
  310 714.364 -61.5214 119.112
  311 720.407 -6.18480 21.6731
  312 860.293 7.88199 52.3403
  313 598.865 -20.6370 -10.8386
  314 598.921 -20.5871 10.7961
  315 550.795 -13.5929 -13.9455
  316 550.819 -13.4793 13.9341
  317 625.178 8.95035 -30.3118
  318 781.961 57.5333 -61.9008
  319 1179.67 322.372 -160.131
  320 708.713 -7.26638 -1.25903
  321 708.377 -7.17848 1.31471
  322 390.585 -2.07354 160.213
  323 547.024 -23.7560 -28.7949
  324 546.129 -23.7040 28.8771
  325 390.507 -3.05522 -159.595
  326 750.137 88.3412 -54.4138
  327 828.349 42.0078 41.1979
  328 713.646 -50.8308 -131.305
  329 665.245 -25.9313 2.11205
  330 664.628 -25.7725 -1.85663
  331 705.873 -15.4903 -9.49428
  332 674.956 -1.13454 -35.0662
  333 747.786 2.97956 63.9197
  334 740.363 -5.84354 -11.4160
  335 462.555 -26.9545 64.4378
  336 462.058 -27.0859 -64.8560
  337 700.581 -1.45364 62.0959
  338 449.729 -3.18570 -14.1617
  339 449.997 -3.15736 14.0579
  340 711.503 -17.1220 16.2771
  341 855.144 173.434 -22.6486
  342 705.645 -15.5771 9.92025
  343 758.006 94.7666 54.3393
  344 723.649 -13.6749 62.8606
  345 581.593 -10.5707 3.46630
  346 581.583 -10.6240 -3.48212
  347 689.576 -2.30417 -55.2618
  348 900.260 188.468 9.98791
  349 758.163 137.597 1.10751
  350 462.470 53.2338 -235.598
  351 55.3699 21.3038 -36.1415
  352 59.8895 23.1017 38.5164
  353 -0.319739 6.52484 12.1243
  354 2.13686 4.37932 -12.8382
  355 1271.32 88.4590 29.4149
  356 627.224 -50.2418 -22.9122
  357 711.903 -16.5970 -15.8516
  358 647.323 -11.8598 -0.198182
  359 647.253 -11.7805 0.191570
  360 698.498 77.2602 -28.4217
  361 593.616 -59.7328 56.9352
  362 56.1227 84.7389 -64.8732
  363 594.023 -59.6790 -57.8128
  364 706.885 80.4405 30.2155
  365 712.280 -19.5639 -30.9072
  366 752.469 -42.3900 -33.8940
  367 809.029 168.468 9.80051
  368 753.638 -47.5533 26.0110
  369 332.378 -7.70354 50.9175
  370 330.662 -7.54924 -51.1769
  371 192.710 4.06630 -72.3131
  372 194.361 3.39028 72.0180
  373 633.782 2.73625 30.5268
  374 1144.30 343.633 145.919
  375 733.499 -5.20958 -15.1137
  376 580.447 -47.9205 -44.0660
  377 580.090 -47.8425 44.0152
  378 709.627 -16.7736 -40.4479
  379 797.729 -38.4456 -6.40579
  380 627.202 -50.2149 23.4538
  381 867.152 10.4143 -85.1349
  382 517.502 -3.64738 -2.93445
  383 517.591 -3.61937 2.92110
  384 700.657 -4.27444 -26.4705
  385 395.630 -5.18296 -33.0360
  386 395.819 -5.36293 32.6810
  387 829.062 106.563 -49.3605
  388 452.856 31.4701 219.772
  389 654.208 -34.2215 -2.16315
  390 654.820 -34.1760 2.14464
  391 770.321 129.349 -33.8272
  392 725.697 -21.7669 -58.8511
  393 721.055 -74.1409 69.3971
  394 612.458 -16.1075 -6.05688
  395 612.408 -16.0490 6.01865
  396 698.949 -54.1178 15.1636
  397 746.345 -4.13366 8.35069
  398 485.296 -16.6011 -39.5603
  399 485.493 -16.6173 39.2820
  400 715.078 24.2126 -66.4062
  401 671.002 -15.2247 0.976477
  402 670.963 -15.2695 -0.907431
  403 698.123 -8.38062 50.1544
  404 659.166 48.7103 13.9198
  405 719.499 -30.7782 50.4465
  406 1025.90 212.810 43.9237
  407 361.233 -19.2573 -102.673
  408 362.145 -19.2529 101.993
  409 163.907 85.3842 -127.671
  410 758.902 -2.97148 1.97057
  411 412.594 -3.00492 -20.9713
  412 413.069 -2.94153 20.8220
  413 709.961 -18.9344 39.3653
  414 644.759 -69.6915 40.8437
  415 721.222 -9.94973 6.65385
  416 742.383 37.6651 68.3283
  417 170.882 90.9122 132.330
  418 645.625 -69.2422 -38.1004
  419 666.443 -61.7290 -13.5585
  420 234.492 -4.62915 -64.8979
  421 235.926 -4.78032 64.5055
  422 515.102 -42.1952 -154.661
  423 761.592 -11.6634 54.3857
  424 513.502 -42.7089 153.440
  425 705.610 -39.9832 -30.3571
  426 667.179 45.7062 -30.2214
  427 705.614 -31.0070 29.2890
  428 750.579 -4.10132 -5.29606
  429 25.8492 29.5064 16.2950
  430 159.464 190.117 185.832
  431 686.149 -2.47297 25.8462
  432 590.473 8.82836 13.4264
  433 599.220 10.5786 -18.1251
  434 511.409 -7.66646 -14.2937
  435 511.481 -7.57505 14.2235
  436 695.606 -54.0615 -13.3216
  437 706.177 -14.0387 -55.7160
  438 593.126 11.9943 -4.91680
  439 1024.09 245.527 62.0357
  440 153.792 48.3277 -96.2247
  441 168.492 44.3070 102.158
  442 653.600 -23.4552 -1.05881
  443 653.379 -23.4253 1.20740
  444 868.356 188.616 -1.51491
  445 526.333 239.198 342.315
  446 824.974 -10.2811 1.47841
  447 493.406 -24.5997 -53.6627
  448 493.653 -24.4520 53.2822
  449 499.567 -10.2659 21.7664
  450 499.458 -10.3314 -21.9224
  451 662.763 15.3557 -48.9154
  452 762.143 -1.73147 -1.22860
  453 647.144 30.5229 27.7298
  454 800.091 98.7150 56.0771
  455 668.150 -49.4739 0.626328
  456 720.834 -9.53857 -6.50105
  457 753.275 -3.78264 4.86905
  458 759.795 -1.88145 0.693282
  459 760.269 -2.04284 -0.451227
  460 448.912 -0.575434 5.34908
  461 448.693 -0.585248 -5.39216
  462 727.743 -46.7131 36.7127
  463 668.718 26.9901 47.4007
  464 694.042 3.01564 -60.8414
  465 716.537 -15.8563 22.2922
  466 998.171 189.720 -215.181
  467 719.637 -40.3341 -42.7853
  468 11.8629 14.4283 8.70642
  469 11.5936 14.8553 -5.12684
  470 579.151 -31.7975 26.0518
  471 577.407 -31.3275 -25.6708
  472 874.391 23.3345 120.993
  473 250.457 241.561 -264.688
  474 712.504 -2.46386 19.5973
  475 793.303 -45.3448 -72.9936
  476 443.498 -24.5588 74.2417
  477 859.651 152.919 -32.7948
  478 709.492 -38.8308 35.2549
  479 602.913 -28.1148 -14.6820
  480 603.424 -27.6760 14.6609
  481 633.645 3.67491 -26.9057
  482 442.206 -24.4402 -74.6084
  483 647.462 0.637673 26.8923
  484 609.388 -69.9911 -98.6166
  485 607.929 -70.0968 99.1046
  486 730.115 -5.33020 16.7694
  487 676.781 64.2617 5.73516
  488 665.631 14.3984 237.761
  489 985.225 197.434 -1.22243
  490 685.488 -12.4177 2.06050
  491 685.509 -12.3783 -2.21084
  492 542.043 -8.93800 -9.52461
  493 542.099 -8.87307 9.50063
  494 289.995 11.8886 136.133
  495 713.070 -34.7629 -42.4534
  496 649.220 -14.5239 -1.43823
  497 649.158 -14.4869 1.44406
  498 568.776 -59.6707 80.5282
  499 295.256 15.9169 -139.422
  500 712.412 -58.4226 -15.4863
  501 14.3196 6.85140 1.97999
  502 638.788 33.8867 2.08913
  503 687.436 -8.93366 -0.589503
  504 687.436 -9.03332 0.557080
  505 568.968 -59.5348 -81.0969
  506 793.786 -39.4814 89.7566
  507 795.281 29.0661 55.7081
  508 730.392 -5.97936 -2.95438
  509 710.270 -59.2044 15.8808
  510 469.292 -0.204748 -1.04748
  511 469.420 -0.201408 1.04174
  512 711.529 -27.6852 -46.2737
  513 696.506 51.7860 51.4058
  514 786.004 19.6210 -55.2059
  515 466.410 -0.492305 -3.03287
  516 466.551 -0.484059 3.01741
  517 1323.17 191.664 -169.177
  518 723.022 85.8614 44.8259
  519 730.900 -5.62730 2.59134
  520 667.794 -63.1245 15.2091
  521 571.119 -18.1406 14.8312
  522 571.091 -18.2613 -14.8014
  523 770.007 -47.2901 8.91505
  524 745.083 -15.2145 -58.5912
  525 834.473 162.945 29.4851
  526 699.826 12.2759 63.1898
  527 697.460 -14.3005 5.25851
  528 676.155 -72.8245 -96.6803
  529 707.411 -17.8754 46.4751
  530 1304.60 60.4447 -23.5548
  531 763.845 -57.9233 9.91435
  532 725.901 -5.87260 -0.489380
  533 726.078 -6.17273 0.353174
  534 1318.18 88.3569 81.7158
  535 683.974 -0.00404663 53.7734
  536 934.318 162.091 0.806679
  537 710.507 -20.0499 -21.1641
  538 343.972 -2.89789 -22.5408
  539 344.852 -2.75481 22.3395
  540 490.905 -45.6805 -107.651
  541 491.371 -44.9243 106.928
  542 697.062 -13.7677 -5.24896
  543 760.998 27.9512 -65.1409
  544 670.016 -45.5219 1.98248
  545 725.936 83.1474 -46.3221
  546 723.135 -9.07070 22.5129
  547 892.199 49.2521 -25.5478
  548 625.254 -21.2511 -6.43125
  549 625.102 -21.2027 6.38555
  550 674.372 -32.0357 5.75323
  551 975.994 199.656 -31.5664
  552 714.664 31.3985 65.5094
  553 310.012 79.2064 199.795
  554 678.228 -40.4383 162.196
  555 879.689 51.9028 -180.715
  556 730.267 60.4775 -60.5613
  557 640.052 -55.9804 -141.203
  558 694.464 -76.4855 -35.2693
  559 722.385 -73.7297 -48.2520
  560 100.190 135.049 -127.346
  561 726.986 -10.1223 -12.7583
  562 1080.31 209.110 -66.2292
  563 677.692 -30.8455 -7.16262
  564 682.498 -22.7497 5.99396
  565 681.895 -22.2745 -5.63039
  566 490.880 -2.32849 -6.81983
  567 490.999 -2.29879 6.78671
  568 79.4646 6.86358 -41.1392
  569 82.9100 7.22563 42.0174
  570 367.114 -16.3921 -77.9795
  571 369.638 -16.4922 77.9353
  572 692.056 -37.8617 -17.2286
  573 701.985 -76.8143 37.6243
  574 721.377 -68.9796 -5.42303
  575 602.096 -10.5684 -2.88301
  576 602.074 -10.5072 2.87128
  577 566.804 -59.8962 -120.601
  578 628.518 -52.1765 148.874
  579 554.023 -56.4077 121.140
  580 714.220 -16.0599 -59.5881
  581 465.442 -6.99798 23.9512
  582 465.223 -7.06565 -24.1095
  583 687.601 38.5131 -51.7924
  584 686.490 -1.23214 -23.4457
  585 849.911 181.891 -12.5566
  586 566.393 -8.13998 -2.60570
  587 566.423 -8.09553 2.59649
  588 724.266 -2.35363 -12.7596
  589 515.201 -16.3325 -27.2542
  590 515.247 -16.2904 27.0606
  591 414.958 17.7976 189.882
  592 704.995 -32.8932 -29.5147
  593 403.533 -22.0475 136.849
  594 692.913 -36.2546 17.8101
  595 725.532 -11.1083 14.2509
  596 715.132 -7.61713 -2.45775
  597 522.546 -5.84107 -6.57885
  598 522.627 -5.79860 6.55511
  599 816.345 161.318 -27.2230
  600 403.230 -21.3252 -137.267
  601 690.514 -30.3691 -13.7001
  602 628.033 -11.8713 -1.76773
  603 627.978 -11.7996 1.76168
  604 1140.98 152.491 -27.8383
  605 435.418 -2.43607 13.0597
  606 435.081 -2.45831 -13.1589
  607 655.962 15.6358 44.7752
  608 905.008 80.8907 5.53818
  609 440.979 1.64239 -188.173
  610 236.276 4.86357 -104.510
  611 237.995 3.66918 103.972
  612 556.674 -31.3395 34.6013
  613 561.924 -32.2666 -33.8316
  614 922.110 187.200 3.33227
  615 712.542 -7.85517 2.10398
  616 631.264 18.6123 -27.2102
  617 772.555 137.538 26.7832
  618 770.270 142.623 -17.8513
  619 632.901 -34.6682 -10.0267
  620 637.354 -33.9519 7.85411
  621 450.179 99.9788 -267.740
  622 552.288 -17.9713 -19.7035
  623 552.355 -17.7839 19.6585
  624 1319.45 271.173 204.400
  625 712.382 -23.6798 50.4793
  626 423.999 -14.0659 -49.8587
  627 1065.19 271.370 191.052
  628 424.897 -14.0013 49.7162
  629 671.925 -25.0243 -187.784
  630 499.084 -1.97682 -2.50289
  631 499.192 -1.96029 2.49366
  632 611.738 5.98478 23.7836
  633 289.959 -3.97543 -44.6374
  634 291.282 -3.98783 44.3397
  635 625.142 -43.6150 18.4980
  636 653.035 -51.9312 -10.2494
  637 757.634 -2.06965 -4.65710
  638 455.936 -0.536734 4.04633
  639 455.757 -0.547586 -4.07762
  640 593.959 -13.1288 -4.91235
  641 593.952 -13.0704 4.88818
  642 668.878 -74.7954 97.3922
  643 773.308 86.3008 -59.1413
  644 526.478 -23.3995 -35.0168
  645 526.173 -23.0204 34.8027
  646 614.444 -43.4009 -23.3583
  647 952.241 205.536 13.0226
  648 717.402 -69.8314 9.14233
  649 630.163 -15.2377 -3.67968
  650 630.084 -15.1810 3.67424
  651 853.226 94.9315 37.9026
  652 720.419 -11.0679 -24.4337
  653 650.699 -0.540182 -21.8436
  654 310.495 -10.6738 -98.6592
  655 311.296 -10.9307 97.9550
  656 612.309 -52.0366 -34.9366
  657 908.577 196.751 -0.334306
  658 714.701 96.5153 -20.2016
  659 487.875 -3.87566 -12.2889
  660 488.001 -3.82394 12.2135
  661 660.747 -19.0947 0.270976
  662 660.867 -19.0965 -0.154939
  663 1192.51 154.915 68.7206
  664 765.414 -2.57338 1.07141
  665 746.190 -3.43182 8.31376
  666 743.958 -3.41038 -9.99351
  667 709.569 -66.3943 1.39576
  668 538.425 -5.74960 -3.28170
  669 538.491 -5.71482 3.27112
  670 764.565 121.642 41.6519
  671 966.608 213.593 -21.0300
  672 543.702 -39.1686 -49.6032
  673 543.624 -38.8184 49.4037
  674 668.186 -68.7077 -21.7348
  675 710.378 42.4538 -61.8443
  676 826.718 3.06059 15.9646
  677 566.482 -10.0581 -6.98940
  678 566.515 -10.0053 6.96945
  679 490.001 -42.3976 -97.1168
  680 703.137 -68.2746 4.80351
  681 589.318 -65.2690 88.8846
  682 287.414 89.3901 -193.168
  683 554.601 -50.5296 68.5823
  684 669.556 0.206575 19.9828
  685 490.492 -41.9379 96.5482
  686 690.144 -30.9099 13.8677
  687 554.679 -50.2916 -69.1157
  688 581.849 8.21209 5.02557
  689 451.714 -11.2394 35.7559
  690 451.347 -11.2394 -35.9566
  691 589.452 -66.9491 -89.8176
  692 723.250 -48.0583 -35.3887
  693 665.256 -10.0966 -0.0383549
  694 665.359 -10.1828 0.0395179
  695 737.966 -47.5159 34.1993
  696 672.878 -70.2888 24.5996
  697 813.989 75.1455 53.7611
  698 737.626 -14.1470 61.1697
  699 709.904 -26.0073 35.9886
  700 687.554 56.9517 -39.2902
  701 815.771 136.564 42.9386
  702 706.483 -10.0305 -36.5951
  703 700.626 -23.8696 16.4541
  704 732.792 114.015 10.8479
  705 714.186 -12.5895 31.1175
  706 230.569 158.642 203.250
  707 663.391 -76.5493 -59.4745
  708 767.774 13.8350 61.2919
  709 772.395 -24.0563 -39.7548
  710 763.223 -1.51492 2.36923
  711 708.601 -24.9710 -27.4637
  712 664.553 -77.1333 54.7190
  713 1242.88 110.458 -18.2712
  714 418.881 -1.52444 13.6368
  715 418.445 -1.53971 -13.7417
  716 715.938 -13.8833 -11.7499
  717 767.257 -1.19863 -2.36998
  718 611.366 -52.9027 35.1008
  719 728.132 -27.4754 54.8590
  720 1076.46 269.864 -100.038
  721 690.281 -50.1737 12.5733
  722 760.115 -50.4378 -15.0721
  723 700.834 -23.2748 -16.1704
  724 765.830 -1.86165 -0.564136
  725 714.262 -0.144985 65.6858
  726 35.2365 41.5702 48.1988
  727 787.600 -28.0778 -127.839
  728 862.005 53.5581 17.6715
  729 722.027 -74.2250 44.2471
  730 532.503 -11.9731 16.0026
  731 532.478 -12.1270 -16.0585
  732 647.911 363.816 -358.239
  733 738.133 -49.2748 -30.8517
  734 579.814 3.77326 -9.62518
  735 661.609 4.01969 43.3128
  736 714.647 -36.1743 43.0154
  737 684.968 -57.7277 2.09000
  738 705.587 -64.9152 -104.770
  739 681.182 -53.8956 -3.69595
  740 795.502 -37.8725 3.59297
  741 734.080 -6.91040 6.66077
  742 662.895 -39.7235 -0.133862
  743 1171.01 233.907 -127.756
  744 703.274 -19.5771 12.6729
  745 703.129 11.7660 -64.7813
  746 592.059 -6.01344 210.016
  747 749.984 60.2863 64.8856
  748 645.734 -50.4199 13.3213
  749 507.305 -38.8873 -71.4204
  750 507.412 -38.8061 70.9272
  751 693.229 78.1393 -9.08433
  752 699.784 -8.19973 57.0973
  753 705.457 -17.0241 -47.7346
  754 663.602 -40.5778 -0.0189545
  755 642.578 -57.1019 23.0890
  756 738.060 120.851 -12.0484
  757 684.170 -59.2372 0.587937
  758 686.107 -43.6010 12.6620
  759 692.561 -9.85027 1.49944
  760 692.923 -9.62148 -1.47300
  761 929.891 201.646 -1.63470
  762 757.097 -64.7544 -33.6786
  763 710.650 -22.3611 27.5175
  764 734.052 -6.92060 -5.93823
  765 748.661 4.86377 -64.5862
  766 843.766 46.2031 -29.8206
  767 441.072 -0.217742 -6.48770
  768 441.341 -0.212643 6.43622
  769 7.20838 -10.1306 -6.82523
  770 725.871 -1.11944 11.7599
  771 674.420 -0.729635 -47.5299
  772 693.049 -6.53156 41.1568
  773 616.353 83.3967 303.203
  774 787.596 159.766 -1.45356
  775 565.474 -39.3058 39.8404
  776 112.801 2.00213 -39.8537
  777 115.336 1.43121 40.2500
  778 687.877 -4.82755 -46.7639
  779 566.789 -39.6629 -39.8661
  780 729.889 -7.56680 4.75441
  781 393.420 -16.0294 66.3922
  782 390.347 -15.9611 -66.3484
  783 703.175 -19.0431 -12.3162
  784 468.012 -10.8770 -31.2756
  785 468.235 -10.8160 31.0507
  786 730.659 -7.62063 -16.5181
  787 571.146 -14.6202 -11.9061
  788 571.183 -14.5404 11.9133
  789 795.923 -4.73783 -39.0276
  790 723.457 -7.68695 -65.1940
  791 389.239 -2.20610 -17.2051
  792 389.874 -2.18506 17.0343
  793 27.3587 9.39342 -25.6116
  794 30.3497 9.93656 26.8479
  795 603.686 3.14214 -17.2330
  796 659.049 -74.0277 -46.0692
  797 -7.12387 -4.76645 12.7353
  798 -6.40350 -5.93519 -12.8783
  799 684.885 -14.5240 3.52925
  800 740.019 -58.2168 -12.8263
  801 771.172 113.735 -48.3107
  802 732.581 -6.87071 -4.55371
  803 1493.31 310.426 -279.978
  804 684.740 -14.4935 -3.47145
  805 1019.36 191.678 18.7430
  806 736.075 21.4608 -68.2954
  807 807.213 61.5121 -55.5708
  808 153.931 -1.74494 -36.3010
  809 156.145 -1.94017 36.2498
  810 476.702 -6.21917 18.8271
  811 476.531 -6.26539 -18.9589
  812 460.424 -0.833883 3.58340
  813 460.269 -0.843331 -3.60500
  814 819.539 137.603 -42.2108
  815 503.176 -2.64083 -5.45777
  816 503.280 -2.61216 5.43598
  817 701.837 -7.03014 -59.7228
  818 978.347 113.274 103.072
  819 641.458 15.0954 -37.7694
  820 237.144 -1.96484 38.3075
  821 235.544 -1.98409 -38.5654
  822 791.508 27.6163 221.242
  823 715.400 -13.9936 12.1227
  824 655.494 44.2359 -15.6985
  825 318.664 -0.322958 25.7589
  826 317.332 -0.184302 -25.9171
  827 467.568 -1.97546 -9.34072
  828 467.742 -1.94706 9.27451
  829 86.2082 75.7103 69.6049
  830 678.948 16.6607 55.4890
  831 750.808 109.750 -42.1219
  832 801.429 93.3316 -56.5544
  833 539.845 -19.3664 -25.1688
  834 539.589 -19.2479 25.1629
  835 832.717 174.886 18.3835
  836 712.133 -6.99461 -0.444850
  837 712.194 -6.94563 0.553377
  838 710.319 -21.8385 -36.7616
  839 601.202 -39.1977 25.4291
  840 655.394 -73.5895 46.0654
  841 760.517 -62.2387 70.6447
  842 597.388 -16.9413 -8.24709
  843 597.400 -16.8965 8.21089
  844 684.336 63.8071 25.3551
  845 646.472 9.42911 -40.6500
  846 178.548 230.487 211.022
  847 644.433 -56.6098 -21.5637
  848 647.123 -28.8348 -3.35892
  849 647.454 -28.9249 3.31059
  850 711.515 -10.6299 62.2335
  851 702.251 -46.4519 -23.8484
  852 631.641 -41.2387 -13.6335
  853 1364.06 44.1309 -65.3531
  854 601.651 -56.0884 46.0747
  855 601.111 -56.7751 -46.7218
  856 709.644 -8.76734 31.0073
  857 1046.66 274.826 -75.1211
  858 567.148 -50.4469 -55.4258
  859 621.252 -69.5076 54.6909
  860 567.096 -49.8769 55.0020
  861 613.015 -24.2391 -10.0585
  862 613.027 -24.1814 10.0096
  863 98.3957 39.3384 60.1299
  864 761.896 56.9933 -64.8476
  865 590.637 -22.4063 -13.7215
  866 590.758 -22.2031 13.7605
  867 584.705 -9.43184 -1.70145
  868 584.709 -9.37898 1.69363
  869 636.539 -12.9841 -1.68190
  870 636.472 -12.9154 1.67347
  871 529.055 -9.58788 -13.7203
  872 529.116 -9.49027 13.6795
  873 592.246 -30.2697 -19.8128
  874 592.338 -30.0991 19.9021
  875 16.0523 1.67738 -11.6005
  876 876.435 164.925 26.2430
  877 755.344 -26.8267 -48.4647
  878 620.618 -68.4753 -55.1561
  879 668.401 -21.9389 1.96703
  880 668.133 -21.7432 -1.81614
  881 729.535 0.765233 66.6735
  882 781.161 -55.5421 -44.8118
  883 686.394 54.9653 -264.667
  884 330.088 -6.41350 133.669
  885 -5.78216 7.69419 -11.3143
  886 -4.39977 8.71649 12.2330
  887 98.0144 41.8169 -61.4874
  888 709.612 -21.0977 20.9199
  889 741.358 -5.63419 -8.62886
  890 668.760 -64.9579 118.254
  891 329.370 -6.15046 -134.130
  892 745.198 -61.5861 5.52049
  893 819.080 -21.2102 107.427
  894 622.699 2.68516 18.2119
  895 702.926 67.0234 42.8080
  896 390.082 -21.5860 97.2435
  897 388.683 -21.7546 -97.7914
  898 466.467 -21.0932 -54.7740
  899 478.760 -24.6368 -169.196
  900 748.842 -17.8706 56.3851
  901 1012.47 244.388 53.8522
  902 754.002 28.8795 66.1373
  903 712.456 -15.6940 -33.8859
  904 488.187 -22.0608 173.323
  905 900.224 167.757 -14.5470
  906 97.0062 80.7105 -84.8494
  907 667.898 -1.17900 -19.0607
  908 466.933 -20.9348 54.3655
  909 562.353 -11.8225 10.3425
  910 562.317 -11.8894 -10.3567
  911 703.191 -46.1925 24.8524
  912 723.880 -5.68201 1.53016
  913 536.972 4.30686 -208.874
  914 760.238 -2.06998 4.04828
  915 756.158 -1.75267 -5.39300
  916 591.784 5.51633 -15.9506
  917 735.940 -3.17549 -10.3171
  918 562.951 -25.3026 -24.0632
  919 563.315 -24.9537 24.1486
  920 -16.1724 7.42109 -8.98849
  921 -23.3942 4.48604 9.95004
  922 723.820 -5.34113 -1.62416
  923 256.994 -6.09449 90.4375
  924 255.712 -5.61213 -90.8861
  925 782.554 113.589 50.4739
  926 1334.09 24.3410 19.8320
  927 739.511 82.0054 55.0617
  928 819.883 -27.3548 39.7968
  929 722.639 -40.6445 42.7159
  930 896.384 187.202 -11.2876
  931 580.963 2.99490 12.0493
  932 694.282 -17.1491 -6.61228
  933 727.116 39.2451 -66.8505
  934 861.163 28.3728 0.584054
  935 679.139 -42.0387 -8.68409
  936 368.968 -1.78930 -19.1533
  937 369.239 -1.72418 18.9113
  938 714.486 -17.4600 -25.4225
  939 27.4522 33.5860 11.0669
  940 686.233 -71.2329 -15.7285
  941 613.091 19.1122 -1.64099
  942 892.038 193.931 -7.43190
  943 149.066 110.299 -135.983
  944 693.043 -5.20241 -36.8766
  945 494.550 -7.48882 -17.8041
  946 494.661 -7.40769 17.6867
  947 5.31324 -18.2808 13.4678
  948 479.351 -34.6512 -78.5835
  949 699.730 -40.8022 -23.4430
  950 459.828 1.00980 -1.52833
  951 459.963 1.01313 1.52099
  952 714.646 86.6506 -34.0023
  953 747.295 -3.08320 -0.800773
  954 747.358 -3.10480 1.09504
  955 479.605 -34.5800 78.1337
  956 710.934 -1.23652 -14.3324
  957 808.276 6.23617 36.6629
  958 718.746 -11.0452 9.08516
  959 126.205 29.5328 -73.9120
  960 742.526 -5.26163 7.73010
  961 687.473 5.90994 58.9824
  962 724.686 99.9559 30.1969
  963 720.948 8.42951 -68.0742
  964 507.691 -26.0114 -47.7754
  965 770.121 -27.6880 37.9758
  966 508.028 -25.9344 47.3686
  967 26.6042 27.6750 -6.73048
  968 95.6272 14.5941 54.3807
  969 423.155 -6.82779 32.0613
  970 422.703 -6.82217 -32.2016
  971 694.780 -17.4242 7.10729
  972 754.968 130.127 16.3223
  973 387.338 34.0788 -199.235
  974 630.636 -38.8485 12.3667
  975 592.343 -61.3388 -66.8041
  976 854.864 163.107 30.0943
  977 660.591 -12.2354 -0.604539
  978 660.559 -12.1818 0.595821
  979 719.294 -14.0882 -17.6209
  980 678.525 59.0949 -23.3701
  981 1429.60 441.108 295.074
  982 153.280 7.51337 -69.4812
  983 155.212 6.21561 69.5889
  984 11.4597 -6.94931 7.39132
  985 679.546 38.2296 47.9745
  986 592.324 -61.7399 66.3782
  987 727.812 -34.7422 -49.7909
  988 790.758 64.6832 62.1296
  989 752.281 -60.7432 -84.1278
  990 1091.73 228.998 81.7988
  991 649.729 -11.0181 -0.824249
  992 649.650 -10.9432 0.822863
  993 754.451 -31.2050 45.4312
  994 54.6243 105.602 99.8112
  995 360.671 -7.00669 45.6526
  996 359.712 -6.91387 -46.0575
  997 423.386 -19.6922 62.8688
  998 422.055 -19.3657 -63.0466
  999 474.135 -18.5076 45.7197
  1000 518.291 -3.57771 -2.39130
  1001 518.379 -3.55411 2.38390
  1002 1196.02 404.425 -263.536
  1003 1109.87 279.437 123.466
  1004 473.766 -18.5847 -46.0355
  1005 776.523 -3.76499 50.5416
  1006 706.082 73.3734 -41.0505
  1007 499.275 -43.5760 140.592
  1008 633.952 -75.0708 -79.6275
  1009 723.167 -6.34640 -20.4659
  1010 335.882 21.3171 163.389
  1011 430.372 -32.6911 112.180
  1012 653.089 34.2414 -30.2806
  1013 732.671 -14.7607 -62.1525
  1014 881.692 405.468 403.684
  1015 621.319 19.7948 21.7588
  1016 825.807 175.236 -2.28939
  1017 598.671 25.0035 -236.485
  1018 618.507 -64.4483 -47.7254
  1019 767.286 -1.34308 -1.89136
  1020 751.840 69.0309 -63.1190
  1021 460.299 -2.51797 11.8299
  1022 460.089 -2.54260 -11.9175
  1023 17.9109 19.6020 -29.5446
  1024 508.774 -22.0770 -40.0033
  1025 429.826 -33.1003 -112.914
  1026 508.465 -22.0478 39.6401
  1027 717.225 -22.1208 57.5580
  1028 645.342 -39.5527 -7.05376
  1029 682.706 12.9480 -57.3508
  1030 703.124 87.7368 11.9947
  1031 920.544 63.0144 50.1952
  1032 708.124 -54.0922 22.6168
  1033 460.599 -35.9078 -85.9794
  1034 678.067 24.5349 -53.9738
  1035 503.118 -43.0518 -141.185
  1036 949.367 202.895 -6.54681
  1037 662.169 44.1238 27.5456
  1038 813.239 -4.02561 -24.9147
  1039 622.256 -64.5224 44.6082
  1040 710.144 -22.9241 43.7895
  1041 704.259 -37.5432 28.9237
  1042 700.366 -35.6011 24.4691
  1043 858.587 110.652 -39.5264
  1044 702.978 -11.5638 45.8331
  1045 633.173 -75.2762 78.4172
  1046 675.741 -27.9678 5.26824
  1047 460.895 -35.9969 85.5985
  1048 637.512 -46.3611 -14.6704
  1049 380.664 -18.8319 -119.911
  1050 532.984 -54.9185 96.2591
  1051 713.864 -5.21144 -24.1328
  1052 698.567 -7.95701 -52.7003
  1053 606.937 -47.1217 -30.5410
  1054 381.274 -19.3103 119.099
  1055 658.550 1.90734 -37.6270
  1056 494.460 -31.5924 -61.3897
  1057 870.973 183.403 17.7988
  1058 205.954 31.8752 -117.109
  1059 1417.11 99.8030 132.721
  1060 358.288 24.7924 -170.495
  1061 699.711 -58.1602 -10.5536
  1062 494.626 -31.3490 60.9683
  1063 652.684 7.46413 42.3631
  1064 379.480 -7.13026 37.8326
  1065 379.350 -7.30147 -38.1687
  1066 711.074 -20.0210 -53.5905
  1067 744.869 -4.60740 2.68071
  1068 736.468 -1.98375 10.3463
  1069 733.883 24.2695 68.3395
  1070 690.221 -5.16889 49.8383
  1071 528.166 57.7945 255.176
  1072 771.402 -0.934277 0.789348
  1073 741.918 100.061 43.7439
  1074 637.638 9.84986 36.7077
  1075 743.821 -3.18620 9.79962
  1076 499.595 -4.70184 -10.1485
  1077 499.700 -4.65103 10.0996
  1078 324.675 -8.70881 -63.3370
  1079 325.748 -9.02758 62.9908
  1080 639.850 32.7409 15.4724
  1081 921.216 56.6760 -83.5663
  1082 847.054 4.05968 -141.715
  1083 696.563 -0.743861 -15.0498
  1084 533.060 -55.3103 -96.9234
  1085 608.229 -44.8293 27.8364
  1086 700.030 -1.70968 15.6767
  1087 726.192 -53.1297 -27.4448
  1088 475.908 -0.755894 5.90385
  1089 475.773 -0.771630 -5.93187
  1090 698.427 -59.8239 10.5258
  1091 665.438 -14.2054 -0.204251
  1092 665.326 -14.2254 0.235239
  1093 648.396 -64.9141 31.2229
  1094 821.579 -25.5386 -21.9904
  1095 399.753 -0.600785 -10.7471
  1096 400.307 -0.579757 10.6528
  1097 568.133 -36.9359 -161.838
  1098 610.483 -14.4531 5.03154
  1099 610.524 -14.5155 -5.06042
  1100 364.904 203.808 280.507
  1101 831.234 69.3493 -47.0211
  1102 132.082 61.8480 -91.6039
  1103 718.978 -11.5965 -8.74420
  1104 202.937 66.8853 -134.563
  1105 416.694 -25.3337 -81.2696
  1106 770.804 -1.29100 0.613289
  1107 771.013 -1.23885 -0.427544
  1108 711.362 -40.9900 -35.9826
  1109 629.383 -71.1846 -106.965
  1110 206.180 27.1427 111.587
  1111 775.050 76.6195 60.1725
  1112 699.217 -8.07208 -0.585814
  1113 699.312 -8.07178 0.642188
  1114 755.892 -47.4144 130.580
  1115 796.480 157.586 22.5390
  1116 487.698 -10.8445 -25.2011
  1117 487.832 -10.8036 25.0615
  1118 364.213 40.2764 201.387
  1119 680.834 3.76956 -55.3458
  1120 220.345 68.8583 143.993
  1121 849.400 -12.1026 -53.7284
  1122 850.664 184.914 6.12933
  1123 590.785 -45.7108 35.7405
  1124 562.213 3.49905 -2.35519
  1125 736.348 -7.10163 11.9806
  1126 758.943 -1.35024 4.61719
  1127 187.469 0.206991 -32.2050
  1128 189.482 0.132317 32.0154
  1129 620.365 11.1185 -27.3181
  1130 627.744 -18.3909 -5.03768
  1131 627.628 -18.3276 5.01837
  1132 68.3937 126.999 -106.602
  1133 105.748 257.834 -203.304
  1134 634.961 -24.6597 5.51767
  1135 635.163 -24.6315 -5.56543
  1136 654.019 -16.1237 -0.557422
  1137 653.932 -16.1049 0.597873
  1138 178.437 113.061 146.133
  1139 529.534 -5.96150 -5.10156
  1140 529.610 -5.92439 5.08438
  1141 659.293 50.4864 -0.603854
  1142 800.385 115.859 -292.777
  1143 791.939 135.681 -38.7680
  1144 720.664 -27.9657 -53.6724
  1145 709.426 -35.7899 -37.1724
  1146 590.989 -46.1084 -36.2841
  1147 606.199 2.26769 16.8578
  1148 671.997 42.4875 -40.1778
  1149 663.615 36.3126 38.5176
  1150 675.331 -27.1958 -5.12788
  1151 646.878 -38.7946 6.53258
  1152 592.436 -37.2984 -27.5186
  1153 700.821 -4.28240 29.1273
  1154 1195.66 120.161 16.4866
  1155 704.780 -15.2106 52.9082
  1156 710.209 46.7596 59.4643
  1157 651.321 -63.6840 -25.2489
  1158 91.3650 13.3500 -52.5726
  1159 663.509 -30.8172 -2.00617
  1160 462.899 -0.479966 -0.348044
  1161 463.026 -0.477512 0.345740
  1162 798.955 -21.0962 19.8123
  1163 760.897 -64.2783 38.4336
  1164 1084.64 192.314 50.3118
  1165 284.745 -0.377311 -26.4633
  1166 286.124 -0.320071 26.2971
  1167 598.746 -11.9446 -3.75138
  1168 598.731 -11.8841 3.73234
  1169 665.129 -58.4320 -9.04932
  1170 566.663 2.92054 7.74298
  1171 680.525 -48.4882 7.39971
  1172 42.5301 50.4576 -28.6050
  1173 130.445 62.8160 89.4267
  1174 461.434 -26.0931 156.206
  1175 789.995 148.988 -27.7781
  1176 746.243 -2.30440 -7.77386
  1177 773.739 -1.47430 0.314173
  1178 774.338 -1.91191 -0.144444
  1179 478.601 -0.777749 -1.04264
  1180 478.724 -0.770734 1.03729
  1181 728.621 46.5772 66.8803
  1182 1055.73 177.726 -3.84113
  1183 752.186 123.445 -29.3045
  1184 559.757 -42.0580 160.847
  1185 459.035 -25.2151 -155.874
  1186 514.412 -33.1992 -55.4830
  1187 695.438 -20.1206 9.57177
  1188 961.751 214.308 21.3287
  1189 514.503 -33.0285 55.1182
  1190 708.694 -13.2778 7.24004
  1191 648.091 24.7917 36.8783
  1192 705.907 22.1008 64.7635
  1193 987.409 219.835 33.1610
  1194 599.692 -15.3590 6.87612
  1195 599.706 -15.4161 -6.90986
  1196 718.588 -14.2838 18.3535
  1197 447.228 -4.26586 18.3616
  1198 446.939 -4.30613 -18.4960
  1199 702.208 -10.4779 -2.64658
  1200 293.860 177.829 -273.146
  1201 608.351 -34.7603 -172.399
  1202 584.682 -17.7497 -11.6066
  1203 584.755 -17.6861 11.6120
  1204 747.261 -4.27666 2.58045
  1205 712.203 -10.2731 5.72285
  1206 42.5847 56.4621 43.2011
  1207 767.809 -1.15737 2.25483
  1208 97.3901 128.151 126.923
  1209 697.034 -11.3115 -3.52984
  1210 -0.361343 -16.3939 -14.4821
  1211 501.175 -49.0580 -121.304
  1212 499.970 -47.8999 120.183
  1213 767.768 -1.61808 -2.54792
  1214 667.458 -35.2687 -2.85950
  1215 746.960 -3.98809 -2.51564
  1216 611.425 -19.5003 -7.47661
  1217 611.388 -19.4495 7.42357
  1218 701.786 -10.4204 2.43150
  1219 663.053 -30.1943 1.98695
  1220 639.948 -20.6787 3.31416
  1221 640.143 -20.7131 -3.25347
  1222 746.129 -4.10047 -2.01493
  1223 649.372 -68.9899 -120.061
  1224 731.865 -5.48159 -1.91926
  1225 699.750 -11.5884 3.95527
  1226 506.898 -4.91399 -7.69008
  1227 506.997 -4.86916 7.65741
  1228 559.081 -7.78707 -4.30854
  1229 559.122 -7.74254 4.29344
  1230 880.111 138.790 30.8118
  1231 741.541 -57.5152 17.2967
  1232 512.754 -3.05654 197.789
  1233 431.558 -0.511582 7.06474
  1234 431.229 -0.518057 -7.12156
  1235 707.939 -13.3814 39.2665
  1236 675.520 -10.9975 0.0839184
  1237 675.535 -10.9682 -0.0840964
  1238 778.456 149.835 13.1476
  1239 703.266 -74.0470 97.6986
  1240 429.531 -5.50900 25.4630
  1241 429.155 -5.54485 -25.6143
  1242 675.018 -17.0497 2.08612
  1243 674.868 -17.1765 -1.95698
  1244 695.042 -19.9117 -9.13296
  1245 651.773 0.225053 19.4288
  1246 1086.59 270.991 -98.1273
  1247 709.142 -26.4381 -33.0349
  1248 131.487 29.2151 75.7602
  1249 731.523 -39.4070 45.4286
  1250 605.830 14.0567 -14.9784
  1251 51.1492 34.5656 30.2384
  1252 947.101 112.454 -25.4292
  1253 715.828 -32.8856 -47.1512
  1254 608.356 9.31982 22.9903
  1255 419.406 -25.3950 81.2206
  1256 724.871 -56.5179 23.5242
  1257 1031.18 210.664 82.5237
  1258 253.946 35.6888 141.013
  1259 726.990 -9.42506 -15.9350
  1260 1343.77 15.4194 -13.1139
  1261 1384.29 20.4767 57.7224
  1262 1471.58 48.3806 -138.356
  1263 709.331 -22.5590 -42.5075
  1264 708.232 -32.7594 34.6675
  1265 718.435 -51.5294 30.1369
  1266 -20.8471 2.83241 12.8848
  1267 -18.8324 2.39620 -14.1870
  1268 697.425 -77.5342 -50.0984
  1269 712.494 -72.5294 -71.3765
  1270 570.151 3.98429 -9.52715
  1271 694.049 -78.8185 70.7080
  1272 743.378 -35.6131 -45.7908
  1273 18.4040 23.8815 6.08380
  1274 612.136 -11.2240 2.16702
  1275 612.170 -11.2901 -2.17259
  1276 735.416 -6.66757 10.5386
  1277 708.568 -13.0648 -6.70859
  1278 670.207 -73.1170 -29.6389
  1279 617.549 -32.8350 14.0726
  1280 614.657 -32.3448 -14.8083
  1281 717.371 -15.7789 26.3425
  1282 735.663 -27.3491 -54.6656
  1283 52.9790 36.0369 -29.7710
</Section>

newXOutput 100

<Section columns = "stress_xx | stress_yy | stress_xy">
  1 8.52606e-09 1.31877e-11 5.50596e-11
  2 0.00000 0.00000 -6.66134e-13
  3 0.00000 0.00000 6.66134e-13
  4 -7.73070e-12 -2.27374e-12 -1.33227e-12
  5 -2.95586e-12 1.81899e-12 -3.74700e-13
  6 -8.86939e-09 -7.86918e-09 4.98710e-09
  7 1.15961e-10 1.08230e-10 -7.78861e-11
  8 -9.05902e-09 -4.54747e-12 5.00090e-11
  9 8.78057e-09 -3.78956e-11 1.22100e-12
  10 8.74722e-09 -6.15425e-11 -4.63902e-11
  11 8.76723e-09 -2.39500e-11 1.56832e-11
  12 8.81270e-09 -4.09273e-11 -6.06077e-11
  13 8.89789e-09 -2.12215e-11 -6.04666e-12
  14 9.02249e-09 -1.15203e-11 -8.02551e-11
  15 9.17134e-09 5.45697e-12 -7.10184e-11
  16 9.28844e-09 4.38831e-11 -1.53425e-10
  17 9.80284e-09 4.24431e-11 -2.14568e-10
  18 1.03576e-08 9.12526e-11 -3.23297e-10
  19 1.10638e-08 3.88809e-11 -5.87450e-10
  20 1.25460e-08 9.54969e-12 -6.34364e-10
  21 1.34282e-08 2.23054e-10 -1.04062e-09
  22 1.63767e-08 1.60374e-10 -1.30435e-09
  23 1.94923e-08 3.96540e-10 -2.33463e-09
  24 2.52312e-08 2.25858e-10 -3.09921e-09
  25 3.32725e-08 1.45951e-09 -5.90226e-09
  26 5.37239e-08 2.00331e-09 -9.80318e-09
  27 7.22248e-08 3.40666e-09 -1.99443e-08
  28 1.17569e-07 4.85549e-09 -2.63443e-08
  29 1.21915e-07 -1.59928e-08 -1.14247e-08
  30 1.75184e-08 -8.67819e-08 1.62953e-08
  31 0.00000 0.00000 0.00000
  32 -6.06330e-12 -6.06330e-13 8.88178e-13
  33 -5.45697e-12 -2.72848e-12 2.52435e-28
  34 6.06330e-13 1.51582e-12 -4.44089e-13
  35 -2.27374e-12 1.13687e-12 -1.91513e-12
  36 -2.72848e-12 -1.21266e-12 2.22045e-13
  37 -1.21266e-12 -3.03165e-13 2.22045e-13
  38 1.21266e-12 3.03165e-13 8.88178e-13
  39 -3.33481e-12 3.03165e-13 6.66134e-13
  40 -6.82121e-13 6.82121e-13 9.99201e-13
  41 1.21266e-12 9.09495e-13 -1.77636e-12
  42 -3.03165e-13 -6.06330e-13 1.55431e-12
  43 -6.06330e-13 2.12215e-12 1.11022e-12
  44 -1.81899e-12 -2.72848e-12 1.77636e-12
  45 2.27374e-12 -6.82121e-13 1.45717e-12
  46 2.72848e-12 1.81899e-12 8.88178e-13
  47 -3.03165e-12 -2.12215e-12 -4.44089e-13
  48 2.42532e-12 6.06330e-13 -2.22045e-13
  49 3.18323e-12 -2.72630e-27 3.33067e-13
  50 -1.81899e-12 -1.36424e-12 -1.66533e-13
  51 -1.21266e-12 -3.03165e-13 1.44329e-12
  52 0.00000 4.54747e-13 -3.33067e-13
  53 9.09495e-13 3.03165e-13 -1.11022e-12
  54 1.21266e-12 9.09495e-13 4.44089e-13
  55 -3.63798e-12 -3.03165e-13 2.22045e-13
  56 -2.04636e-12 -9.09495e-13 -7.91034e-13
  57 -1.81899e-12 -2.12215e-12 -4.44089e-13
  58 -3.03165e-12 -1.81899e-12 -6.66134e-13
  59 3.33481e-12 3.03165e-13 2.22045e-13
  60 1.21266e-12 3.03165e-13 -6.66134e-13
  61 2.12215e-12 0.00000 -7.77156e-13
  62 0.00000 0.00000 -1.11022e-13
  63 0.00000 0.00000 -3.97586e-28
  64 4.54747e-13 1.81899e-12 -3.33067e-13
  65 -6.82121e-13 -1.36424e-12 3.33067e-13
  66 1.81899e-12 -6.06330e-13 -2.22045e-13
  67 3.03165e-12 3.03165e-12 -2.22045e-12
  68 0.00000 0.00000 -6.66134e-13
  69 3.03165e-13 1.21266e-12 -4.44089e-13
  70 2.04636e-12 1.36424e-12 1.66533e-13
  71 -3.03165e-13 -1.21266e-12 6.66134e-13
  72 3.03165e-13 1.21266e-12 -2.22045e-12
  73 6.06330e-13 2.42532e-12 -1.55431e-12
  74 -3.03165e-13 -1.21266e-12 1.33227e-12
  75 -3.94114e-12 -5.15380e-12 8.88178e-13
  76 -3.33481e-12 -2.72848e-12 1.33227e-12
  77 6.82121e-13 2.72848e-12 7.57306e-29
  78 2.72848e-12 9.09495e-13 4.44089e-13
  79 -1.21266e-12 -4.24431e-12 -4.44089e-13
  80 9.08768e-28 3.63507e-27 1.21169e-27
  81 -9.09495e-13 -3.03165e-12 -4.44089e-13
  82 -6.06330e-13 -1.81899e-12 2.17095e-27
  83 -2.72848e-12 -1.21266e-12 4.44089e-13
  84 3.63798e-12 2.27374e-13 1.74860e-12
  85 7.88229e-12 3.33481e-12 -1.33227e-12
  86 2.12215e-12 -6.06330e-13 8.88178e-13
  87 -7.57912e-12 -2.12215e-12 -8.88178e-13
  88 0.00000 0.00000 -8.88178e-13
  89 -7.57912e-12 -2.12215e-12 2.22045e-13
  90 -5.45697e-12 -2.72848e-12 -1.55431e-12
  91 -2.42532e-12 -6.06330e-13 6.66134e-13
  92 -2.72848e-12 -1.81899e-12 -1.77636e-12
  93 -2.50111e-12 -2.50111e-12 -1.24900e-13
  94 2.44427e-10 1.65755e-10 -1.21064e-10
  95 4.85367e-10 1.12474e-10 -4.13599e-11
  96 3.89264e-10 8.21577e-11 4.83541e-11
  97 -3.29237e-10 4.51716e-11 3.20554e-10
  98 -1.41245e-09 4.24431e-12 5.63675e-10
  99 -4.08697e-09 -1.66438e-10 1.24713e-09
  100 -8.46800e-09 -1.32544e-09 3.32118e-09
  101 -2.08244e-09 -7.59822e-09 3.49679e-09
  102 -4.82942e-10 -3.62343e-09 1.31440e-09
  103 -2.46928e-10 -1.65846e-09 8.13731e-10
  104 -1.04289e-10 -5.59339e-10 3.91254e-10
  105 -3.52429e-11 -7.82165e-11 1.73092e-10
  106 -2.68301e-11 2.85127e-10 1.24357e-11
  107 3.85019e-11 1.54917e-10 -6.17019e-11
  108 1.86750e-10 3.81988e-11 -3.09968e-11
  109 1.91297e-10 2.18279e-11 1.75535e-11
  110 -1.45519e-10 -1.29603e-11 1.91381e-10
  111 -5.54489e-10 3.57735e-11 2.53097e-10
  112 -1.29421e-09 4.21399e-11 3.53000e-10
  113 -2.20674e-09 8.97368e-11 4.22231e-10
  114 -3.05257e-09 1.31574e-10 3.81160e-10
  115 -3.99996e-09 1.15506e-10 3.53487e-10
  116 -4.69239e-09 1.25813e-10 3.90896e-10
  117 -5.50790e-09 9.39053e-11 3.92373e-10
  118 -6.24429e-09 1.13990e-10 3.01926e-10
  119 -6.85395e-09 1.09443e-10 2.58197e-10
  120 -7.38419e-09 9.48906e-11 2.17318e-10
  121 -7.78982e-09 9.27685e-11 2.04469e-10
  122 -8.21789e-09 8.60988e-11 1.41917e-10
  123 -8.45042e-09 1.06411e-10 1.76734e-10
  124 -8.51514e-09 2.56932e-11 1.34825e-10
  125 -8.85423e-09 4.72937e-11 1.20506e-10
  126 -8.94185e-09 3.21355e-11 1.00636e-10
  127 -8.97732e-09 1.72804e-11 8.50917e-11
  128 -9.02461e-09 8.79178e-12 5.60840e-11
  129 -8.91873e-09 1.88720e-11 3.28180e-11
  130 -9.37507e-09 1.04592e-10 2.72295e-11
  131 -9.00377e-09 3.36513e-11 -5.39672e-12
  132 -8.04812e-09 3.63798e-12 5.81747e-11
  133 -6.87002e-09 -2.12215e-12 3.67801e-11
  134 -5.80045e-09 5.06285e-11 5.83212e-11
  135 -4.66055e-09 8.79178e-11 6.87557e-11
  136 -3.50034e-09 1.22479e-10 7.27205e-11
  137 -2.29617e-09 1.43397e-10 7.31469e-11
  138 -1.03842e-09 1.80762e-10 4.84992e-11
  139 7.70039e-11 1.17325e-10 2.56556e-11
  140 1.05410e-09 1.57039e-10 3.88390e-11
  141 2.18946e-09 1.53401e-10 5.67337e-11
  142 3.48723e-09 1.34378e-10 4.65776e-11
  143 4.70360e-09 4.91127e-11 3.39897e-11
  144 5.94378e-09 3.47882e-11 4.00570e-12
  145 6.93626e-09 5.91172e-12 4.17270e-11
  146 7.66674e-09 3.24386e-11 1.78851e-11
  147 3.03165e-12 7.57912e-13 -1.23773e-12
  148 -2.29193e-09 2.36599e-09 5.39065e-10
  149 -3.14291e-09 -1.58464e-08 5.38132e-09
  150 -5.48804e-09 2.91235e-09 3.75811e-09
  151 -4.62426e-09 8.93124e-10 2.80756e-09
  152 1.93268e-12 -1.13596e-28 2.49800e-13
  153 3.03165e-13 1.36424e-12 7.07767e-13
  154 -2.70590e-09 5.99357e-10 2.58534e-10
  155 1.51582e-13 -3.03165e-13 8.60423e-13
  156 3.01835e-09 7.61247e-10 -4.78432e-10
  157 1.55913e-12 3.89783e-13 1.73099e-28
  158 -1.70227e-09 -4.93810e-09 5.77780e-09
  159 -4.54747e-13 4.54747e-13 2.77679e-28
  160 -4.62645e-09 9.06008e-10 1.25302e-09
  161 -1.36424e-12 1.36424e-12 -4.71845e-13
  162 2.69101e-09 3.62106e-09 -2.76705e-09
  163 -1.08697e-08 1.07354e-08 5.32593e-10
  164 -2.85687e-09 -4.25947e-10 2.56823e-09
  165 4.39589e-12 1.36424e-12 7.49401e-13
  166 -4.50054e-09 -2.86309e-10 3.48852e-09
  167 -1.81899e-12 -1.51582e-13 -6.10623e-13
  168 1.21690e-10 -4.14366e-10 2.35021e-10
  169 8.76753e-10 3.83079e-10 -7.15927e-11
  170 -3.63798e-13 -1.09139e-12 -1.09912e-12
  171 3.41061e-13 -1.36424e-12 3.33067e-13
  172 5.29099e-09 1.52644e-10 -1.58293e-10
  173 -5.15608e-09 1.49006e-10 1.50767e-10
  174 1.36424e-12 -1.06108e-12 -1.11022e-13
  175 -1.03942e-12 -2.59856e-13 1.09436e-12
  176 -9.09495e-13 2.59856e-13 4.28229e-13
  177 -4.88957e-09 6.22484e-10 1.81845e-09
  178 2.98834e-12 1.29928e-13 -1.20142e-12
  179 -5.57364e-09 3.68995e-10 5.70546e-10
  180 -1.29928e-13 -1.55789e-27 -6.18553e-13
  181 5.64578e-09 1.15688e-09 -1.50073e-09
  182 -8.17029e-10 1.32619e-09 7.28021e-11
  183 7.57912e-13 -6.06330e-13 3.74700e-13
  184 -4.24045e-09 2.12978e-09 2.08431e-09
  185 -2.12215e-12 -3.03165e-13 8.32667e-14
  186 -2.64527e-09 -3.68451e-09 4.68312e-09
  187 -8.06934e-09 -2.72288e-09 9.41923e-09
  188 6.06330e-13 4.54747e-13 8.32667e-14
  189 -4.95857e-09 -6.82727e-10 3.35698e-09
  190 2.27374e-12 1.36424e-12 -1.30928e-12
  191 -2.79306e-09 3.90325e-09 2.82685e-10
  192 2.59856e-13 1.03942e-12 -7.37505e-13
  193 -4.28814e-09 1.59603e-09 1.85280e-09
  194 6.49470e-09 5.69571e-09 -6.64334e-09
  195 -3.91022e-09 2.80276e-10 2.03904e-09
  196 -2.42532e-12 -1.51582e-13 1.94289e-13
  197 -8.69629e-10 -2.09123e-09 2.17978e-09
  198 1.32013e-09 1.84264e-09 -7.32207e-10
  199 -3.03165e-13 -1.21266e-12 6.66134e-13
  200 -2.12848e-09 3.13906e-10 9.41849e-11
  201 3.11827e-12 7.79567e-13 -9.15934e-13
  202 1.27329e-12 3.63798e-13 -1.59872e-12
  203 9.09495e-13 9.09495e-13 -1.33227e-13
  204 -1.75642e-08 -1.21108e-08 2.16193e-08
  205 -9.09495e-13 3.63798e-13 -1.09912e-12
  206 -6.02358e-09 3.53975e-10 8.33822e-10
  207 6.46727e-09 2.63147e-10 -3.87462e-10
  208 -2.93160e-09 6.34236e-09 -1.55246e-09
  209 -3.18384e-09 1.05911e-09 6.45983e-10
  210 4.54747e-13 6.06330e-13 -2.82760e-13
  211 -4.06869e-09 -1.33449e-09 5.53589e-09
  212 1.97057e-12 6.06330e-13 3.98986e-13
  213 -9.78919e-10 -6.76967e-10 1.17678e-09
  214 2.42532e-12 6.06330e-13 1.60982e-12
  215 1.81899e-13 7.27596e-13 1.29063e-13
  216 -2.59856e-13 -5.19711e-13 -2.40879e-13
  217 9.09495e-13 -3.03165e-13 4.16334e-13
  218 3.37812e-12 -6.49639e-13 1.05273e-12
  219 -6.74190e-09 1.01682e-10 2.06962e-10
  220 0.00000 0.00000 -3.33067e-14
  221 -7.24716e-10 7.23503e-10 4.71078e-11
  222 1.36424e-12 -4.54747e-13 -2.22045e-13
  223 8.31642e-09 1.25310e-09 -2.31527e-09
  224 -4.54747e-12 -1.45519e-12 -1.41553e-13
  225 -5.69798e-10 -1.03414e-08 4.05066e-09
  226 -3.20567e-09 1.60996e-09 9.68214e-10
  227 -4.58795e-09 2.05030e-09 2.91748e-09
  228 3.01061e-09 1.79534e-10 -7.99836e-11
  229 -2.18279e-12 -1.63709e-12 2.66454e-13
  230 -1.27329e-12 7.27596e-13 1.16573e-12
  231 -3.47124e-11 2.77790e-09 -7.45077e-10
  232 -4.55657e-09 -2.89977e-09 3.20021e-09
  233 -1.97979e-09 -1.85373e-09 2.79881e-09
  234 -8.36790e-09 2.48299e-08 -1.71101e-08
  235 -8.21222e-09 5.82531e-09 3.22680e-09
  236 2.12215e-12 0.00000 6.38378e-13
  237 -1.09139e-12 -7.27596e-13 -7.66054e-13
  238 -5.91099e-09 2.88492e-10 1.00457e-09
  239 -7.27596e-13 -1.81899e-13 -2.66454e-13
  240 0.00000 -1.45519e-12 -1.07414e-12
  241 2.96508e-09 4.18108e-10 -2.01020e-10
  242 -2.07885e-12 -2.07885e-12 -4.40124e-13
  243 -2.39637e-09 -2.37984e-11 1.42334e-09
  244 -5.30539e-12 -1.51582e-12 5.55112e-14
  245 -4.75247e-09 1.15306e-09 2.88825e-09
  246 6.73546e-09 5.18412e-11 -5.78890e-11
  247 -1.29928e-13 -2.59856e-13 -6.54239e-13
  248 -1.36424e-12 -6.06330e-13 -8.32667e-14
  249 1.14596e-08 8.86636e-09 -1.27413e-08
  250 -1.16112e-10 -1.45519e-10 1.82336e-10
  251 -2.56036e-09 -1.81015e-09 3.25174e-09
  252 -2.19318e-10 -4.95311e-09 2.92033e-09
  253 -7.57912e-13 -4.54747e-13 5.25621e-13
  254 -4.32392e-09 2.42107e-10 3.12869e-09
  255 -3.32615e-10 2.50631e-10 -2.81771e-11
  256 -7.79567e-13 -9.09495e-13 -4.76021e-28
  257 6.49639e-13 -5.19711e-13 -4.63915e-13
  258 -4.93609e-09 3.16114e-10 3.35913e-10
  259 7.33002e-09 3.28631e-10 -6.78131e-10
  260 -2.33870e-12 -1.55913e-12 -2.18575e-13
  261 -7.26368e-09 5.24096e-11 3.87701e-11
  262 -1.36424e-12 -1.36424e-12 -3.85109e-13
  263 -6.06330e-13 -7.57912e-13 -1.00974e-28
  264 -4.77303e-09 2.60343e-10 1.36273e-09
  265 3.06954e-12 7.95808e-13 7.91034e-13
  266 2.80534e-09 2.29647e-09 -1.63999e-09
  267 -1.06108e-12 3.03165e-13 4.16334e-14
  268 -4.63251e-09 1.10807e-09 2.28882e-09
  269 -5.10988e-08 -1.62845e-08 1.96922e-08
  270 -3.95736e-09 1.37031e-10 3.00248e-11
  271 -3.18323e-12 9.09495e-13 1.24900e-13
  272 1.16165e-08 1.72349e-09 -3.80286e-09
  273 -4.74237e-09 -2.94520e-09 7.56339e-09
  274 1.03942e-12 -1.42921e-12 1.01110e-12
  275 -6.95815e-09 1.47988e-10 4.13262e-10
  276 -3.08555e-09 2.87855e-09 9.32648e-10
  277 -4.55611e-09 1.52886e-09 2.42073e-09
  278 7.20211e-09 7.89441e-11 -1.30434e-10
  279 -4.47972e-09 7.26232e-10 7.98596e-10
  280 -1.06108e-12 -1.21266e-12 -1.11022e-13
  281 -1.68906e-12 -6.49639e-13 -1.42148e-12
  282 1.81899e-13 -2.00089e-12 -1.19904e-12
  283 -9.91295e-09 -1.38301e-08 1.24014e-08
  284 -2.42532e-12 -3.03165e-13 2.77556e-13
  285 -8.13543e-10 1.81308e-09 -4.43384e-11
  286 3.50805e-12 6.49639e-13 1.47501e-12
  287 -4.45380e-09 6.38829e-10 2.38280e-09
  288 -4.24431e-12 -1.81899e-12 -1.26800e-12
  289 3.36877e-09 1.19443e-09 -8.92654e-10
  290 -3.67865e-09 -2.13328e-09 4.23823e-09
  291 -9.09495e-13 -7.57912e-13 1.66533e-13
  292 -2.57690e-12 1.06108e-12 -2.49800e-13
  293 1.17128e-09 1.33817e-09 -4.33445e-10
  294 -1.81899e-12 -1.66741e-12 1.66533e-13
  295 -3.85239e-09 8.83642e-09 -2.85555e-09
  296 1.97057e-12 1.21266e-12 8.88178e-13
  297 -1.47780e-09 -3.56249e-09 4.36953e-09
  298 3.03165e-13 -1.51582e-13 -8.74301e-13
  299 -4.20308e-09 -2.64905e-09 3.84242e-09
  300 -3.54839e-09 2.26297e-09 1.33126e-09
  301 1.21266e-12 6.06330e-13 -4.99600e-13
  302 -4.79135e-09 9.49772e-10 1.71916e-09
  303 -7.18670e-09 8.38034e-11 1.13589e-10
  304 2.59856e-13 -6.49639e-13 -4.75810e-13
  305 1.42921e-12 1.29928e-13 2.37905e-13
  306 7.57912e-13 7.57912e-13 4.07877e-13
  307 -1.51582e-12 7.57912e-13 1.44329e-12
  308 -2.01986e-09 9.25996e-10 3.21712e-10
  309 1.51582e-12 -1.06108e-12 -4.99600e-13
  310 -1.73099e-28 1.29928e-13 4.75810e-14
  311 8.93812e-09 3.93941e-10 -1.00373e-09
  312 2.33870e-12 3.11827e-12 1.42743e-13
  313 -1.53450e-09 4.93492e-10 1.10833e-10
  314 1.27329e-12 0.00000 -1.47746e-12
  315 -3.63356e-09 3.07019e-10 1.88331e-10
  316 6.49639e-13 6.49639e-13 -7.85086e-13
  317 -1.06108e-12 2.57690e-12 8.32667e-13
  318 -9.09495e-13 1.21266e-12 -7.42462e-13
  319 -3.96137e-09 -4.32984e-09 4.31766e-09
  320 -2.46863e-12 -2.07885e-12 1.42743e-13
  321 4.88736e-09 1.04852e-10 -4.20090e-11
  322 -5.19711e-13 2.59856e-13 2.97381e-13
  323 -4.02072e-09 6.24823e-10 5.13798e-10
  324 2.52435e-29 -6.06330e-13 6.93889e-14
  325 -3.81962e-09 1.70076e-10 2.67231e-09
  326 0.00000 2.27374e-12 3.50414e-13
  327 -4.53671e-09 3.97752e-10 4.05345e-09
  328 -4.83137e-09 4.47471e-10 3.12559e-09
  329 1.59131e-09 6.92732e-10 -2.26415e-10
  330 1.21266e-12 3.03165e-13 -1.11022e-13
  331 -3.03165e-13 -6.06330e-13 3.60822e-13
  332 -3.89783e-13 -1.29928e-12 -1.70102e-12
  333 -4.15678e-09 4.38337e-09 1.06700e-09
  334 -7.79567e-13 -7.79567e-13 5.65024e-14
  335 1.29928e-13 -6.49639e-13 1.90324e-13
  336 -5.34133e-09 5.78049e-10 1.28367e-09
  337 2.23023e-09 5.08165e-09 -3.91058e-09
  338 -7.45617e-09 9.32882e-11 2.48919e-10
  339 1.55913e-12 -1.29928e-12 1.11815e-12
  340 5.10666e-09 5.90717e-10 -6.42044e-10
  341 -4.57779e-11 -2.75243e-09 5.17313e-10
  342 4.58886e-09 4.24582e-10 -3.92230e-10
  343 -7.05116e-09 1.53113e-09 6.17618e-09
  344 -1.05501e-09 4.62569e-09 -1.48895e-09
  345 -1.03942e-12 -9.09495e-13 -2.02219e-13
  346 -1.98634e-09 1.84238e-10 4.95926e-11
  347 2.57690e-12 -4.54747e-13 -3.60822e-13
  348 -2.63678e-09 -3.37817e-09 5.68912e-09
  349 -5.28022e-09 -1.05803e-08 9.48106e-09
  350 -3.74785e-09 -7.42148e-10 3.34709e-09
  351 -1.17377e-09 -1.47728e-10 8.74693e-10
  352 1.03942e-12 1.29928e-13 -1.24900e-12
  353 -1.67195e-10 -1.17628e-10 1.54545e-10
  354 -7.01610e-12 -2.59856e-12 1.54638e-12
  355 -1.01090e-09 -6.47560e-10 1.18168e-09
  356 -2.26070e-09 1.39410e-09 4.67478e-10
  357 -4.39589e-12 -2.88007e-12 -1.52656e-12
  358 1.47193e-09 1.83718e-10 1.73435e-12
  359 -2.00089e-12 -1.81899e-12 8.16014e-13
  360 -2.45745e-09 -2.66511e-08 1.33575e-08
  361 -3.03165e-13 1.36424e-12 1.08247e-12
  362 -5.90414e-10 -1.45459e-09 1.25305e-09
  363 -4.03300e-09 1.38789e-09 1.37401e-09
  364 -1.18325e-08 3.53903e-09 7.80195e-09
  365 -9.09495e-13 -3.03165e-13 3.60822e-13
  366 4.54747e-13 -1.51582e-13 -1.22125e-12
  367 -2.71590e-09 -6.91383e-09 7.43031e-09
  368 -3.85611e-09 2.84247e-09 1.66123e-09
  369 -4.15769e-12 -2.59856e-13 -4.28229e-13
  370 -5.61990e-09 2.13601e-10 9.24184e-10
  371 -3.37544e-09 8.65536e-11 1.23974e-09
  372 1.97057e-12 1.06108e-12 7.56339e-13
  373 1.75223e-08 3.25001e-09 -6.98235e-09
  374 7.53365e-11 2.37681e-10 -5.26206e-11
  375 -2.12215e-12 -6.06330e-13 -6.10623e-13
  376 -3.76576e-09 1.18325e-09 9.76513e-10
  377 -7.57912e-13 -4.54747e-13 -4.61436e-13
  378 -2.54659e-12 -9.09495e-13 -4.66294e-13
  379 -4.63554e-09 1.25207e-09 3.00480e-09
  380 7.27596e-13 1.81899e-13 5.32907e-13
  381 -4.77830e-09 -9.11677e-10 3.20583e-09
  382 -5.24930e-09 1.04440e-10 1.05359e-10
  383 -1.51582e-13 -3.03165e-13 -1.38778e-14
  384 -2.42532e-12 -1.51582e-12 -3.74700e-13
  385 -6.76009e-09 1.77170e-10 5.93351e-10
  386 -1.27329e-12 3.63798e-13 -5.49560e-13
  387 -3.03165e-13 1.06108e-12 -6.66134e-13
  388 -2.12215e-12 6.06330e-13 -1.94289e-12
  389 2.90432e-10 9.94532e-10 -1.30739e-10
  390 -3.94114e-12 4.54747e-13 6.45317e-13
  391 -2.26616e-10 -6.82030e-09 9.95194e-10
  392 6.06330e-13 -4.54747e-13 2.49800e-13
  393 -6.82121e-12 -3.18323e-12 3.40006e-13
  394 -6.32554e-10 3.83655e-10 3.31745e-11
  395 1.81899e-12 7.57912e-13 5.27356e-13
  396 -7.65431e-10 2.34450e-09 -2.02907e-10
  397 7.99976e-09 1.45064e-10 -2.94175e-10
  398 -5.62810e-09 4.03361e-10 6.99706e-10
  399 -1.21266e-12 4.03897e-28 -4.71845e-13
  400 -2.27374e-12 4.54747e-13 -2.49800e-13
  401 2.58160e-09 3.21203e-10 -1.36667e-10
  402 4.69906e-12 1.97057e-12 3.33067e-13
  403 6.44086e-09 2.40489e-09 -3.30071e-09
  404 -1.99949e-08 1.10657e-08 6.06638e-09
  405 4.19095e-10 3.48864e-09 -1.43267e-09
  406 -7.98536e-11 -1.70112e-09 9.98392e-10
  407 -4.50127e-09 4.07090e-10 1.86755e-09
  408 -3.45608e-12 -1.81899e-13 8.65974e-13
  409 -1.66910e-09 -9.95715e-10 2.11470e-09
  410 7.74617e-09 1.07320e-11 -5.79837e-11
  411 -7.37200e-09 8.44011e-11 3.68441e-10
  412 -1.81899e-13 -3.63798e-13 2.66454e-13
  413 5.56959e-09 1.45322e-09 -1.83696e-09
  414 0.00000 0.00000 1.63203e-12
  415 5.74037e-09 1.94086e-10 -2.82529e-10
  416 -5.78120e-09 5.04792e-09 2.22051e-09
  417 -9.27685e-12 -1.45519e-12 1.19904e-12
  418 -3.43399e-09 1.87538e-09 1.17488e-09
  419 -2.25479e-09 1.95845e-09 5.35818e-10
  420 -4.11248e-09 1.95282e-10 1.14525e-09
  421 1.42921e-12 1.29928e-13 2.85486e-13
  422 -4.40068e-09 6.50289e-10 2.84166e-09
  423 -4.22915e-09 3.46866e-09 1.80460e-09
  424 -4.18368e-12 -1.45519e-12 -2.39808e-12
  425 1.27329e-12 -2.00089e-12 -3.66374e-13
  426 -1.16561e-08 -5.04377e-08 1.91343e-08
  427 3.28585e-09 1.60556e-09 -1.18463e-09
  428 -1.81899e-12 -5.19711e-13 -2.45339e-13
  429 -3.63798e-13 -9.09495e-13 -9.32587e-13
  430 2.18279e-12 -2.18279e-12 -1.29896e-12
  431 1.17402e-08 6.21033e-10 -1.98637e-09
  432 3.22652e-08 1.03022e-08 -1.75357e-08
  433 -8.42697e-08 -1.14593e-07 4.71638e-08
  434 -5.36810e-09 1.83458e-10 2.13573e-10
  435 3.76791e-12 1.55789e-27 -2.37905e-13
  436 -3.33481e-12 -1.97057e-12 -3.33067e-13
  437 9.09495e-13 7.27596e-13 1.16157e-12
  438 4.70451e-09 2.27499e-08 -2.33388e-08
  439 2.40107e-11 1.11504e-10 1.65108e-10
  440 -1.89302e-09 -4.50564e-10 1.76571e-09
  441 1.06108e-12 -3.03165e-13 3.09475e-12
  442 1.11110e-09 5.92384e-10 -1.30515e-10
  443 1.51582e-13 9.09495e-13 3.67761e-13
  444 -8.28368e-10 -6.50416e-09 4.65960e-09
  445 -2.27374e-12 -9.09495e-13 -4.44089e-13
  446 4.54747e-13 -9.09495e-13 2.77556e-13
  447 -5.20922e-09 5.98993e-10 1.03367e-09
  448 -2.36469e-12 -7.27596e-13 -1.39888e-12
  449 4.18368e-12 7.27596e-13 6.66134e-13
  450 -5.65233e-09 2.51202e-10 3.62712e-10
  451 -2.27374e-12 -9.08768e-28 1.60982e-12
  452 9.09495e-13 -7.27596e-13 -2.33147e-13
  453 -6.98346e-09 1.63855e-08 -8.64904e-09
  454 -5.13501e-09 1.50976e-10 5.61808e-09
  455 1.68906e-12 -5.19711e-13 -2.97381e-15
  456 -7.27596e-13 -2.18279e-12 3.33067e-14
  457 7.82726e-09 6.12393e-11 -1.52287e-10
  458 7.65594e-09 1.85537e-11 -2.08981e-11
  459 1.81899e-13 7.27596e-13 2.33147e-13
  460 -3.03165e-13 1.06108e-12 -9.15934e-13
  461 -8.33946e-09 3.86535e-11 1.07318e-10
  462 -1.92595e-09 3.35731e-09 -5.68630e-11
  463 -1.98118e-09 1.06117e-08 -6.41136e-09
  464 -1.06108e-12 -1.36424e-12 2.77556e-14
  465 5.84550e-09 6.86487e-10 -8.94530e-10
  466 -5.51487e-09 -3.66072e-09 3.22054e-09
  467 -3.03165e-12 -2.57690e-12 -1.85615e-13
  468 5.76013e-12 -3.03165e-13 2.72005e-12
  469 -5.27247e-10 -1.41491e-10 4.13737e-10
  470 2.59856e-12 1.29928e-13 2.55748e-13
  471 -3.07834e-09 7.98082e-10 4.59947e-10
  472 -3.24820e-12 -9.09495e-13 -2.14114e-13
  473 -2.04667e-09 -3.64344e-09 3.02217e-09
  474 1.00692e-08 2.64663e-10 -1.04289e-09
  475 -4.81153e-09 3.70619e-10 3.13915e-09
  476 1.06108e-12 -1.84278e-27 -1.22125e-12
  477 1.36424e-12 9.09495e-13 -2.77556e-14
  478 1.48157e-09 2.37636e-09 -1.21801e-09
  479 -1.72061e-09 6.71359e-10 1.75032e-10
  480 -1.97057e-12 -1.81899e-12 1.38778e-13
  481 -5.68434e-13 2.83990e-28 1.12410e-12
  482 -5.29599e-09 5.11894e-10 1.41276e-09
  483 1.58649e-08 1.31634e-09 -4.07386e-09
  484 -4.57931e-09 1.34560e-09 2.37183e-09
  485 2.20877e-12 -3.89783e-13 1.27279e-12
  486 8.49814e-09 2.72121e-10 -6.89990e-10
  487 -1.69665e-08 -1.72804e-11 1.37590e-08
  488 1.63709e-12 3.27418e-12 2.08167e-12
  489 -7.85046e-10 -4.06620e-09 3.71071e-09
  490 3.51156e-09 2.22826e-10 -1.22943e-10
  491 -1.29928e-12 -1.55913e-12 -3.33067e-13
  492 -3.99593e-09 1.97230e-10 1.32963e-10
  493 1.68906e-12 9.09495e-13 -2.26010e-13
  494 -3.63798e-12 -4.54747e-13 2.08167e-14
  495 -4.32010e-12 -1.59162e-12 4.99600e-13
  496 1.47393e-09 2.47201e-10 -7.01980e-11
  497 -2.18279e-12 -1.81899e-13 1.33227e-13
  498 4.54747e-12 2.12215e-12 -6.10623e-13
  499 -3.17429e-09 -2.68301e-11 2.36969e-09
  500 1.68906e-12 7.79567e-13 8.08877e-13
  501 -1.89902e-10 -4.51473e-10 3.69175e-10
  502 -2.98991e-08 1.44967e-08 5.73472e-09
  503 -6.06330e-13 -1.51582e-13 4.44089e-13
  504 3.72165e-09 1.30361e-10 -3.96193e-11
  505 -4.50927e-09 1.27769e-09 1.82964e-09
  506 2.12215e-12 3.03165e-12 -6.93889e-13
  507 -4.86091e-09 1.92756e-09 3.64233e-09
  508 1.06108e-12 3.03165e-13 4.16334e-14
  509 -1.91782e-09 2.75122e-09 2.21465e-10
  510 -8.12088e-09 -2.36469e-12 3.28028e-11
  511 -1.27329e-12 -1.63709e-12 -6.66134e-13
  512 -2.27374e-12 -9.09495e-13 2.49800e-13
  513 -8.22441e-09 8.58881e-09 5.45889e-10
  514 1.29928e-13 1.03942e-12 4.75810e-14
  515 -8.09559e-09 1.80080e-11 2.49632e-11
  516 3.63798e-13 -1.81899e-13 5.82867e-13
  517 -4.24370e-09 -2.31224e-09 3.81526e-09
  518 -9.66505e-09 3.42106e-09 6.32416e-09
  519 6.20405e-09 9.54969e-11 -1.15000e-10
  520 -9.09495e-13 9.09495e-13 -3.33067e-13
  521 -1.66741e-12 1.51582e-13 -4.16334e-14
  522 -2.83414e-09 4.26250e-10 2.18551e-10
  523 -4.37899e-09 2.11924e-09 2.40749e-09
  524 2.20877e-12 1.29928e-12 7.13715e-13
  525 -3.56013e-09 -3.32075e-09 6.83732e-09
  526 -3.79779e-10 6.73507e-09 -3.59020e-09
  527 4.13062e-09 3.09683e-10 -2.44546e-10
  528 -4.69900e-09 1.26893e-09 2.71449e-09
  529 5.15623e-09 2.12079e-09 -2.39106e-09
  530 -1.67847e-09 -5.16593e-10 1.61991e-09
  531 3.03165e-13 2.27374e-12 -3.60822e-13
  532 -3.48640e-12 -1.21266e-12 -1.11022e-12
  533 5.87306e-09 2.44048e-11 -5.96870e-11
  534 -2.89371e-10 -1.81444e-10 3.87038e-10
  535 6.76456e-09 3.90134e-09 -4.88500e-09
  536 -2.57690e-12 -9.09495e-13 5.55112e-13
  537 1.29928e-13 -6.49639e-13 -4.99600e-13
  538 -6.75997e-09 1.19599e-10 4.18014e-10
  539 -1.06108e-12 -1.36424e-12 -8.60423e-13
  540 -4.70845e-09 8.75389e-10 2.12657e-09
  541 1.51582e-12 -4.54747e-13 1.52656e-13
  542 -7.57912e-13 -6.06330e-13 -2.77556e-13
  543 1.68906e-12 -2.59856e-13 9.51620e-14
  544 -1.37853e-10 1.51548e-09 -1.52864e-10
  545 -3.89783e-13 6.49639e-13 7.13715e-14
  546 7.70287e-09 4.96220e-10 -1.02065e-09
  547 -4.32166e-09 -1.32422e-09 3.51876e-09
  548 -2.63026e-10 5.27325e-10 -6.06172e-12
  549 3.63798e-13 -5.45697e-13 -7.99361e-13
  550 1.51444e-09 1.01733e-09 -3.43055e-10
  551 -3.46141e-09 -3.37630e-09 4.05264e-09
  552 -4.77242e-09 7.27005e-09 -7.12333e-10
  553 -3.84009e-12 -1.41477e-12 -1.29526e-12
  554 -1.36424e-12 -6.06330e-13 2.49800e-13
  555 -5.18906e-09 -1.78482e-09 3.20730e-09
  556 -1.42921e-12 3.89783e-13 8.32667e-13
  557 -4.71846e-09 7.40935e-10 3.00247e-09
  558 -4.01693e-09 2.11958e-09 1.79187e-09
  559 -4.52783e-09 1.74987e-09 2.41461e-09
  560 -8.98240e-10 -2.26862e-09 1.81330e-09
  561 -2.07885e-12 -1.55913e-12 -2.37905e-13
  562 -2.23866e-09 -3.19778e-09 4.41882e-09
  563 1.51582e-13 -1.21266e-12 -2.63678e-13
  564 2.82463e-09 6.05204e-10 -3.23328e-10
  565 -3.89783e-13 -1.55913e-12 -5.94762e-14
  566 -6.59080e-09 8.00355e-11 9.65438e-11
  567 -1.06108e-12 -1.66741e-12 -8.60423e-13
  568 -2.04208e-09 4.27463e-11 7.86086e-10
  569 -2.33870e-12 -6.49639e-13 -1.18952e-12
  570 -5.12734e-09 3.78090e-10 1.44515e-09
  571 1.42921e-12 1.29928e-13 4.75810e-13
  572 1.51461e-27 -6.49639e-13 1.72481e-13
  573 -1.81899e-12 -1.51582e-13 2.01948e-28
  574 -3.63161e-09 2.54503e-09 1.42901e-09
  575 -9.13652e-10 2.17629e-10 -3.31564e-11
  576 -1.68906e-12 -6.49639e-13 -5.70972e-13
  577 -4.62478e-09 1.06153e-09 2.54615e-09
  578 2.27374e-12 -1.51582e-13 -2.22045e-13
  579 -1.09139e-12 -3.63798e-13 1.11577e-12
  580 3.41061e-13 -1.13687e-13 4.16334e-13
  581 9.09495e-13 -2.59856e-13 1.01110e-12
  582 -6.58461e-09 2.13212e-10 4.05447e-10
  583 -1.81899e-12 5.19711e-13 -2.61695e-13
  584 -1.06108e-12 3.03165e-13 -1.22125e-12
  585 -2.78435e-10 -7.20762e-09 2.78529e-09
  586 -2.73667e-09 1.53856e-10 3.44031e-12
  587 -1.36424e-12 -1.66741e-12 -2.77556e-14
  588 -3.63507e-27 -9.08768e-28 1.00614e-13
  589 -5.00911e-09 4.00697e-10 4.61112e-10
  590 1.29928e-13 -6.49639e-13 -7.85086e-13
  591 -1.42921e-12 1.68906e-12 -3.89472e-27
  592 7.95808e-13 -4.54747e-13 -6.40113e-13
  593 3.50805e-12 -8.65493e-29 7.01820e-13
  594 1.90084e-09 1.44883e-09 -6.90726e-10
  595 6.50938e-09 3.74842e-10 -5.55580e-10
  596 0.00000 -1.68906e-12 2.73591e-13
  597 -4.96831e-09 1.13557e-10 1.05261e-10
  598 1.03942e-12 2.59856e-13 -4.75810e-14
  599 -1.21872e-10 -5.54943e-09 1.04356e-09
  600 -4.12521e-09 4.46042e-10 2.44034e-09
  601 -9.09495e-13 -7.57912e-13 1.24900e-13
  602 4.53724e-10 1.84855e-10 -3.96819e-11
  603 -9.09495e-13 2.27374e-13 4.05925e-13
  604 -1.55744e-09 -2.31492e-09 3.20937e-09
  605 1.81899e-12 -1.21266e-12 9.71445e-13
  606 -7.72237e-09 6.92732e-11 2.20226e-10
  607 6.07568e-09 8.22014e-09 -9.09537e-09
  608 -1.51582e-12 7.57912e-13 1.44329e-12
  609 -3.86641e-09 2.50111e-11 3.01297e-09
  610 -3.17084e-09 9.74296e-11 1.81720e-09
  611 2.27374e-13 1.51461e-28 -2.44596e-13
  612 2.42532e-12 -3.03165e-13 6.86950e-13
  613 -3.72893e-09 8.13478e-10 6.26642e-10
  614 -2.97015e-09 -3.10943e-09 4.97047e-09
  615 5.13061e-09 1.07624e-10 -1.09597e-10
  616 -5.52083e-08 -5.43548e-08 3.01058e-08
  617 -5.72603e-09 -4.00693e-09 8.82975e-09
  618 -1.75104e-09 -1.47836e-08 5.27651e-09
  619 -7.48774e-10 9.16511e-10 7.08576e-11
  620 -2.57690e-12 -9.09495e-13 1.17267e-12
  621 -3.53806e-09 -1.50275e-09 3.48234e-09
  622 -3.68800e-09 4.14210e-10 2.79915e-10
  623 2.07885e-12 2.33870e-12 -8.32667e-14
  624 1.61890e-10 2.48898e-10 -1.10304e-10
  625 2.64151e-09 2.90959e-09 -2.14242e-09
  626 -6.04518e-09 3.43221e-10 9.30349e-10
  627 1.03942e-12 1.81899e-12 -1.52259e-12
  628 -2.50111e-12 -1.13687e-13 9.05526e-13
  629 -4.74847e-09 -7.71555e-11 3.30259e-09
  630 -6.29721e-09 4.70339e-11 1.54420e-11
  631 -2.59856e-13 -5.19711e-13 -2.02219e-13
  632 2.31331e-08 4.16717e-09 -9.87496e-09
  633 -5.32630e-09 1.50673e-10 7.62868e-10
  634 -1.21266e-12 4.54747e-13 -5.55112e-14
  635 -1.03942e-12 -7.79567e-13 6.54239e-13
  636 -1.40738e-09 1.58486e-09 2.17963e-10
  637 1.16935e-12 2.16373e-29 -6.09631e-13
  638 2.57690e-12 1.51582e-12 -4.44089e-13
  639 -8.30505e-09 3.36513e-11 9.35561e-11
  640 -1.43414e-09 2.43355e-10 6.53619e-11
  641 -1.81899e-12 -9.09495e-13 -9.51620e-13
  642 -3.28887e-27 -1.03942e-12 1.64154e-12
  643 -2.59856e-13 9.09495e-13 -2.46826e-13
  644 -4.65858e-09 5.64796e-10 6.26113e-10
  645 1.51582e-13 -1.06108e-12 -1.66533e-13
  646 -2.27595e-09 1.15558e-09 4.20550e-10
  647 1.11478e-10 -2.41809e-09 9.84696e-10
  648 -2.57690e-12 -9.09495e-13 -5.55112e-13
  649 3.80737e-10 3.23894e-10 -4.86551e-11
  650 1.25056e-12 1.13687e-13 8.32667e-14
  651 -4.09545e-09 -1.07154e-09 4.63417e-09
  652 1.13687e-13 -2.27374e-13 -8.32667e-14
  653 1.21266e-12 -1.51582e-13 -1.24900e-13
  654 -4.26235e-09 2.68756e-10 1.71593e-09
  655 -1.21266e-12 1.97057e-12 6.66134e-13
  656 -3.05525e-09 1.38672e-09 7.80172e-10
  657 -8.60079e-10 -5.25764e-09 4.65967e-09
  658 -6.03162e-09 -2.43241e-08 1.23647e-08
  659 -6.44771e-09 1.22630e-10 1.76720e-10
  660 1.97057e-12 1.06108e-12 -9.71445e-13
  661 1.13687e-13 6.82121e-13 5.10009e-13
  662 1.83582e-09 4.16549e-10 -1.58249e-10
  663 -5.16463e-10 -9.14822e-10 9.95441e-10
  664 7.99059e-09 -2.05773e-11 -2.10896e-11
  665 8.39979e-09 1.13535e-10 -3.39212e-10
  666 -4.54747e-13 4.54747e-13 1.11022e-12
  667 -2.85906e-09 2.64949e-09 8.47785e-10
  668 -4.16560e-09 1.20281e-10 2.21091e-11
  669 -3.06954e-12 -1.36424e-12 2.91434e-13
  670 -6.77604e-09 -1.12899e-09 7.85213e-09
  671 -2.19340e-09 -3.68952e-09 5.09051e-09
  672 -4.40066e-09 8.94423e-10 1.02861e-09
  673 -2.07885e-12 -2.59856e-13 3.56857e-13
  674 -2.87264e-09 2.08259e-09 8.75342e-10
  675 -1.51582e-12 7.57912e-13 6.93889e-13
  676 -4.56293e-09 6.05334e-10 3.46818e-09
  677 -2.79007e-09 2.32571e-10 7.15750e-11
  678 1.16935e-12 1.03942e-12 -4.99600e-13
  679 -4.82414e-09 8.47285e-10 1.90532e-09
  680 2.12215e-12 -3.03165e-13 -2.10942e-12
  681 6.06330e-13 -3.03165e-13 -4.44089e-13
  682 -2.58672e-09 -1.09003e-09 2.81458e-09
  683 2.59856e-12 1.16935e-12 4.28229e-13
  684 1.38923e-08 4.28008e-10 -1.89822e-09
  685 -1.81899e-12 -1.45519e-12 -2.66454e-13
  686 2.47746e-09 1.09412e-09 -5.98360e-10
  687 -4.47718e-09 1.14817e-09 1.52204e-09
  688 3.61188e-08 1.53935e-08 -2.62166e-08
  689 -9.09495e-13 -1.42921e-12 -1.42743e-13
  690 -6.32008e-09 2.81164e-10 6.43371e-10
  691 -4.54672e-09 1.34090e-09 2.12597e-09
  692 1.36424e-12 4.54747e-13 1.28803e-13
  693 -7.79567e-13 -1.42921e-12 7.13715e-13
  694 2.48955e-09 1.68516e-10 -2.62027e-11
  695 -2.93528e-09 3.32966e-09 6.94512e-10
  696 3.76791e-12 1.42921e-12 6.66134e-13
  697 -4.69799e-09 2.53143e-10 4.76424e-09
  698 -2.73470e-09 4.54308e-09 -1.55032e-10
  699 4.20446e-09 1.69712e-09 -1.55572e-09
  700 9.77187e-10 -1.78512e-08 5.83714e-09
  701 -4.45637e-09 -1.77367e-09 6.54781e-09
  702 -1.13687e-12 -5.68434e-13 -1.78503e-12
  703 3.81897e-09 8.03842e-10 -6.76701e-10
  704 -8.77636e-09 -6.96491e-09 1.06856e-08
  705 7.11732e-09 8.58303e-10 -1.48910e-09
  706 -2.16373e-29 0.00000 8.56458e-13
  707 -4.28554e-09 1.81611e-09 2.02097e-09
  708 -4.89308e-09 3.35225e-09 2.62624e-09
  709 1.42921e-12 1.81899e-12 -7.85086e-13
  710 8.11576e-09 3.10365e-11 -6.22557e-11
  711 -1.51582e-13 4.54747e-13 -6.93889e-13
  712 3.03165e-13 1.21266e-12 8.32667e-14
  713 -1.76788e-09 -1.35915e-09 2.28505e-09
  714 1.16935e-12 -6.49639e-13 8.56458e-13
  715 -7.78320e-09 8.66619e-11 2.77881e-10
  716 -1.06108e-12 -1.06108e-12 -7.49401e-13
  717 -6.06330e-13 -1.51582e-13 9.90527e-13
  718 -1.29928e-12 -1.03942e-12 -2.76564e-13
  719 -1.20417e-09 4.02477e-09 -8.62119e-10
  720 -4.33829e-09 -4.35026e-09 3.49824e-09
  721 -4.32660e-11 2.01609e-09 -3.45036e-10
  722 -1.51582e-12 -1.51582e-13 -6.38378e-13
  723 -9.09495e-13 -7.57912e-13 -7.21645e-13
  724 1.55913e-12 9.09495e-13 -5.94762e-14
  725 -6.26036e-10 5.38512e-09 -2.39720e-09
  726 -3.50805e-12 -1.94892e-12 -2.13364e-12
  727 -4.92206e-09 -2.76227e-10 3.20982e-09
  728 -4.26538e-09 -7.54577e-10 3.92337e-09
  729 -1.29928e-12 1.03942e-12 -4.57967e-13
  730 1.27329e-12 0.00000 -9.32587e-13
  731 -4.43997e-09 2.73394e-10 2.61406e-10
  732 -4.70391e-09 -5.51120e-09 3.78346e-09
  733 4.54747e-13 1.51582e-13 2.49800e-13
  734 3.32825e-08 8.98520e-09 -1.55562e-08
  735 1.14466e-08 3.52293e-09 -6.13724e-09
  736 1.14778e-09 2.95798e-09 -1.38610e-09
  737 -1.41426e-09 2.13679e-09 1.50974e-10
  738 -4.79914e-09 9.83943e-10 2.91680e-09
  739 -7.27596e-13 -2.54659e-12 -3.99680e-13
  740 -1.97057e-12 -1.06108e-12 -8.32667e-13
  741 6.65737e-09 1.49157e-10 -2.63479e-10
  742 2.72848e-10 1.20084e-09 -1.68330e-10
  743 -3.06245e-09 -3.11884e-09 4.33953e-09
  744 4.32525e-09 5.87230e-10 -5.12932e-10
  745 -1.81899e-12 -1.51582e-13 -3.60822e-13
  746 -6.49639e-13 1.55913e-12 9.75410e-13
  747 -6.55473e-09 4.02770e-09 3.82089e-09
  748 1.81899e-12 -1.51582e-13 5.41234e-13
  749 -4.88914e-09 8.35219e-10 1.43531e-09
  750 2.52435e-29 3.03165e-13 4.99600e-13
  751 -1.03237e-08 -1.69605e-08 1.59209e-08
  752 4.57840e-09 3.62226e-09 -3.60840e-09
  753 -6.82121e-13 -1.13687e-13 3.53884e-13
  754 -3.89783e-13 3.89783e-13 2.85486e-13
  755 -1.29928e-12 -1.29928e-13 7.13715e-13
  756 -6.14922e-09 -1.88272e-08 9.38200e-09
  757 -2.72848e-12 -1.81899e-12 4.83120e-13
  758 7.00766e-10 1.65664e-09 -4.18430e-10
  759 3.97618e-09 1.38243e-10 -7.95337e-11
  760 1.29928e-13 -1.16935e-12 8.92144e-13
  761 -1.96178e-09 -4.23643e-09 5.44622e-09
  762 -4.59516e-09 1.57408e-09 2.64903e-09
  763 4.79161e-09 1.09594e-09 -1.14449e-09
  764 -1.66741e-12 -1.51582e-12 2.77556e-13
  765 1.27329e-12 0.00000 -1.33227e-13
  766 2.98834e-12 2.07885e-12 8.08877e-13
  767 -8.31081e-09 3.88051e-11 1.16836e-10
  768 4.54747e-13 -4.54747e-13 8.32667e-13
  769 -4.02776e-12 -1.16935e-12 -4.75810e-14
  770 1.01154e-08 1.31149e-10 -5.51025e-10
  771 9.09495e-13 -1.51582e-12 -1.04777e-12
  772 9.05519e-09 1.58434e-09 -2.97418e-09
  773 -1.29928e-12 1.16935e-12 6.33422e-13
  774 -2.33331e-09 -9.87135e-09 7.47111e-09
  775 1.81899e-12 4.54747e-13 2.22045e-13
  776 -2.75607e-09 1.06562e-10 7.08411e-10
  777 -1.51582e-13 -3.03165e-13 8.88178e-13
  778 1.36424e-12 -7.57912e-13 -1.36002e-12
  779 -3.83246e-09 9.61791e-10 8.29076e-10
  780 6.23965e-09 1.21353e-10 -1.84284e-10
  781 -2.59856e-12 -2.20877e-12 -4.75810e-13
  782 -5.52960e-09 3.55353e-10 1.22859e-09
  783 -7.57912e-13 -4.54747e-13 -3.05311e-13
  784 -6.19129e-09 2.72848e-10 5.56762e-10
  785 1.27329e-12 0.00000 8.16014e-13
  786 -3.63798e-12 -1.36424e-12 -1.11022e-13
  787 -2.72703e-09 3.29601e-10 1.54749e-10
  788 -1.81899e-13 -7.27596e-13 -1.61537e-12
  789 -3.45608e-12 1.09139e-12 1.13243e-12
  790 1.51582e-12 -4.54747e-13 8.60423e-13
  791 -7.46409e-09 1.13037e-10 3.36018e-10
  792 2.07885e-12 2.07885e-12 -9.51620e-13
  793 -1.26602e-09 -1.15203e-11 5.57651e-10
  794 -1.51582e-12 -9.09495e-13 -1.01308e-12
  795 -2.36469e-12 1.45519e-12 3.99680e-13
  796 -3.87172e-09 1.91657e-09 1.57442e-09
  797 4.25947e-11 4.09273e-11 -1.86752e-11
  798 -9.09495e-12 -3.18323e-12 8.32667e-14
  799 3.37089e-09 3.16656e-10 -1.49338e-10
  800 1.51582e-13 -7.57912e-13 6.10623e-13
  801 1.21266e-12 3.03165e-13 -4.44089e-13
  802 1.21266e-12 -7.57912e-13 -1.94289e-13
  803 -7.12513e-09 -3.81745e-09 4.40579e-09
  804 -3.03165e-13 -1.81899e-12 -1.90126e-12
  805 -3.16504e-10 -2.85503e-09 2.15068e-09
  806 1.29928e-13 9.09495e-13 1.59285e-13
  807 1.51582e-12 1.51582e-12 -2.08167e-14
  808 -3.56295e-09 1.39456e-10 6.36400e-10
  809 -3.03165e-13 -6.06330e-13 -3.33067e-13
  810 3.76791e-12 -5.19711e-13 -7.13715e-14
  811 -6.52225e-09 1.68386e-10 3.02108e-10
  812 1.51582e-12 1.51582e-13 6.10623e-13
  813 -8.32779e-09 1.51582e-12 4.03937e-11
  814 9.09495e-13 1.68906e-12 -5.70972e-13
  815 -6.00267e-09 1.05350e-10 6.13370e-11
  816 1.97057e-12 1.06108e-12 -5.55112e-14
  817 2.72848e-12 1.36424e-12 -2.81025e-13
  818 3.48640e-12 -1.51582e-13 -5.16948e-13
  819 -3.03165e-12 1.51582e-12 3.33067e-13
  820 2.72848e-12 1.66741e-12 -3.33067e-13
  821 -4.79410e-09 1.39456e-10 6.95581e-10
  822 1.63709e-12 5.45697e-13 2.74780e-13
  823 5.43226e-09 4.10637e-10 -4.92927e-10
  824 -2.78333e-08 -2.06792e-08 2.88736e-08
  825 -3.03165e-13 -1.51582e-13 1.94289e-13
  826 -6.29613e-09 1.09746e-10 4.67244e-10
  827 -7.40602e-09 7.50333e-11 1.50740e-10
  828 7.57912e-13 7.57912e-13 1.38778e-13
  829 -2.04636e-12 -5.68434e-13 7.49401e-13
  830 1.44185e-09 7.75193e-09 -6.12080e-09
  831 1.97057e-12 1.06108e-12 -1.38778e-13
  832 6.06330e-13 2.42532e-12 -4.92661e-13
  833 -4.19332e-09 4.70027e-10 3.92356e-10
  834 1.09139e-12 -3.63798e-13 -1.63203e-12
  835 -2.95625e-09 -4.78030e-09 7.05379e-09
  836 -3.09228e-12 -1.09139e-12 3.99680e-13
  837 5.10954e-09 5.63887e-11 -2.29912e-11
  838 -2.12215e-12 -6.06330e-13 4.44089e-13
  839 7.27596e-13 5.45697e-13 4.66294e-13
  840 3.78956e-12 1.51582e-12 5.82867e-13
  841 -5.45697e-12 -1.42921e-12 1.33822e-12
  842 -1.45731e-09 3.86838e-10 1.09230e-10
  843 3.63798e-12 9.09495e-13 -2.32019e-13
  844 -1.44745e-08 6.78210e-09 6.58312e-09
  845 -3.63798e-13 1.63709e-12 1.39888e-12
  846 6.06330e-13 -2.12215e-12 -1.38778e-12
  847 -2.37794e-09 1.65671e-09 5.87614e-10
  848 3.56912e-10 7.85673e-10 -1.07767e-10
  849 3.24820e-12 1.29928e-12 5.70972e-13
  850 1.30497e-09 4.42515e-09 -2.72380e-09
  851 -3.03165e-13 -9.09495e-13 3.88578e-13
  852 -1.29527e-09 1.17113e-09 1.69590e-10
  853 -2.88505e-09 -2.99743e-10 1.71622e-09
  854 4.54747e-13 1.81899e-12 8.32667e-13
  855 -3.64025e-09 1.39198e-09 1.10116e-09
  856 8.62701e-09 8.04903e-10 -1.68320e-09
  857 -3.18960e-09 -4.09545e-09 4.25624e-09
  858 -4.16533e-09 1.18871e-09 1.21642e-09
  859 -9.09495e-13 9.09495e-13 3.60822e-13
  860 -4.54747e-13 7.57912e-13 7.49401e-13
  861 -1.03708e-09 5.77789e-10 7.46375e-11
  862 5.19711e-13 -7.79567e-13 -1.52259e-12
  863 -9.09495e-13 9.09495e-13 1.83187e-12
  864 1.81899e-13 1.09139e-12 -7.32747e-13
  865 -2.04970e-09 5.66615e-10 1.70419e-10
  866 1.51582e-13 -7.57912e-13 -1.11022e-12
  867 -1.79425e-09 1.76442e-10 1.32052e-11
  868 -9.09495e-13 -1.81899e-12 -4.99600e-13
  869 8.34916e-10 2.29344e-10 -2.38872e-11
  870 1.51582e-13 6.06330e-13 -1.11022e-13
  871 -4.57894e-09 2.25737e-10 1.63507e-10
  872 2.91038e-12 7.27596e-13 -5.32907e-13
  873 -2.37833e-09 7.51091e-10 3.00432e-10
  874 1.51582e-13 -7.57912e-13 -8.88178e-13
  875 -1.66741e-10 -6.95309e-10 5.15273e-10
  876 -3.33166e-09 -2.54204e-09 5.51302e-09
  877 3.09228e-12 1.45519e-12 -6.99441e-13
  878 -3.95676e-09 1.66892e-09 1.48208e-09
  879 2.05400e-09 5.35510e-10 -2.07257e-10
  880 3.63798e-13 1.45519e-12 6.49480e-13
  881 -2.87628e-09 5.22505e-09 -6.69530e-10
  882 -4.72437e-09 9.35718e-10 3.00762e-09
  883 -4.82957e-09 -1.44155e-09 3.51813e-09
  884 3.81988e-12 1.09139e-12 7.16094e-13
  885 -6.51562e-10 -8.73115e-12 3.92357e-10
  886 -5.45697e-13 -1.45519e-12 1.66533e-12
  887 -1.38759e-09 -4.08515e-10 1.30880e-09
  888 4.84185e-09 8.24305e-10 -8.48060e-10
  889 -1.81899e-13 5.45697e-13 -5.32907e-13
  890 1.63709e-12 9.09495e-13 1.19904e-12
  891 -3.68200e-09 2.21735e-10 2.29117e-09
  892 -3.95103e-09 2.57114e-09 1.76908e-09
  893 6.91216e-12 4.18368e-12 -4.32987e-13
  894 2.05599e-08 6.95763e-10 -3.87813e-09
  895 -1.10873e-08 6.62097e-09 4.39870e-09
  896 4.36557e-12 9.09495e-13 -5.32907e-13
  897 -4.81723e-09 4.42378e-10 1.75853e-09
  898 -5.56080e-09 4.97494e-10 1.02507e-09
  899 -4.16185e-09 3.79866e-10 2.91734e-09
  900 -3.63307e-09 3.98504e-09 8.35791e-10
  901 2.68951e-11 2.07885e-10 2.84336e-11
  902 -5.32737e-09 4.25113e-09 2.36838e-09
  903 -2.57690e-12 -1.51582e-13 -1.73472e-13
  904 -6.49639e-12 -1.81899e-12 -2.76118e-12
  905 -6.49639e-13 -3.89783e-13 3.80648e-13
  906 -1.06578e-09 -1.05426e-09 1.59489e-09
  907 1.27329e-12 1.81899e-12 -1.19904e-12
  908 -4.85064e-12 -1.97057e-12 5.55112e-14
  909 1.63709e-12 1.09139e-12 -7.99361e-13
  910 -3.05536e-09 2.98678e-10 1.15402e-10
  911 3.89264e-10 2.29816e-09 -6.78993e-10
  912 5.75728e-09 9.00400e-11 -7.43830e-11
  913 -4.22928e-09 -1.60851e-10 3.27825e-09
  914 8.48935e-09 3.94981e-11 -1.49234e-10
  915 1.09139e-12 1.63709e-12 -2.53964e-13
  916 -5.01676e-08 -7.54274e-08 2.89906e-08
  917 -4.54747e-12 -1.21266e-12 1.56125e-13
  918 -3.39999e-09 6.37253e-10 3.66640e-10
  919 2.72848e-12 1.66741e-12 3.88578e-13
  920 2.72848e-12 -4.54747e-13 8.88178e-13
  921 -3.07409e-11 -3.27418e-12 8.38403e-11
  922 -1.63709e-12 -1.09139e-12 -6.99441e-13
  923 1.45519e-12 3.63798e-13 -6.66134e-13
  924 -3.75840e-09 2.17369e-10 1.60525e-09
  925 -5.73937e-09 -2.48595e-10 6.59458e-09
  926 -4.32790e-10 3.61199e-11 4.79315e-10
  927 -8.10232e-09 3.42170e-09 5.49934e-09
  928 -1.21266e-12 1.00974e-28 1.33227e-12
  929 -7.40199e-10 3.29861e-09 -7.06193e-10
  930 2.07668e-11 -1.24646e-09 2.68641e-10
  931 3.58335e-08 4.55748e-09 -1.08461e-08
  932 -1.51582e-13 -1.51582e-12 -1.24900e-13
  933 1.81899e-12 1.81899e-12 -2.99760e-13
  934 1.06108e-12 1.51582e-12 5.55112e-14
  935 1.09139e-12 0.00000 -2.04003e-13
  936 -7.18683e-09 9.71644e-11 3.50337e-10
  937 7.57912e-13 2.57690e-12 -5.55112e-13
  938 5.45697e-13 1.81899e-13 3.33067e-14
  939 -1.66741e-12 -1.66741e-12 3.33067e-13
  940 -3.03226e-09 2.33977e-09 9.84675e-10
  941 -2.03059e-08 2.73360e-08 -1.50334e-08
  942 1.75896e-10 -4.29573e-09 1.21804e-09
  943 -1.40972e-09 -1.49733e-09 2.13212e-09
  944 1.51582e-13 6.06330e-13 -1.66533e-12
  945 -5.96871e-09 2.03575e-10 2.54754e-10
  946 1.66741e-12 1.51582e-13 4.16334e-13
  947 -8.52326e-11 5.71682e-12 9.91964e-11
  948 -5.06425e-09 7.18319e-10 1.51887e-09
  949 2.54659e-12 0.00000 1.50713e-12
  950 -8.67415e-09 7.50333e-11 1.97074e-11
  951 -1.06108e-12 -1.06108e-12 -9.02056e-13
  952 -3.42498e-09 -1.88114e-08 8.06742e-09
  953 1.29928e-13 -2.59856e-13 -4.75810e-13
  954 6.99661e-09 2.67651e-11 7.26872e-12
  955 -1.63709e-12 -7.27596e-13 -1.99840e-13
  956 -2.12215e-12 -1.06108e-12 -1.11022e-13
  957 -4.63533e-09 1.25874e-09 3.46890e-09
  958 5.63584e-09 2.71787e-10 -3.57233e-10
  959 -1.86280e-09 -2.14489e-10 1.43313e-09
  960 7.41799e-09 1.47035e-10 -2.82812e-10
  961 3.29328e-09 5.82786e-09 -5.26104e-09
  962 -1.04569e-08 -2.69514e-10 9.14702e-09
  963 -1.21266e-12 1.51582e-13 3.80121e-13
  964 -5.04133e-09 6.34957e-10 9.06019e-10
  965 -4.27281e-09 2.79594e-09 2.15569e-09
  966 -2.72848e-12 -5.19711e-13 -1.45122e-12
  967 -4.47861e-10 -4.36947e-10 5.55924e-10
  968 5.45697e-13 1.63709e-12 -3.54716e-12
  969 -1.81899e-12 -1.03942e-12 -1.66533e-13
  970 -6.64919e-09 1.87746e-10 6.03849e-10
  971 3.82928e-09 4.47471e-10 -3.24506e-10
  972 -6.81848e-09 -6.24113e-09 9.86191e-09
  973 -3.40378e-09 -3.92599e-10 3.02061e-09
  974 -6.06330e-13 -1.06108e-12 2.77556e-13
  975 -4.26389e-09 1.40572e-09 1.62858e-09
  976 -3.34345e-09 -2.71802e-09 6.11959e-09
  977 2.17161e-09 2.09054e-10 -6.73797e-11
  978 -2.98834e-12 -1.81899e-12 5.70972e-13
  979 -7.27596e-13 -2.00089e-12 1.36557e-12
  980 -7.18986e-09 -2.97550e-08 2.06413e-08
  981 9.07676e-11 1.60435e-10 -7.28760e-11
  982 -2.70284e-09 5.94810e-11 1.26585e-09
  983 2.42338e-28 2.72848e-12 7.74381e-13
  984 -3.63798e-12 -4.54747e-13 -1.22125e-12
  985 -6.78192e-09 1.09014e-08 -2.83001e-09
  986 1.81899e-12 2.18279e-12 -1.33227e-13
  987 -2.42532e-12 -1.81899e-12 -9.71445e-14
  988 -5.31236e-09 1.54723e-09 4.58895e-09
  989 -4.79577e-09 8.01811e-10 3.01996e-09
  990 -1.15896e-10 -7.03559e-10 4.83519e-10
  991 1.64018e-09 1.72258e-10 -4.11653e-11
  992 -3.63798e-13 -7.27596e-13 5.49560e-13
  993 -3.72317e-09 3.42197e-09 1.25711e-09
  994 3.94114e-12 1.21266e-12 -2.52576e-12
  995 0.00000 3.03165e-13 -2.02616e-12
  996 -6.08225e-09 2.14489e-10 8.13835e-10
  997 2.18279e-12 -1.45519e-12 -5.32907e-13
  998 -5.62795e-09 4.22733e-10 1.20440e-09
  999 -4.54747e-13 4.54747e-13 -1.02696e-12
  1000 -5.23269e-09 6.93035e-11 -6.28645e-12
  1001 -1.63709e-12 -7.27596e-13 2.49800e-13
  1002 -6.29977e-09 -5.73406e-09 3.80898e-09
  1003 5.30539e-11 1.81747e-10 3.67924e-12
  1004 -5.62265e-09 4.62933e-10 8.87645e-10
  1005 -4.60241e-09 2.80816e-09 2.66620e-09
  1006 -1.26856e-09 -1.01421e-08 4.53235e-09
  1007 5.71682e-12 5.19711e-13 7.13715e-13
  1008 -4.46144e-09 1.54178e-09 2.18035e-09
  1009 -1.21266e-12 -1.51582e-12 -9.54098e-13
  1010 -1.63709e-12 -5.45697e-13 7.57727e-13
  1011 -1.51461e-28 -1.68906e-12 -8.68353e-13
  1012 -2.86256e-08 -4.96751e-08 2.67979e-08
  1013 1.09139e-12 -3.63798e-13 3.66374e-13
  1014 -2.36469e-12 1.81899e-12 -1.49880e-12
  1015 8.18738e-09 1.59660e-08 -1.70988e-08
  1016 -1.26101e-09 -8.11951e-09 5.72795e-09
  1017 -4.42454e-09 -6.64234e-10 3.45960e-09
  1018 -3.66654e-09 1.59525e-09 1.23263e-09
  1019 9.09495e-13 -9.09495e-13 4.16334e-13
  1020 -2.91038e-12 2.00089e-12 3.87190e-13
  1021 1.51582e-12 -7.57912e-13 2.77556e-13
  1022 -7.45589e-09 7.62460e-11 1.77082e-10
  1023 -1.60617e-10 -1.21763e-09 7.01875e-10
  1024 -5.07789e-09 5.48971e-10 7.37686e-10
  1025 -4.62972e-09 6.22614e-10 2.10263e-09
  1026 -5.27507e-12 -1.45519e-12 -8.65974e-13
  1027 8.42192e-10 3.92280e-09 -1.96108e-09
  1028 -4.67662e-10 1.10576e-09 2.19613e-12
  1029 -2.59856e-13 -7.79567e-13 1.04678e-12
  1030 -1.26748e-08 -2.86296e-09 1.17195e-08
  1031 -2.36469e-12 -1.81899e-13 1.17822e-12
  1032 -8.69477e-10 2.66133e-09 -2.65040e-10
  1033 -4.99889e-09 7.11376e-10 1.67628e-09
  1034 -2.00089e-12 1.81899e-13 -1.66533e-13
  1035 -4.49836e-09 7.21619e-10 2.62876e-09
  1036 -1.23036e-09 -4.55038e-09 4.82696e-09
  1037 -1.26097e-08 1.44896e-08 -1.00722e-09
  1038 -2.12215e-12 -6.06330e-13 1.88738e-12
  1039 -1.97057e-12 1.21266e-12 9.71445e-13
  1040 4.08327e-09 2.03963e-09 -1.97015e-09
  1041 1.97466e-09 1.93889e-09 -1.06735e-09
  1042 2.46255e-09 1.60799e-09 -9.43362e-10
  1043 1.51582e-13 6.06330e-13 -3.05311e-13
  1044 6.77361e-09 1.97664e-09 -2.81279e-09
  1045 -5.45697e-13 -1.81899e-12 -5.66214e-13
  1046 2.07438e-09 7.61429e-10 -3.44308e-10
  1047 -2.72848e-12 -1.21266e-12 -1.44329e-12
  1048 -1.60308e-09 1.34551e-09 2.86792e-10
  1049 -4.31237e-09 4.17761e-10 2.13803e-09
  1050 1.06108e-12 1.51582e-12 -1.11022e-13
  1051 -1.51582e-12 -1.66741e-12 -1.65146e-12
  1052 3.48640e-12 7.57912e-13 -2.81025e-13
  1053 -2.82816e-09 1.21545e-09 6.24578e-10
  1054 -4.85064e-12 -7.57912e-13 9.15934e-13
  1055 2.72848e-12 -2.00089e-12 -5.49560e-13
  1056 -5.06801e-09 7.08042e-10 1.19550e-09
  1057 -2.70923e-09 -4.09273e-09 6.27615e-09
  1058 -2.49955e-09 -2.33350e-10 2.00812e-09
  1059 1.71137e-10 1.24146e-10 -2.16335e-11
  1060 -3.40442e-09 -1.68984e-10 2.74513e-09
  1061 -3.63798e-12 -9.09495e-13 -5.52683e-13
  1062 -3.48640e-12 -1.81899e-12 -1.27676e-12
  1063 1.05918e-08 5.22778e-09 -8.00412e-09
  1064 -2.12215e-12 9.09495e-13 -1.23512e-12
  1065 -6.41618e-09 2.14944e-10 7.23759e-10
  1066 7.27596e-13 5.45697e-13 6.99441e-13
  1067 7.03919e-09 3.68345e-11 -1.22461e-10
  1068 9.50422e-09 1.07624e-10 -4.52043e-10
  1069 -4.64440e-09 5.52284e-09 7.21507e-10
  1070 7.72270e-09 2.58460e-09 -3.93711e-09
  1071 1.06108e-12 1.97057e-12 1.06859e-12
  1072 8.37863e-09 8.73115e-12 -4.17484e-11
  1073 -8.44905e-09 1.06790e-09 7.45780e-09
  1074 1.39249e-08 5.76929e-09 -9.99993e-09
  1075 9.03219e-09 1.20356e-10 -3.40845e-10
  1076 -6.02040e-09 8.33703e-11 1.25441e-10
  1077 1.36424e-12 -7.57912e-13 -1.47105e-12
  1078 -5.18776e-09 2.56023e-10 1.14408e-09
  1079 4.54747e-13 -9.09495e-13 9.15934e-13
  1080 -1.43223e-08 1.84032e-08 -5.42095e-09
  1081 -4.67783e-09 -1.68848e-09 3.18861e-09
  1082 -5.01441e-09 -9.85892e-10 3.20835e-09
  1083 -2.54659e-12 -1.27329e-12 1.99840e-13
  1084 -4.67950e-09 1.09079e-09 2.02576e-09
  1085 -1.97057e-12 -1.00974e-28 -7.47666e-13
  1086 1.17172e-08 1.78564e-10 -9.79557e-10
  1087 5.82077e-12 3.09228e-12 1.45977e-12
  1088 5.45697e-13 -5.45697e-13 1.99840e-13
  1089 -7.46404e-09 5.02041e-11 1.75779e-11
  1090 -1.46429e-09 2.49474e-09 7.72822e-11
  1091 2.36484e-09 2.32224e-10 -1.17819e-10
  1092 -2.12215e-12 -1.06108e-12 7.49401e-13
  1093 -1.51582e-12 1.06108e-12 9.99201e-13
  1094 -4.69330e-09 4.25340e-10 3.24317e-09
  1095 -7.92643e-09 8.24002e-11 2.36930e-10
  1096 5.45697e-13 -5.45697e-13 2.66454e-13
  1097 -4.52140e-09 5.41453e-10 3.01415e-09
  1098 -1.81899e-13 -3.02923e-29 2.99760e-13
  1099 -6.30826e-10 2.97950e-10 1.06128e-11
  1100 -3.03165e-12 -1.51582e-12 -3.46945e-15
  1101 1.81899e-12 -5.45697e-13 -9.99201e-14
  1102 -1.52174e-09 -6.68327e-10 1.70549e-09
  1103 6.06330e-13 -1.51582e-12 3.88578e-13
  1104 -2.16793e-09 -6.88033e-10 2.21134e-09
  1105 -5.18266e-09 5.08044e-10 1.54166e-09
  1106 8.18879e-09 2.42532e-12 4.87447e-12
  1107 -2.12215e-12 -1.21266e-12 -3.05311e-13
  1108 -5.19711e-13 -1.81899e-12 -5.47181e-13
  1109 -4.64646e-09 1.24570e-09 2.62699e-09
  1110 -3.18323e-12 -2.57690e-12 1.67921e-12
  1111 -5.92490e-09 1.92692e-09 5.12245e-09
  1112 -2.00089e-12 1.81899e-13 3.99680e-13
  1113 4.39722e-09 1.00408e-10 -1.03601e-11
  1114 2.00089e-12 -7.27596e-13 -2.99760e-13
  1115 -4.17149e-09 -5.20158e-09 8.15222e-09
  1116 -5.92718e-09 2.73394e-10 4.23249e-10
  1117 2.54659e-12 0.00000 3.99680e-13
  1118 -1.36424e-12 6.82121e-13 -9.99201e-13
  1119 2.18279e-12 -5.45697e-13 7.41074e-13
  1120 -9.09495e-13 -1.06108e-12 7.49401e-13
  1121 -4.68951e-09 -2.81943e-10 3.30859e-09
  1122 -1.59692e-09 -6.17729e-09 6.09408e-09
  1123 -2.00089e-12 -9.09495e-13 -8.51402e-13
  1124 8.33030e-08 2.17933e-08 -3.31548e-08
  1125 7.51952e-09 2.00816e-10 -4.45851e-10
  1126 8.84629e-09 4.18368e-11 -1.65903e-10
  1127 -4.29372e-09 1.40062e-10 5.61935e-10
  1128 -3.63798e-13 -1.27329e-12 -5.32907e-13
  1129 -6.50476e-08 -7.13299e-08 3.86448e-08
  1130 6.95763e-11 4.37770e-10 -2.27850e-11
  1131 1.06108e-12 0.00000 2.22045e-13
  1132 -5.63159e-10 -2.99224e-09 1.41370e-09
  1133 -9.04765e-10 -4.62987e-09 2.24813e-09
  1134 2.57690e-12 -1.51582e-13 -1.11716e-12
  1135 3.30450e-11 6.20579e-10 -4.20659e-11
  1136 1.62163e-09 3.07712e-10 -6.98950e-11
  1137 -6.06330e-13 -3.03165e-13 -2.77556e-14
  1138 -6.00267e-12 -9.09495e-13 -3.02923e-28
  1139 -4.61182e-09 1.12323e-10 5.70420e-11
  1140 -1.81899e-12 -4.54747e-13 1.66533e-13
  1141 -2.34983e-08 3.44589e-09 1.65565e-08
  1142 -5.37220e-09 -2.54695e-09 3.48757e-09
  1143 -7.32143e-11 -2.58554e-09 3.78864e-10
  1144 -1.06108e-12 -6.06330e-13 5.68989e-13
  1145 -2.57690e-12 -2.57690e-12 -9.15934e-13
  1146 -3.35076e-09 1.18398e-09 7.84642e-10
  1147 2.46338e-08 1.21017e-09 -4.84614e-09
  1148 -5.05497e-10 -2.02455e-08 2.85405e-10
  1149 -7.11013e-09 1.31152e-08 -5.09712e-09
  1150 1.27329e-12 -3.63798e-13 -1.39888e-12
  1151 -4.54747e-12 -1.45519e-12 5.99520e-13
  1152 -2.82125e-09 9.41873e-10 5.00381e-10
  1153 9.92850e-09 6.87123e-10 -1.83263e-09
  1154 -1.15688e-09 -1.29457e-09 1.89556e-09
  1155 4.61341e-09 2.74122e-09 -2.86713e-09
  1156 -6.70225e-09 7.33253e-09 4.93435e-10
  1157 -2.82489e-09 1.86974e-09 8.05660e-10
  1158 -1.79061e-09 -3.07409e-11 1.04555e-09
  1159 -1.51582e-12 -1.06108e-12 2.22045e-13
  1160 -8.59800e-09 -2.36469e-11 2.01591e-11
  1161 0.00000 0.00000 8.65974e-13
  1162 -4.52874e-09 1.51067e-09 3.04549e-09
  1163 -6.06330e-13 2.12215e-12 -2.77556e-14
  1164 -3.53430e-10 -1.76042e-09 1.31021e-09
  1165 -5.87570e-09 9.33142e-11 4.82692e-10
  1166 -9.09495e-13 2.18279e-12 5.32907e-13
  1167 -1.12868e-09 2.08047e-10 1.39106e-11
  1168 -2.95586e-12 -1.59162e-12 -1.16573e-12
  1169 -1.63382e-09 1.82936e-09 2.93908e-10
  1170 4.75731e-08 4.97585e-09 -1.55069e-08
  1171 -6.41194e-11 1.70235e-09 -2.50531e-10
  1172 -5.11742e-10 -8.37190e-10 8.76836e-10
  1173 -4.54747e-13 4.54747e-13 3.30291e-12
  1174 -3.63798e-13 -1.81899e-13 -6.66134e-13
  1175 2.85399e-10 -9.76415e-09 1.65262e-09
  1176 -2.72848e-12 0.00000 5.32907e-13
  1177 8.35425e-09 -3.23780e-11 -1.11095e-11
  1178 0.00000 5.45697e-13 3.66374e-13
  1179 -7.53304e-09 4.85064e-12 2.78675e-11
  1180 3.03165e-13 -4.54747e-13 -3.33067e-13
  1181 -6.27976e-09 5.86882e-09 1.72617e-09
  1182 -8.66385e-10 -2.86218e-09 3.13339e-09
  1183 -2.33995e-09 -1.42119e-08 3.34646e-09
  1184 -2.54659e-12 -1.63709e-12 -2.46678e-12
  1185 -4.21569e-09 4.69481e-10 2.73644e-09
  1186 -4.86853e-09 7.59974e-10 1.09046e-09
  1187 3.71838e-09 5.72072e-10 -3.97530e-10
  1188 5.00222e-11 1.30361e-10 1.41034e-10
  1189 1.81899e-13 7.27596e-13 -1.13243e-12
  1190 4.87610e-09 3.02255e-10 -3.13462e-10
  1191 1.00408e-09 1.31484e-08 -1.07459e-08
  1192 -2.93335e-09 7.40829e-09 -2.27475e-09
  1193 1.50976e-10 -7.29263e-10 3.93748e-10
  1194 1.63709e-12 1.09139e-12 4.99600e-13
  1195 -1.22163e-09 3.06864e-10 4.87102e-11
  1196 5.95301e-09 5.89534e-10 -7.52697e-10
  1197 -4.54747e-13 -1.81899e-12 1.12410e-12
  1198 -7.20706e-09 1.47566e-10 3.51281e-10
  1199 9.09495e-13 -1.09139e-12 1.11577e-12
  1200 -2.42762e-09 -2.52348e-09 3.30740e-09
  1201 -4.58916e-09 3.33481e-10 3.17268e-09
  1202 -2.14338e-09 4.17306e-10 1.39682e-10
  1203 1.21266e-12 3.03165e-13 -1.18959e-12
  1204 7.10170e-09 1.63709e-11 -5.05208e-11
  1205 5.10317e-09 2.18733e-10 -2.05434e-10
  1206 -1.81899e-12 -1.27329e-12 -2.13163e-12
  1207 8.58854e-09 2.01908e-11 -8.11035e-11
  1208 -1.45519e-12 -3.63798e-13 -1.35507e-12
  1209 -5.45697e-13 -2.00089e-12 2.83107e-13
  1210 -5.63887e-12 -1.63709e-12 -7.32747e-13
  1211 -4.59962e-09 8.63110e-10 2.37834e-09
  1212 -1.51582e-12 -1.21266e-12 -1.66533e-12
  1213 9.09495e-13 9.09495e-13 2.22738e-13
  1214 -4.36557e-12 -5.45697e-13 -1.33227e-13
  1215 -3.03165e-13 -3.03165e-13 -1.19349e-12
  1216 -8.74328e-10 4.49745e-10 7.93582e-11
  1217 0.00000 0.00000 -5.55112e-13
  1218 4.50145e-09 1.44610e-10 -1.46377e-10
  1219 1.11668e-09 8.70568e-10 -2.33835e-10
  1220 1.51582e-13 -7.57912e-13 -6.93889e-13
  1221 5.61007e-10 4.94310e-10 -6.24010e-11
  1222 -3.03165e-13 -3.03165e-13 -2.35922e-13
  1223 -4.72373e-09 1.03191e-09 2.82745e-09
  1224 2.00089e-12 1.81899e-13 -6.49480e-13
  1225 4.33693e-09 2.22220e-10 -1.68478e-10
  1226 -5.73345e-09 8.25821e-11 1.15426e-10
  1227 -3.63798e-13 -1.09139e-12 -5.99520e-13
  1228 -3.12521e-09 1.79170e-10 5.88900e-11
  1229 1.81899e-13 1.09139e-12 1.66533e-14
  1230 -3.47627e-09 -2.06473e-09 5.00476e-09
  1231 -3.60633e-09 2.82544e-09 1.32603e-09
  1232 -5.63887e-12 -3.63798e-13 -7.32747e-13
  1233 1.27329e-12 0.00000 1.33227e-12
  1234 -8.35389e-09 2.87400e-11 1.33745e-10
  1235 6.96734e-09 1.41669e-09 -2.15795e-09
  1236 3.04353e-09 1.51522e-10 -7.30599e-11
  1237 -9.09495e-13 -1.09139e-12 6.66134e-13
  1238 -4.72392e-09 -7.39222e-09 8.89676e-09
  1239 -3.27418e-12 -1.27329e-12 6.66134e-14
  1240 -1.81899e-13 -3.63798e-13 9.99201e-14
  1241 -6.98692e-09 1.58252e-10 4.76925e-10
  1242 2.73872e-09 3.61069e-10 -1.65814e-10
  1243 6.82121e-13 -6.82121e-13 -9.57567e-13
  1244 -7.27596e-13 -2.18279e-12 1.06581e-12
  1245 1.58976e-08 5.38785e-10 -2.22264e-09
  1246 -2.79888e-09 -3.74603e-09 4.53211e-09
  1247 -2.18279e-12 -5.45697e-13 -7.32747e-13
  1248 2.57690e-12 7.57912e-13 -3.74700e-13
  1249 -1.90266e-09 3.66272e-09 -1.71518e-10
  1250 -3.30965e-08 -2.20076e-08 2.08672e-09
  1251 4.36557e-12 5.45697e-13 2.06501e-12
  1252 -4.05289e-09 -2.34886e-09 3.55670e-09
  1253 -1.36424e-12 -1.36424e-12 -2.22045e-13
  1254 2.15332e-08 7.92807e-09 -1.55925e-08
  1255 0.00000 0.00000 -9.08768e-29
  1256 -2.42244e-09 2.99269e-09 4.17159e-10
  1257 6.00267e-12 1.09139e-12 -2.66454e-13
  1258 1.81899e-12 3.03165e-13 4.64906e-13
  1259 -2.91038e-12 -2.54659e-12 1.19904e-12
  1260 -1.24728e-09 6.49379e-11 7.39827e-10
  1261 1.87538e-10 1.00590e-10 7.89206e-11
  1262 -5.12900e-09 -3.94175e-10 2.42693e-09
  1263 9.09495e-13 9.09495e-13 1.33227e-12
  1264 2.73430e-09 2.01453e-09 -1.38231e-09
  1265 -1.33559e-09 2.99921e-09 -2.00488e-10
  1266 1.08776e-10 5.63887e-12 7.04410e-12
  1267 2.91038e-12 7.27596e-13 3.66374e-13
  1268 -4.33047e-09 1.89812e-09 2.15389e-09
  1269 -4.66222e-09 1.41502e-09 2.66472e-09
  1270 4.68917e-09 -9.11128e-08 2.35083e-08
  1271 -2.95586e-12 -9.09495e-13 2.45637e-12
  1272 1.51582e-13 6.06330e-13 -2.77556e-14
  1273 2.88007e-12 1.51582e-13 2.88658e-12
  1274 -2.27374e-12 1.13687e-12 3.33067e-13
  1275 -3.62206e-10 1.75760e-10 -6.42022e-11
  1276 7.11498e-09 2.15732e-10 -3.99545e-10
  1277 -1.21266e-12 -1.21266e-12 -3.88578e-13
  1278 -3.40042e-09 2.08420e-09 1.20959e-09
  1279 -9.09495e-13 -7.57912e-13 1.38778e-13
  1280 -1.45210e-09 7.97081e-10 1.77294e-10
  1281 6.55458e-09 7.71858e-10 -1.10991e-09
  1282 -1.51582e-13 -3.03165e-13 -1.30451e-12
  1283 -9.14406e-10 -3.75803e-10 8.78120e-10
</Section>

