newXOutput 1

<Section columns = "stress_xx | stress_yy | stress_xy">
  1 0.00000 0.00000 0.00000
  2 0.00000 0.00000 0.00000
  3 0.00000 0.00000 0.00000
  4 0.00000 0.00000 0.00000
  5 0.00000 0.00000 0.00000
  6 0.00000 0.00000 0.00000
  7 0.00000 0.00000 0.00000
  8 0.00000 0.00000 0.00000
  9 0.00000 0.00000 0.00000
  10 0.00000 0.00000 0.00000
  11 0.00000 0.00000 0.00000
  12 0.00000 0.00000 0.00000
  13 0.00000 0.00000 0.00000
  14 0.00000 0.00000 0.00000
  15 0.00000 0.00000 0.00000
  16 0.00000 0.00000 0.00000
</Section>

newXOutput 2

<Section columns = "stress_xx | stress_yy | stress_xy">
  1 26.6783 0.00000 -3.39358e-15
  2 26.6783 0.00000 -3.48763e-15
  3 26.6783 0.00000 2.32244e-15
  4 26.6783 0.00000 2.67883e-15
  5 26.6783 0.00000 3.54687e-15
  6 26.6783 0.00000 3.84908e-15
  7 26.6783 0.00000 3.00632e-15
  8 26.6783 0.00000 3.19443e-15
  9 26.6783 0.00000 -3.38229e-15
  10 26.6783 0.00000 -3.24405e-15
  11 26.6783 0.00000 -2.24839e-15
  12 26.6783 0.00000 -1.17614e-15
  13 26.6783 0.00000 -4.04634e-15
  14 26.6783 0.00000 -3.79731e-15
  15 26.6783 0.00000 -1.22819e-14
  16 26.6783 0.00000 -1.58560e-14
</Section>

newXOutput 3

<Section columns = "stress_xx | stress_yy | stress_xy">
  1 53.3703 0.00000 2.42157e-14
  2 53.3703 0.00000 2.15777e-14
  3 53.3703 0.00000 1.02970e-14
  4 53.3703 0.00000 9.26066e-15
  5 53.3703 0.00000 3.63597e-15
  6 53.3703 0.00000 3.91862e-15
  7 53.3703 0.00000 1.20239e-14
  8 53.3703 0.00000 1.13644e-14
  9 53.3703 0.00000 1.97658e-14
  10 53.3703 0.00000 1.77825e-14
  11 53.3703 0.00000 1.77898e-14
  12 53.3703 0.00000 1.63613e-14
  13 53.3703 0.00000 3.43910e-15
  14 53.3703 0.00000 3.84250e-15
  15 53.3703 0.00000 9.09790e-16
  16 53.3703 0.00000 -1.53984e-15
</Section>

newXOutput 4

<Section columns = "stress_xx | stress_yy | stress_xy">
  1 80.0759 0.00000 -6.60171e-14
  2 80.0759 0.00000 -5.77724e-14
  3 80.0759 0.00000 -3.03566e-14
  4 80.0759 0.00000 -2.59352e-14
  5 80.0759 0.00000 -3.55472e-14
  6 80.0759 0.00000 -3.56951e-14
  7 80.0759 0.00000 -3.96605e-14
  8 80.0759 0.00000 -4.01324e-14
  9 80.0759 0.00000 -1.57032e-14
  10 80.0759 0.00000 -1.64885e-14
  11 80.0759 0.00000 -2.79471e-14
  12 80.0759 0.00000 -2.53397e-14
  13 80.0759 0.00000 -2.96597e-14
  14 80.0759 0.00000 -3.28314e-14
  15 80.0759 0.00000 -6.41762e-15
  16 80.0759 0.00000 -1.23512e-14
</Section>

newXOutput 5

<Section columns = "stress_xx | stress_yy | stress_xy">
  1 106.795 0.00000 -5.43249e-16
  2 106.795 0.00000 5.00645e-15
  3 106.795 0.00000 1.26764e-14
  4 106.795 0.00000 1.73722e-14
  5 106.795 0.00000 2.56913e-14
  6 106.795 0.00000 2.63411e-14
  7 106.795 0.00000 3.37640e-15
  8 106.795 0.00000 3.75455e-15
  9 106.795 0.00000 7.73881e-15
  10 106.795 0.00000 8.62289e-15
  11 106.795 0.00000 7.98590e-15
  12 106.795 0.00000 1.19432e-14
  13 106.795 0.00000 1.56761e-15
  14 106.795 0.00000 4.64086e-15
  15 106.795 0.00000 2.67558e-15
  16 106.795 0.00000 1.54112e-15
</Section>

newXOutput 6

<Section columns = "stress_xx | stress_yy | stress_xy">
  1 133.529 0.00000 8.40722e-15
  2 133.529 0.00000 9.16482e-15
  3 133.529 0.00000 6.63859e-15
  4 133.529 0.00000 8.45340e-15
  5 133.529 0.00000 2.16986e-15
  6 133.529 0.00000 3.76837e-15
  7 133.529 0.00000 3.23549e-15
  8 133.529 0.00000 3.80368e-15
  9 133.529 0.00000 2.08104e-14
  10 133.529 0.00000 1.85936e-14
  11 133.529 0.00000 -1.67241e-14
  12 133.529 0.00000 -2.29760e-14
  13 133.529 0.00000 -7.42511e-15
  14 133.529 0.00000 -5.86442e-15
  15 133.529 0.00000 2.13345e-14
  16 133.529 0.00000 1.83041e-14
</Section>

newXOutput 7

<Section columns = "stress_xx | stress_yy | stress_xy">
  1 160.276 0.00000 3.19694e-14
  2 160.276 0.00000 3.12105e-14
  3 160.276 0.00000 1.54649e-14
  4 160.276 0.00000 1.63343e-14
  5 160.276 0.00000 1.01336e-15
  6 160.276 0.00000 2.23580e-15
  7 160.276 0.00000 7.71110e-15
  8 160.276 0.00000 8.46998e-15
  9 160.276 0.00000 -3.29668e-15
  10 160.276 0.00000 -4.68764e-15
  11 160.276 0.00000 2.61196e-14
  12 160.276 0.00000 2.61626e-14
  13 160.276 0.00000 -1.12165e-14
  14 160.276 0.00000 -1.10268e-14
  15 160.276 0.00000 7.52442e-15
  16 160.276 0.00000 5.62721e-15
</Section>

newXOutput 8

<Section columns = "stress_xx | stress_yy | stress_xy">
  1 187.036 0.00000 -6.76938e-15
  2 187.036 0.00000 -7.90963e-15
  3 187.036 0.00000 -7.64167e-15
  4 187.036 0.00000 -7.79986e-15
  5 187.036 0.00000 1.61578e-15
  6 187.036 0.00000 1.78560e-15
  7 187.036 0.00000 -1.74294e-16
  8 187.036 0.00000 3.95835e-16
  9 187.036 0.00000 -2.18953e-14
  10 187.036 0.00000 -2.27829e-14
  11 187.036 0.00000 -3.57724e-14
  12 187.036 0.00000 -3.27783e-14
  13 187.036 0.00000 -5.58891e-14
  14 187.036 0.00000 -5.54885e-14
  15 187.036 0.00000 3.56053e-14
  16 187.036 0.00000 1.40534e-14
</Section>

newXOutput 9

<Section columns = "stress_xx | stress_yy | stress_xy">
  1 213.811 0.00000 -4.55151e-14
  2 213.811 0.00000 -3.79005e-14
  3 213.811 0.00000 -1.99482e-14
  4 213.811 0.00000 -1.51569e-14
  5 213.811 0.00000 -1.11203e-14
  6 213.811 0.00000 -9.42597e-15
  7 213.811 0.00000 -1.69399e-14
  8 213.811 0.00000 -1.35134e-14
  9 213.811 0.00000 1.20657e-15
  10 213.811 0.00000 1.07753e-15
  11 213.811 0.00000 -1.68540e-14
  12 213.811 0.00000 -1.61457e-14
  13 213.811 0.00000 -4.35647e-14
  14 213.811 0.00000 -4.04431e-14
  15 213.811 0.00000 -4.16789e-14
  16 213.811 0.00000 -4.16789e-14
</Section>

newXOutput 10

<Section columns = "stress_xx | stress_yy | stress_xy">
  1 240.600 0.00000 8.06244e-15
  2 240.600 0.00000 1.23776e-14
  3 240.600 0.00000 1.53497e-14
  4 240.600 0.00000 2.06017e-14
  5 240.600 0.00000 -3.02019e-15
  6 240.600 0.00000 -1.70308e-15
  7 240.600 0.00000 6.73352e-15
  8 240.600 0.00000 7.11489e-15
  9 240.600 0.00000 1.52283e-14
  10 240.600 0.00000 1.25692e-14
  11 240.600 0.00000 3.67820e-14
  12 240.600 0.00000 2.84302e-14
  13 240.600 0.00000 1.24216e-14
  14 240.600 0.00000 3.81902e-15
  15 240.600 0.00000 2.79141e-14
  16 240.600 0.00000 2.20945e-14
</Section>

newXOutput 11

<Section columns = "stress_xx | stress_yy | stress_xy">
  1 267.402 0.00000 -6.86071e-14
  2 267.402 0.00000 -5.86747e-14
  3 267.402 0.00000 -2.56731e-14
  4 267.402 0.00000 -2.01008e-14
  5 267.402 0.00000 -9.56810e-15
  6 267.402 0.00000 -8.62949e-15
  7 267.402 0.00000 -1.71548e-14
  8 267.402 0.00000 -1.44806e-14
  9 267.402 0.00000 -3.14166e-14
  10 267.402 0.00000 -2.62006e-14
  11 267.402 0.00000 -3.88654e-14
  12 267.402 0.00000 -5.23025e-14
  13 267.402 0.00000 7.45354e-14
  14 267.402 0.00000 3.90736e-14
  15 267.402 0.00000 -1.03878e-13
  16 267.402 0.00000 -1.41316e-13
</Section>

newXOutput 12

<Section columns = "stress_xx | stress_yy | stress_xy">
  1 294.219 0.00000 -1.74976e-14
  2 294.219 0.00000 -6.78307e-15
  3 294.219 0.00000 3.32490e-15
  4 294.219 0.00000 9.67227e-15
  5 294.219 0.00000 3.28350e-14
  6 294.219 0.00000 3.45418e-14
  7 294.219 0.00000 2.25641e-14
  8 294.219 0.00000 2.71560e-14
  9 294.219 0.00000 8.14514e-14
  10 294.219 0.00000 7.97869e-14
  11 294.219 0.00000 8.79852e-14
  12 294.219 0.00000 9.07245e-14
  13 294.219 0.00000 8.90447e-15
  14 294.219 0.00000 4.49772e-14
  15 294.219 0.00000 7.17953e-14
  16 294.219 0.00000 1.04093e-13
</Section>

newXOutput 13

<Section columns = "stress_xx | stress_yy | stress_xy">
  1 321.049 0.00000 -6.03416e-16
  2 321.049 0.00000 5.52946e-15
  3 321.049 0.00000 -1.88926e-15
  4 321.049 0.00000 4.08583e-15
  5 321.049 0.00000 1.46026e-14
  6 321.049 0.00000 1.78468e-14
  7 321.049 0.00000 -3.77843e-14
  8 321.049 0.00000 -3.28014e-14
  9 321.049 0.00000 -7.84441e-14
  10 321.049 0.00000 -7.78129e-14
  11 321.049 0.00000 -1.33839e-13
  12 321.049 0.00000 -1.29950e-13
  13 321.049 0.00000 -9.46146e-14
  14 321.049 0.00000 -6.50386e-14
  15 321.049 0.00000 1.65090e-14
  16 321.049 0.00000 3.65731e-14
</Section>

newXOutput 14

<Section columns = "stress_xx | stress_yy | stress_xy">
  1 347.894 0.00000 2.33791e-14
  2 347.894 0.00000 2.61765e-14
  3 347.894 0.00000 1.10409e-14
  4 347.894 0.00000 1.76871e-14
  5 347.894 0.00000 3.68845e-15
  6 347.894 0.00000 9.03847e-15
  7 347.894 0.00000 2.16382e-14
  8 347.894 0.00000 2.62456e-14
  9 347.894 0.00000 1.53627e-14
  10 347.894 0.00000 1.10841e-14
  11 347.894 0.00000 4.91341e-14
  12 347.894 0.00000 3.69372e-14
  13 347.894 0.00000 -1.03779e-15
  14 347.894 0.00000 1.48603e-14
  15 347.894 0.00000 5.93253e-14
  16 347.894 0.00000 9.62249e-14
</Section>

newXOutput 15

<Section columns = "stress_xx | stress_yy | stress_xy">
  1 374.752 0.00000 -2.00105e-14
  2 374.752 0.00000 -1.84721e-14
  3 374.752 0.00000 -6.88120e-15
  4 374.752 0.00000 -3.41987e-15
  5 374.752 0.00000 2.80403e-14
  6 374.752 0.00000 3.45784e-14
  7 374.752 0.00000 -2.72466e-14
  8 374.752 0.00000 -2.03239e-14
  9 374.752 0.00000 -3.97460e-14
  10 374.752 0.00000 -3.46391e-14
  11 374.752 0.00000 -3.98755e-14
  12 374.752 0.00000 -3.04472e-14
  13 374.752 0.00000 -1.14673e-13
  14 374.752 0.00000 -1.13088e-13
  15 374.752 0.00000 2.92428e-14
  16 374.752 0.00000 -9.94375e-15
</Section>

newXOutput 16

<Section columns = "stress_xx | stress_yy | stress_xy">
  1 401.625 0.00000 3.30716e-14
  2 401.625 0.00000 2.99897e-14
  3 401.625 0.00000 1.34162e-14
  4 401.625 0.00000 1.38716e-14
  5 401.625 0.00000 1.18537e-14
  6 401.625 0.00000 2.10791e-14
  7 401.625 0.00000 3.23290e-14
  8 401.625 0.00000 1.53786e-14
  9 401.625 0.00000 6.09247e-16
  10 401.625 0.00000 -1.35399e-14
  11 401.625 0.00000 2.06448e-13
  12 401.625 0.00000 2.00051e-13
  13 401.625 0.00000 1.70976e-13
  14 401.625 0.00000 8.44410e-14
  15 401.625 0.00000 1.50798e-13
  16 401.625 0.00000 3.98497e-14
</Section>

newXOutput 17

<Section columns = "stress_xx | stress_yy | stress_xy">
  1 428.512 0.00000 -9.57332e-15
  2 428.512 0.00000 -1.57474e-14
  3 428.512 0.00000 -2.85304e-14
  4 428.512 0.00000 -2.34430e-14
  5 428.512 0.00000 -6.39537e-14
  6 428.512 0.00000 -5.74114e-14
  7 428.512 0.00000 -2.77267e-14
  8 428.512 0.00000 -1.07480e-14
  9 428.512 0.00000 5.61047e-14
  10 428.512 0.00000 6.15070e-14
  11 428.512 0.00000 -4.63401e-14
  12 428.512 0.00000 -5.12546e-14
  13 428.512 0.00000 4.40126e-14
  14 428.512 0.00000 1.01238e-13
  15 428.512 0.00000 -4.16332e-14
  16 428.512 0.00000 1.06131e-13
</Section>

newXOutput 18

<Section columns = "stress_xx | stress_yy | stress_xy">
  1 455.412 0.00000 -1.26169e-13
  2 455.412 0.00000 -6.68429e-14
  3 455.412 0.00000 1.15948e-13
  4 455.412 0.00000 1.46495e-13
  5 455.412 0.00000 -9.38545e-14
  6 455.412 0.00000 -1.18221e-13
  7 455.412 0.00000 3.15197e-14
  8 455.412 0.00000 1.91510e-14
  9 455.412 0.00000 6.49161e-14
  10 455.412 0.00000 9.55509e-14
  11 455.412 0.00000 2.01833e-14
  12 455.412 0.00000 5.39708e-14
  13 455.412 0.00000 -1.45015e-13
  14 455.412 0.00000 -1.31812e-13
  15 455.412 0.00000 1.50914e-13
  16 455.412 0.00000 1.40091e-13
</Section>

newXOutput 19

<Section columns = "stress_xx | stress_yy | stress_xy">
  1 482.327 0.00000 1.33368e-14
  2 482.327 0.00000 2.49613e-15
  3 482.327 0.00000 -1.52107e-14
  4 482.327 0.00000 -1.78483e-14
  5 482.327 0.00000 3.25956e-14
  6 482.327 0.00000 4.45853e-14
  7 482.327 0.00000 -3.84964e-14
  8 482.327 0.00000 -1.83636e-14
  9 482.327 0.00000 2.86809e-14
  10 482.327 0.00000 3.61340e-14
  11 482.327 0.00000 -1.37398e-13
  12 482.327 0.00000 -1.51576e-13
  13 482.327 0.00000 6.76869e-14
  14 482.327 0.00000 9.13695e-14
  15 482.327 0.00000 -1.69913e-13
  16 482.327 0.00000 -1.54425e-13
</Section>

newXOutput 20

<Section columns = "stress_xx | stress_yy | stress_xy">
  1 509.257 0.00000 -2.00547e-14
  2 509.257 0.00000 -2.68468e-14
  3 509.257 0.00000 -2.40148e-14
  4 509.257 0.00000 -2.19622e-14
  5 509.257 0.00000 1.74137e-14
  6 509.257 0.00000 2.47721e-14
  7 509.257 0.00000 -4.83700e-14
  8 509.257 0.00000 -2.58769e-14
  9 509.257 0.00000 9.86416e-14
  10 509.257 0.00000 1.07656e-13
  11 509.257 0.00000 -1.06425e-13
  12 509.257 0.00000 -1.24036e-13
  13 509.257 0.00000 4.07345e-14
  14 509.257 0.00000 2.14242e-14
  15 509.257 0.00000 -1.07052e-13
  16 509.257 0.00000 -1.31872e-13
</Section>

newXOutput 21

<Section columns = "stress_xx | stress_yy | stress_xy">
  1 536.200 0.00000 -9.05749e-14
  2 536.200 0.00000 -9.36826e-14
  3 536.200 0.00000 -2.10177e-14
  4 536.200 0.00000 -5.08546e-14
  5 536.200 0.00000 1.61197e-13
  6 536.200 0.00000 1.19624e-13
  7 536.200 0.00000 -6.07797e-15
  8 536.200 0.00000 -3.40468e-14
  9 536.200 0.00000 -1.51594e-13
  10 536.200 0.00000 -1.41014e-13
  11 536.200 0.00000 -3.01857e-14
  12 536.200 0.00000 3.77497e-15
  13 536.200 0.00000 1.10620e-13
  14 536.200 0.00000 4.59272e-14
  15 536.200 0.00000 2.55433e-13
  16 536.200 0.00000 1.65311e-13
</Section>

newXOutput 22

<Section columns = "stress_xx | stress_yy | stress_xy">
  1 563.158 0.00000 -1.64421e-14
  2 563.158 0.00000 -1.48857e-14
  3 563.158 0.00000 4.03450e-14
  4 563.158 0.00000 2.36887e-14
  5 563.158 0.00000 1.43874e-13
  6 563.158 0.00000 1.10017e-13
  7 563.158 0.00000 5.23179e-14
  8 563.158 0.00000 2.58591e-14
  9 563.158 0.00000 -5.74564e-14
  10 563.158 0.00000 -6.00256e-14
  11 563.158 0.00000 -8.83946e-14
  12 563.158 0.00000 -9.61367e-14
  13 563.158 0.00000 -8.17424e-14
  14 563.158 0.00000 -1.03492e-13
  15 563.158 0.00000 2.18382e-14
  16 563.158 0.00000 -5.13125e-14
</Section>

newXOutput 23

<Section columns = "stress_xx | stress_yy | stress_xy">
  1 590.130 0.00000 1.87799e-14
  2 590.130 0.00000 6.30811e-15
  3 590.130 0.00000 1.41492e-14
  4 590.130 0.00000 1.77326e-14
  5 590.130 0.00000 1.91190e-15
  6 590.130 0.00000 1.94480e-14
  7 590.130 0.00000 2.03464e-14
  8 590.130 0.00000 4.68489e-14
  9 590.130 0.00000 1.74906e-16
  10 590.130 0.00000 7.66654e-15
  11 590.130 0.00000 -1.34424e-13
  12 590.130 0.00000 -1.44547e-13
  13 590.130 0.00000 -7.78989e-15
  14 590.130 0.00000 6.63379e-14
  15 590.130 0.00000 -7.71234e-14
  16 590.130 0.00000 2.24761e-14
</Section>

newXOutput 24

<Section columns = "stress_xx | stress_yy | stress_xy">
  1 617.116 0.00000 -2.33047e-14
  2 617.116 0.00000 -1.86201e-14
  3 617.116 0.00000 -5.76401e-14
  4 617.116 0.00000 -4.96791e-14
  5 617.116 0.00000 -1.31973e-13
  6 617.116 0.00000 -1.15576e-13
  7 617.116 0.00000 2.67217e-14
  8 617.116 0.00000 1.89140e-14
  9 617.116 0.00000 6.57911e-14
  10 617.116 0.00000 3.89384e-14
  11 617.116 0.00000 2.37444e-13
  12 617.116 0.00000 2.42296e-13
  13 617.116 0.00000 -1.85003e-13
  14 617.116 0.00000 -1.87346e-13
  15 617.116 0.00000 1.34999e-13
  16 617.116 0.00000 1.00645e-13
</Section>

newXOutput 25

<Section columns = "stress_xx | stress_yy | stress_xy">
  1 644.116 0.00000 6.35621e-15
  2 644.116 0.00000 1.10486e-14
  3 644.116 0.00000 5.52279e-15
  4 644.116 0.00000 1.94490e-14
  5 644.116 0.00000 -1.51585e-14
  6 644.116 0.00000 1.18037e-14
  7 644.116 0.00000 -9.20577e-14
  8 644.116 0.00000 -9.51859e-14
  9 644.116 0.00000 -1.32049e-13
  10 644.116 0.00000 -1.56603e-13
  11 644.116 0.00000 3.46363e-14
  12 644.116 0.00000 5.33950e-14
  13 644.116 0.00000 -1.88875e-13
  14 644.116 0.00000 -1.45080e-13
  15 644.116 0.00000 -1.18696e-13
  16 644.116 0.00000 -8.58497e-14
</Section>

newXOutput 26

<Section columns = "stress_xx | stress_yy | stress_xy">
  1 671.131 0.00000 8.91586e-15
  2 671.131 0.00000 1.36160e-14
  3 671.131 0.00000 4.36764e-15
  4 671.131 0.00000 -1.78796e-14
  5 671.131 0.00000 -1.47878e-13
  6 671.131 0.00000 -2.00749e-13
  7 671.131 0.00000 2.30564e-13
  8 671.131 0.00000 2.25080e-13
  9 671.131 0.00000 -2.92843e-13
  10 671.131 0.00000 -2.39417e-13
  11 671.131 0.00000 2.03864e-13
  12 671.131 0.00000 1.91442e-13
  13 671.131 0.00000 1.45546e-14
  14 671.131 0.00000 -1.54313e-13
  15 671.131 0.00000 9.67982e-15
  16 671.131 0.00000 -1.16916e-13
</Section>

newXOutput 27

<Section columns = "stress_xx | stress_yy | stress_xy">
  1 698.160 0.00000 -4.68617e-14
  2 698.160 0.00000 -4.46601e-14
  3 698.160 0.00000 -5.33291e-14
  4 698.160 0.00000 -5.32979e-14
  5 698.160 0.00000 -1.22295e-15
  6 698.160 0.00000 8.97733e-15
  7 698.160 0.00000 4.83767e-14
  8 698.160 0.00000 4.99459e-14
  9 698.160 0.00000 5.47391e-14
  10 698.160 0.00000 1.48749e-14
  11 698.160 0.00000 -8.85064e-14
  12 698.160 0.00000 -1.06463e-13
  13 698.160 0.00000 3.69794e-14
  14 698.160 0.00000 8.49554e-14
  15 698.160 0.00000 -1.16587e-13
  16 698.160 0.00000 -1.06671e-13
</Section>

newXOutput 28

<Section columns = "stress_xx | stress_yy | stress_xy">
  1 725.204 0.00000 -5.12540e-14
  2 725.204 0.00000 -4.08899e-14
  3 725.204 0.00000 -3.92410e-14
  4 725.204 0.00000 -1.63309e-14
  5 725.204 0.00000 -7.30619e-14
  6 725.204 0.00000 -3.68887e-14
  7 725.204 0.00000 -8.51950e-14
  8 725.204 0.00000 -8.91246e-14
  9 725.204 0.00000 -1.51716e-13
  10 725.204 0.00000 -1.91012e-13
  11 725.204 0.00000 1.20692e-13
  12 725.204 0.00000 1.20053e-13
  13 725.204 0.00000 -2.94221e-14
  14 725.204 0.00000 -1.67325e-14
  15 725.204 0.00000 1.55506e-13
  16 725.204 0.00000 9.01514e-14
</Section>

newXOutput 29

<Section columns = "stress_xx | stress_yy | stress_xy">
  1 752.262 0.00000 -1.60285e-14
  2 752.262 0.00000 -8.15640e-15
  3 752.262 0.00000 -3.47801e-14
  4 752.262 0.00000 -5.65322e-15
  5 752.262 0.00000 -9.88093e-16
  6 752.262 0.00000 -2.77533e-14
  7 752.262 0.00000 1.60460e-14
  8 752.262 0.00000 -5.48032e-14
  9 752.262 0.00000 6.14385e-14
  10 752.262 0.00000 9.87991e-14
  11 752.262 0.00000 1.54499e-13
  12 752.262 0.00000 1.84865e-13
  13 752.262 0.00000 -5.01099e-14
  14 752.262 0.00000 -2.60294e-14
  15 752.262 0.00000 -2.99421e-14
  16 752.262 0.00000 6.99945e-14
</Section>

newXOutput 30

<Section columns = "stress_xx | stress_yy | stress_xy">
  1 779.334 0.00000 -5.03308e-14
  2 779.334 0.00000 -2.32485e-14
  3 779.334 0.00000 -4.22025e-14
  4 779.334 0.00000 -8.25783e-15
  5 779.334 0.00000 -8.65553e-14
  6 779.334 0.00000 -4.63108e-14
  7 779.334 0.00000 -8.80409e-15
  8 779.334 0.00000 6.57921e-16
  9 779.334 0.00000 -1.21824e-14
  10 779.334 0.00000 -5.22592e-14
  11 779.334 0.00000 8.09074e-14
  12 779.334 0.00000 8.09202e-14
  13 779.334 0.00000 4.68886e-14
  14 779.334 0.00000 6.80543e-14
  15 779.334 0.00000 -4.18094e-14
  16 779.334 0.00000 -4.18094e-14
</Section>

newXOutput 31

<Section columns = "stress_xx | stress_yy | stress_xy">
  1 806.421 0.00000 4.10381e-14
  2 806.421 0.00000 6.60484e-14
  3 806.421 0.00000 3.70000e-14
  4 806.421 0.00000 1.02914e-14
  5 806.421 0.00000 6.32109e-14
  6 806.421 0.00000 -1.55178e-15
  7 806.421 0.00000 -7.86697e-14
  8 806.421 0.00000 -6.28739e-14
  9 806.421 0.00000 -9.37359e-14
  10 806.421 0.00000 -3.43703e-14
  11 806.421 0.00000 3.90870e-14
  12 806.421 0.00000 3.43355e-14
  13 806.421 0.00000 1.45158e-13
  14 806.421 0.00000 1.29481e-13
  15 806.421 0.00000 2.03124e-13
  16 806.421 0.00000 1.48993e-13
</Section>

newXOutput 32

<Section columns = "stress_xx | stress_yy | stress_xy">
  1 833.523 0.00000 4.42427e-15
  2 833.523 0.00000 2.52448e-14
  3 833.523 0.00000 -3.04976e-14
  4 833.523 0.00000 -4.55265e-14
  5 833.523 0.00000 -2.85465e-14
  6 833.523 0.00000 -8.78360e-14
  7 833.523 0.00000 -1.31315e-13
  8 833.523 0.00000 -1.20240e-13
  9 833.523 0.00000 5.52570e-14
  10 833.523 0.00000 9.41459e-14
  11 833.523 0.00000 -1.85046e-13
  12 833.523 0.00000 -1.92204e-13
  13 833.523 0.00000 -2.32221e-13
  14 833.523 0.00000 -1.69340e-13
  15 833.523 0.00000 6.77946e-14
  16 833.523 0.00000 4.89822e-14
</Section>

newXOutput 33

<Section columns = "stress_xx | stress_yy | stress_xy">
  1 860.639 0.00000 -2.03788e-14
  2 860.639 0.00000 -3.12299e-14
  3 860.639 0.00000 -4.11506e-14
  4 860.639 0.00000 -1.75648e-14
  5 860.639 0.00000 -7.82541e-14
  6 860.639 0.00000 -8.14235e-14
  7 860.639 0.00000 1.31881e-14
  8 860.639 0.00000 -3.11843e-14
  9 860.639 0.00000 -1.10343e-13
  10 860.639 0.00000 -1.17353e-13
  11 860.639 0.00000 -1.44548e-13
  12 860.639 0.00000 -1.40034e-13
  13 860.639 0.00000 2.76592e-13
  14 860.639 0.00000 1.62100e-13
  15 860.639 0.00000 -5.86922e-14
  16 860.639 0.00000 -5.42899e-14
</Section>

newXOutput 34

<Section columns = "stress_xx | stress_yy | stress_xy">
  1 887.769 0.00000 -2.05001e-14
  2 887.769 0.00000 -1.09763e-14
  3 887.769 0.00000 2.91783e-14
  4 887.769 0.00000 -7.95383e-15
  5 887.769 0.00000 4.96697e-14
  6 887.769 0.00000 -8.21538e-15
  7 887.769 0.00000 -4.89364e-14
  8 887.769 0.00000 -2.19522e-14
  9 887.769 0.00000 -7.13120e-14
  10 887.769 0.00000 -2.64213e-14
  11 887.769 0.00000 1.03986e-13
  12 887.769 0.00000 4.74426e-14
  13 887.769 0.00000 3.06104e-13
  14 887.769 0.00000 2.07544e-13
  15 887.769 0.00000 2.71228e-13
  16 887.769 0.00000 2.49006e-13
</Section>

newXOutput 35

<Section columns = "stress_xx | stress_yy | stress_xy">
  1 914.914 0.00000 2.32738e-14
  2 914.914 0.00000 1.05548e-14
  3 914.914 0.00000 5.03499e-15
  4 914.914 0.00000 1.87200e-14
  5 914.914 0.00000 -4.52884e-14
  6 914.914 0.00000 -4.44369e-14
  7 914.914 0.00000 -9.96731e-14
  8 914.914 0.00000 -1.44190e-13
  9 914.914 0.00000 -5.01668e-14
  10 914.914 0.00000 -7.60473e-14
  11 914.914 0.00000 8.91796e-14
  12 914.914 0.00000 5.12431e-14
  13 914.914 0.00000 6.35670e-14
  14 914.914 0.00000 8.46943e-14
  15 914.914 0.00000 2.12123e-14
  16 914.914 0.00000 1.89174e-14
</Section>

newXOutput 36

<Section columns = "stress_xx | stress_yy | stress_xy">
  1 942.074 0.00000 -1.56228e-14
  2 942.074 0.00000 -2.97441e-14
  3 942.074 0.00000 2.40237e-14
  4 942.074 0.00000 2.31534e-14
  5 942.074 0.00000 2.95198e-14
  6 942.074 0.00000 6.70041e-14
  7 942.074 0.00000 5.61169e-14
  8 942.074 0.00000 6.56717e-14
  9 942.074 0.00000 5.06393e-14
  10 942.074 0.00000 1.04064e-14
  11 942.074 0.00000 2.76991e-14
  12 942.074 0.00000 4.07348e-14
  13 942.074 0.00000 -9.53903e-14
  14 942.074 0.00000 -1.08982e-13
  15 942.074 0.00000 -4.21795e-14
  16 942.074 0.00000 -1.29015e-13
</Section>

newXOutput 37

<Section columns = "stress_xx | stress_yy | stress_xy">
  1 969.248 0.00000 1.14335e-14
  2 969.248 0.00000 -1.26923e-14
  3 969.248 0.00000 4.26106e-14
  4 969.248 0.00000 3.58746e-14
  5 969.248 0.00000 -2.20642e-14
  6 969.248 0.00000 2.34609e-14
  7 969.248 0.00000 3.78628e-14
  8 969.248 0.00000 4.74330e-14
  9 969.248 0.00000 6.95504e-14
  10 969.248 0.00000 5.60928e-14
  11 969.248 0.00000 -3.44494e-15
  12 969.248 0.00000 4.50364e-14
  13 969.248 0.00000 2.62202e-14
  14 969.248 0.00000 -8.94833e-16
  15 969.248 0.00000 2.70101e-13
  16 969.248 0.00000 8.85527e-14
</Section>

newXOutput 38

<Section columns = "stress_xx | stress_yy | stress_xy">
  1 996.436 0.00000 6.03275e-15
  2 996.436 0.00000 6.03275e-15
  3 996.436 0.00000 2.23463e-14
  4 996.436 0.00000 -1.98143e-14
  5 996.436 0.00000 4.49356e-14
  6 996.436 0.00000 -3.56715e-14
  7 996.436 0.00000 -7.18927e-14
  8 996.436 0.00000 -5.75143e-14
  9 996.436 0.00000 -1.81454e-13
  10 996.436 0.00000 -1.22343e-13
  11 996.436 0.00000 -2.93639e-15
  12 996.436 0.00000 -3.07995e-14
  13 996.436 0.00000 -3.96644e-15
  14 996.436 0.00000 -1.70351e-14
  15 996.436 0.00000 1.03336e-13
  16 996.436 0.00000 1.35288e-13
</Section>

newXOutput 39

<Section columns = "stress_xx | stress_yy | stress_xy">
  1 1023.64 0.00000 5.90335e-14
  2 1023.64 0.00000 9.74378e-14
  3 1023.64 0.00000 -1.54292e-13
  4 1023.64 0.00000 -1.19711e-13
  5 1023.64 0.00000 7.91598e-14
  6 1023.64 0.00000 8.96380e-14
  7 1023.64 0.00000 -1.81929e-14
  8 1023.64 0.00000 -1.17922e-14
  9 1023.64 0.00000 -4.90406e-14
  10 1023.64 0.00000 -3.05488e-14
  11 1023.64 0.00000 -1.82998e-13
  12 1023.64 0.00000 -1.81534e-13
  13 1023.64 0.00000 -2.16306e-13
  14 1023.64 0.00000 -2.73354e-13
  15 1023.64 0.00000 -1.50424e-13
  16 1023.64 0.00000 -1.40823e-13
</Section>

newXOutput 40

<Section columns = "stress_xx | stress_yy | stress_xy">
  1 1050.86 0.00000 -1.72618e-13
  2 1050.86 0.00000 -1.75823e-13
  3 1050.86 0.00000 -2.84830e-15
  4 1050.86 0.00000 -9.88147e-15
  5 1050.86 0.00000 4.73024e-14
  6 1050.86 0.00000 4.01722e-14
  7 1050.86 0.00000 -5.02780e-14
  8 1050.86 0.00000 -4.54697e-14
  9 1050.86 0.00000 -1.62052e-13
  10 1050.86 0.00000 -1.48344e-13
  11 1050.86 0.00000 3.21794e-13
  12 1050.86 0.00000 3.44789e-13
  13 1050.86 0.00000 4.43607e-14
  14 1050.86 0.00000 5.52511e-14
  15 1050.86 0.00000 1.57380e-13
  16 1050.86 0.00000 1.50969e-13
</Section>

newXOutput 41

<Section columns = "stress_xx | stress_yy | stress_xy">
  1 1078.09 0.00000 2.80956e-14
  2 1078.09 0.00000 1.20423e-14
  3 1078.09 0.00000 9.02861e-14
  4 1078.09 0.00000 9.76909e-14
  5 1078.09 0.00000 -4.59242e-14
  6 1078.09 0.00000 -3.21915e-14
  7 1078.09 0.00000 -1.01525e-13
  8 1078.09 0.00000 -1.30421e-13
  9 1078.09 0.00000 1.63549e-13
  10 1078.09 0.00000 1.40351e-13
  11 1078.09 0.00000 -8.81740e-14
  12 1078.09 0.00000 -5.78637e-14
  13 1078.09 0.00000 1.86940e-13
  14 1078.09 0.00000 2.16743e-13
  15 1078.09 0.00000 -3.32924e-15
  16 1078.09 0.00000 -6.53990e-15
</Section>

newXOutput 42

<Section columns = "stress_xx | stress_yy | stress_xy">
  1 1105.34 0.00000 -6.27955e-14
  2 1105.34 0.00000 -5.31481e-14
  3 1105.34 0.00000 -4.68620e-14
  4 1105.34 0.00000 -3.46202e-14
  5 1105.34 0.00000 -1.26581e-13
  6 1105.34 0.00000 -1.20861e-13
  7 1105.34 0.00000 -1.53516e-13
  8 1105.34 0.00000 -1.59948e-13
  9 1105.34 0.00000 -5.71701e-14
  10 1105.34 0.00000 -8.42185e-14
  11 1105.34 0.00000 1.19444e-14
  12 1105.34 0.00000 -4.40795e-14
  13 1105.34 0.00000 1.21841e-13
  14 1105.34 0.00000 1.34335e-13
  15 1105.34 0.00000 -2.30584e-13
  16 1105.34 0.00000 -2.43447e-13
</Section>

newXOutput 43

<Section columns = "stress_xx | stress_yy | stress_xy">
  1 1132.60 0.00000 -5.33635e-14
  2 1132.60 0.00000 -5.65845e-14
  3 1132.60 0.00000 1.63543e-14
  4 1132.60 0.00000 2.55336e-14
  5 1132.60 0.00000 -3.89560e-14
  6 1132.60 0.00000 -1.30667e-14
  7 1132.60 0.00000 -1.55550e-13
  8 1132.60 0.00000 -1.42666e-13
  9 1132.60 0.00000 -5.00586e-14
  10 1132.60 0.00000 -7.31207e-15
  11 1132.60 0.00000 1.22313e-13
  12 1132.60 0.00000 1.31723e-13
  13 1132.60 0.00000 -1.65210e-13
  14 1132.60 0.00000 -2.15916e-13
  15 1132.60 0.00000 1.75445e-13
  16 1132.60 0.00000 1.07805e-13
</Section>

newXOutput 44

<Section columns = "stress_xx | stress_yy | stress_xy">
  1 1159.88 0.00000 -4.56554e-14
  2 1159.88 0.00000 -4.24292e-14
  3 1159.88 0.00000 1.02926e-16
  4 1159.88 0.00000 9.16049e-15
  5 1159.88 0.00000 -8.14008e-14
  6 1159.88 0.00000 -7.88783e-14
  7 1159.88 0.00000 -1.92359e-14
  8 1159.88 0.00000 -4.66579e-14
  9 1159.88 0.00000 4.16491e-13
  10 1159.88 0.00000 3.81873e-13
  11 1159.88 0.00000 2.09343e-13
  12 1159.88 0.00000 2.30028e-13
  13 1159.88 0.00000 7.36499e-14
  14 1159.88 0.00000 2.18446e-13
  15 1159.88 0.00000 -1.70452e-13
  16 1159.88 0.00000 4.33591e-14
</Section>

newXOutput 45

<Section columns = "stress_xx | stress_yy | stress_xy">
  1 1187.17 0.00000 -4.80359e-14
  2 1187.17 0.00000 -4.48047e-14
  3 1187.17 0.00000 -2.25777e-14
  4 1187.17 0.00000 -1.67356e-14
  5 1187.17 0.00000 -7.52710e-14
  6 1187.17 0.00000 -8.08177e-14
  7 1187.17 0.00000 2.00875e-14
  8 1187.17 0.00000 2.81657e-14
  9 1187.17 0.00000 -1.51125e-13
  10 1187.17 0.00000 -1.08253e-13
  11 1187.17 0.00000 5.91072e-14
  12 1187.17 0.00000 7.32160e-14
  13 1187.17 0.00000 2.92231e-14
  14 1187.17 0.00000 -2.89397e-14
  15 1187.17 0.00000 1.49332e-13
  16 1187.17 0.00000 7.17813e-14
</Section>

newXOutput 46

<Section columns = "stress_xx | stress_yy | stress_xy">
  1 1214.47 0.00000 -8.82374e-14
  2 1214.47 0.00000 -6.88189e-14
  3 1214.47 0.00000 -5.19103e-14
  4 1214.47 0.00000 -2.98755e-14
  5 1214.47 0.00000 -1.68766e-13
  6 1214.47 0.00000 -1.53280e-13
  7 1214.47 0.00000 -1.42542e-13
  8 1214.47 0.00000 -1.50633e-13
  9 1214.47 0.00000 -3.20319e-14
  10 1214.47 0.00000 -5.38247e-14
  11 1214.47 0.00000 -1.53217e-13
  12 1214.47 0.00000 -1.43855e-13
  13 1214.47 0.00000 5.31924e-14
  14 1214.47 0.00000 7.49422e-14
  15 1214.47 0.00000 -4.39401e-14
  16 1214.47 0.00000 -5.04129e-14
</Section>

newXOutput 47

<Section columns = "stress_xx | stress_yy | stress_xy">
  1 1241.80 0.00000 -2.06719e-14
  2 1241.80 0.00000 1.17437e-14
  3 1241.80 0.00000 5.98994e-14
  4 1241.80 0.00000 8.68329e-14
  5 1241.80 0.00000 3.54694e-14
  6 1241.80 0.00000 4.45020e-14
  7 1241.80 0.00000 -2.10770e-13
  8 1241.80 0.00000 -2.23737e-13
  9 1241.80 0.00000 7.23990e-14
  10 1241.80 0.00000 5.82880e-14
  11 1241.80 0.00000 1.89418e-13
  12 1241.80 0.00000 1.22750e-13
  13 1241.80 0.00000 9.93434e-14
  14 1241.80 0.00000 -6.74556e-14
  15 1241.80 0.00000 2.00107e-13
  16 1241.80 0.00000 9.23715e-14
</Section>

newXOutput 48

<Section columns = "stress_xx | stress_yy | stress_xy">
  1 1269.13 0.00000 -6.39099e-14
  2 1269.13 0.00000 -4.76763e-14
  3 1269.13 0.00000 -2.17216e-14
  4 1269.13 0.00000 -1.26009e-14
  5 1269.13 0.00000 -1.36715e-13
  6 1269.13 0.00000 -1.06560e-13
  7 1269.13 0.00000 -1.41738e-13
  8 1269.13 0.00000 -1.28751e-13
  9 1269.13 0.00000 -4.01547e-14
  10 1269.13 0.00000 -3.93005e-14
  11 1269.13 0.00000 -7.08911e-14
  12 1269.13 0.00000 -2.29392e-14
  13 1269.13 0.00000 3.88116e-14
  14 1269.13 0.00000 -6.95328e-14
  15 1269.13 0.00000 2.27687e-13
  16 1269.13 0.00000 1.55580e-13
</Section>

newXOutput 49

<Section columns = "stress_xx | stress_yy | stress_xy">
  1 1296.48 0.00000 -5.04213e-14
  2 1296.48 0.00000 -2.76583e-14
  3 1296.48 0.00000 -3.40090e-14
  4 1296.48 0.00000 -1.34909e-14
  5 1296.48 0.00000 4.31567e-14
  6 1296.48 0.00000 3.92205e-14
  7 1296.48 0.00000 1.19181e-14
  8 1296.48 0.00000 -7.59306e-15
  9 1296.48 0.00000 2.36585e-14
  10 1296.48 0.00000 2.45087e-14
  11 1296.48 0.00000 -2.62567e-13
  12 1296.48 0.00000 -2.40542e-13
  13 1296.48 0.00000 -8.82760e-14
  14 1296.48 0.00000 -1.60743e-13
  15 1296.48 0.00000 2.17554e-13
  16 1296.48 0.00000 2.49477e-13
</Section>

newXOutput 50

<Section columns = "stress_xx | stress_yy | stress_xy">
  1 1323.85 0.00000 8.36189e-15
  2 1323.85 0.00000 1.81329e-14
  3 1323.85 0.00000 3.61707e-14
  4 1323.85 0.00000 4.53231e-14
  5 1323.85 0.00000 -7.82002e-14
  6 1323.85 0.00000 -7.72521e-14
  7 1323.85 0.00000 -1.32741e-14
  8 1323.85 0.00000 7.89653e-15
  9 1323.85 0.00000 1.68183e-13
  10 1323.85 0.00000 1.86943e-13
  11 1323.85 0.00000 2.80292e-13
  12 1323.85 0.00000 2.63216e-13
  13 1323.85 0.00000 -7.21546e-14
  14 1323.85 0.00000 -1.13727e-13
  15 1323.85 0.00000 8.20543e-14
  16 1323.85 0.00000 3.85053e-14
</Section>

newXOutput 51

<Section columns = "stress_xx | stress_yy | stress_xy">
  1 1351.23 0.00000 -7.54478e-14
  2 1351.23 0.00000 -5.10350e-14
  3 1351.23 0.00000 -3.02920e-14
  4 1351.23 0.00000 -9.15034e-15
  5 1351.23 0.00000 -2.75508e-13
  6 1351.23 0.00000 -2.66398e-13
  7 1351.23 0.00000 -2.48020e-13
  8 1351.23 0.00000 -2.59438e-13
  9 1351.23 0.00000 -1.17352e-13
  10 1351.23 0.00000 -1.15668e-13
  11 1351.23 0.00000 2.13508e-13
  12 1351.23 0.00000 2.13867e-13
  13 1351.23 0.00000 -1.63978e-13
  14 1351.23 0.00000 -1.88158e-13
  15 1351.23 0.00000 -1.76508e-13
  16 1351.23 0.00000 7.06562e-15
</Section>

newXOutput 52

<Section columns = "stress_xx | stress_yy | stress_xy">
  1 1378.62 0.00000 -4.38056e-14
  2 1378.62 0.00000 -2.74690e-14
  3 1378.62 0.00000 1.99156e-14
  4 1378.62 0.00000 4.38025e-14
  5 1378.62 0.00000 6.74273e-14
  6 1378.62 0.00000 8.14576e-14
  7 1378.62 0.00000 7.76597e-14
  8 1378.62 0.00000 7.60261e-14
  9 1378.62 0.00000 -5.43711e-14
  10 1378.62 0.00000 -5.84338e-14
  11 1378.62 0.00000 -4.40985e-13
  12 1378.62 0.00000 -4.28492e-13
  13 1378.62 0.00000 -3.46794e-13
  14 1378.62 0.00000 -2.55021e-13
  15 1378.62 0.00000 -1.68917e-14
  16 1378.62 0.00000 4.22630e-14
</Section>

newXOutput 53

<Section columns = "stress_xx | stress_yy | stress_xy">
  1 1406.03 0.00000 2.08300e-14
  2 1406.03 0.00000 1.23945e-13
  3 1406.03 0.00000 -1.90824e-13
  4 1406.03 0.00000 -1.14117e-13
  5 1406.03 0.00000 2.14062e-14
  6 1406.03 0.00000 -1.59286e-14
  7 1406.03 0.00000 5.03933e-15
  8 1406.03 0.00000 3.61278e-14
  9 1406.03 0.00000 7.84199e-14
  10 1406.03 0.00000 1.83139e-13
  11 1406.03 0.00000 2.59116e-13
  12 1406.03 0.00000 2.24658e-13
  13 1406.03 0.00000 9.69356e-14
  14 1406.03 0.00000 1.55646e-14
  15 1406.03 0.00000 2.86297e-14
  16 1406.03 0.00000 1.66334e-13
</Section>

newXOutput 54

<Section columns = "stress_xx | stress_yy | stress_xy">
  1 1433.46 0.00000 -6.72996e-14
  2 1433.46 0.00000 -8.36877e-14
  3 1433.46 0.00000 5.47945e-14
  4 1433.46 0.00000 5.19212e-14
  5 1433.46 0.00000 -1.81865e-14
  6 1433.46 0.00000 1.78828e-15
  7 1433.46 0.00000 1.46972e-14
  8 1433.46 0.00000 3.92794e-14
  9 1433.46 0.00000 7.90573e-14
  10 1433.46 0.00000 8.89120e-14
  11 1433.46 0.00000 3.64564e-13
  12 1433.46 0.00000 3.78012e-13
  13 1433.46 0.00000 2.54965e-13
  14 1433.46 0.00000 9.48201e-14
  15 1433.46 0.00000 1.14197e-14
  16 1433.46 0.00000 -1.13304e-13
</Section>

newXOutput 55

<Section columns = "stress_xx | stress_yy | stress_xy">
  1 1460.90 0.00000 3.28577e-14
  2 1460.90 0.00000 2.62921e-14
  3 1460.90 0.00000 5.85329e-14
  4 1460.90 0.00000 6.22232e-14
  5 1460.90 0.00000 -8.68595e-14
  6 1460.90 0.00000 -7.01262e-14
  7 1460.90 0.00000 -1.30634e-13
  8 1460.90 0.00000 -1.10938e-13
  9 1460.90 0.00000 1.23171e-13
  10 1460.90 0.00000 1.31389e-13
  11 1460.90 0.00000 -7.79023e-14
  12 1460.90 0.00000 -5.94833e-14
  13 1460.90 0.00000 1.38501e-13
  14 1460.90 0.00000 1.45112e-13
  15 1460.90 0.00000 1.85483e-13
  16 1460.90 0.00000 3.00008e-13
</Section>

newXOutput 56

<Section columns = "stress_xx | stress_yy | stress_xy">
  1 1488.36 0.00000 -2.42021e-14
  2 1488.36 0.00000 -3.89984e-14
  3 1488.36 0.00000 1.67115e-14
  4 1488.36 0.00000 2.27138e-14
  5 1488.36 0.00000 -6.11665e-14
  6 1488.36 0.00000 -1.10156e-13
  7 1488.36 0.00000 8.09335e-14
  8 1488.36 0.00000 3.98345e-14
  9 1488.36 0.00000 -8.33289e-14
  10 1488.36 0.00000 -6.52447e-14
  11 1488.36 0.00000 -6.55379e-14
  12 1488.36 0.00000 -7.50787e-14
  13 1488.36 0.00000 -1.71322e-13
  14 1488.36 0.00000 -1.78875e-13
  15 1488.36 0.00000 -2.79039e-13
  16 1488.36 0.00000 -2.88213e-13
</Section>

newXOutput 57

<Section columns = "stress_xx | stress_yy | stress_xy">
  1 1515.83 0.00000 -1.09310e-13
  2 1515.83 0.00000 -8.95717e-14
  3 1515.83 0.00000 -1.37385e-14
  4 1515.83 0.00000 1.82457e-14
  5 1515.83 0.00000 4.04127e-14
  6 1515.83 0.00000 3.91063e-14
  7 1515.83 0.00000 -8.56812e-14
  8 1515.83 0.00000 -9.88535e-14
  9 1515.83 0.00000 -5.75138e-13
  10 1515.83 0.00000 -5.38925e-13
  11 1515.83 0.00000 -1.93495e-13
  12 1515.83 0.00000 -1.40480e-13
  13 1515.83 0.00000 9.25560e-14
  14 1515.83 0.00000 -4.68571e-14
  15 1515.83 0.00000 3.49180e-13
  16 1515.83 0.00000 7.68608e-14
</Section>

newXOutput 58

<Section columns = "stress_xx | stress_yy | stress_xy">
  1 1543.31 0.00000 8.15946e-14
  2 1543.31 0.00000 -1.07557e-14
  3 1543.31 0.00000 1.14157e-13
  4 1543.31 0.00000 2.22244e-14
  5 1543.31 0.00000 2.10851e-13
  6 1543.31 0.00000 1.94711e-13
  7 1543.31 0.00000 1.38010e-13
  8 1543.31 0.00000 1.75940e-13
  9 1543.31 0.00000 1.24885e-13
  10 1543.31 0.00000 1.24865e-13
  11 1543.31 0.00000 -1.90782e-13
  12 1543.31 0.00000 -1.06451e-13
  13 1543.31 0.00000 -3.64498e-13
  14 1543.31 0.00000 -2.32404e-13
  15 1543.31 0.00000 -2.78303e-13
  16 1543.31 0.00000 -8.50302e-14
</Section>

newXOutput 59

<Section columns = "stress_xx | stress_yy | stress_xy">
  1 1570.81 0.00000 -4.25981e-14
  2 1570.81 0.00000 1.35593e-14
  3 1570.81 0.00000 2.58247e-14
  4 1570.81 0.00000 7.04202e-14
  5 1570.81 0.00000 3.94862e-14
  6 1570.81 0.00000 7.08683e-14
  7 1570.81 0.00000 -7.03184e-14
  8 1570.81 0.00000 -5.21498e-14
  9 1570.81 0.00000 1.23086e-14
  10 1570.81 0.00000 1.06569e-14
  11 1570.81 0.00000 -1.49905e-14
  12 1570.81 0.00000 -1.66733e-14
  13 1570.81 0.00000 2.32327e-13
  14 1570.81 0.00000 1.68244e-13
  15 1570.81 0.00000 3.85670e-13
  16 1570.81 0.00000 1.16433e-13
</Section>

newXOutput 60

<Section columns = "stress_xx | stress_yy | stress_xy">
  1 1598.32 0.00000 2.49390e-14
  2 1598.32 0.00000 -5.44657e-14
  3 1598.32 0.00000 2.31302e-14
  4 1598.32 0.00000 -4.63489e-14
  5 1598.32 0.00000 1.34833e-14
  6 1598.32 0.00000 6.86623e-15
  7 1598.32 0.00000 7.05239e-14
  8 1598.32 0.00000 9.69921e-14
  9 1598.32 0.00000 2.03864e-13
  10 1598.32 0.00000 1.99026e-13
  11 1598.32 0.00000 4.10421e-14
  12 1598.32 0.00000 -5.19784e-14
  13 1598.32 0.00000 5.42610e-16
  14 1598.32 0.00000 3.20833e-15
  15 1598.32 0.00000 2.59515e-13
  16 1598.32 0.00000 1.11921e-13
</Section>

newXOutput 61

<Section columns = "stress_xx | stress_yy | stress_xy">
  1 1625.85 0.00000 -9.42416e-14
  2 1625.85 0.00000 -4.12228e-14
  3 1625.85 0.00000 -2.38829e-14
  4 1625.85 0.00000 4.71060e-15
  5 1625.85 0.00000 8.57829e-14
  6 1625.85 0.00000 2.81753e-14
  7 1625.85 0.00000 -1.34761e-13
  8 1625.85 0.00000 -1.54643e-13
  9 1625.85 0.00000 4.68868e-15
  10 1625.85 0.00000 4.11391e-14
  11 1625.85 0.00000 1.59947e-13
  12 1625.85 0.00000 1.18683e-13
  13 1625.85 0.00000 1.84434e-13
  14 1625.85 0.00000 1.52356e-13
  15 1625.85 0.00000 5.88112e-14
  16 1625.85 0.00000 2.65298e-13
</Section>

newXOutput 62

<Section columns = "stress_xx | stress_yy | stress_xy">
  1 1655.50 0.00000 -5.67711e-14
  2 1655.50 0.00000 -7.11447e-15
  3 1655.50 0.00000 -5.79342e-14
  4 1655.50 0.00000 -2.43503e-14
  5 1655.50 0.00000 -3.30811e-14
  6 1655.50 0.00000 -5.41197e-14
  7 1655.50 0.00000 -1.45473e-13
  8 1655.50 0.00000 -1.72064e-13
  9 1655.50 0.00000 -1.16146e-13
  10 1655.50 0.00000 -9.95516e-14
  11 1655.50 0.00000 -3.42603e-14
  12 1655.50 0.00000 -3.93014e-14
  13 1655.50 0.00000 1.81616e-13
  14 1655.50 0.00000 1.90004e-13
  15 1655.50 0.00000 3.03321e-13
  16 1655.50 0.00000 3.09958e-13
</Section>

newXOutput 63

<Section columns = "stress_xx | stress_yy | stress_xy">
  1 1686.64 0.00000 1.08932e-14
  2 1686.64 0.00000 4.18116e-15
  3 1686.64 0.00000 7.32670e-14
  4 1686.64 0.00000 7.53308e-14
  5 1686.64 0.00000 -9.69810e-15
  6 1686.64 0.00000 2.56703e-14
  7 1686.64 0.00000 -2.39307e-14
  8 1686.64 0.00000 -7.24671e-15
  9 1686.64 0.00000 1.37847e-13
  10 1686.64 0.00000 1.21227e-13
  11 1686.64 0.00000 -1.07232e-13
  12 1686.64 0.00000 -9.89958e-14
  13 1686.64 0.00000 -9.42271e-14
  14 1686.64 0.00000 -9.31518e-14
  15 1686.64 0.00000 -2.39975e-14
  16 1686.64 0.00000 1.49650e-13
</Section>

newXOutput 64

<Section columns = "stress_xx | stress_yy | stress_xy">
  1 1717.83 0.00000 -7.64356e-14
  2 1717.83 0.00000 -6.31191e-14
  3 1717.83 0.00000 -1.28803e-13
  4 1717.83 0.00000 -1.32197e-13
  5 1717.83 0.00000 -6.12927e-14
  6 1717.83 0.00000 -8.13316e-14
  7 1717.83 0.00000 8.85769e-14
  8 1717.83 0.00000 9.19060e-14
  9 1717.83 0.00000 -1.42901e-13
  10 1717.83 0.00000 -1.22926e-13
  11 1717.83 0.00000 2.52668e-13
  12 1717.83 0.00000 2.25957e-13
  13 1717.83 0.00000 3.86909e-13
  14 1717.83 0.00000 3.03101e-13
  15 1717.83 0.00000 8.92739e-14
  16 1717.83 0.00000 9.57768e-14
</Section>

newXOutput 65

<Section columns = "stress_xx | stress_yy | stress_xy">
  1 1749.06 0.00000 -1.77343e-14
  2 1749.06 0.00000 -3.77399e-14
  3 1749.06 0.00000 4.80568e-14
  4 1749.06 0.00000 3.01587e-14
  5 1749.06 0.00000 2.98954e-14
  6 1749.06 0.00000 5.31175e-15
  7 1749.06 0.00000 -4.88117e-14
  8 1749.06 0.00000 -4.54774e-14
  9 1749.06 0.00000 9.89893e-14
  10 1749.06 0.00000 1.00562e-13
  11 1749.06 0.00000 -1.62288e-13
  12 1749.06 0.00000 -1.75747e-13
  13 1749.06 0.00000 -2.84254e-13
  14 1749.06 0.00000 -3.35961e-13
  15 1749.06 0.00000 -1.39245e-13
  16 1749.06 0.00000 -2.45942e-13
</Section>

newXOutput 66

<Section columns = "stress_xx | stress_yy | stress_xy">
  1 1780.33 0.00000 3.72877e-14
  2 1780.33 0.00000 -4.33714e-14
  3 1780.33 0.00000 2.36570e-13
  4 1780.33 0.00000 1.72654e-13
  5 1780.33 0.00000 -1.23000e-13
  6 1780.33 0.00000 -1.09774e-13
  7 1780.33 0.00000 -1.67915e-13
  8 1780.33 0.00000 -1.84613e-13
  9 1780.33 0.00000 -2.21285e-13
  10 1780.33 0.00000 -2.22932e-13
  11 1780.33 0.00000 2.42356e-14
  12 1780.33 0.00000 5.51645e-14
  13 1780.33 0.00000 3.96385e-13
  14 1780.33 0.00000 1.77842e-13
  15 1780.33 0.00000 2.62331e-13
  16 1780.33 0.00000 1.35654e-13
</Section>

newXOutput 67

<Section columns = "stress_xx | stress_yy | stress_xy">
  1 1811.65 0.00000 -6.99444e-14
  2 1811.65 0.00000 -1.16769e-13
  3 1811.65 0.00000 -4.69512e-14
  4 1811.65 0.00000 -1.18953e-13
  5 1811.65 0.00000 -4.90825e-13
  6 1811.65 0.00000 -5.08776e-13
  7 1811.65 0.00000 -2.06524e-13
  8 1811.65 0.00000 -1.79228e-13
  9 1811.65 0.00000 8.50382e-14
  10 1811.65 0.00000 6.29261e-14
  11 1811.65 0.00000 1.08917e-13
  12 1811.65 0.00000 1.45358e-13
  13 1811.65 0.00000 3.58234e-13
  14 1811.65 0.00000 4.66856e-13
  15 1811.65 0.00000 3.42166e-13
  16 1811.65 0.00000 2.61814e-14
</Section>

newXOutput 68

<Section columns = "stress_xx | stress_yy | stress_xy">
  1 1843.02 0.00000 -2.65418e-14
  2 1843.02 0.00000 3.01504e-14
  3 1843.02 0.00000 2.88137e-14
  4 1843.02 0.00000 7.55337e-14
  5 1843.02 0.00000 2.30742e-13
  6 1843.02 0.00000 2.32118e-13
  7 1843.02 0.00000 -8.79560e-14
  8 1843.02 0.00000 -7.50156e-14
  9 1843.02 0.00000 -9.47268e-15
  10 1843.02 0.00000 5.56465e-14
  11 1843.02 0.00000 1.90049e-13
  12 1843.02 0.00000 1.89650e-13
  13 1843.02 0.00000 -5.68894e-14
  14 1843.02 0.00000 -2.02886e-13
  15 1843.02 0.00000 1.76594e-13
  16 1843.02 0.00000 4.28883e-14
</Section>

newXOutput 69

<Section columns = "stress_xx | stress_yy | stress_xy">
  1 1874.42 0.00000 -6.40173e-14
  2 1874.42 0.00000 -6.03878e-14
  3 1874.42 0.00000 5.34639e-16
  4 1874.42 0.00000 -1.89577e-14
  5 1874.42 0.00000 2.05709e-13
  6 1874.42 0.00000 1.87723e-13
  7 1874.42 0.00000 -9.30304e-15
  8 1874.42 0.00000 -3.33000e-14
  9 1874.42 0.00000 5.73402e-13
  10 1874.42 0.00000 5.75492e-13
  11 1874.42 0.00000 -5.53169e-14
  12 1874.42 0.00000 -8.79404e-14
  13 1874.42 0.00000 4.68134e-13
  14 1874.42 0.00000 4.12083e-13
  15 1874.42 0.00000 3.98101e-13
  16 1874.42 0.00000 2.83009e-13
</Section>

newXOutput 70

<Section columns = "stress_xx | stress_yy | stress_xy">
  1 1905.88 0.00000 5.42848e-14
  2 1905.88 0.00000 -5.42619e-14
  3 1905.88 0.00000 1.03873e-13
  4 1905.88 0.00000 3.49362e-14
  5 1905.88 0.00000 1.40005e-13
  6 1905.88 0.00000 1.15280e-13
  7 1905.88 0.00000 -9.35454e-14
  8 1905.88 0.00000 -1.20938e-13
  9 1905.88 0.00000 -4.11539e-14
  10 1905.88 0.00000 -4.34947e-14
  11 1905.88 0.00000 -1.03308e-13
  12 1905.88 0.00000 -9.02386e-14
  13 1905.88 0.00000 -1.27244e-13
  14 1905.88 0.00000 -1.59427e-13
  15 1905.88 0.00000 -5.04780e-13
  16 1905.88 0.00000 -4.51252e-13
</Section>

newXOutput 71

<Section columns = "stress_xx | stress_yy | stress_xy">
  1 1937.37 0.00000 -8.53296e-14
  2 1937.37 0.00000 8.02729e-14
  3 1937.37 0.00000 -3.11145e-14
  4 1937.37 0.00000 3.99485e-14
  5 1937.37 0.00000 -4.87908e-14
  6 1937.37 0.00000 -5.05109e-14
  7 1937.37 0.00000 -1.47560e-13
  8 1937.37 0.00000 -1.54391e-13
  9 1937.37 0.00000 2.20396e-13
  10 1937.37 0.00000 2.15796e-13
  11 1937.37 0.00000 4.33362e-13
  12 1937.37 0.00000 3.94767e-13
  13 1937.37 0.00000 5.03842e-13
  14 1937.37 0.00000 4.42014e-13
  15 1937.37 0.00000 1.00309e-12
  16 1937.37 0.00000 9.61091e-13
</Section>

newXOutput 72

<Section columns = "stress_xx | stress_yy | stress_xy">
  1 1968.92 0.00000 -2.64078e-13
  2 1968.92 0.00000 -3.84849e-13
  3 1968.92 0.00000 2.41520e-13
  4 1968.92 0.00000 1.59555e-13
  5 1968.92 0.00000 -7.05789e-14
  6 1968.92 0.00000 -1.16185e-13
  7 1968.92 0.00000 1.15003e-13
  8 1968.92 0.00000 1.79808e-13
  9 1968.92 0.00000 -4.35341e-13
  10 1968.92 0.00000 -2.77330e-13
  11 1968.92 0.00000 1.59391e-14
  12 1968.92 0.00000 9.67911e-14
  13 1968.92 0.00000 2.11777e-14
  14 1968.92 0.00000 -1.81387e-14
  15 1968.92 0.00000 4.81048e-14
  16 1968.92 0.00000 -1.25613e-14
</Section>

newXOutput 73

<Section columns = "stress_xx | stress_yy | stress_xy">
  1 2000.50 0.00000 4.69340e-13
  2 2000.50 0.00000 4.49087e-13
  3 2000.50 0.00000 2.58325e-13
  4 2000.50 0.00000 2.33476e-13
  5 2000.50 0.00000 2.49665e-13
  6 2000.50 0.00000 2.14217e-13
  7 2000.50 0.00000 -1.38589e-13
  8 2000.50 0.00000 -1.39102e-13
  9 2000.50 0.00000 -3.44093e-13
  10 2000.50 0.00000 -2.94816e-13
  11 2000.50 0.00000 -6.27548e-13
  12 2000.50 0.00000 -6.59980e-13
  13 2000.50 0.00000 -7.30971e-14
  14 2000.50 0.00000 -2.68553e-13
  15 2000.50 0.00000 -3.54419e-13
  16 2000.50 0.00000 -8.08283e-14
</Section>

newXOutput 74

<Section columns = "stress_xx | stress_yy | stress_xy">
  1 2032.13 0.00000 -1.41757e-13
  2 2032.13 0.00000 -2.02609e-13
  3 2032.13 0.00000 -3.68009e-13
  4 2032.13 0.00000 -3.98435e-13
  5 2032.13 0.00000 -1.32716e-13
  6 2032.13 0.00000 -1.39477e-13
  7 2032.13 0.00000 3.22461e-13
  8 2032.13 0.00000 3.02177e-13
  9 2032.13 0.00000 5.76960e-13
  10 2032.13 0.00000 5.75133e-13
  11 2032.13 0.00000 4.33239e-13
  12 2032.13 0.00000 5.11542e-13
  13 2032.13 0.00000 3.43309e-13
  14 2032.13 0.00000 5.25215e-13
  15 2032.13 0.00000 1.60817e-13
  16 2032.13 0.00000 1.78672e-13
</Section>

newXOutput 75

<Section columns = "stress_xx | stress_yy | stress_xy">
  1 2063.81 0.00000 4.07645e-14
  2 2063.81 0.00000 2.04498e-14
  3 2063.81 0.00000 -6.59202e-14
  4 2063.81 0.00000 -8.77648e-14
  5 2063.81 0.00000 9.42169e-14
  6 2063.81 0.00000 7.22787e-14
  7 2063.81 0.00000 1.50705e-13
  8 2063.81 0.00000 1.10075e-13
  9 2063.81 0.00000 -8.59452e-14
  10 2063.81 0.00000 -1.00870e-13
  11 2063.81 0.00000 -2.21501e-13
  12 2063.81 0.00000 -1.56820e-13
  13 2063.81 0.00000 3.85250e-13
  14 2063.81 0.00000 2.53840e-13
  15 2063.81 0.00000 2.54337e-13
  16 2063.81 0.00000 1.14113e-13
</Section>

newXOutput 76

<Section columns = "stress_xx | stress_yy | stress_xy">
  1 2095.53 0.00000 -3.39871e-13
  2 2095.53 0.00000 -3.66998e-13
  3 2095.53 0.00000 3.67341e-14
  4 2095.53 0.00000 4.23515e-14
  5 2095.53 0.00000 -2.66808e-13
  6 2095.53 0.00000 -2.44026e-13
  7 2095.53 0.00000 1.84604e-13
  8 2095.53 0.00000 1.70527e-13
  9 2095.53 0.00000 1.91676e-13
  10 2095.53 0.00000 1.75692e-13
  11 2095.53 0.00000 1.43804e-15
  12 2095.53 0.00000 4.14587e-14
  13 2095.53 0.00000 4.52308e-13
  14 2095.53 0.00000 4.94236e-13
  15 2095.53 0.00000 4.79735e-13
  16 2095.53 0.00000 4.93299e-13
</Section>

newXOutput 77

<Section columns = "stress_xx | stress_yy | stress_xy">
  1 2127.30 0.00000 1.14292e-13
  2 2127.30 0.00000 1.73631e-13
  3 2127.30 0.00000 8.50009e-14
  4 2127.30 0.00000 1.63673e-13
  5 2127.30 0.00000 -5.31331e-14
  6 2127.30 0.00000 -4.84861e-14
  7 2127.30 0.00000 -1.31285e-13
  8 2127.30 0.00000 -1.82227e-13
  9 2127.30 0.00000 -2.93128e-13
  10 2127.30 0.00000 -2.98445e-13
  11 2127.30 0.00000 -3.30443e-13
  12 2127.30 0.00000 -3.20921e-13
  13 2127.30 0.00000 1.60806e-13
  14 2127.30 0.00000 1.25130e-13
  15 2127.30 0.00000 -9.95756e-15
  16 2127.30 0.00000 9.48679e-14
</Section>

newXOutput 78

<Section columns = "stress_xx | stress_yy | stress_xy">
  1 2159.12 0.00000 -7.78926e-14
  2 2159.12 0.00000 -4.13162e-14
  3 2159.12 0.00000 -2.09834e-15
  4 2159.12 0.00000 2.51764e-14
  5 2159.12 0.00000 -1.55814e-14
  6 2159.12 0.00000 -5.41362e-14
  7 2159.12 0.00000 6.52305e-14
  8 2159.12 0.00000 -1.29980e-14
  9 2159.12 0.00000 5.80809e-13
  10 2159.12 0.00000 6.03966e-13
  11 2159.12 0.00000 3.90494e-13
  12 2159.12 0.00000 4.55628e-13
  13 2159.12 0.00000 2.72979e-13
  14 2159.12 0.00000 2.50338e-13
  15 2159.12 0.00000 -3.04126e-13
  16 2159.12 0.00000 -3.99683e-13
</Section>

newXOutput 79

<Section columns = "stress_xx | stress_yy | stress_xy">
  1 2190.98 0.00000 -7.38903e-14
  2 2190.98 0.00000 -1.73369e-14
  3 2190.98 0.00000 6.78287e-14
  4 2190.98 0.00000 1.06134e-13
  5 2190.98 0.00000 1.38123e-14
  6 2190.98 0.00000 -1.79783e-14
  7 2190.98 0.00000 3.60035e-14
  8 2190.98 0.00000 -2.00372e-14
  9 2190.98 0.00000 -9.48061e-14
  10 2190.98 0.00000 -1.14298e-13
  11 2190.98 0.00000 -3.80453e-13
  12 2190.98 0.00000 -3.70650e-13
  13 2190.98 0.00000 4.92503e-13
  14 2190.98 0.00000 5.27802e-13
  15 2190.98 0.00000 9.57613e-13
  16 2190.98 0.00000 1.00530e-12
</Section>

newXOutput 80

<Section columns = "stress_xx | stress_yy | stress_xy">
  1 2222.88 0.00000 1.90195e-14
  2 2222.88 0.00000 -5.12625e-14
  3 2222.88 0.00000 1.70435e-13
  4 2222.88 0.00000 8.52913e-14
  5 2222.88 0.00000 -7.07900e-14
  6 2222.88 0.00000 -1.79468e-13
  7 2222.88 0.00000 -3.20470e-13
  8 2222.88 0.00000 -3.67580e-13
  9 2222.88 0.00000 -1.32849e-13
  10 2222.88 0.00000 -1.07156e-13
  11 2222.88 0.00000 -2.30460e-13
  12 2222.88 0.00000 -2.49813e-13
  13 2222.88 0.00000 -1.00090e-13
  14 2222.88 0.00000 -1.09235e-13
  15 2222.88 0.00000 -3.34708e-13
  16 2222.88 0.00000 -2.79098e-13
</Section>

newXOutput 81

<Section columns = "stress_xx | stress_yy | stress_xy">
  1 2254.83 0.00000 -3.99047e-14
  2 2254.83 0.00000 -1.03456e-13
  3 2254.83 0.00000 3.52022e-14
  4 2254.83 0.00000 2.27117e-14
  5 2254.83 0.00000 -4.24259e-14
  6 2254.83 0.00000 3.16241e-14
  7 2254.83 0.00000 7.57661e-14
  8 2254.83 0.00000 1.23600e-13
  9 2254.83 0.00000 1.78646e-13
  10 2254.83 0.00000 1.03087e-13
  11 2254.83 0.00000 3.90793e-13
  12 2254.83 0.00000 2.45863e-13
  13 2254.83 0.00000 4.82997e-13
  14 2254.83 0.00000 2.96006e-13
  15 2254.83 0.00000 3.44541e-13
  16 2254.83 0.00000 3.85542e-13
</Section>

newXOutput 82

<Section columns = "stress_xx | stress_yy | stress_xy">
  1 2286.83 0.00000 -2.59605e-14
  2 2286.83 0.00000 -9.16560e-14
  3 2286.83 0.00000 5.76108e-14
  4 2286.83 0.00000 5.43455e-14
  5 2286.83 0.00000 1.44464e-13
  6 2286.83 0.00000 2.40408e-13
  7 2286.83 0.00000 1.86698e-13
  8 2286.83 0.00000 2.22751e-13
  9 2286.83 0.00000 -6.03209e-14
  10 2286.83 0.00000 -1.89380e-13
  11 2286.83 0.00000 -4.77298e-13
  12 2286.83 0.00000 -4.79513e-13
  13 2286.83 0.00000 2.10532e-13
  14 2286.83 0.00000 3.35574e-13
  15 2286.83 0.00000 2.66764e-13
  16 2286.83 0.00000 1.20488e-13
</Section>

newXOutput 83

<Section columns = "stress_xx | stress_yy | stress_xy">
  1 2318.88 0.00000 -4.89949e-14
  2 2318.88 0.00000 -7.16080e-14
  3 2318.88 0.00000 -2.42518e-14
  4 2318.88 0.00000 -7.10417e-14
  5 2318.88 0.00000 8.13199e-14
  6 2318.88 0.00000 3.90946e-14
  7 2318.88 0.00000 -7.23155e-14
  8 2318.88 0.00000 -4.48996e-14
  9 2318.88 0.00000 -2.95558e-13
  10 2318.88 0.00000 -2.88195e-13
  11 2318.88 0.00000 -2.77816e-13
  12 2318.88 0.00000 -3.07092e-13
  13 2318.88 0.00000 5.07413e-13
  14 2318.88 0.00000 6.55917e-13
  15 2318.88 0.00000 4.78199e-14
  16 2318.88 0.00000 1.46037e-13
</Section>

newXOutput 84

<Section columns = "stress_xx | stress_yy | stress_xy">
  1 2350.97 0.00000 1.60056e-13
  2 2350.97 0.00000 2.08106e-13
  3 2350.97 0.00000 6.64923e-14
  4 2350.97 0.00000 8.22237e-14
  5 2350.97 0.00000 2.03855e-13
  6 2350.97 0.00000 1.84792e-13
  7 2350.97 0.00000 2.36980e-13
  8 2350.97 0.00000 1.69718e-13
  9 2350.97 0.00000 -1.60006e-14
  10 2350.97 0.00000 -4.55089e-14
  11 2350.97 0.00000 -1.73923e-13
  12 2350.97 0.00000 -1.01848e-13
  13 2350.97 0.00000 2.43849e-13
  14 2350.97 0.00000 2.28069e-13
  15 2350.97 0.00000 2.19634e-13
  16 2350.97 0.00000 1.05703e-13
</Section>

newXOutput 85

<Section columns = "stress_xx | stress_yy | stress_xy">
  1 2383.11 0.00000 -3.97490e-14
  2 2383.11 0.00000 4.96207e-14
  3 2383.11 0.00000 -2.42667e-13
  4 2383.11 0.00000 -1.67337e-13
  5 2383.11 0.00000 -8.08246e-14
  6 2383.11 0.00000 -5.31158e-14
  7 2383.11 0.00000 -1.89769e-13
  8 2383.11 0.00000 -1.88383e-13
  9 2383.11 0.00000 -6.43405e-14
  10 2383.11 0.00000 -1.82455e-14
  11 2383.11 0.00000 6.18004e-15
  12 2383.11 0.00000 -1.55906e-14
  13 2383.11 0.00000 8.47811e-14
  14 2383.11 0.00000 -1.91684e-13
  15 2383.11 0.00000 8.52535e-14
  16 2383.11 0.00000 -3.60455e-13
</Section>

newXOutput 86

<Section columns = "stress_xx | stress_yy | stress_xy">
  1 2415.30 0.00000 -8.88155e-14
  2 2415.30 0.00000 -8.19306e-14
  3 2415.30 0.00000 -6.14686e-14
  4 2415.30 0.00000 -4.78843e-14
  5 2415.30 0.00000 -5.88214e-14
  6 2415.30 0.00000 -2.39360e-14
  7 2415.30 0.00000 5.12391e-14
  8 2415.30 0.00000 4.48670e-14
  9 2415.30 0.00000 -3.96435e-14
  10 2415.30 0.00000 -4.85689e-14
  11 2415.30 0.00000 -5.29320e-14
  12 2415.30 0.00000 -1.41979e-14
  13 2415.30 0.00000 -2.70428e-14
  14 2415.30 0.00000 1.17997e-13
  15 2415.30 0.00000 2.39740e-13
  16 2415.30 0.00000 3.17466e-13
</Section>

newXOutput 87

<Section columns = "stress_xx | stress_yy | stress_xy">
  1 2447.53 0.00000 -3.54292e-14
  2 2447.53 0.00000 -7.84839e-15
  3 2447.53 0.00000 -1.96968e-14
  4 2447.53 0.00000 6.67364e-15
  5 2447.53 0.00000 -3.30041e-13
  6 2447.53 0.00000 -3.09912e-13
  7 2447.53 0.00000 -5.83665e-13
  8 2447.53 0.00000 -5.61441e-13
  9 2447.53 0.00000 -1.20160e-13
  10 2447.53 0.00000 -8.56867e-14
  11 2447.53 0.00000 -2.45146e-13
  12 2447.53 0.00000 -2.75453e-13
  13 2447.53 0.00000 6.81899e-13
  14 2447.53 0.00000 5.38593e-13
  15 2447.53 0.00000 4.88712e-13
  16 2447.53 0.00000 3.01035e-13
</Section>

newXOutput 88

<Section columns = "stress_xx | stress_yy | stress_xy">
  1 2479.81 0.00000 1.14151e-13
  2 2479.81 0.00000 4.40701e-14
  3 2479.81 0.00000 -1.46369e-13
  4 2479.81 0.00000 -1.50006e-13
  5 2479.81 0.00000 6.46670e-14
  6 2479.81 0.00000 7.89549e-14
  7 2479.81 0.00000 1.06690e-14
  8 2479.81 0.00000 -8.06408e-14
  9 2479.81 0.00000 3.92109e-13
  10 2479.81 0.00000 3.28296e-13
  11 2479.81 0.00000 4.31364e-13
  12 2479.81 0.00000 4.18386e-13
  13 2479.81 0.00000 4.80164e-13
  14 2479.81 0.00000 4.47483e-13
  15 2479.81 0.00000 3.08594e-13
  16 2479.81 0.00000 3.22405e-13
</Section>

newXOutput 89

<Section columns = "stress_xx | stress_yy | stress_xy">
  1 2512.14 0.00000 -2.12554e-13
  2 2512.14 0.00000 -1.25462e-13
  3 2512.14 0.00000 -1.28786e-13
  4 2512.14 0.00000 -1.14112e-13
  5 2512.14 0.00000 6.44870e-15
  6 2512.14 0.00000 -6.03048e-14
  7 2512.14 0.00000 2.46271e-13
  8 2512.14 0.00000 2.80831e-13
  9 2512.14 0.00000 2.93157e-13
  10 2512.14 0.00000 3.33479e-13
  11 2512.14 0.00000 -1.22715e-13
  12 2512.14 0.00000 -1.50775e-13
  13 2512.14 0.00000 -3.63830e-13
  14 2512.14 0.00000 -2.79424e-13
  15 2512.14 0.00000 -1.98106e-13
  16 2512.14 0.00000 -1.50023e-13
</Section>

newXOutput 90

<Section columns = "stress_xx | stress_yy | stress_xy">
  1 2544.52 0.00000 -3.67130e-14
  2 2544.52 0.00000 -9.00865e-15
  3 2544.52 0.00000 -8.85163e-14
  4 2544.52 0.00000 -8.02301e-15
  5 2544.52 0.00000 -5.07066e-14
  6 2544.52 0.00000 -9.68264e-15
  7 2544.52 0.00000 -3.24207e-13
  8 2544.52 0.00000 -3.79742e-13
  9 2544.52 0.00000 -4.24502e-14
  10 2544.52 0.00000 -2.42786e-14
  11 2544.52 0.00000 1.47961e-13
  12 2544.52 0.00000 2.24481e-13
  13 2544.52 0.00000 2.88843e-13
  14 2544.52 0.00000 2.30216e-13
  15 2544.52 0.00000 3.49761e-13
  16 2544.52 0.00000 -3.76048e-15
</Section>

newXOutput 91

<Section columns = "stress_xx | stress_yy | stress_xy">
  1 2576.94 0.00000 -4.81098e-14
  2 2576.94 0.00000 -8.68941e-14
  3 2576.94 0.00000 4.84212e-14
  4 2576.94 0.00000 -6.86022e-15
  5 2576.94 0.00000 -3.49396e-14
  6 2576.94 0.00000 -4.63816e-14
  7 2576.94 0.00000 -1.21082e-13
  8 2576.94 0.00000 -6.76290e-14
  9 2576.94 0.00000 -7.22438e-13
  10 2576.94 0.00000 -7.75421e-13
  11 2576.94 0.00000 -1.74778e-13
  12 2576.94 0.00000 -2.47025e-13
  13 2576.94 0.00000 -4.96966e-13
  14 2576.94 0.00000 -3.91370e-13
  15 2576.94 0.00000 -3.90549e-13
  16 2576.94 0.00000 -8.13035e-15
</Section>

newXOutput 92

<Section columns = "stress_xx | stress_yy | stress_xy">
  1 2609.42 0.00000 6.85696e-15
  2 2609.42 0.00000 -2.50322e-14
  3 2609.42 0.00000 1.84758e-13
  4 2609.42 0.00000 1.34295e-13
  5 2609.42 0.00000 4.67470e-15
  6 2609.42 0.00000 3.64529e-15
  7 2609.42 0.00000 1.65903e-13
  8 2609.42 0.00000 1.88282e-13
  9 2609.42 0.00000 1.45218e-13
  10 2609.42 0.00000 1.68140e-13
  11 2609.42 0.00000 5.74970e-14
  12 2609.42 0.00000 1.55949e-13
  13 2609.42 0.00000 4.34308e-13
  14 2609.42 0.00000 4.36506e-13
  15 2609.42 0.00000 4.27964e-13
  16 2609.42 0.00000 2.84927e-13
</Section>

newXOutput 93

<Section columns = "stress_xx | stress_yy | stress_xy">
  1 2641.94 0.00000 6.10370e-14
  2 2641.94 0.00000 1.16693e-13
  3 2641.94 0.00000 5.72279e-14
  4 2641.94 0.00000 8.38502e-14
  5 2641.94 0.00000 -1.79050e-14
  6 2641.94 0.00000 -3.47400e-15
  7 2641.94 0.00000 -4.19299e-13
  8 2641.94 0.00000 -4.00368e-13
  9 2641.94 0.00000 -5.61176e-13
  10 2641.94 0.00000 -6.27136e-13
  11 2641.94 0.00000 -9.26991e-13
  12 2641.94 0.00000 -9.27498e-13
  13 2641.94 0.00000 -8.31967e-13
  14 2641.94 0.00000 -5.53252e-13
  15 2641.94 0.00000 -2.84684e-13
  16 2641.94 0.00000 -9.47455e-14
</Section>

newXOutput 94

<Section columns = "stress_xx | stress_yy | stress_xy">
  1 2674.51 0.00000 2.94362e-15
  2 2674.51 0.00000 -1.15501e-13
  3 2674.51 0.00000 -7.83712e-14
  4 2674.51 0.00000 -1.08878e-13
  5 2674.51 0.00000 -3.06128e-13
  6 2674.51 0.00000 -2.11951e-13
  7 2674.51 0.00000 -6.10672e-14
  8 2674.51 0.00000 -5.95288e-14
  9 2674.51 0.00000 -6.54370e-14
  10 2674.51 0.00000 -1.24074e-13
  11 2674.51 0.00000 1.40430e-13
  12 2674.51 0.00000 9.76058e-14
  13 2674.51 0.00000 3.41113e-13
  14 2674.51 0.00000 2.48703e-13
  15 2674.51 0.00000 5.25448e-13
  16 2674.51 0.00000 2.60262e-13
</Section>

newXOutput 95

<Section columns = "stress_xx | stress_yy | stress_xy">
  1 2707.13 0.00000 -1.35147e-13
  2 2707.13 0.00000 -1.36173e-13
  3 2707.13 0.00000 1.68765e-14
  4 2707.13 0.00000 -7.82443e-15
  5 2707.13 0.00000 5.37334e-14
  6 2707.13 0.00000 1.12745e-14
  7 2707.13 0.00000 7.49258e-15
  8 2707.13 0.00000 -5.10603e-16
  9 2707.13 0.00000 -2.54591e-13
  10 2707.13 0.00000 -3.04671e-13
  11 2707.13 0.00000 -3.44467e-13
  12 2707.13 0.00000 -3.57798e-13
  13 2707.13 0.00000 7.78011e-14
  14 2707.13 0.00000 1.73064e-13
  15 2707.13 0.00000 1.26347e-13
  16 2707.13 0.00000 2.03101e-13
</Section>

newXOutput 96

<Section columns = "stress_xx | stress_yy | stress_xy">
  1 2739.79 0.00000 1.27117e-13
  2 2739.79 0.00000 6.42256e-14
  3 2739.79 0.00000 4.10416e-14
  4 2739.79 0.00000 1.18866e-14
  5 2739.79 0.00000 4.02039e-14
  6 2739.79 0.00000 6.71583e-14
  7 2739.79 0.00000 -2.26964e-13
  8 2739.79 0.00000 -2.06001e-13
  9 2739.79 0.00000 -1.53186e-13
  10 2739.79 0.00000 -2.55318e-13
  11 2739.79 0.00000 2.42366e-13
  12 2739.79 0.00000 3.51037e-14
  13 2739.79 0.00000 4.25648e-13
  14 2739.79 0.00000 4.12288e-13
  15 2739.79 0.00000 1.34287e-14
  16 2739.79 0.00000 3.97430e-13
</Section>

newXOutput 97

<Section columns = "stress_xx | stress_yy | stress_xy">
  1 2772.51 0.00000 -2.11541e-13
  2 2772.51 0.00000 -1.79173e-13
  3 2772.51 0.00000 7.16151e-14
  4 2772.51 0.00000 7.69528e-14
  5 2772.51 0.00000 -2.98659e-14
  6 2772.51 0.00000 -8.83493e-15
  7 2772.51 0.00000 -5.51308e-13
  8 2772.51 0.00000 -4.54251e-13
  9 2772.51 0.00000 -2.60021e-14
  10 2772.51 0.00000 -4.09665e-14
  11 2772.51 0.00000 -5.16544e-14
  12 2772.51 0.00000 -2.05189e-13
  13 2772.51 0.00000 -3.33750e-13
  14 2772.51 0.00000 -3.09366e-13
  15 2772.51 0.00000 -2.81666e-13
  16 2772.51 0.00000 -1.67643e-13
</Section>

newXOutput 98

<Section columns = "stress_xx | stress_yy | stress_xy">
  1 2805.28 0.00000 4.12137e-14
  2 2805.28 0.00000 4.82223e-14
  3 2805.28 0.00000 -5.05296e-15
  4 2805.28 0.00000 -4.73656e-14
  5 2805.28 0.00000 -3.06303e-13
  6 2805.28 0.00000 -4.13523e-13
  7 2805.28 0.00000 -2.26515e-13
  8 2805.28 0.00000 -2.47028e-13
  9 2805.28 0.00000 -6.06628e-14
  10 2805.28 0.00000 -4.90470e-14
  11 2805.28 0.00000 6.24148e-13
  12 2805.28 0.00000 4.75220e-13
  13 2805.28 0.00000 6.78218e-13
  14 2805.28 0.00000 7.35260e-13
  15 2805.28 0.00000 2.90434e-13
  16 2805.28 0.00000 4.71033e-13
</Section>

newXOutput 99

<Section columns = "stress_xx | stress_yy | stress_xy">
  1 2838.09 0.00000 -6.91117e-14
  2 2838.09 0.00000 -5.24842e-14
  3 2838.09 0.00000 -1.97321e-14
  4 2838.09 0.00000 -2.50851e-14
  5 2838.09 0.00000 -1.28726e-14
  6 2838.09 0.00000 -6.10864e-14
  7 2838.09 0.00000 1.72591e-13
  8 2838.09 0.00000 1.77559e-13
  9 2838.09 0.00000 3.58309e-14
  10 2838.09 0.00000 5.67240e-14
  11 2838.09 0.00000 -3.49809e-13
  12 2838.09 0.00000 -3.14226e-13
  13 2838.09 0.00000 4.57145e-13
  14 2838.09 0.00000 3.83740e-13
  15 2838.09 0.00000 2.63771e-13
  16 2838.09 0.00000 4.42241e-13
</Section>

newXOutput 100

<Section columns = "stress_xx | stress_yy | stress_xy">
  1 2870.96 0.00000 -1.28697e-15
  2 2870.96 0.00000 1.28635e-15
  3 2870.96 0.00000 3.73924e-14
  4 2870.96 0.00000 1.14012e-13
  5 2870.96 0.00000 1.79332e-13
  6 2870.96 0.00000 1.75719e-13
  7 2870.96 0.00000 8.33101e-14
  8 2870.96 0.00000 3.71874e-14
  9 2870.96 0.00000 -1.06972e-13
  10 2870.96 0.00000 6.87410e-14
  11 2870.96 0.00000 -1.91331e-13
  12 2870.96 0.00000 -5.59436e-14
  13 2870.96 0.00000 -1.37675e-13
  14 2870.96 0.00000 -1.95923e-13
  15 2870.96 0.00000 1.30740e-13
  16 2870.96 0.00000 3.93617e-14
</Section>

newXOutput 101

<Section columns = "stress_xx | stress_yy | stress_xy">
  1 2903.87 0.00000 -6.90214e-14
  2 2903.87 0.00000 -1.76944e-14
  3 2903.87 0.00000 2.18397e-14
  4 2903.87 0.00000 7.85591e-15
  5 2903.87 0.00000 -1.01689e-13
  6 2903.87 0.00000 -1.69009e-13
  7 2903.87 0.00000 -3.18452e-13
  8 2903.87 0.00000 -2.91763e-13
  9 2903.87 0.00000 -2.39247e-14
  10 2903.87 0.00000 -1.73936e-14
  11 2903.87 0.00000 1.98301e-13
  12 2903.87 0.00000 4.72008e-14
  13 2903.87 0.00000 5.11463e-13
  14 2903.87 0.00000 2.45533e-13
  15 2903.87 0.00000 2.17705e-13
  16 2903.87 0.00000 1.54147e-13
</Section>

newXOutput 102

<Section columns = "stress_xx | stress_yy | stress_xy">
  1 2936.84 0.00000 2.91675e-15
  2 2936.84 0.00000 3.81653e-14
  3 2936.84 0.00000 8.54634e-14
  4 2936.84 0.00000 6.43725e-14
  5 2936.84 0.00000 5.05058e-14
  6 2936.84 0.00000 -6.17594e-15
  7 2936.84 0.00000 2.16320e-13
  8 2936.84 0.00000 2.23370e-13
  9 2936.84 0.00000 1.70894e-13
  10 2936.84 0.00000 2.14462e-13
  11 2936.84 0.00000 1.69357e-13
  12 2936.84 0.00000 2.17991e-13
  13 2936.84 0.00000 6.72193e-13
  14 2936.84 0.00000 8.62526e-13
  15 2936.84 0.00000 5.62841e-13
  16 2936.84 0.00000 6.54093e-13
</Section>

newXOutput 103

<Section columns = "stress_xx | stress_yy | stress_xy">
  1 2969.85 0.00000 1.17930e-13
  2 2969.85 0.00000 1.08851e-14
  3 2969.85 0.00000 -1.72090e-13
  4 2969.85 0.00000 -2.41503e-13
  5 2969.85 0.00000 -1.29157e-14
  6 2969.85 0.00000 -8.35502e-14
  7 2969.85 0.00000 -1.52282e-13
  8 2969.85 0.00000 -1.81547e-13
  9 2969.85 0.00000 -4.46863e-13
  10 2969.85 0.00000 -3.43251e-13
  11 2969.85 0.00000 -1.30080e-13
  12 2969.85 0.00000 -1.77544e-14
  13 2969.85 0.00000 -1.51481e-13
  14 2969.85 0.00000 -7.99808e-14
  15 2969.85 0.00000 3.69498e-14
  16 2969.85 0.00000 9.66653e-14
</Section>

newXOutput 104

<Section columns = "stress_xx | stress_yy | stress_xy">
  1 3002.92 0.00000 -2.83776e-13
  2 3002.92 0.00000 -2.62565e-13
  3 3002.92 0.00000 -1.12633e-13
  4 3002.92 0.00000 -8.90842e-14
  5 3002.92 0.00000 6.60160e-14
  6 3002.92 0.00000 1.14576e-13
  7 3002.92 0.00000 1.57531e-13
  8 3002.92 0.00000 1.33243e-13
  9 3002.92 0.00000 1.85302e-13
  10 3002.92 0.00000 1.29426e-13
  11 3002.92 0.00000 1.30433e-13
  12 3002.92 0.00000 2.96379e-13
  13 3002.92 0.00000 -1.11158e-13
  14 3002.92 0.00000 9.06309e-14
  15 3002.92 0.00000 4.21569e-14
  16 3002.92 0.00000 9.87195e-14
</Section>

newXOutput 105

<Section columns = "stress_xx | stress_yy | stress_xy">
  1 3036.03 0.00000 6.85382e-14
  2 3036.03 0.00000 -5.18323e-14
  3 3036.03 0.00000 1.02373e-13
  4 3036.03 0.00000 -3.25042e-14
  5 3036.03 0.00000 4.60425e-14
  6 3036.03 0.00000 -1.74363e-14
  7 3036.03 0.00000 -2.62259e-14
  8 3036.03 0.00000 -2.26856e-14
  9 3036.03 0.00000 4.06898e-14
  10 3036.03 0.00000 9.68468e-14
  11 3036.03 0.00000 -1.98696e-13
  12 3036.03 0.00000 3.45200e-15
  13 3036.03 0.00000 7.70109e-13
  14 3036.03 0.00000 1.02430e-12
  15 3036.03 0.00000 3.09552e-13
  16 3036.03 0.00000 4.83084e-14
</Section>

newXOutput 106

<Section columns = "stress_xx | stress_yy | stress_xy">
  1 3069.20 0.00000 -8.15788e-14
  2 3069.20 0.00000 -2.02342e-14
  3 3069.20 0.00000 -2.79155e-14
  4 3069.20 0.00000 1.21184e-14
  5 3069.20 0.00000 -9.47507e-14
  6 3069.20 0.00000 -8.79985e-14
  7 3069.20 0.00000 4.37381e-14
  8 3069.20 0.00000 3.81415e-14
  9 3069.20 0.00000 4.17245e-13
  10 3069.20 0.00000 3.71896e-13
  11 3069.20 0.00000 4.25684e-13
  12 3069.20 0.00000 2.15676e-13
  13 3069.20 0.00000 5.83729e-13
  14 3069.20 0.00000 3.21388e-13
  15 3069.20 0.00000 5.82022e-13
  16 3069.20 0.00000 5.37537e-13
</Section>

newXOutput 107

<Section columns = "stress_xx | stress_yy | stress_xy">
  1 3102.42 0.00000 2.97568e-14
  2 3102.42 0.00000 2.26556e-14
  3 3102.42 0.00000 7.62460e-14
  4 3102.42 0.00000 7.38565e-14
  5 3102.42 0.00000 1.77110e-13
  6 3102.42 0.00000 1.27301e-13
  7 3102.42 0.00000 -2.14395e-13
  8 3102.42 0.00000 -2.57653e-13
  9 3102.42 0.00000 2.66709e-13
  10 3102.42 0.00000 3.80911e-13
  11 3102.42 0.00000 -1.92114e-13
  12 3102.42 0.00000 -1.15445e-13
  13 3102.42 0.00000 -4.80754e-13
  14 3102.42 0.00000 -6.88533e-13
  15 3102.42 0.00000 2.90772e-13
  16 3102.42 0.00000 -4.49825e-14
</Section>

newXOutput 108

<Section columns = "stress_xx | stress_yy | stress_xy">
  1 3135.69 0.00000 -3.51266e-13
  2 3135.69 0.00000 -1.81007e-13
  3 3135.69 0.00000 -1.33021e-13
  4 3135.69 0.00000 -1.10391e-13
  5 3135.69 0.00000 -2.44064e-13
  6 3135.69 0.00000 -3.31454e-13
  7 3135.69 0.00000 -3.09926e-13
  8 3135.69 0.00000 -3.06370e-13
  9 3135.69 0.00000 -3.00025e-13
  10 3135.69 0.00000 -3.64799e-13
  11 3135.69 0.00000 -1.55939e-14
  12 3135.69 0.00000 -1.43043e-13
  13 3135.69 0.00000 -2.93398e-13
  14 3135.69 0.00000 -2.18406e-13
  15 3135.69 0.00000 4.92575e-13
  16 3135.69 0.00000 2.93479e-13
</Section>

newXOutput 109

<Section columns = "stress_xx | stress_yy | stress_xy">
  1 3169.01 0.00000 1.11792e-13
  2 3169.01 0.00000 -4.94241e-14
  3 3169.01 0.00000 4.14435e-13
  4 3169.01 0.00000 3.02361e-13
  5 3169.01 0.00000 3.15913e-13
  6 3169.01 0.00000 3.57401e-13
  7 3169.01 0.00000 4.90520e-13
  8 3169.01 0.00000 5.35302e-13
  9 3169.01 0.00000 1.56702e-13
  10 3169.01 0.00000 1.07993e-13
  11 3169.01 0.00000 -4.29727e-13
  12 3169.01 0.00000 -4.98134e-13
  13 3169.01 0.00000 -5.64586e-13
  14 3169.01 0.00000 -5.07959e-13
  15 3169.01 0.00000 1.03904e-13
  16 3169.01 0.00000 -9.84311e-14
</Section>

newXOutput 110

<Section columns = "stress_xx | stress_yy | stress_xy">
  1 3202.38 0.00000 1.92002e-13
  2 3202.38 0.00000 1.33517e-13
  3 3202.38 0.00000 1.35364e-13
  4 3202.38 0.00000 7.66062e-15
  5 3202.38 0.00000 3.11960e-14
  6 3202.38 0.00000 -1.22398e-13
  7 3202.38 0.00000 -4.62588e-15
  8 3202.38 0.00000 -5.64992e-14
  9 3202.38 0.00000 1.84280e-13
  10 3202.38 0.00000 3.26244e-13
  11 3202.38 0.00000 3.07619e-13
  12 3202.38 0.00000 5.46399e-13
  13 3202.38 0.00000 2.11894e-13
  14 3202.38 0.00000 3.39334e-13
  15 3202.38 0.00000 4.52078e-13
  16 3202.38 0.00000 2.85284e-13
</Section>

newXOutput 111

<Section columns = "stress_xx | stress_yy | stress_xy">
  1 3235.81 0.00000 -2.93166e-13
  2 3235.81 0.00000 -2.93166e-13
  3 3235.81 0.00000 -1.53683e-13
  4 3235.81 0.00000 -1.31562e-13
  5 3235.81 0.00000 -3.88291e-13
  6 3235.81 0.00000 -3.94108e-13
  7 3235.81 0.00000 4.27593e-14
  8 3235.81 0.00000 4.99017e-14
  9 3235.81 0.00000 3.03544e-13
  10 3235.81 0.00000 2.83802e-13
  11 3235.81 0.00000 1.28023e-12
  12 3235.81 0.00000 1.00045e-12
  13 3235.81 0.00000 2.06719e-14
  14 3235.81 0.00000 -6.50018e-14
  15 3235.81 0.00000 -4.31201e-13
  16 3235.81 0.00000 2.41449e-15
</Section>

newXOutput 112

<Section columns = "stress_xx | stress_yy | stress_xy">
  1 3269.28 0.00000 5.90266e-14
  2 3269.28 0.00000 3.99739e-14
  3 3269.28 0.00000 2.06255e-13
  4 3269.28 0.00000 1.94959e-13
  5 3269.28 0.00000 -2.86147e-14
  6 3269.28 0.00000 4.95258e-14
  7 3269.28 0.00000 -1.68623e-13
  8 3269.28 0.00000 -2.35154e-13
  9 3269.28 0.00000 5.94217e-14
  10 3269.28 0.00000 -5.63112e-14
  11 3269.28 0.00000 2.15407e-13
  12 3269.28 0.00000 3.31717e-13
  13 3269.28 0.00000 5.44866e-14
  14 3269.28 0.00000 3.10025e-13
  15 3269.28 0.00000 7.13177e-13
  16 3269.28 0.00000 6.27085e-13
</Section>

newXOutput 113

<Section columns = "stress_xx | stress_yy | stress_xy">
  1 3302.81 0.00000 -2.28107e-14
  2 3302.81 0.00000 5.84141e-15
  3 3302.81 0.00000 3.01001e-14
  4 3302.81 0.00000 2.29371e-14
  5 3302.81 0.00000 -7.48427e-14
  6 3302.81 0.00000 -1.40119e-13
  7 3302.81 0.00000 5.43766e-13
  8 3302.81 0.00000 5.83398e-13
  9 3302.81 0.00000 1.29061e-13
  10 3302.81 0.00000 2.59693e-13
  11 3302.81 0.00000 4.84020e-13
  12 3302.81 0.00000 5.20358e-13
  13 3302.81 0.00000 5.07014e-13
  14 3302.81 0.00000 5.38364e-13
  15 3302.81 0.00000 1.05957e-14
  16 3302.81 0.00000 3.26713e-13
</Section>

newXOutput 114

<Section columns = "stress_xx | stress_yy | stress_xy">
  1 3336.39 0.00000 -1.84223e-13
  2 3336.39 0.00000 -1.69299e-13
  3 3336.39 0.00000 8.96498e-14
  4 3336.39 0.00000 7.76849e-14
  5 3336.39 0.00000 1.49838e-13
  6 3336.39 0.00000 9.13173e-14
  7 3336.39 0.00000 -2.59643e-13
  8 3336.39 0.00000 -2.25200e-13
  9 3336.39 0.00000 -1.99528e-14
  10 3336.39 0.00000 4.71870e-14
  11 3336.39 0.00000 1.17891e-13
  12 3336.39 0.00000 3.13384e-13
  13 3336.39 0.00000 2.45786e-14
  14 3336.39 0.00000 3.53985e-13
  15 3336.39 0.00000 2.47406e-14
  16 3336.39 0.00000 5.55052e-13
</Section>

newXOutput 115

<Section columns = "stress_xx | stress_yy | stress_xy">
  1 3370.03 0.00000 2.38024e-13
  2 3370.03 0.00000 3.28330e-13
  3 3370.03 0.00000 -1.20186e-14
  4 3370.03 0.00000 -2.26046e-14
  5 3370.03 0.00000 -5.90570e-14
  6 3370.03 0.00000 -1.28473e-13
  7 3370.03 0.00000 1.13404e-14
  8 3370.03 0.00000 2.57077e-14
  9 3370.03 0.00000 -2.62295e-13
  10 3370.03 0.00000 -1.95319e-13
  11 3370.03 0.00000 4.23937e-13
  12 3370.03 0.00000 5.32277e-13
  13 3370.03 0.00000 5.94156e-14
  14 3370.03 0.00000 -9.11076e-14
  15 3370.03 0.00000 6.63700e-13
  16 3370.03 0.00000 2.42998e-14
</Section>

newXOutput 116

<Section columns = "stress_xx | stress_yy | stress_xy">
  1 3403.72 0.00000 -2.87451e-13
  2 3403.72 0.00000 -3.73778e-13
  3 3403.72 0.00000 -3.55721e-13
  4 3403.72 0.00000 -3.94066e-13
  5 3403.72 0.00000 -4.35676e-13
  6 3403.72 0.00000 -5.19989e-13
  7 3403.72 0.00000 2.99479e-13
  8 3403.72 0.00000 2.31874e-13
  9 3403.72 0.00000 -2.87463e-13
  10 3403.72 0.00000 -1.29981e-13
  11 3403.72 0.00000 -2.36687e-13
  12 3403.72 0.00000 -3.55297e-14
  13 3403.72 0.00000 3.47843e-13
  14 3403.72 0.00000 4.81395e-13
  15 3403.72 0.00000 1.76375e-13
  16 3403.72 0.00000 5.39621e-13
</Section>

newXOutput 117

<Section columns = "stress_xx | stress_yy | stress_xy">
  1 3437.46 0.00000 -7.70785e-14
  2 3437.46 0.00000 -1.26457e-13
  3 3437.46 0.00000 -7.00547e-14
  4 3437.46 0.00000 -5.58629e-14
  5 3437.46 0.00000 -4.79604e-13
  6 3437.46 0.00000 -4.24855e-13
  7 3437.46 0.00000 -5.78010e-13
  8 3437.46 0.00000 -5.62142e-13
  9 3437.46 0.00000 1.52857e-13
  10 3437.46 0.00000 2.90154e-13
  11 3437.46 0.00000 4.57743e-13
  12 3437.46 0.00000 4.92002e-13
  13 3437.46 0.00000 4.01608e-13
  14 3437.46 0.00000 2.64284e-13
  15 3437.46 0.00000 1.00862e-13
  16 3437.46 0.00000 6.90005e-14
</Section>

newXOutput 118

<Section columns = "stress_xx | stress_yy | stress_xy">
  1 3471.25 0.00000 -1.01042e-13
  2 3471.25 0.00000 -8.66134e-14
  3 3471.25 0.00000 5.84352e-15
  4 3471.25 0.00000 -1.58001e-14
  5 3471.25 0.00000 -4.15859e-13
  6 3471.25 0.00000 -4.95219e-13
  7 3471.25 0.00000 -2.52101e-13
  8 3471.25 0.00000 -2.88174e-13
  9 3471.25 0.00000 4.04641e-13
  10 3471.25 0.00000 5.03188e-13
  11 3471.25 0.00000 -1.16407e-13
  12 3471.25 0.00000 -1.26585e-14
  13 3471.25 0.00000 -5.05422e-14
  14 3471.25 0.00000 -1.71238e-13
  15 3471.25 0.00000 2.67280e-13
  16 3471.25 0.00000 4.63853e-13
</Section>

newXOutput 119

<Section columns = "stress_xx | stress_yy | stress_xy">
  1 3505.10 0.00000 -1.75386e-14
  2 3505.10 0.00000 -3.08888e-15
  3 3505.10 0.00000 2.45395e-13
  4 3505.10 0.00000 2.61987e-13
  5 3505.10 0.00000 3.10389e-13
  6 3505.10 0.00000 3.16609e-13
  7 3505.10 0.00000 -1.98761e-13
  8 3505.10 0.00000 -1.99787e-13
  9 3505.10 0.00000 -4.33094e-13
  10 3505.10 0.00000 -3.32813e-13
  11 3505.10 0.00000 -2.88928e-13
  12 3505.10 0.00000 -1.64590e-13
  13 3505.10 0.00000 2.16633e-13
  14 3505.10 0.00000 2.83149e-13
  15 3505.10 0.00000 2.45689e-13
  16 3505.10 0.00000 4.45295e-13
</Section>

newXOutput 120

<Section columns = "stress_xx | stress_yy | stress_xy">
  1 3539.00 0.00000 -1.75682e-14
  2 3539.00 0.00000 -3.09793e-15
  3 3539.00 0.00000 -9.42872e-14
  4 3539.00 0.00000 -3.64060e-14
  5 3539.00 0.00000 -7.81714e-14
  6 3539.00 0.00000 -2.02903e-14
  7 3539.00 0.00000 1.71805e-14
  8 3539.00 0.00000 6.59065e-16
  9 3539.00 0.00000 2.48825e-13
  10 3539.00 0.00000 3.25467e-13
  11 3539.00 0.00000 2.54301e-13
  12 3539.00 0.00000 3.93246e-13
  13 3539.00 0.00000 -5.80392e-13
  14 3539.00 0.00000 -4.18179e-13
  15 3539.00 0.00000 4.10113e-13
  16 3539.00 0.00000 1.69869e-13
</Section>

newXOutput 121

<Section columns = "stress_xx | stress_yy | stress_xy">
  1 3572.95 0.00000 5.48600e-14
  2 3572.95 0.00000 1.93821e-14
  3 3572.95 0.00000 -4.92352e-14
  4 3572.95 0.00000 -7.11047e-14
  5 3572.95 0.00000 1.48439e-13
  6 3572.95 0.00000 1.70175e-13
  7 3572.95 0.00000 1.18074e-14
  8 3572.95 0.00000 -6.13407e-14
  9 3572.95 0.00000 1.02069e-13
  10 3572.95 0.00000 1.56367e-13
  11 3572.95 0.00000 -2.45515e-13
  12 3572.95 0.00000 -6.57857e-14
  13 3572.95 0.00000 5.79893e-15
  14 3572.95 0.00000 -2.09121e-13
  15 3572.95 0.00000 7.62687e-14
  16 3572.95 0.00000 -3.95303e-14
</Section>

newXOutput 122

<Section columns = "stress_xx | stress_yy | stress_xy">
  1 3606.96 0.00000 -1.02986e-13
  2 3606.96 0.00000 -1.32009e-13
  3 3606.96 0.00000 -2.09897e-14
  4 3606.96 0.00000 7.71915e-15
  5 3606.96 0.00000 -2.58139e-13
  6 3606.96 0.00000 -1.95511e-13
  7 3606.96 0.00000 -3.41119e-13
  8 3606.96 0.00000 -3.05942e-13
  9 3606.96 0.00000 -4.81396e-13
  10 3606.96 0.00000 -4.25056e-13
  11 3606.96 0.00000 -5.22211e-13
  12 3606.96 0.00000 -5.70432e-13
  13 3606.96 0.00000 4.74808e-15
  14 3606.96 0.00000 -1.71020e-14
  15 3606.96 0.00000 -8.33754e-14
  16 3606.96 0.00000 -1.45727e-13
</Section>

newXOutput 123

<Section columns = "stress_xx | stress_yy | stress_xy">
  1 3641.02 0.00000 -1.93419e-13
  2 3641.02 0.00000 -1.89042e-13
  3 3641.02 0.00000 -5.05035e-14
  4 3641.02 0.00000 -8.26633e-14
  5 3641.02 0.00000 -9.90122e-14
  6 3641.02 0.00000 -1.80990e-13
  7 3641.02 0.00000 6.42574e-14
  8 3641.02 0.00000 1.58629e-13
  9 3641.02 0.00000 -4.12584e-14
  10 3641.02 0.00000 1.06164e-13
  11 3641.02 0.00000 4.11787e-14
  12 3641.02 0.00000 1.89695e-13
  13 3641.02 0.00000 -6.56933e-13
  14 3641.02 0.00000 -3.01997e-13
  15 3641.02 0.00000 2.68678e-13
  16 3641.02 0.00000 4.59174e-14
</Section>

newXOutput 124

<Section columns = "stress_xx | stress_yy | stress_xy">
  1 3675.14 0.00000 1.54313e-13
  2 3675.14 0.00000 1.16761e-13
  3 3675.14 0.00000 2.31504e-13
  4 3675.14 0.00000 2.71876e-13
  5 3675.14 0.00000 3.87965e-13
  6 3675.14 0.00000 5.27695e-13
  7 3675.14 0.00000 5.77576e-13
  8 3675.14 0.00000 4.97244e-13
  9 3675.14 0.00000 6.80209e-13
  10 3675.14 0.00000 6.21093e-13
  11 3675.14 0.00000 -1.69749e-13
  12 3675.14 0.00000 4.32451e-14
  13 3675.14 0.00000 -7.26784e-13
  14 3675.14 0.00000 -8.74394e-13
  15 3675.14 0.00000 -1.29057e-13
  16 3675.14 0.00000 -6.99478e-13
</Section>

newXOutput 125

<Section columns = "stress_xx | stress_yy | stress_xy">
  1 3709.31 0.00000 -2.16057e-13
  2 3709.31 0.00000 -1.48485e-13
  3 3709.31 0.00000 -6.78967e-14
  4 3709.31 0.00000 -1.67784e-14
  5 3709.31 0.00000 -2.64745e-13
  6 3709.31 0.00000 -2.66267e-13
  7 3709.31 0.00000 -3.76571e-13
  8 3709.31 0.00000 -2.68835e-13
  9 3709.31 0.00000 1.00702e-13
  10 3709.31 0.00000 3.59433e-13
  11 3709.31 0.00000 -4.57387e-13
  12 3709.31 0.00000 -2.74938e-13
  13 3709.31 0.00000 -4.34413e-13
  14 3709.31 0.00000 -2.88753e-13
  15 3709.31 0.00000 3.85278e-13
  16 3709.31 0.00000 -2.12440e-14
</Section>

newXOutput 126

<Section columns = "stress_xx | stress_yy | stress_xy">
  1 3743.54 0.00000 7.01702e-14
  2 3743.54 0.00000 1.86922e-13
  3 3743.54 0.00000 1.59513e-13
  4 3743.54 0.00000 2.44718e-13
  5 3743.54 0.00000 -1.63417e-13
  6 3743.54 0.00000 -1.28439e-13
  7 3743.54 0.00000 -5.02611e-13
  8 3743.54 0.00000 -3.56789e-13
  9 3743.54 0.00000 -5.61527e-13
  10 3743.54 0.00000 -4.51670e-13
  11 3743.54 0.00000 -5.59055e-13
  12 3743.54 0.00000 -5.63751e-13
  13 3743.54 0.00000 5.05001e-13
  14 3743.54 0.00000 5.78228e-13
  15 3743.54 0.00000 4.52641e-13
  16 3743.54 0.00000 7.81435e-13
</Section>

newXOutput 127

<Section columns = "stress_xx | stress_yy | stress_xy">
  1 3777.82 0.00000 -6.03309e-14
  2 3777.82 0.00000 -1.26994e-13
  3 3777.82 0.00000 1.25397e-13
  4 3777.82 0.00000 8.24010e-14
  5 3777.82 0.00000 -1.87099e-14
  6 3777.82 0.00000 -5.58488e-15
  7 3777.82 0.00000 1.32894e-13
  8 3777.82 0.00000 1.46996e-13
  9 3777.82 0.00000 4.26298e-13
  10 3777.82 0.00000 3.82011e-13
  11 3777.82 0.00000 -5.92985e-13
  12 3777.82 0.00000 -5.04093e-13
  13 3777.82 0.00000 -4.96176e-13
  14 3777.82 0.00000 -6.76498e-13
  15 3777.82 0.00000 -9.23529e-14
  16 3777.82 0.00000 -4.86581e-13
</Section>

newXOutput 128

<Section columns = "stress_xx | stress_yy | stress_xy">
  1 3812.16 0.00000 1.19773e-13
  2 3812.16 0.00000 -3.47832e-14
  3 3812.16 0.00000 8.74846e-14
  4 3812.16 0.00000 -5.97536e-14
  5 3812.16 0.00000 2.58469e-13
  6 3812.16 0.00000 2.58469e-13
  7 3812.16 0.00000 -5.42145e-13
  8 3812.16 0.00000 -4.79502e-13
  9 3812.16 0.00000 -1.56678e-13
  10 3812.16 0.00000 -2.09953e-13
  11 3812.16 0.00000 -1.82707e-13
  12 3812.16 0.00000 -1.17094e-13
  13 3812.16 0.00000 3.07381e-14
  14 3812.16 0.00000 3.49411e-13
  15 3812.16 0.00000 -7.28020e-14
  16 3812.16 0.00000 2.87553e-13
</Section>

newXOutput 129

<Section columns = "stress_xx | stress_yy | stress_xy">
  1 3846.55 0.00000 -9.42745e-14
  2 3846.55 0.00000 -1.38242e-13
  3 3846.55 0.00000 -1.12779e-13
  4 3846.55 0.00000 -9.06678e-14
  5 3846.55 0.00000 -2.54597e-13
  6 3846.55 0.00000 -1.80294e-13
  7 3846.55 0.00000 1.36824e-13
  8 3846.55 0.00000 1.20117e-13
  9 3846.55 0.00000 5.79870e-13
  10 3846.55 0.00000 4.66049e-13
  11 3846.55 0.00000 3.66252e-13
  12 3846.55 0.00000 3.51133e-13
  13 3846.55 0.00000 3.53773e-13
  14 3846.55 0.00000 4.93163e-13
  15 3846.55 0.00000 1.04383e-12
  16 3846.55 0.00000 1.23072e-12
</Section>

newXOutput 130

<Section columns = "stress_xx | stress_yy | stress_xy">
  1 3881.00 0.00000 -9.68813e-14
  2 3881.00 0.00000 -9.27408e-14
  3 3881.00 0.00000 -1.64291e-13
  4 3881.00 0.00000 -1.65870e-13
  5 3881.00 0.00000 -1.03040e-13
  6 3881.00 0.00000 -5.49087e-14
  7 3881.00 0.00000 1.51966e-13
  8 3881.00 0.00000 1.44627e-13
  9 3881.00 0.00000 2.96279e-13
  10 3881.00 0.00000 1.80053e-13
  11 3881.00 0.00000 2.92615e-13
  12 3881.00 0.00000 3.41791e-13
  13 3881.00 0.00000 -2.70830e-13
  14 3881.00 0.00000 -1.73244e-13
  15 3881.00 0.00000 -3.22027e-13
  16 3881.00 0.00000 -1.65764e-13
</Section>

newXOutput 131

<Section columns = "stress_xx | stress_yy | stress_xy">
  1 3915.51 0.00000 -2.63399e-13
  2 3915.51 0.00000 -3.51580e-13
  3 3915.51 0.00000 9.83197e-14
  4 3915.51 0.00000 3.46208e-14
  5 3915.51 0.00000 -3.96333e-13
  6 3915.51 0.00000 -3.77017e-13
  7 3915.51 0.00000 1.03997e-13
  8 3915.51 0.00000 2.34613e-13
  9 3915.51 0.00000 7.02075e-13
  10 3915.51 0.00000 7.70854e-13
  11 3915.51 0.00000 -5.37442e-14
  12 3915.51 0.00000 -3.01642e-13
  13 3915.51 0.00000 3.12652e-13
  14 3915.51 0.00000 -3.88895e-14
  15 3915.51 0.00000 -1.38169e-13
  16 3915.51 0.00000 -2.07087e-15
</Section>

newXOutput 132

<Section columns = "stress_xx | stress_yy | stress_xy">
  1 3950.07 0.00000 3.62282e-14
  2 3950.07 0.00000 7.59191e-14
  3 3950.07 0.00000 1.68093e-13
  4 3950.07 0.00000 2.23626e-13
  5 3950.07 0.00000 -2.76514e-13
  6 3950.07 0.00000 -2.53292e-13
  7 3950.07 0.00000 -2.72505e-13
  8 3950.07 0.00000 -3.40066e-13
  9 3950.07 0.00000 2.57759e-13
  10 3950.07 0.00000 9.45191e-14
  11 3950.07 0.00000 4.44896e-13
  12 3950.07 0.00000 5.91494e-13
  13 3950.07 0.00000 6.21321e-13
  14 3950.07 0.00000 1.00995e-12
  15 3950.07 0.00000 6.23185e-13
  16 3950.07 0.00000 9.29843e-13
</Section>

newXOutput 133

<Section columns = "stress_xx | stress_yy | stress_xy">
  1 3984.69 0.00000 -6.16460e-14
  2 3984.69 0.00000 -1.28803e-13
  3 3984.69 0.00000 2.47762e-13
  4 3984.69 0.00000 2.58960e-13
  5 3984.69 0.00000 2.23646e-13
  6 3984.69 0.00000 3.50545e-13
  7 3984.69 0.00000 3.94497e-13
  8 3984.69 0.00000 4.69479e-13
  9 3984.69 0.00000 -4.16095e-13
  10 3984.69 0.00000 -4.50921e-13
  11 3984.69 0.00000 8.57228e-15
  12 3984.69 0.00000 1.25907e-13
  13 3984.69 0.00000 2.96539e-13
  14 3984.69 0.00000 4.97767e-13
  15 3984.69 0.00000 -1.01890e-13
  16 3984.69 0.00000 2.09844e-14
</Section>

newXOutput 134

<Section columns = "stress_xx | stress_yy | stress_xy">
  1 4019.37 0.00000 1.61416e-13
  2 4019.37 0.00000 5.52574e-15
  3 4019.37 0.00000 -1.55000e-13
  4 4019.37 0.00000 -1.07575e-13
  5 4019.37 0.00000 -8.77956e-14
  6 4019.37 0.00000 2.02953e-14
  7 4019.37 0.00000 1.13730e-13
  8 4019.37 0.00000 -4.12611e-14
  9 4019.37 0.00000 4.13331e-13
  10 4019.37 0.00000 3.91945e-13
  11 4019.37 0.00000 4.14342e-13
  12 4019.37 0.00000 6.82626e-13
  13 4019.37 0.00000 7.77150e-13
  14 4019.37 0.00000 6.13078e-13
  15 4019.37 0.00000 5.83000e-13
  16 4019.37 0.00000 2.20062e-13
</Section>

newXOutput 135

<Section columns = "stress_xx | stress_yy | stress_xy">
  1 4054.10 0.00000 -1.77597e-13
  2 4054.10 0.00000 -1.20952e-13
  3 4054.10 0.00000 -1.28800e-13
  4 4054.10 0.00000 -4.90429e-14
  5 4054.10 0.00000 -7.55575e-15
  6 4054.10 0.00000 -3.68264e-14
  7 4054.10 0.00000 -4.40678e-13
  8 4054.10 0.00000 -4.54997e-13
  9 4054.10 0.00000 -4.83743e-14
  10 4054.10 0.00000 5.32940e-14
  11 4054.10 0.00000 -1.89029e-13
  12 4054.10 0.00000 -4.37250e-13
  13 4054.10 0.00000 -5.18199e-13
  14 4054.10 0.00000 -7.40593e-13
  15 4054.10 0.00000 5.96805e-13
  16 4054.10 0.00000 6.75865e-13
</Section>

newXOutput 136

<Section columns = "stress_xx | stress_yy | stress_xy">
  1 4088.89 0.00000 -1.00990e-13
  2 4088.89 0.00000 -7.13904e-14
  3 4088.89 0.00000 -3.13994e-14
  4 4088.89 0.00000 -5.17767e-14
  5 4088.89 0.00000 -3.47124e-13
  6 4088.89 0.00000 -4.05234e-13
  7 4088.89 0.00000 -4.23242e-13
  8 4088.89 0.00000 -4.12544e-13
  9 4088.89 0.00000 1.69936e-13
  10 4088.89 0.00000 9.17509e-14
  11 4088.89 0.00000 -2.27120e-13
  12 4088.89 0.00000 -2.31726e-13
  13 4088.89 0.00000 -3.22047e-13
  14 4088.89 0.00000 -1.67369e-13
  15 4088.89 0.00000 -3.04311e-13
  16 4088.89 0.00000 -1.98944e-13
</Section>

newXOutput 137

<Section columns = "stress_xx | stress_yy | stress_xy">
  1 4123.74 0.00000 -1.30764e-13
  2 4123.74 0.00000 -1.30764e-13
  3 4123.74 0.00000 -1.51554e-13
  4 4123.74 0.00000 -6.62278e-14
  5 4123.74 0.00000 -1.16610e-13
  6 4123.74 0.00000 1.08695e-14
  7 4123.74 0.00000 -4.57789e-13
  8 4123.74 0.00000 -4.96875e-13
  9 4123.74 0.00000 2.99561e-13
  10 4123.74 0.00000 8.35671e-14
  11 4123.74 0.00000 1.12820e-13
  12 4123.74 0.00000 7.98381e-14
  13 4123.74 0.00000 1.86715e-13
  14 4123.74 0.00000 5.08500e-13
  15 4123.74 0.00000 3.63557e-13
  16 4123.74 0.00000 7.78474e-13
</Section>

newXOutput 138

<Section columns = "stress_xx | stress_yy | stress_xy">
  1 4158.65 0.00000 7.62077e-14
  2 4158.65 0.00000 -9.91175e-14
  3 4158.65 0.00000 2.44330e-14
  4 4158.65 0.00000 -1.37412e-13
  5 4158.65 0.00000 -5.19638e-14
  6 4158.65 0.00000 -1.10061e-13
  7 4158.65 0.00000 -2.99454e-13
  8 4158.65 0.00000 -2.97753e-13
  9 4158.65 0.00000 2.67753e-14
  10 4158.65 0.00000 1.45738e-13
  11 4158.65 0.00000 -3.60602e-13
  12 4158.65 0.00000 -1.14413e-13
  13 4158.65 0.00000 -6.51586e-13
  14 4158.65 0.00000 -7.49958e-13
  15 4158.65 0.00000 8.62693e-14
  16 4158.65 0.00000 5.95323e-14
</Section>

newXOutput 139

<Section columns = "stress_xx | stress_yy | stress_xy">
  1 4193.61 0.00000 -2.92875e-14
  2 4193.61 0.00000 -1.67414e-13
  3 4193.61 0.00000 4.32133e-14
  4 4193.61 0.00000 8.61587e-15
  5 4193.61 0.00000 -1.59479e-13
  6 4193.61 0.00000 -2.06076e-15
  7 4193.61 0.00000 -1.37705e-13
  8 4193.61 0.00000 -7.31116e-14
  9 4193.61 0.00000 -1.50670e-13
  10 4193.61 0.00000 -1.80527e-13
  11 4193.61 0.00000 -3.02534e-13
  12 4193.61 0.00000 -3.14418e-13
  13 4193.61 0.00000 2.66724e-13
  14 4193.61 0.00000 9.84296e-14
  15 4193.61 0.00000 6.56736e-13
  16 4193.61 0.00000 -5.31076e-14
</Section>

newXOutput 140

<Section columns = "stress_xx | stress_yy | stress_xy">
  1 4228.64 0.00000 -9.43010e-14
  2 4228.64 0.00000 -1.60899e-14
  3 4228.64 0.00000 -1.35392e-13
  4 4228.64 0.00000 -8.37514e-14
  5 4228.64 0.00000 -1.37259e-13
  6 4228.64 0.00000 -8.20759e-14
  7 4228.64 0.00000 -6.65212e-14
  8 4228.64 0.00000 -7.26747e-14
  9 4228.64 0.00000 -7.56586e-14
  10 4228.64 0.00000 -2.46433e-13
  11 4228.64 0.00000 -2.08020e-13
  12 4228.64 0.00000 -1.56378e-13
  13 4228.64 0.00000 -1.01527e-12
  14 4228.64 0.00000 -4.75976e-13
  15 4228.64 0.00000 -7.89107e-13
  16 4228.64 0.00000 -3.07290e-13
</Section>

newXOutput 141

<Section columns = "stress_xx | stress_yy | stress_xy">
  1 4263.72 0.00000 6.25175e-14
  2 4263.72 0.00000 -1.96722e-14
  3 4263.72 0.00000 -3.17351e-14
  4 4263.72 0.00000 -2.36391e-14
  5 4263.72 0.00000 6.04952e-14
  6 4263.72 0.00000 1.43575e-13
  7 4263.72 0.00000 -3.22881e-13
  8 4263.72 0.00000 -2.96424e-13
  9 4263.72 0.00000 2.50995e-13
  10 4263.72 0.00000 1.41970e-13
  11 4263.72 0.00000 -4.65910e-13
  12 4263.72 0.00000 -4.40501e-13
  13 4263.72 0.00000 7.06756e-14
  14 4263.72 0.00000 4.15446e-13
  15 4263.72 0.00000 2.77630e-13
  16 4263.72 0.00000 7.79289e-13
</Section>

newXOutput 142

<Section columns = "stress_xx | stress_yy | stress_xy">
  1 4298.86 0.00000 -2.90381e-13
  2 4298.86 0.00000 -1.73981e-13
  3 4298.86 0.00000 -3.27089e-13
  4 4298.86 0.00000 -2.35945e-13
  5 4298.86 0.00000 -3.09111e-13
  6 4298.86 0.00000 -3.61343e-13
  7 4298.86 0.00000 -6.30686e-13
  8 4298.86 0.00000 -7.03252e-13
  9 4298.86 0.00000 -5.38356e-14
  10 4298.86 0.00000 -9.71744e-14
  11 4298.86 0.00000 1.04850e-12
  12 4298.86 0.00000 1.20467e-12
  13 4298.86 0.00000 -2.33533e-13
  14 4298.86 0.00000 1.70928e-13
  15 4298.86 0.00000 -2.78169e-13
  16 4298.86 0.00000 -2.69204e-13
</Section>

newXOutput 143

<Section columns = "stress_xx | stress_yy | stress_xy">
  1 4334.06 0.00000 -2.53273e-14
  2 4334.06 0.00000 9.42260e-14
  3 4334.06 0.00000 2.55637e-14
  4 4334.06 0.00000 1.15229e-13
  5 4334.06 0.00000 -2.27611e-13
  6 4334.06 0.00000 -2.84018e-13
  7 4334.06 0.00000 -3.99286e-14
  8 4334.06 0.00000 -1.56845e-13
  9 4334.06 0.00000 4.50260e-13
  10 4334.06 0.00000 2.80037e-13
  11 4334.06 0.00000 2.76958e-13
  12 4334.06 0.00000 1.38297e-13
  13 4334.06 0.00000 3.11527e-13
  14 4334.06 0.00000 5.88516e-13
  15 4334.06 0.00000 6.05704e-14
  16 4334.06 0.00000 1.19982e-13
</Section>

newXOutput 144

<Section columns = "stress_xx | stress_yy | stress_xy">
  1 4369.32 0.00000 -1.13524e-13
  2 4369.32 0.00000 -2.26482e-13
  3 4369.32 0.00000 4.31288e-14
  4 4369.32 0.00000 2.58357e-14
  5 4369.32 0.00000 5.09808e-13
  6 4369.32 0.00000 5.77098e-13
  7 4369.32 0.00000 4.49558e-13
  8 4369.32 0.00000 3.28568e-13
  9 4369.32 0.00000 4.16393e-13
  10 4369.32 0.00000 2.70410e-13
  11 4369.32 0.00000 -1.33158e-13
  12 4369.32 0.00000 4.57251e-14
  13 4369.32 0.00000 2.05096e-13
  14 4369.32 0.00000 4.38627e-13
  15 4369.32 0.00000 6.39667e-13
  16 4369.32 0.00000 7.70275e-13
</Section>

newXOutput 145

<Section columns = "stress_xx | stress_yy | stress_xy">
  1 4404.64 0.00000 -3.25311e-14
  2 4404.64 0.00000 -1.39179e-14
  3 4404.64 0.00000 1.23665e-13
  4 4404.64 0.00000 1.86041e-13
  5 4404.64 0.00000 2.26769e-15
  6 4404.64 0.00000 2.35553e-14
  7 4404.64 0.00000 -1.42868e-13
  8 4404.64 0.00000 -2.46859e-13
  9 4404.64 0.00000 -1.87535e-13
  10 4404.64 0.00000 -2.14825e-13
  11 4404.64 0.00000 1.06935e-13
  12 4404.64 0.00000 3.79593e-13
  13 4404.64 0.00000 -2.43748e-14
  14 4404.64 0.00000 2.23713e-13
  15 4404.64 0.00000 -3.38045e-13
  16 4404.64 0.00000 -2.29045e-13
</Section>

newXOutput 146

<Section columns = "stress_xx | stress_yy | stress_xy">
  1 4440.02 0.00000 -8.49315e-14
  2 4440.02 0.00000 -2.81156e-14
  3 4440.02 0.00000 -8.43276e-14
  4 4440.02 0.00000 6.72864e-15
  5 4440.02 0.00000 -2.64388e-14
  6 4440.02 0.00000 -2.55614e-14
  7 4440.02 0.00000 -9.02593e-14
  8 4440.02 0.00000 -2.41021e-13
  9 4440.02 0.00000 -6.47894e-14
  10 4440.02 0.00000 -1.38573e-13
  11 4440.02 0.00000 -6.84380e-14
  12 4440.02 0.00000 -3.91577e-14
  13 4440.02 0.00000 9.16978e-14
  14 4440.02 0.00000 2.13323e-13
  15 4440.02 0.00000 -3.48451e-13
  16 4440.02 0.00000 2.04482e-13
</Section>

newXOutput 147

<Section columns = "stress_xx | stress_yy | stress_xy">
  1 4475.46 0.00000 -1.75298e-13
  2 4475.46 0.00000 8.11859e-14
  3 4475.46 0.00000 8.86598e-15
  4 4475.46 0.00000 2.06212e-13
  5 4475.46 0.00000 4.45731e-13
  6 4475.46 0.00000 4.24542e-13
  7 4475.46 0.00000 3.75793e-13
  8 4475.46 0.00000 2.60609e-13
  9 4475.46 0.00000 -2.37274e-13
  10 4475.46 0.00000 -1.68050e-13
  11 4475.46 0.00000 -2.37567e-13
  12 4475.46 0.00000 -1.07703e-13
  13 4475.46 0.00000 4.77598e-13
  14 4475.46 0.00000 5.67942e-13
  15 4475.46 0.00000 5.67182e-13
  16 4475.46 0.00000 2.28380e-13
</Section>

newXOutput 148

<Section columns = "stress_xx | stress_yy | stress_xy">
  1 4510.96 0.00000 -2.68963e-14
  2 4510.96 0.00000 3.19811e-15
  3 4510.96 0.00000 -9.73241e-14
  4 4510.96 0.00000 -6.95512e-14
  5 4510.96 0.00000 -6.14323e-13
  6 4510.96 0.00000 -6.87278e-13
  7 4510.96 0.00000 -3.29688e-13
  8 4510.96 0.00000 -4.33648e-13
  9 4510.96 0.00000 6.93541e-13
  10 4510.96 0.00000 7.82454e-13
  11 4510.96 0.00000 4.61255e-13
  12 4510.96 0.00000 7.20573e-13
  13 4510.96 0.00000 1.07491e-12
  14 4510.96 0.00000 1.33395e-12
  15 4510.96 0.00000 8.96249e-13
  16 4510.96 0.00000 8.13593e-13
</Section>

newXOutput 149

<Section columns = "stress_xx | stress_yy | stress_xy">
  1 4546.52 0.00000 -1.86399e-13
  2 4546.52 0.00000 -1.71331e-13
  3 4546.52 0.00000 -1.58525e-13
  4 4546.52 0.00000 -1.32089e-13
  5 4546.52 0.00000 -6.84442e-14
  6 4546.52 0.00000 -9.14985e-14
  7 4546.52 0.00000 -6.16038e-13
  8 4546.52 0.00000 -7.63717e-13
  9 4546.52 0.00000 -2.35327e-13
  10 4546.52 0.00000 -2.57801e-13
  11 4546.52 0.00000 -2.60407e-13
  12 4546.52 0.00000 -4.34955e-14
  13 4546.52 0.00000 7.16418e-13
  14 4546.52 0.00000 8.57193e-13
  15 4546.52 0.00000 7.07105e-13
  16 4546.52 0.00000 7.36374e-13
</Section>

newXOutput 150

<Section columns = "stress_xx | stress_yy | stress_xy">
  1 4582.14 0.00000 1.73051e-14
  2 4582.14 0.00000 -6.63415e-14
  3 4582.14 0.00000 3.68893e-13
  4 4582.14 0.00000 1.86245e-13
  5 4582.14 0.00000 3.94366e-14
  6 4582.14 0.00000 -1.07721e-13
  7 4582.14 0.00000 -5.02751e-13
  8 4582.14 0.00000 -6.28151e-13
  9 4582.14 0.00000 -8.00431e-14
  10 4582.14 0.00000 -1.88627e-13
  11 4582.14 0.00000 -3.32119e-13
  12 4582.14 0.00000 -5.86156e-14
  13 4582.14 0.00000 -5.64398e-13
  14 4582.14 0.00000 -3.55028e-13
  15 4582.14 0.00000 -7.49446e-13
  16 4582.14 0.00000 -8.44079e-13
</Section>

newXOutput 151

<Section columns = "stress_xx | stress_yy | stress_xy">
  1 4617.83 0.00000 6.14792e-14
  2 4617.83 0.00000 3.84522e-15
  3 4617.83 0.00000 -1.57860e-13
  4 4617.83 0.00000 -2.11657e-13
  5 4617.83 0.00000 -2.54393e-13
  6 4617.83 0.00000 -3.74954e-13
  7 4617.83 0.00000 3.15696e-14
  8 4617.83 0.00000 9.18148e-16
  9 4617.83 0.00000 -3.67748e-13
  10 4617.83 0.00000 -1.85048e-13
  11 4617.83 0.00000 -1.98870e-13
  12 4617.83 0.00000 2.39111e-14
  13 4617.83 0.00000 6.80602e-13
  14 4617.83 0.00000 8.43822e-13
  15 4617.83 0.00000 2.19818e-13
  16 4617.83 0.00000 3.48895e-13
</Section>

newXOutput 152

<Section columns = "stress_xx | stress_yy | stress_xy">
  1 4653.57 0.00000 -1.43336e-13
  2 4653.57 0.00000 -2.18984e-13
  3 4653.57 0.00000 -6.96087e-14
  4 4653.57 0.00000 -6.57697e-14
  5 4653.57 0.00000 -2.17664e-13
  6 4653.57 0.00000 -2.35917e-13
  7 4653.57 0.00000 -3.72725e-13
  8 4653.57 0.00000 -6.36928e-13
  9 4653.57 0.00000 8.57973e-14
  10 4653.57 0.00000 -5.62016e-15
  11 4653.57 0.00000 4.60499e-13
  12 4653.57 0.00000 8.67097e-13
  13 4653.57 0.00000 5.09199e-13
  14 4653.57 0.00000 5.73872e-13
  15 4653.57 0.00000 9.12448e-13
  16 4653.57 0.00000 4.18764e-13
</Section>

newXOutput 153

<Section columns = "stress_xx | stress_yy | stress_xy">
  1 4689.38 0.00000 -1.13421e-13
  2 4689.38 0.00000 4.80190e-14
  3 4689.38 0.00000 8.79267e-14
  4 4689.38 0.00000 2.14153e-13
  5 4689.38 0.00000 -8.46889e-14
  6 4689.38 0.00000 -1.44924e-13
  7 4689.38 0.00000 -8.10076e-13
  8 4689.38 0.00000 -8.91980e-13
  9 4689.38 0.00000 -3.87355e-13
  10 4689.38 0.00000 -3.34075e-13
  11 4689.38 0.00000 6.02748e-14
  12 4689.38 0.00000 1.99477e-13
  13 4689.38 0.00000 4.29087e-13
  14 4689.38 0.00000 8.01529e-13
  15 4689.38 0.00000 -1.93804e-14
  16 4689.38 0.00000 4.83094e-13
</Section>

newXOutput 154

<Section columns = "stress_xx | stress_yy | stress_xy">
  1 4725.25 0.00000 -1.48057e-14
  2 4725.25 0.00000 -1.94858e-13
  3 4725.25 0.00000 1.23725e-13
  4 4725.25 0.00000 -5.38550e-14
  5 4725.25 0.00000 -1.70645e-13
  6 4725.25 0.00000 -1.60616e-13
  7 4725.25 0.00000 2.56660e-14
  8 4725.25 0.00000 1.05622e-13
  9 4725.25 0.00000 1.17591e-14
  10 4725.25 0.00000 -1.59648e-13
  11 4725.25 0.00000 -1.08045e-13
  12 4725.25 0.00000 -9.94751e-14
  13 4725.25 0.00000 5.24340e-13
  14 4725.25 0.00000 9.21986e-13
  15 4725.25 0.00000 5.12414e-13
  16 4725.25 0.00000 9.47492e-13
</Section>

newXOutput 155

<Section columns = "stress_xx | stress_yy | stress_xy">
  1 4761.18 0.00000 -1.33459e-14
  2 4761.18 0.00000 -1.43082e-13
  3 4761.18 0.00000 -1.60720e-13
  4 4761.18 0.00000 -2.22353e-13
  5 4761.18 0.00000 -3.47568e-14
  6 4761.18 0.00000 5.18759e-14
  7 4761.18 0.00000 -3.19555e-13
  8 4761.18 0.00000 -3.32695e-13
  9 4761.18 0.00000 -1.43001e-13
  10 4761.18 0.00000 -1.25735e-13
  11 4761.18 0.00000 2.01096e-13
  12 4761.18 0.00000 4.11514e-13
  13 4761.18 0.00000 1.19626e-12
  14 4761.18 0.00000 1.08219e-12
  15 4761.18 0.00000 5.38290e-13
  16 4761.18 0.00000 5.23099e-13
</Section>

newXOutput 156

<Section columns = "stress_xx | stress_yy | stress_xy">
  1 4785.50 0.00000 0.0361156
  2 4785.50 0.00000 -0.0361156
  3 4785.58 0.00000 0.289674
  4 4785.58 0.00000 -0.289674
  5 4785.19 0.00000 0.376433
  6 4785.19 0.00000 -0.376433
  7 4776.05 0.00000 0.104810
  8 4776.05 0.00000 -0.104810
  9 4776.05 0.00000 -0.104810
  10 4776.05 0.00000 0.104810
  11 4785.19 0.00000 -0.376433
  12 4785.19 0.00000 0.376433
  13 4785.58 0.00000 -0.289674
  14 4785.58 0.00000 0.289674
  15 4785.50 0.00000 -0.0361156
  16 4785.50 0.00000 0.0361156
</Section>

newXOutput 157

<Section columns = "stress_xx | stress_yy | stress_xy">
  1 4783.28 0.00000 0.430498
  2 4783.28 0.00000 -0.430498
  3 4783.10 0.00000 0.751158
  4 4783.10 0.00000 -0.751158
  5 4782.82 0.00000 1.32503
  6 4782.82 0.00000 -1.32503
  7 4754.21 0.00000 0.789157
  8 4754.21 0.00000 -0.789157
  9 4754.21 0.00000 -0.789157
  10 4754.21 0.00000 0.789157
  11 4782.82 0.00000 -1.32503
  12 4782.82 0.00000 1.32503
  13 4783.10 0.00000 -0.751158
  14 4783.10 0.00000 0.751158
  15 4783.28 0.00000 -0.430498
  16 4783.28 0.00000 0.430498
</Section>

newXOutput 158

<Section columns = "stress_xx | stress_yy | stress_xy">
  1 4785.03 0.00000 0.592543
  2 4785.03 0.00000 -0.592543
  3 4784.77 0.00000 1.00295
  4 4784.77 0.00000 -1.00295
  5 4784.35 0.00000 1.62030
  6 4784.35 0.00000 -1.62030
  7 4735.91 0.00000 0.913669
  8 4735.91 0.00000 -0.913669
  9 4735.91 0.00000 -0.913669
  10 4735.91 0.00000 0.913669
  11 4784.35 0.00000 -1.62030
  12 4784.35 0.00000 1.62030
  13 4784.77 0.00000 -1.00295
  14 4784.77 0.00000 1.00295
  15 4785.03 0.00000 -0.592543
  16 4785.03 0.00000 0.592543
</Section>

newXOutput 159

<Section columns = "stress_xx | stress_yy | stress_xy">
  1 4783.79 0.00000 0.685455
  2 4783.79 0.00000 -0.685455
  3 4783.48 0.00000 1.13545
  4 4783.48 0.00000 -1.13545
  5 4783.03 0.00000 1.84063
  6 4783.03 0.00000 -1.84063
  7 4713.78 0.00000 1.04797
  8 4713.78 0.00000 -1.04797
  9 4713.78 0.00000 -1.04797
  10 4713.78 0.00000 1.04797
  11 4783.03 0.00000 -1.84063
  12 4783.03 0.00000 1.84063
  13 4783.48 0.00000 -1.13545
  14 4783.48 0.00000 1.13545
  15 4783.79 0.00000 -0.685455
  16 4783.79 0.00000 0.685455
</Section>

newXOutput 160

<Section columns = "stress_xx | stress_yy | stress_xy">
  1 4788.74 0.00000 0.659703
  2 4788.74 0.00000 -0.659703
  3 4788.53 0.00000 1.22561
  4 4788.53 0.00000 -1.22561
  5 4787.57 0.00000 1.27164
  6 4787.57 0.00000 -1.27164
  7 4697.84 0.00000 0.375829
  8 4697.84 0.00000 -0.375829
  9 4697.84 0.00000 -0.375829
  10 4697.84 0.00000 0.375829
  11 4787.57 0.00000 -1.27164
  12 4787.57 0.00000 1.27164
  13 4788.53 0.00000 -1.22561
  14 4788.53 0.00000 1.22561
  15 4788.74 0.00000 -0.659703
  16 4788.74 0.00000 0.659703
</Section>

newXOutput 161

<Section columns = "stress_xx | stress_yy | stress_xy">
  1 4783.56 0.00000 0.582331
  2 4783.56 0.00000 -0.582331
  3 4783.38 0.00000 1.06869
  4 4783.38 0.00000 -1.06869
  5 4782.48 0.00000 0.961709
  6 4782.48 0.00000 -0.961709
  7 4670.40 0.00000 0.184141
  8 4670.40 0.00000 -0.184141
  9 4670.40 0.00000 -0.184141
  10 4670.40 0.00000 0.184141
  11 4782.48 0.00000 -0.961709
  12 4782.48 0.00000 0.961709
  13 4783.38 0.00000 -1.06869
  14 4783.38 0.00000 1.06869
  15 4783.56 0.00000 -0.582331
  16 4783.56 0.00000 0.582331
</Section>

newXOutput 162

<Section columns = "stress_xx | stress_yy | stress_xy">
  1 4764.30 0.00000 0.410921
  2 4764.30 0.00000 -0.410921
  3 4764.08 0.00000 0.565487
  4 4764.08 0.00000 -0.565487
  5 4764.00 0.00000 1.01473
  6 4764.00 0.00000 -1.01473
  7 4626.53 0.00000 0.654740
  8 4626.53 0.00000 -0.654740
  9 4626.53 0.00000 -0.654740
  10 4626.53 0.00000 0.654740
  11 4764.00 0.00000 -1.01473
  12 4764.00 0.00000 1.01473
  13 4764.08 0.00000 -0.565487
  14 4764.08 0.00000 0.565487
  15 4764.30 0.00000 -0.410921
  16 4764.30 0.00000 0.410921
</Section>

newXOutput 163

<Section columns = "stress_xx | stress_yy | stress_xy">
  1 4747.78 0.00000 0.109298
  2 4747.78 0.00000 -0.109298
  3 4747.67 0.00000 0.0553585
  4 4747.67 0.00000 -0.0553585
  5 4747.97 0.00000 0.535841
  6 4747.97 0.00000 -0.535841
  7 4584.51 0.00000 0.535160
  8 4584.51 0.00000 -0.535160
  9 4584.51 0.00000 -0.535160
  10 4584.51 0.00000 0.535160
  11 4747.97 0.00000 -0.535841
  12 4747.97 0.00000 0.535841
  13 4747.67 0.00000 -0.0553585
  14 4747.67 0.00000 0.0553585
  15 4747.78 0.00000 -0.109298
  16 4747.78 0.00000 0.109298
</Section>

