newXOutput 1

<Section columns = "stress_xx | stress_yy | stress_xy">
  1 0.00000 0.00000 0.00000
  2 0.00000 0.00000 0.00000
  3 0.00000 0.00000 0.00000
  4 0.00000 0.00000 0.00000
  5 0.00000 0.00000 0.00000
  6 0.00000 0.00000 0.00000
  7 0.00000 0.00000 0.00000
  8 0.00000 0.00000 0.00000
  9 0.00000 0.00000 0.00000
  10 0.00000 0.00000 0.00000
  11 0.00000 0.00000 0.00000
  12 0.00000 0.00000 0.00000
  13 0.00000 0.00000 0.00000
  14 0.00000 0.00000 0.00000
  15 0.00000 0.00000 0.00000
  16 0.00000 0.00000 0.00000
</Section>

newXOutput 2

<Section columns = "stress_xx | stress_yy | stress_xy">
  1 31.1266 0.00000 5.56504e-14
  2 31.1266 0.00000 4.65244e-14
  3 31.1266 0.00000 2.56149e-14
  4 31.1266 0.00000 2.09601e-14
  5 31.1266 0.00000 2.45582e-14
  6 31.1266 0.00000 2.51893e-14
  7 31.1266 0.00000 2.61134e-14
  8 31.1266 0.00000 2.66083e-14
  9 31.1266 0.00000 2.54355e-14
  10 31.1266 0.00000 2.30349e-14
  11 31.1266 0.00000 1.39445e-14
  12 31.1266 0.00000 1.31725e-14
  13 31.1266 0.00000 5.78058e-15
  14 31.1266 0.00000 9.45598e-15
  15 31.1266 0.00000 1.91024e-14
  16 31.1266 0.00000 2.50608e-14
</Section>

newXOutput 3

<Section columns = "stress_xx | stress_yy | stress_xy">
  1 62.2717 0.00000 -6.60576e-14
  2 62.2717 0.00000 -5.35327e-14
  3 62.2717 0.00000 -4.51961e-14
  4 62.2717 0.00000 -3.95056e-14
  5 62.2717 0.00000 -4.11447e-14
  6 62.2717 0.00000 -3.97761e-14
  7 62.2717 0.00000 -3.92804e-14
  8 62.2717 0.00000 -3.96101e-14
  9 62.2717 0.00000 -3.22914e-14
  10 62.2717 0.00000 -3.46284e-14
  11 62.2717 0.00000 -2.77187e-14
  12 62.2717 0.00000 -2.74963e-14
  13 62.2717 0.00000 -2.52215e-14
  14 62.2717 0.00000 -2.86733e-14
  15 62.2717 0.00000 -3.40362e-14
  16 62.2717 0.00000 -3.41539e-14
</Section>

newXOutput 4

<Section columns = "stress_xx | stress_yy | stress_xy">
  1 93.4356 0.00000 1.49859e-14
  2 93.4356 0.00000 1.76307e-14
  3 93.4356 0.00000 1.28030e-14
  4 93.4356 0.00000 1.43539e-14
  5 93.4356 0.00000 1.37358e-14
  6 93.4356 0.00000 1.21462e-14
  7 93.4356 0.00000 1.37171e-14
  8 93.4356 0.00000 1.13303e-14
  9 93.4356 0.00000 7.24815e-15
  10 93.4356 0.00000 6.95548e-15
  11 93.4356 0.00000 1.05275e-14
  12 93.4356 0.00000 2.36925e-15
  13 93.4356 0.00000 1.75623e-14
  14 93.4356 0.00000 2.67864e-14
  15 93.4356 0.00000 2.06372e-14
  16 93.4356 0.00000 3.45240e-14
</Section>

newXOutput 5

<Section columns = "stress_xx | stress_yy | stress_xy">
  1 124.618 0.00000 1.48723e-14
  2 124.618 0.00000 1.43701e-14
  3 124.618 0.00000 5.09878e-15
  4 124.618 0.00000 5.98148e-15
  5 124.618 0.00000 4.23522e-15
  6 124.618 0.00000 6.48542e-15
  7 124.618 0.00000 1.42079e-15
  8 124.618 0.00000 1.50957e-15
  9 124.618 0.00000 -3.85332e-15
  10 124.618 0.00000 -7.00551e-15
  11 124.618 0.00000 -1.63074e-14
  12 124.618 0.00000 -1.78175e-14
  13 124.618 0.00000 -2.03241e-17
  14 124.618 0.00000 -1.08292e-14
  15 124.618 0.00000 4.47914e-15
  16 124.618 0.00000 6.29500e-15
</Section>

newXOutput 6

<Section columns = "stress_xx | stress_yy | stress_xy">
  1 155.820 0.00000 -3.63218e-14
  2 155.820 0.00000 -2.78906e-14
  3 155.820 0.00000 -1.90667e-14
  4 155.820 0.00000 -1.53255e-14
  5 155.820 0.00000 -2.25807e-14
  6 155.820 0.00000 -2.64733e-14
  7 155.820 0.00000 -1.98249e-14
  8 155.820 0.00000 -2.08156e-14
  9 155.820 0.00000 -1.47920e-14
  10 155.820 0.00000 -1.10588e-14
  11 155.820 0.00000 -3.47772e-14
  12 155.820 0.00000 -2.39830e-14
  13 155.820 0.00000 -2.29080e-14
  14 155.820 0.00000 -4.31608e-14
  15 155.820 0.00000 -3.34757e-14
  16 155.820 0.00000 -3.76083e-14
</Section>

newXOutput 7

<Section columns = "stress_xx | stress_yy | stress_xy">
  1 187.040 0.00000 8.25677e-15
  2 187.040 0.00000 9.77711e-15
  3 187.040 0.00000 1.40353e-14
  4 187.040 0.00000 1.38618e-14
  5 187.040 0.00000 1.43879e-14
  6 187.040 0.00000 1.28600e-14
  7 187.040 0.00000 1.93487e-14
  8 187.040 0.00000 2.18395e-14
  9 187.040 0.00000 1.15571e-14
  10 187.040 0.00000 1.50416e-14
  11 187.040 0.00000 -6.41665e-15
  12 187.040 0.00000 -1.33652e-14
  13 187.040 0.00000 2.69392e-14
  14 187.040 0.00000 1.53914e-14
  15 187.040 0.00000 1.36699e-14
  16 187.040 0.00000 -2.94093e-15
</Section>

newXOutput 8

<Section columns = "stress_xx | stress_yy | stress_xy">
  1 218.279 0.00000 -4.58739e-14
  2 218.279 0.00000 -4.28272e-14
  3 218.279 0.00000 -1.92693e-14
  4 218.279 0.00000 -1.84718e-14
  5 218.279 0.00000 -1.55297e-14
  6 218.279 0.00000 -1.59160e-14
  7 218.279 0.00000 -2.25176e-14
  8 218.279 0.00000 -2.01951e-14
  9 218.279 0.00000 -3.34279e-14
  10 218.279 0.00000 -3.26663e-14
  11 218.279 0.00000 -9.05003e-15
  12 218.279 0.00000 -1.08805e-14
  13 218.279 0.00000 -2.19288e-14
  14 218.279 0.00000 -2.63011e-14
  15 218.279 0.00000 -4.11096e-14
  16 218.279 0.00000 -6.50487e-14
</Section>

newXOutput 9

<Section columns = "stress_xx | stress_yy | stress_xy">
  1 249.537 0.00000 2.20475e-14
  2 249.537 0.00000 1.78846e-14
  3 249.537 0.00000 2.00146e-14
  4 249.537 0.00000 1.86850e-14
  5 249.537 0.00000 4.39959e-14
  6 249.537 0.00000 3.89014e-14
  7 249.537 0.00000 3.32878e-15
  8 249.537 0.00000 4.77047e-15
  9 249.537 0.00000 1.46532e-15
  10 249.537 0.00000 6.41400e-15
  11 249.537 0.00000 1.15219e-15
  12 249.537 0.00000 1.75054e-14
  13 249.537 0.00000 1.01480e-14
  14 249.537 0.00000 2.37596e-15
  15 249.537 0.00000 1.21446e-14
  16 249.537 0.00000 -1.31586e-14
</Section>

newXOutput 10

<Section columns = "stress_xx | stress_yy | stress_xy">
  1 280.814 0.00000 -1.88352e-14
  2 280.814 0.00000 -2.00984e-14
  3 280.814 0.00000 -1.38494e-14
  4 280.814 0.00000 -1.45194e-14
  5 280.814 0.00000 -1.02206e-14
  6 280.814 0.00000 -1.38801e-14
  7 280.814 0.00000 -5.53898e-14
  8 280.814 0.00000 -6.45210e-14
  9 280.814 0.00000 -2.28086e-14
  10 280.814 0.00000 -2.05146e-14
  11 280.814 0.00000 2.84116e-14
  12 280.814 0.00000 2.88276e-14
  13 280.814 0.00000 9.46560e-15
  14 280.814 0.00000 -9.36930e-16
  15 280.814 0.00000 4.70530e-14
  16 280.814 0.00000 2.46308e-14
</Section>

newXOutput 11

<Section columns = "stress_xx | stress_yy | stress_xy">
  1 312.110 0.00000 1.46858e-14
  2 312.110 0.00000 1.23873e-14
  3 312.110 0.00000 1.73350e-14
  4 312.110 0.00000 1.79891e-14
  5 312.110 0.00000 1.92722e-14
  6 312.110 0.00000 2.56546e-14
  7 312.110 0.00000 1.27680e-14
  8 312.110 0.00000 1.47121e-14
  9 312.110 0.00000 2.22430e-14
  10 312.110 0.00000 2.56691e-14
  11 312.110 0.00000 -1.46346e-14
  12 312.110 0.00000 9.76890e-15
  13 312.110 0.00000 -3.04911e-14
  14 312.110 0.00000 -5.40633e-14
  15 312.110 0.00000 2.11552e-14
  16 312.110 0.00000 -4.11166e-14
</Section>

newXOutput 12

<Section columns = "stress_xx | stress_yy | stress_xy">
  1 343.425 0.00000 -1.40979e-14
  2 343.425 0.00000 -1.87040e-14
  3 343.425 0.00000 -1.49636e-14
  4 343.425 0.00000 -1.71089e-14
  5 343.425 0.00000 6.90764e-15
  6 343.425 0.00000 4.25436e-15
  7 343.425 0.00000 -3.15069e-14
  8 343.425 0.00000 -3.15914e-14
  9 343.425 0.00000 -1.84590e-14
  10 343.425 0.00000 -8.58758e-16
  11 343.425 0.00000 5.57012e-14
  12 343.425 0.00000 3.20981e-14
  13 343.425 0.00000 7.66506e-14
  14 343.425 0.00000 5.70512e-14
  15 343.425 0.00000 4.72213e-14
  16 343.425 0.00000 4.10255e-14
</Section>

newXOutput 13

<Section columns = "stress_xx | stress_yy | stress_xy">
  1 374.759 0.00000 -3.46776e-14
  2 374.759 0.00000 -3.62159e-14
  3 374.759 0.00000 -2.35425e-16
  4 374.759 0.00000 -2.38536e-15
  5 374.759 0.00000 1.18130e-14
  6 374.759 0.00000 1.11781e-14
  7 374.759 0.00000 -2.56929e-15
  8 374.759 0.00000 -6.23599e-16
  9 374.759 0.00000 1.35967e-14
  10 374.759 0.00000 2.16091e-14
  11 374.759 0.00000 5.74445e-14
  12 374.759 0.00000 3.08831e-14
  13 374.759 0.00000 -3.43288e-15
  14 374.759 0.00000 -1.01970e-14
  15 374.759 0.00000 -4.39083e-14
  16 374.759 0.00000 -2.08327e-14
</Section>

newXOutput 14

<Section columns = "stress_xx | stress_yy | stress_xy">
  1 406.112 0.00000 7.52434e-15
  2 406.112 0.00000 1.35884e-15
  3 406.112 0.00000 2.07804e-14
  4 406.112 0.00000 1.82939e-14
  5 406.112 0.00000 2.47686e-14
  6 406.112 0.00000 1.88501e-14
  7 406.112 0.00000 -2.41171e-14
  8 406.112 0.00000 -2.53773e-14
  9 406.112 0.00000 -9.66541e-15
  10 406.112 0.00000 -1.90493e-14
  11 406.112 0.00000 3.25864e-14
  12 406.112 0.00000 1.00495e-14
  13 406.112 0.00000 6.28600e-14
  14 406.112 0.00000 8.27021e-14
  15 406.112 0.00000 -4.43033e-14
  16 406.112 0.00000 2.57059e-15
</Section>

newXOutput 15

<Section columns = "stress_xx | stress_yy | stress_xy">
  1 437.485 0.00000 -8.73423e-15
  2 437.485 0.00000 -1.70260e-14
  3 437.485 0.00000 1.39123e-14
  4 437.485 0.00000 9.45888e-15
  5 437.485 0.00000 1.94035e-14
  6 437.485 0.00000 4.09363e-15
  7 437.485 0.00000 5.73004e-15
  8 437.485 0.00000 5.52769e-15
  9 437.485 0.00000 9.52825e-15
  10 437.485 0.00000 -1.05327e-14
  11 437.485 0.00000 -6.49595e-15
  12 437.485 0.00000 -2.26817e-15
  13 437.485 0.00000 -2.51968e-14
  14 437.485 0.00000 -3.04145e-14
  15 437.485 0.00000 -1.04562e-13
  16 437.485 0.00000 -7.79040e-14
</Section>

newXOutput 16

<Section columns = "stress_xx | stress_yy | stress_xy">
  1 468.877 0.00000 3.40760e-15
  2 468.877 0.00000 -1.82558e-14
  3 468.877 0.00000 1.65135e-14
  4 468.877 0.00000 5.22275e-15
  5 468.877 0.00000 2.73430e-14
  6 468.877 0.00000 2.22171e-14
  7 468.877 0.00000 -5.53165e-15
  8 468.877 0.00000 -4.18059e-15
  9 468.877 0.00000 2.85896e-14
  10 468.877 0.00000 3.16844e-14
  11 468.877 0.00000 1.50661e-14
  12 468.877 0.00000 2.59230e-14
  13 468.877 0.00000 1.34683e-13
  14 468.877 0.00000 1.35857e-13
  15 468.877 0.00000 1.41776e-13
  16 468.877 0.00000 1.07965e-13
</Section>

newXOutput 17

<Section columns = "stress_xx | stress_yy | stress_xy">
  1 500.288 0.00000 -7.28130e-15
  2 500.288 0.00000 -2.27852e-14
  3 500.288 0.00000 9.20601e-15
  4 500.288 0.00000 -5.57029e-16
  5 500.288 0.00000 6.70115e-15
  6 500.288 0.00000 3.19337e-14
  7 500.288 0.00000 -6.21086e-14
  8 500.288 0.00000 -4.85280e-14
  9 500.288 0.00000 -4.58039e-14
  10 500.288 0.00000 -5.28688e-14
  11 500.288 0.00000 4.88854e-14
  12 500.288 0.00000 1.94007e-14
  13 500.288 0.00000 -1.17244e-14
  14 500.288 0.00000 -2.71251e-14
  15 500.288 0.00000 -1.51544e-13
  16 500.288 0.00000 -1.42828e-13
</Section>

newXOutput 18

<Section columns = "stress_xx | stress_yy | stress_xy">
  1 531.718 0.00000 -3.15757e-14
  2 531.718 0.00000 -4.01352e-14
  3 531.718 0.00000 -1.62435e-14
  4 531.718 0.00000 -1.83893e-14
  5 531.718 0.00000 5.36255e-15
  6 531.718 0.00000 1.30725e-14
  7 531.718 0.00000 1.11283e-14
  8 531.718 0.00000 -2.96300e-15
  9 531.718 0.00000 2.93687e-14
  10 531.718 0.00000 2.81115e-14
  11 531.718 0.00000 1.30255e-15
  12 531.718 0.00000 -1.28939e-14
  13 531.718 0.00000 2.90051e-14
  14 531.718 0.00000 4.39702e-14
  15 531.718 0.00000 -1.16862e-14
  16 531.718 0.00000 9.37612e-14
</Section>

newXOutput 19

<Section columns = "stress_xx | stress_yy | stress_xy">
  1 563.168 0.00000 -3.02688e-14
  2 563.168 0.00000 -3.80508e-14
  3 563.168 0.00000 2.19926e-15
  4 563.168 0.00000 -7.78144e-15
  5 563.168 0.00000 6.68974e-15
  6 563.168 0.00000 -1.03052e-14
  7 563.168 0.00000 -1.71129e-14
  8 563.168 0.00000 -4.23009e-15
  9 563.168 0.00000 2.20586e-14
  10 563.168 0.00000 1.76894e-14
  11 563.168 0.00000 1.01751e-13
  12 563.168 0.00000 7.08472e-14
  13 563.168 0.00000 9.23663e-14
  14 563.168 0.00000 4.10310e-14
  15 563.168 0.00000 1.16663e-13
  16 563.168 0.00000 1.43373e-14
</Section>

newXOutput 20

<Section columns = "stress_xx | stress_yy | stress_xy">
  1 594.637 0.00000 9.04675e-15
  2 594.637 0.00000 -4.98788e-15
  3 594.637 0.00000 1.22809e-14
  4 594.637 0.00000 4.01813e-15
  5 594.637 0.00000 2.09485e-14
  6 594.637 0.00000 4.45953e-14
  7 594.637 0.00000 1.41195e-14
  8 594.637 0.00000 3.37881e-14
  9 594.637 0.00000 6.93807e-14
  10 594.637 0.00000 4.66062e-14
  11 594.637 0.00000 5.72650e-14
  12 594.637 0.00000 3.34722e-14
  13 594.637 0.00000 3.75753e-14
  14 594.637 0.00000 -8.47165e-14
  15 594.637 0.00000 4.18459e-15
  16 594.637 0.00000 -1.09564e-13
</Section>

newXOutput 21

<Section columns = "stress_xx | stress_yy | stress_xy">
  1 626.126 0.00000 1.52667e-14
  2 626.126 0.00000 8.23382e-15
  3 626.126 0.00000 1.79032e-14
  4 626.126 0.00000 9.15620e-15
  5 626.126 0.00000 1.55068e-14
  6 626.126 0.00000 8.71985e-15
  7 626.126 0.00000 3.25415e-14
  8 626.126 0.00000 3.86230e-14
  9 626.126 0.00000 8.72117e-15
  10 626.126 0.00000 7.67708e-16
  11 626.126 0.00000 3.05888e-15
  12 626.126 0.00000 1.71172e-14
  13 626.126 0.00000 1.20295e-13
  14 626.126 0.00000 1.82339e-13
  15 626.126 0.00000 -1.03146e-14
  16 626.126 0.00000 9.56155e-14
</Section>

newXOutput 22

<Section columns = "stress_xx | stress_yy | stress_xy">
  1 657.634 0.00000 2.21051e-14
  2 657.634 0.00000 1.02045e-14
  3 657.634 0.00000 -5.43849e-15
  4 657.634 0.00000 -1.99805e-14
  5 657.634 0.00000 -7.04807e-15
  6 657.634 0.00000 -8.34995e-15
  7 657.634 0.00000 -4.55233e-14
  8 657.634 0.00000 -3.62988e-14
  9 657.634 0.00000 -1.44729e-14
  10 657.634 0.00000 -3.69389e-14
  11 657.634 0.00000 -1.09810e-13
  12 657.634 0.00000 -3.96682e-14
  13 657.634 0.00000 -1.32582e-13
  14 657.634 0.00000 -7.30917e-14
  15 657.634 0.00000 -1.43160e-13
  16 657.634 0.00000 -6.07964e-14
</Section>

newXOutput 23

<Section columns = "stress_xx | stress_yy | stress_xy">
  1 689.162 0.00000 -1.73691e-14
  2 689.162 0.00000 -2.20744e-14
  3 689.162 0.00000 -3.08831e-16
  4 689.162 0.00000 -9.40600e-15
  5 689.162 0.00000 1.86414e-14
  6 689.162 0.00000 2.51427e-14
  7 689.162 0.00000 -5.54588e-15
  8 689.162 0.00000 7.77175e-15
  9 689.162 0.00000 -1.61671e-14
  10 689.162 0.00000 -7.64493e-15
  11 689.162 0.00000 5.68127e-15
  12 689.162 0.00000 -4.03509e-14
  13 689.162 0.00000 3.43866e-14
  14 689.162 0.00000 -2.29448e-14
  15 689.162 0.00000 8.38347e-14
  16 689.162 0.00000 -5.02678e-14
</Section>

newXOutput 24

<Section columns = "stress_xx | stress_yy | stress_xy">
  1 720.709 0.00000 9.05713e-15
  2 720.709 0.00000 -1.37483e-14
  3 720.709 0.00000 9.45626e-15
  4 720.709 0.00000 -5.63168e-15
  5 720.709 0.00000 2.39842e-14
  6 720.709 0.00000 2.90014e-14
  7 720.709 0.00000 -6.28698e-14
  8 720.709 0.00000 -5.04662e-14
  9 720.709 0.00000 -4.35104e-14
  10 720.709 0.00000 -3.39219e-14
  11 720.709 0.00000 -1.72862e-14
  12 720.709 0.00000 -1.19164e-14
  13 720.709 0.00000 1.00106e-13
  14 720.709 0.00000 3.50955e-14
  15 720.709 0.00000 7.95109e-14
  16 720.709 0.00000 5.31846e-14
</Section>

newXOutput 25

<Section columns = "stress_xx | stress_yy | stress_xy">
  1 752.276 0.00000 1.16360e-14
  2 752.276 0.00000 -3.55968e-14
  3 752.276 0.00000 6.86630e-15
  4 752.276 0.00000 -2.08475e-14
  5 752.276 0.00000 -1.59406e-14
  6 752.276 0.00000 1.69352e-14
  7 752.276 0.00000 -2.31436e-14
  8 752.276 0.00000 2.01273e-14
  9 752.276 0.00000 -1.14238e-14
  10 752.276 0.00000 -3.54916e-14
  11 752.276 0.00000 1.17501e-13
  12 752.276 0.00000 -3.34109e-14
  13 752.276 0.00000 -4.80744e-14
  14 752.276 0.00000 -9.77073e-14
  15 752.276 0.00000 -1.07683e-13
  16 752.276 0.00000 -5.47721e-14
</Section>

newXOutput 26

<Section columns = "stress_xx | stress_yy | stress_xy">
  1 783.862 0.00000 5.30289e-14
  2 783.862 0.00000 8.86085e-15
  3 783.862 0.00000 3.68211e-14
  4 783.862 0.00000 1.57027e-14
  5 783.862 0.00000 3.97881e-14
  6 783.862 0.00000 2.73839e-14
  7 783.862 0.00000 7.48285e-14
  8 783.862 0.00000 6.70454e-14
  9 783.862 0.00000 -2.88022e-15
  10 783.862 0.00000 5.68799e-14
  11 783.862 0.00000 1.14659e-13
  12 783.862 0.00000 6.96481e-14
  13 783.862 0.00000 4.45436e-14
  14 783.862 0.00000 6.25827e-14
  15 783.862 0.00000 5.56559e-14
  16 783.862 0.00000 1.34597e-13
</Section>

newXOutput 27

<Section columns = "stress_xx | stress_yy | stress_xy">
  1 815.469 0.00000 -4.27811e-14
  2 815.469 0.00000 1.24586e-14
  3 815.469 0.00000 -6.12642e-14
  4 815.469 0.00000 -8.77451e-16
  5 815.469 0.00000 -2.03204e-14
  6 815.469 0.00000 -2.11766e-14
  7 815.469 0.00000 -8.65372e-15
  8 815.469 0.00000 -7.44470e-14
  9 815.469 0.00000 -1.11800e-13
  10 815.469 0.00000 -1.51410e-13
  11 815.469 0.00000 4.41368e-14
  12 815.469 0.00000 1.52531e-13
  13 815.469 0.00000 -6.94502e-14
  14 815.469 0.00000 -1.00846e-13
  15 815.469 0.00000 -5.17902e-14
  16 815.469 0.00000 -7.30016e-14
</Section>

newXOutput 28

<Section columns = "stress_xx | stress_yy | stress_xy">
  1 847.095 0.00000 -1.10474e-13
  2 847.095 0.00000 -5.34705e-14
  3 847.095 0.00000 -6.37255e-14
  4 847.095 0.00000 -2.75971e-14
  5 847.095 0.00000 1.19589e-13
  6 847.095 0.00000 1.14003e-13
  7 847.095 0.00000 2.36327e-14
  8 847.095 0.00000 2.37997e-15
  9 847.095 0.00000 1.36388e-13
  10 847.095 0.00000 1.65703e-13
  11 847.095 0.00000 -1.03261e-14
  12 847.095 0.00000 4.45695e-14
  13 847.095 0.00000 -1.12981e-13
  14 847.095 0.00000 -4.54476e-14
  15 847.095 0.00000 -2.55049e-14
  16 847.095 0.00000 5.74131e-14
</Section>

newXOutput 29

<Section columns = "stress_xx | stress_yy | stress_xy">
  1 878.740 0.00000 -1.11242e-14
  2 878.740 0.00000 4.76736e-14
  3 878.740 0.00000 5.38387e-15
  4 878.740 0.00000 1.49025e-14
  5 878.740 0.00000 4.66885e-15
  6 878.740 0.00000 -1.40226e-14
  7 878.740 0.00000 2.70147e-14
  8 878.740 0.00000 2.56634e-14
  9 878.740 0.00000 6.12268e-15
  10 878.740 0.00000 2.72168e-14
  11 878.740 0.00000 6.12420e-14
  12 878.740 0.00000 1.12684e-13
  13 878.740 0.00000 2.77427e-14
  14 878.740 0.00000 3.22604e-14
  15 878.740 0.00000 1.49837e-14
  16 878.740 0.00000 5.02747e-14
</Section>

newXOutput 30

<Section columns = "stress_xx | stress_yy | stress_xy">
  1 910.406 0.00000 -4.36938e-14
  2 910.406 0.00000 1.53388e-14
  3 910.406 0.00000 -4.89785e-14
  4 910.406 0.00000 -2.69490e-14
  5 910.406 0.00000 -4.89882e-14
  6 910.406 0.00000 -7.31715e-14
  7 910.406 0.00000 8.87172e-14
  8 910.406 0.00000 9.01953e-14
  9 910.406 0.00000 7.19384e-14
  10 910.406 0.00000 8.66894e-14
  11 910.406 0.00000 6.24809e-14
  12 910.406 0.00000 1.71737e-13
  13 910.406 0.00000 -4.77754e-15
  14 910.406 0.00000 4.88039e-14
  15 910.406 0.00000 5.31938e-14
  16 910.406 0.00000 7.81804e-14
</Section>

newXOutput 31

<Section columns = "stress_xx | stress_yy | stress_xy">
  1 942.091 0.00000 -6.17730e-14
  2 942.091 0.00000 -2.99239e-14
  3 942.091 0.00000 -3.80209e-14
  4 942.091 0.00000 -2.94351e-14
  5 942.091 0.00000 6.68858e-15
  6 942.091 0.00000 -3.03024e-14
  7 942.091 0.00000 -3.78384e-14
  8 942.091 0.00000 -4.76039e-14
  9 942.091 0.00000 4.75203e-14
  10 942.091 0.00000 5.86675e-14
  11 942.091 0.00000 1.41878e-15
  12 942.091 0.00000 4.10193e-14
  13 942.091 0.00000 -2.39253e-13
  14 942.091 0.00000 -2.03600e-13
  15 942.091 0.00000 -1.51242e-13
  16 942.091 0.00000 -1.39139e-13
</Section>

newXOutput 32

<Section columns = "stress_xx | stress_yy | stress_xy">
  1 973.796 0.00000 3.14952e-14
  2 973.796 0.00000 6.20076e-14
  3 973.796 0.00000 -4.63083e-15
  4 973.796 0.00000 8.48531e-15
  5 973.796 0.00000 8.18786e-14
  6 973.796 0.00000 5.72735e-14
  7 973.796 0.00000 1.22158e-13
  8 973.796 0.00000 1.29801e-13
  9 973.796 0.00000 2.06154e-13
  10 973.796 0.00000 1.89302e-13
  11 973.796 0.00000 6.03047e-14
  12 973.796 0.00000 2.83519e-14
  13 973.796 0.00000 1.27804e-13
  14 973.796 0.00000 1.56563e-13
  15 973.796 0.00000 1.09415e-15
  16 973.796 0.00000 1.27338e-13
</Section>

newXOutput 33

<Section columns = "stress_xx | stress_yy | stress_xy">
  1 1005.52 0.00000 -7.96089e-15
  2 1005.52 0.00000 -1.11578e-14
  3 1005.52 0.00000 -3.16759e-14
  4 1005.52 0.00000 -4.22424e-14
  5 1005.52 0.00000 -2.91510e-14
  6 1005.52 0.00000 -4.15662e-14
  7 1005.52 0.00000 -2.00918e-14
  8 1005.52 0.00000 -5.70038e-14
  9 1005.52 0.00000 -5.71342e-14
  10 1005.52 0.00000 -1.67189e-13
  11 1005.52 0.00000 9.12664e-14
  12 1005.52 0.00000 1.26588e-13
  13 1005.52 0.00000 -5.97065e-14
  14 1005.52 0.00000 -6.07082e-14
  15 1005.52 0.00000 1.50474e-13
  16 1005.52 0.00000 -1.26392e-13
</Section>

newXOutput 34

<Section columns = "stress_xx | stress_yy | stress_xy">
  1 1037.27 0.00000 -4.39126e-14
  2 1037.27 0.00000 -2.64707e-14
  3 1037.27 0.00000 -5.73248e-14
  4 1037.27 0.00000 -6.11883e-14
  5 1037.27 0.00000 -6.14607e-14
  6 1037.27 0.00000 -6.71455e-14
  7 1037.27 0.00000 -4.46297e-14
  8 1037.27 0.00000 -7.98620e-14
  9 1037.27 0.00000 -9.05790e-14
  10 1037.27 0.00000 -7.47767e-14
  11 1037.27 0.00000 -1.08860e-13
  12 1037.27 0.00000 -4.68359e-14
  13 1037.27 0.00000 -2.32623e-13
  14 1037.27 0.00000 -2.18465e-13
  15 1037.27 0.00000 1.18286e-13
  16 1037.27 0.00000 -1.09811e-13
</Section>

newXOutput 35

<Section columns = "stress_xx | stress_yy | stress_xy">
  1 1069.03 0.00000 6.37141e-14
  2 1069.03 0.00000 -8.10217e-14
  3 1069.03 0.00000 -2.48227e-14
  4 1069.03 0.00000 -1.04082e-13
  5 1069.03 0.00000 -7.87505e-14
  6 1069.03 0.00000 -5.62873e-14
  7 1069.03 0.00000 8.18687e-14
  8 1069.03 0.00000 7.00700e-14
  9 1069.03 0.00000 -4.79874e-14
  10 1069.03 0.00000 -4.19846e-14
  11 1069.03 0.00000 -8.16727e-14
  12 1069.03 0.00000 -1.24489e-13
  13 1069.03 0.00000 1.40303e-13
  14 1069.03 0.00000 1.26241e-13
  15 1069.03 0.00000 -5.87824e-14
  16 1069.03 0.00000 9.64375e-14
</Section>

newXOutput 36

<Section columns = "stress_xx | stress_yy | stress_xy">
  1 1100.82 0.00000 -1.22637e-13
  2 1100.82 0.00000 -1.43717e-13
  3 1100.82 0.00000 7.12858e-14
  4 1100.82 0.00000 7.83372e-14
  5 1100.82 0.00000 1.26478e-14
  6 1100.82 0.00000 3.46470e-14
  7 1100.82 0.00000 -5.01997e-14
  8 1100.82 0.00000 -2.17480e-14
  9 1100.82 0.00000 -9.91882e-14
  10 1100.82 0.00000 -1.41720e-13
  11 1100.82 0.00000 8.93869e-14
  12 1100.82 0.00000 5.11653e-14
  13 1100.82 0.00000 -3.47831e-14
  14 1100.82 0.00000 1.60902e-14
  15 1100.82 0.00000 -5.97187e-14
  16 1100.82 0.00000 1.38142e-13
</Section>

newXOutput 37

<Section columns = "stress_xx | stress_yy | stress_xy">
  1 1132.62 0.00000 -2.92103e-14
  2 1132.62 0.00000 -4.49823e-14
  3 1132.62 0.00000 9.16150e-14
  4 1132.62 0.00000 1.04108e-13
  5 1132.62 0.00000 -7.26772e-14
  6 1132.62 0.00000 4.18392e-15
  7 1132.62 0.00000 1.18626e-13
  8 1132.62 0.00000 1.52389e-13
  9 1132.62 0.00000 5.44947e-14
  10 1132.62 0.00000 -2.85139e-14
  11 1132.62 0.00000 4.45498e-14
  12 1132.62 0.00000 1.77477e-14
  13 1132.62 0.00000 1.05189e-13
  14 1132.62 0.00000 2.21373e-13
  15 1132.62 0.00000 -1.97278e-13
  16 1132.62 0.00000 5.63571e-14
</Section>

newXOutput 38

<Section columns = "stress_xx | stress_yy | stress_xy">
  1 1164.45 0.00000 -7.88761e-14
  2 1164.45 0.00000 -8.53300e-14
  3 1164.45 0.00000 7.99045e-14
  4 1164.45 0.00000 5.94246e-14
  5 1164.45 0.00000 6.74605e-14
  6 1164.45 0.00000 7.34614e-14
  7 1164.45 0.00000 1.77365e-15
  8 1164.45 0.00000 5.96518e-14
  9 1164.45 0.00000 -4.41488e-14
  10 1164.45 0.00000 -4.85411e-14
  11 1164.45 0.00000 3.33908e-14
  12 1164.45 0.00000 -4.70664e-14
  13 1164.45 0.00000 4.34561e-14
  14 1164.45 0.00000 1.79065e-13
  15 1164.45 0.00000 -1.53400e-13
  16 1164.45 0.00000 6.84237e-14
</Section>

newXOutput 39

<Section columns = "stress_xx | stress_yy | stress_xy">
  1 1196.29 0.00000 -6.07939e-14
  2 1196.29 0.00000 -8.01918e-14
  3 1196.29 0.00000 6.29401e-14
  4 1196.29 0.00000 4.34291e-14
  5 1196.29 0.00000 9.11483e-14
  6 1196.29 0.00000 8.68005e-14
  7 1196.29 0.00000 1.00807e-14
  8 1196.29 0.00000 5.67396e-14
  9 1196.29 0.00000 7.60200e-14
  10 1196.29 0.00000 5.55313e-14
  11 1196.29 0.00000 1.53435e-13
  12 1196.29 0.00000 4.78019e-14
  13 1196.29 0.00000 -2.03105e-14
  14 1196.29 0.00000 1.28459e-14
  15 1196.29 0.00000 -6.62001e-14
  16 1196.29 0.00000 2.70023e-14
</Section>

newXOutput 40

<Section columns = "stress_xx | stress_yy | stress_xy">
  1 1228.16 0.00000 -1.49019e-14
  2 1228.16 0.00000 -3.24850e-14
  3 1228.16 0.00000 6.52850e-14
  4 1228.16 0.00000 5.23291e-14
  5 1228.16 0.00000 2.92650e-14
  6 1228.16 0.00000 7.07606e-14
  7 1228.16 0.00000 -1.77511e-13
  8 1228.16 0.00000 -1.30677e-13
  9 1228.16 0.00000 -2.41222e-13
  10 1228.16 0.00000 -1.75488e-13
  11 1228.16 0.00000 1.41037e-13
  12 1228.16 0.00000 8.55235e-14
  13 1228.16 0.00000 3.52403e-14
  14 1228.16 0.00000 4.32713e-15
  15 1228.16 0.00000 5.73179e-14
  16 1228.16 0.00000 -1.91157e-13
</Section>

newXOutput 41

<Section columns = "stress_xx | stress_yy | stress_xy">
  1 1260.04 0.00000 -1.95987e-14
  2 1260.04 0.00000 -5.01828e-14
  3 1260.04 0.00000 3.44566e-14
  4 1260.04 0.00000 2.63441e-14
  5 1260.04 0.00000 2.61515e-14
  6 1260.04 0.00000 5.20924e-14
  7 1260.04 0.00000 1.19419e-13
  8 1260.04 0.00000 1.33955e-13
  9 1260.04 0.00000 -1.43070e-13
  10 1260.04 0.00000 -1.87585e-13
  11 1260.04 0.00000 1.71747e-14
  12 1260.04 0.00000 -7.85953e-14
  13 1260.04 0.00000 7.07038e-14
  14 1260.04 0.00000 9.32110e-14
  15 1260.04 0.00000 5.58435e-14
  16 1260.04 0.00000 -9.28338e-14
</Section>

newXOutput 42

<Section columns = "stress_xx | stress_yy | stress_xy">
  1 1291.95 0.00000 -4.86362e-14
  2 1291.95 0.00000 -5.01854e-14
  3 1291.95 0.00000 1.31876e-14
  4 1291.95 0.00000 1.82485e-14
  5 1291.95 0.00000 -3.54871e-14
  6 1291.95 0.00000 -5.14445e-14
  7 1291.95 0.00000 -1.67280e-13
  8 1291.95 0.00000 -1.77365e-13
  9 1291.95 0.00000 -2.85405e-13
  10 1291.95 0.00000 -3.07540e-13
  11 1291.95 0.00000 -9.97513e-14
  12 1291.95 0.00000 -2.12683e-13
  13 1291.95 0.00000 -1.90838e-13
  14 1291.95 0.00000 -2.70483e-13
  15 1291.95 0.00000 -1.06156e-13
  16 1291.95 0.00000 -1.03885e-13
</Section>

newXOutput 43

<Section columns = "stress_xx | stress_yy | stress_xy">
  1 1323.87 0.00000 1.11766e-13
  2 1323.87 0.00000 1.93192e-13
  3 1323.87 0.00000 -6.34945e-14
  4 1323.87 0.00000 -8.24179e-14
  5 1323.87 0.00000 1.78873e-13
  6 1323.87 0.00000 9.55497e-14
  7 1323.87 0.00000 3.42147e-14
  8 1323.87 0.00000 1.02281e-13
  9 1323.87 0.00000 3.94345e-14
  10 1323.87 0.00000 9.94831e-14
  11 1323.87 0.00000 -8.73202e-14
  12 1323.87 0.00000 -1.85804e-13
  13 1323.87 0.00000 2.74445e-13
  14 1323.87 0.00000 1.42746e-13
  15 1323.87 0.00000 5.69948e-14
  16 1323.87 0.00000 7.92821e-14
</Section>

newXOutput 44

<Section columns = "stress_xx | stress_yy | stress_xy">
  1 1355.82 0.00000 -4.66681e-14
  2 1355.82 0.00000 -2.51788e-14
  3 1355.82 0.00000 -2.17488e-13
  4 1355.82 0.00000 -2.53382e-13
  5 1355.82 0.00000 -7.96150e-14
  6 1355.82 0.00000 -9.51362e-14
  7 1355.82 0.00000 -2.58590e-14
  8 1355.82 0.00000 -6.50878e-15
  9 1355.82 0.00000 5.56443e-14
  10 1355.82 0.00000 6.35958e-15
  11 1355.82 0.00000 -5.24040e-14
  12 1355.82 0.00000 -1.06260e-13
  13 1355.82 0.00000 8.97071e-14
  14 1355.82 0.00000 1.16827e-13
  15 1355.82 0.00000 -1.06639e-13
  16 1355.82 0.00000 -8.05344e-14
</Section>

newXOutput 45

<Section columns = "stress_xx | stress_yy | stress_xy">
  1 1387.79 0.00000 -1.96853e-13
  2 1387.79 0.00000 -2.14541e-13
  3 1387.79 0.00000 7.03115e-14
  4 1387.79 0.00000 5.72354e-14
  5 1387.79 0.00000 -2.70561e-14
  6 1387.79 0.00000 -3.90021e-15
  7 1387.79 0.00000 -2.85833e-14
  8 1387.79 0.00000 -1.08954e-14
  9 1387.79 0.00000 -1.50944e-13
  10 1387.79 0.00000 -1.29676e-13
  11 1387.79 0.00000 5.24629e-14
  12 1387.79 0.00000 2.10947e-14
  13 1387.79 0.00000 -4.56706e-14
  14 1387.79 0.00000 -6.67390e-15
  15 1387.79 0.00000 1.07378e-13
  16 1387.79 0.00000 1.14231e-13
</Section>

newXOutput 46

<Section columns = "stress_xx | stress_yy | stress_xy">
  1 1419.77 0.00000 -4.43702e-14
  2 1419.77 0.00000 -6.86292e-14
  3 1419.77 0.00000 1.48062e-13
  4 1419.77 0.00000 1.36572e-13
  5 1419.77 0.00000 -6.70752e-15
  6 1419.77 0.00000 -3.14284e-14
  7 1419.77 0.00000 -2.85742e-13
  8 1419.77 0.00000 -3.00783e-13
  9 1419.77 0.00000 -1.13074e-13
  10 1419.77 0.00000 -4.26478e-14
  11 1419.77 0.00000 -3.08315e-13
  12 1419.77 0.00000 -1.74909e-13
  13 1419.77 0.00000 -2.89453e-13
  14 1419.77 0.00000 -2.55750e-13
  15 1419.77 0.00000 -7.44684e-14
  16 1419.77 0.00000 -1.33419e-13
</Section>

newXOutput 47

<Section columns = "stress_xx | stress_yy | stress_xy">
  1 1451.78 0.00000 -1.57079e-14
  2 1451.78 0.00000 -3.53942e-14
  3 1451.78 0.00000 1.45348e-13
  4 1451.78 0.00000 1.32841e-13
  5 1451.78 0.00000 1.11586e-13
  6 1451.78 0.00000 7.37327e-14
  7 1451.78 0.00000 -4.14852e-14
  8 1451.78 0.00000 -6.15022e-14
  9 1451.78 0.00000 -1.16774e-13
  10 1451.78 0.00000 -1.42210e-13
  11 1451.78 0.00000 5.56305e-14
  12 1451.78 0.00000 7.74266e-14
  13 1451.78 0.00000 -1.03079e-13
  14 1451.78 0.00000 -6.10610e-14
  15 1451.78 0.00000 -1.95223e-13
  16 1451.78 0.00000 5.05899e-14
</Section>

newXOutput 48

<Section columns = "stress_xx | stress_yy | stress_xy">
  1 1483.81 0.00000 1.06483e-14
  2 1483.81 0.00000 6.32413e-14
  3 1483.81 0.00000 -4.96700e-14
  4 1483.81 0.00000 -1.28956e-14
  5 1483.81 0.00000 -2.90260e-14
  6 1483.81 0.00000 -4.39018e-14
  7 1483.81 0.00000 -2.19960e-13
  8 1483.81 0.00000 -2.33439e-13
  9 1483.81 0.00000 -2.68595e-13
  10 1483.81 0.00000 -2.23726e-13
  11 1483.81 0.00000 -8.74819e-14
  12 1483.81 0.00000 -2.47232e-13
  13 1483.81 0.00000 1.94320e-13
  14 1483.81 0.00000 1.29223e-13
  15 1483.81 0.00000 1.13414e-13
  16 1483.81 0.00000 -9.96294e-14
</Section>

newXOutput 49

<Section columns = "stress_xx | stress_yy | stress_xy">
  1 1515.85 0.00000 4.43990e-14
  2 1515.85 0.00000 -3.66214e-14
  3 1515.85 0.00000 -6.52245e-14
  4 1515.85 0.00000 -9.36298e-14
  5 1515.85 0.00000 -1.04273e-13
  6 1515.85 0.00000 -4.47582e-14
  7 1515.85 0.00000 -2.90333e-13
  8 1515.85 0.00000 -2.52803e-13
  9 1515.85 0.00000 3.79833e-14
  10 1515.85 0.00000 4.21441e-14
  11 1515.85 0.00000 2.78282e-13
  12 1515.85 0.00000 1.70764e-13
  13 1515.85 0.00000 2.43101e-13
  14 1515.85 0.00000 2.76387e-13
  15 1515.85 0.00000 2.23409e-13
  16 1515.85 0.00000 2.23330e-13
</Section>

newXOutput 50

<Section columns = "stress_xx | stress_yy | stress_xy">
  1 1547.92 0.00000 -3.41964e-14
  2 1547.92 0.00000 -1.00178e-13
  3 1547.92 0.00000 -5.28517e-14
  4 1547.92 0.00000 -7.63409e-14
  5 1547.92 0.00000 -3.20260e-15
  6 1547.92 0.00000 1.53406e-14
  7 1547.92 0.00000 -7.57929e-14
  8 1547.92 0.00000 -3.32348e-14
  9 1547.92 0.00000 2.56458e-13
  10 1547.92 0.00000 2.00336e-13
  11 1547.92 0.00000 8.68917e-14
  12 1547.92 0.00000 -1.80845e-13
  13 1547.92 0.00000 -1.62058e-13
  14 1547.92 0.00000 -3.18827e-13
  15 1547.92 0.00000 -6.14331e-14
  16 1547.92 0.00000 -1.66826e-13
</Section>

newXOutput 51

<Section columns = "stress_xx | stress_yy | stress_xy">
  1 1580.01 0.00000 4.70735e-14
  2 1580.01 0.00000 2.23199e-14
  3 1580.01 0.00000 5.68335e-14
  4 1580.01 0.00000 1.52806e-14
  5 1580.01 0.00000 -3.98827e-14
  6 1580.01 0.00000 -6.79487e-14
  7 1580.01 0.00000 6.04043e-14
  8 1580.01 0.00000 6.66155e-14
  9 1580.01 0.00000 -1.49155e-13
  10 1580.01 0.00000 -6.89889e-14
  11 1580.01 0.00000 1.76618e-13
  12 1580.01 0.00000 2.02169e-13
  13 1580.01 0.00000 1.81988e-13
  14 1580.01 0.00000 7.49521e-15
  15 1580.01 0.00000 8.39523e-14
  16 1580.01 0.00000 -2.81441e-14
</Section>

newXOutput 52

<Section columns = "stress_xx | stress_yy | stress_xy">
  1 1612.12 0.00000 -8.30616e-14
  2 1612.12 0.00000 -1.37742e-13
  3 1612.12 0.00000 -5.47242e-14
  4 1612.12 0.00000 -9.22780e-14
  5 1612.12 0.00000 -9.75332e-14
  6 1612.12 0.00000 -1.26629e-13
  7 1612.12 0.00000 1.57880e-13
  8 1612.12 0.00000 1.52537e-13
  9 1612.12 0.00000 -9.82719e-14
  10 1612.12 0.00000 -9.04994e-14
  11 1612.12 0.00000 -7.45555e-14
  12 1612.12 0.00000 1.74284e-14
  13 1612.12 0.00000 -5.60641e-14
  14 1612.12 0.00000 2.08626e-13
  15 1612.12 0.00000 -9.41473e-14
  16 1612.12 0.00000 2.46768e-14
</Section>

newXOutput 53

<Section columns = "stress_xx | stress_yy | stress_xy">
  1 1645.15 0.00000 -4.79853e-14
  2 1645.15 0.00000 4.57558e-14
  3 1645.15 0.00000 -3.83938e-14
  4 1645.15 0.00000 2.33852e-14
  5 1645.15 0.00000 2.21709e-15
  6 1645.15 0.00000 2.30234e-14
  7 1645.15 0.00000 -1.78501e-14
  8 1645.15 0.00000 1.78768e-14
  9 1645.15 0.00000 7.95478e-14
  10 1645.15 0.00000 1.20853e-13
  11 1645.15 0.00000 -1.71672e-14
  12 1645.15 0.00000 1.78684e-14
  13 1645.15 0.00000 1.11399e-13
  14 1645.15 0.00000 1.86084e-13
  15 1645.15 0.00000 -7.12316e-14
  16 1645.15 0.00000 1.31776e-13
</Section>

newXOutput 54

<Section columns = "stress_xx | stress_yy | stress_xy">
  1 1681.47 0.00000 -6.88213e-14
  2 1681.47 0.00000 -4.75224e-15
  3 1681.47 0.00000 -5.54420e-14
  4 1681.47 0.00000 -2.20033e-14
  5 1681.47 0.00000 -3.76280e-14
  6 1681.47 0.00000 -6.95718e-14
  7 1681.47 0.00000 -7.13166e-15
  8 1681.47 0.00000 -3.86121e-15
  9 1681.47 0.00000 -1.66677e-13
  10 1681.47 0.00000 -2.31300e-13
  11 1681.47 0.00000 2.63373e-14
  12 1681.47 0.00000 -2.73246e-13
  13 1681.47 0.00000 -3.07757e-14
  14 1681.47 0.00000 -2.04859e-13
  15 1681.47 0.00000 3.41973e-13
  16 1681.47 0.00000 1.22001e-13
</Section>

newXOutput 55

<Section columns = "stress_xx | stress_yy | stress_xy">
  1 1717.86 0.00000 -3.26280e-14
  2 1717.86 0.00000 3.91206e-14
  3 1717.86 0.00000 3.30002e-14
  4 1717.86 0.00000 8.50473e-14
  5 1717.86 0.00000 2.63285e-14
  6 1717.86 0.00000 8.99848e-14
  7 1717.86 0.00000 -3.03397e-14
  8 1717.86 0.00000 -6.63337e-14
  9 1717.86 0.00000 1.04889e-13
  10 1717.86 0.00000 7.27794e-14
  11 1717.86 0.00000 -9.29048e-15
  12 1717.86 0.00000 2.04977e-14
  13 1717.86 0.00000 9.15407e-14
  14 1717.86 0.00000 -3.01591e-15
  15 1717.86 0.00000 2.89690e-13
  16 1717.86 0.00000 5.65486e-14
</Section>

newXOutput 56

<Section columns = "stress_xx | stress_yy | stress_xy">
  1 1754.30 0.00000 8.85320e-14
  2 1754.30 0.00000 -7.61986e-14
  3 1754.30 0.00000 7.85440e-14
  4 1754.30 0.00000 -6.59036e-14
  5 1754.30 0.00000 -1.48411e-13
  6 1754.30 0.00000 -1.44548e-13
  7 1754.30 0.00000 3.01438e-13
  8 1754.30 0.00000 3.80736e-13
  9 1754.30 0.00000 -3.18956e-13
  10 1754.30 0.00000 -2.01021e-13
  11 1754.30 0.00000 -2.41307e-13
  12 1754.30 0.00000 -4.86354e-14
  13 1754.30 0.00000 -7.80100e-14
  14 1754.30 0.00000 -1.03144e-14
  15 1754.30 0.00000 1.19373e-13
  16 1754.30 0.00000 3.12547e-13
</Section>

newXOutput 57

<Section columns = "stress_xx | stress_yy | stress_xy">
  1 1790.80 0.00000 -9.71522e-14
  2 1790.80 0.00000 8.69060e-14
  3 1790.80 0.00000 -5.79610e-14
  4 1790.80 0.00000 1.11073e-13
  5 1790.80 0.00000 3.76089e-14
  6 1790.80 0.00000 4.08219e-14
  7 1790.80 0.00000 8.80829e-14
  8 1790.80 0.00000 2.43447e-14
  9 1790.80 0.00000 4.63706e-15
  10 1790.80 0.00000 5.91792e-14
  11 1790.80 0.00000 -1.33374e-13
  12 1790.80 0.00000 -2.15554e-13
  13 1790.80 0.00000 -1.66267e-13
  14 1790.80 0.00000 -2.41561e-13
  15 1790.80 0.00000 -2.45291e-13
  16 1790.80 0.00000 -1.15458e-13
</Section>

newXOutput 58

<Section columns = "stress_xx | stress_yy | stress_xy">
  1 1827.36 0.00000 -2.87261e-14
  2 1827.36 0.00000 -1.32730e-13
  3 1827.36 0.00000 5.93979e-14
  4 1827.36 0.00000 -2.01399e-14
  5 1827.36 0.00000 -1.30787e-13
  6 1827.36 0.00000 -8.54574e-14
  7 1827.36 0.00000 -2.24749e-13
  8 1827.36 0.00000 -5.45045e-14
  9 1827.36 0.00000 -1.93675e-13
  10 1827.36 0.00000 -1.12573e-13
  11 1827.36 0.00000 -6.34291e-14
  12 1827.36 0.00000 3.49159e-14
  13 1827.36 0.00000 -7.11463e-14
  14 1827.36 0.00000 -5.30003e-14
  15 1827.36 0.00000 -2.76482e-14
  16 1827.36 0.00000 6.04961e-14
</Section>

newXOutput 59

<Section columns = "stress_xx | stress_yy | stress_xy">
  1 1863.98 0.00000 -7.59301e-14
  2 1863.98 0.00000 -1.91619e-13
  3 1863.98 0.00000 -8.15174e-14
  4 1863.98 0.00000 -1.08165e-13
  5 1863.98 0.00000 9.04991e-14
  6 1863.98 0.00000 6.48290e-14
  7 1863.98 0.00000 5.78202e-14
  8 1863.98 0.00000 -2.19518e-14
  9 1863.98 0.00000 2.69059e-13
  10 1863.98 0.00000 2.44481e-13
  11 1863.98 0.00000 2.06293e-13
  12 1863.98 0.00000 2.02452e-13
  13 1863.98 0.00000 -7.15014e-14
  14 1863.98 0.00000 -2.23340e-13
  15 1863.98 0.00000 -1.02024e-13
  16 1863.98 0.00000 -2.53488e-13
</Section>

newXOutput 60

<Section columns = "stress_xx | stress_yy | stress_xy">
  1 1900.66 0.00000 -5.84213e-15
  2 1900.66 0.00000 1.67962e-13
  3 1900.66 0.00000 1.43978e-13
  4 1900.66 0.00000 2.72944e-13
  5 1900.66 0.00000 1.61799e-13
  6 1900.66 0.00000 1.60334e-13
  7 1900.66 0.00000 8.71133e-14
  8 1900.66 0.00000 1.00806e-13
  9 1900.66 0.00000 -2.55584e-13
  10 1900.66 0.00000 -1.96980e-13
  11 1900.66 0.00000 5.46399e-14
  12 1900.66 0.00000 1.62414e-13
  13 1900.66 0.00000 1.10039e-13
  14 1900.66 0.00000 -1.37469e-15
  15 1900.66 0.00000 8.29856e-14
  16 1900.66 0.00000 1.29765e-13
</Section>

newXOutput 61

<Section columns = "stress_xx | stress_yy | stress_xy">
  1 1937.41 0.00000 -1.02352e-13
  2 1937.41 0.00000 3.56788e-15
  3 1937.41 0.00000 -1.51952e-13
  4 1937.41 0.00000 -6.14940e-14
  5 1937.41 0.00000 -2.33322e-13
  6 1937.41 0.00000 -1.42422e-13
  7 1937.41 0.00000 -5.43778e-14
  8 1937.41 0.00000 -9.17260e-14
  9 1937.41 0.00000 1.31640e-13
  10 1937.41 0.00000 -1.17218e-13
  11 1937.41 0.00000 2.48620e-13
  12 1937.41 0.00000 1.50196e-13
  13 1937.41 0.00000 -2.84305e-13
  14 1937.41 0.00000 -2.04849e-13
  15 1937.41 0.00000 -2.39056e-14
  16 1937.41 0.00000 1.62573e-13
</Section>

newXOutput 62

<Section columns = "stress_xx | stress_yy | stress_xy">
  1 1974.21 0.00000 -2.96325e-15
  2 1974.21 0.00000 6.44606e-14
  3 1974.21 0.00000 -1.17349e-13
  4 1974.21 0.00000 -7.53311e-14
  5 1974.21 0.00000 -3.56104e-14
  6 1974.21 0.00000 -1.78803e-14
  7 1974.21 0.00000 -3.33902e-14
  8 1974.21 0.00000 -2.42732e-14
  9 1974.21 0.00000 9.50840e-14
  10 1974.21 0.00000 6.92870e-14
  11 1974.21 0.00000 2.02884e-13
  12 1974.21 0.00000 2.17793e-13
  13 1974.21 0.00000 -1.22443e-13
  14 1974.21 0.00000 -1.88957e-13
  15 1974.21 0.00000 -3.87205e-14
  16 1974.21 0.00000 2.05010e-14
</Section>

newXOutput 63

<Section columns = "stress_xx | stress_yy | stress_xy">
  1 2011.07 0.00000 -4.68116e-14
  2 2011.07 0.00000 -1.28890e-13
  3 2011.07 0.00000 2.19583e-13
  4 2011.07 0.00000 1.69633e-13
  5 2011.07 0.00000 4.09584e-14
  6 2011.07 0.00000 -1.61114e-14
  7 2011.07 0.00000 4.33035e-13
  8 2011.07 0.00000 4.22575e-13
  9 2011.07 0.00000 2.98159e-14
  10 2011.07 0.00000 1.24836e-13
  11 2011.07 0.00000 -1.27247e-13
  12 2011.07 0.00000 -4.80948e-14
  13 2011.07 0.00000 -1.91948e-13
  14 2011.07 0.00000 2.58677e-14
  15 2011.07 0.00000 -4.40649e-13
  16 2011.07 0.00000 -4.69445e-13
</Section>

newXOutput 64

<Section columns = "stress_xx | stress_yy | stress_xy">
  1 2048.00 0.00000 -1.50968e-13
  2 2048.00 0.00000 -7.65369e-14
  3 2048.00 0.00000 -1.58056e-13
  4 2048.00 0.00000 -1.36537e-13
  5 2048.00 0.00000 -3.38663e-13
  6 2048.00 0.00000 -3.46456e-13
  7 2048.00 0.00000 -3.36784e-13
  8 2048.00 0.00000 -3.34876e-13
  9 2048.00 0.00000 -1.41897e-13
  10 2048.00 0.00000 -1.81836e-14
  11 2048.00 0.00000 9.96780e-14
  12 2048.00 0.00000 2.45491e-13
  13 2048.00 0.00000 6.93772e-15
  14 2048.00 0.00000 9.46489e-14
  15 2048.00 0.00000 1.26563e-13
  16 2048.00 0.00000 -5.70868e-14
</Section>

newXOutput 65

<Section columns = "stress_xx | stress_yy | stress_xy">
  1 2084.99 0.00000 -9.48770e-14
  2 2084.99 0.00000 -7.07357e-14
  3 2084.99 0.00000 4.72903e-14
  4 2084.99 0.00000 3.70922e-14
  5 2084.99 0.00000 -1.21396e-13
  6 2084.99 0.00000 -1.13640e-13
  7 2084.99 0.00000 -7.84030e-14
  8 2084.99 0.00000 -9.95519e-14
  9 2084.99 0.00000 -1.73556e-13
  10 2084.99 0.00000 -1.56610e-13
  11 2084.99 0.00000 -2.14308e-14
  12 2084.99 0.00000 -4.66672e-14
  13 2084.99 0.00000 3.76097e-13
  14 2084.99 0.00000 2.62571e-13
  15 2084.99 0.00000 1.72363e-13
  16 2084.99 0.00000 3.26347e-13
</Section>

newXOutput 66

<Section columns = "stress_xx | stress_yy | stress_xy">
  1 2122.04 0.00000 -5.62854e-14
  2 2122.04 0.00000 -3.74502e-14
  3 2122.04 0.00000 1.55693e-14
  4 2122.04 0.00000 1.24211e-14
  5 2122.04 0.00000 -5.95757e-14
  6 2122.04 0.00000 2.29527e-14
  7 2122.04 0.00000 -1.87940e-14
  8 2122.04 0.00000 -7.34010e-16
  9 2122.04 0.00000 -1.28246e-13
  10 2122.04 0.00000 -1.91754e-13
  11 2122.04 0.00000 -2.52123e-13
  12 2122.04 0.00000 -3.52071e-13
  13 2122.04 0.00000 -2.25807e-13
  14 2122.04 0.00000 -1.32405e-13
  15 2122.04 0.00000 -2.19517e-13
  16 2122.04 0.00000 -2.05671e-13
</Section>

newXOutput 67

<Section columns = "stress_xx | stress_yy | stress_xy">
  1 2159.15 0.00000 1.04541e-13
  2 2159.15 0.00000 1.98519e-13
  3 2159.15 0.00000 1.57597e-15
  4 2159.15 0.00000 6.70138e-14
  5 2159.15 0.00000 7.22356e-14
  6 2159.15 0.00000 6.10117e-14
  7 2159.15 0.00000 5.94444e-14
  8 2159.15 0.00000 1.62327e-15
  9 2159.15 0.00000 3.09216e-14
  10 2159.15 0.00000 4.02220e-14
  11 2159.15 0.00000 1.56231e-13
  12 2159.15 0.00000 1.63660e-13
  13 2159.15 0.00000 1.39302e-13
  14 2159.15 0.00000 -4.69631e-13
  15 2159.15 0.00000 7.54909e-13
  16 2159.15 0.00000 -3.73528e-13
</Section>

newXOutput 68

<Section columns = "stress_xx | stress_yy | stress_xy">
  1 2196.33 0.00000 -1.72073e-13
  2 2196.33 0.00000 -1.75972e-13
  3 2196.33 0.00000 -2.53987e-13
  4 2196.33 0.00000 -1.65838e-13
  5 2196.33 0.00000 -3.74333e-13
  6 2196.33 0.00000 -2.76789e-13
  7 2196.33 0.00000 4.82160e-14
  8 2196.33 0.00000 8.96158e-14
  9 2196.33 0.00000 1.72691e-13
  10 2196.33 0.00000 -4.71838e-14
  11 2196.33 0.00000 -1.14015e-13
  12 2196.33 0.00000 -1.49645e-13
  13 2196.33 0.00000 1.77351e-13
  14 2196.33 0.00000 2.35806e-13
  15 2196.33 0.00000 -3.62404e-13
  16 2196.33 0.00000 -1.08513e-13
</Section>

newXOutput 69

<Section columns = "stress_xx | stress_yy | stress_xy">
  1 2233.56 0.00000 -7.25058e-14
  2 2233.56 0.00000 -6.56793e-14
  3 2233.56 0.00000 -7.68192e-14
  4 2233.56 0.00000 -9.96010e-14
  5 2233.56 0.00000 -2.31715e-13
  6 2233.56 0.00000 -2.31234e-13
  7 2233.56 0.00000 -2.26928e-13
  8 2233.56 0.00000 -1.39095e-13
  9 2233.56 0.00000 -3.73255e-13
  10 2233.56 0.00000 -3.67620e-13
  11 2233.56 0.00000 1.55436e-13
  12 2233.56 0.00000 8.45512e-14
  13 2233.56 0.00000 5.13700e-13
  14 2233.56 0.00000 3.68986e-13
  15 2233.56 0.00000 7.83104e-13
  16 2233.56 0.00000 2.39433e-13
</Section>

newXOutput 70

<Section columns = "stress_xx | stress_yy | stress_xy">
  1 2270.86 0.00000 -5.87866e-14
  2 2270.86 0.00000 -8.59653e-14
  3 2270.86 0.00000 -4.40254e-14
  4 2270.86 0.00000 -7.44209e-14
  5 2270.86 0.00000 -1.00770e-13
  6 2270.86 0.00000 -4.14330e-14
  7 2270.86 0.00000 -9.09119e-14
  8 2270.86 0.00000 -9.63319e-14
  9 2270.86 0.00000 1.29405e-13
  10 2270.86 0.00000 1.33780e-13
  11 2270.86 0.00000 -3.33484e-13
  12 2270.86 0.00000 -4.26347e-13
  13 2270.86 0.00000 -1.58543e-13
  14 2270.86 0.00000 -2.08175e-13
  15 2270.86 0.00000 -5.39040e-13
  16 2270.86 0.00000 -1.08164e-13
</Section>

newXOutput 71

<Section columns = "stress_xx | stress_yy | stress_xy">
  1 2308.23 0.00000 -1.23854e-13
  2 2308.23 0.00000 -2.84865e-14
  3 2308.23 0.00000 -9.62180e-14
  4 2308.23 0.00000 1.87069e-14
  5 2308.23 0.00000 -1.44689e-13
  6 2308.23 0.00000 -1.21711e-13
  7 2308.23 0.00000 -1.62340e-14
  8 2308.23 0.00000 -5.37551e-14
  9 2308.23 0.00000 7.09809e-14
  10 2308.23 0.00000 6.14627e-14
  11 2308.23 0.00000 -1.40440e-13
  12 2308.23 0.00000 -7.70527e-14
  13 2308.23 0.00000 6.15595e-13
  14 2308.23 0.00000 4.82670e-13
  15 2308.23 0.00000 5.11319e-13
  16 2308.23 0.00000 -1.45329e-13
</Section>

newXOutput 72

<Section columns = "stress_xx | stress_yy | stress_xy">
  1 2345.66 0.00000 -1.60885e-13
  2 2345.66 0.00000 -7.63447e-14
  3 2345.66 0.00000 -6.85267e-14
  4 2345.66 0.00000 -2.14944e-14
  5 2345.66 0.00000 -1.34931e-14
  6 2345.66 0.00000 -1.68354e-14
  7 2345.66 0.00000 1.63780e-14
  8 2345.66 0.00000 4.70433e-14
  9 2345.66 0.00000 -1.24192e-13
  10 2345.66 0.00000 -1.09782e-13
  11 2345.66 0.00000 -9.21147e-14
  12 2345.66 0.00000 -1.41233e-13
  13 2345.66 0.00000 3.34785e-13
  14 2345.66 0.00000 7.02875e-14
  15 2345.66 0.00000 -3.01089e-13
  16 2345.66 0.00000 -1.69738e-13
</Section>

newXOutput 73

<Section columns = "stress_xx | stress_yy | stress_xy">
  1 2383.15 0.00000 -8.66294e-14
  2 2383.15 0.00000 -1.25706e-13
  3 2383.15 0.00000 8.09658e-14
  4 2383.15 0.00000 6.68200e-14
  5 2383.15 0.00000 1.23536e-14
  6 2383.15 0.00000 7.01094e-15
  7 2383.15 0.00000 -2.64598e-13
  8 2383.15 0.00000 -2.52284e-13
  9 2383.15 0.00000 -4.90306e-13
  10 2383.15 0.00000 -5.05854e-13
  11 2383.15 0.00000 -9.44329e-14
  12 2383.15 0.00000 -3.72313e-14
  13 2383.15 0.00000 3.03133e-13
  14 2383.15 0.00000 4.19711e-13
  15 2383.15 0.00000 -2.53486e-14
  16 2383.15 0.00000 -2.78110e-13
</Section>

newXOutput 74

<Section columns = "stress_xx | stress_yy | stress_xy">
  1 2420.70 0.00000 -1.10081e-14
  2 2420.70 0.00000 -2.47813e-14
  3 2420.70 0.00000 2.66223e-13
  4 2420.70 0.00000 1.97765e-13
  5 2420.70 0.00000 -1.11538e-13
  6 2420.70 0.00000 -2.15590e-13
  7 2420.70 0.00000 -2.33493e-13
  8 2420.70 0.00000 -1.78001e-13
  9 2420.70 0.00000 -2.84200e-13
  10 2420.70 0.00000 -2.84100e-13
  11 2420.70 0.00000 3.02252e-13
  12 2420.70 0.00000 2.27846e-13
  13 2420.70 0.00000 6.08796e-13
  14 2420.70 0.00000 3.69467e-13
  15 2420.70 0.00000 3.96185e-13
  16 2420.70 0.00000 7.80875e-14
</Section>

newXOutput 75

<Section columns = "stress_xx | stress_yy | stress_xy">
  1 2458.32 0.00000 9.14485e-15
  2 2458.32 0.00000 7.94513e-14
  3 2458.32 0.00000 -3.19926e-13
  4 2458.32 0.00000 -1.91115e-13
  5 2458.32 0.00000 -1.28044e-13
  6 2458.32 0.00000 -4.05667e-15
  7 2458.32 0.00000 -1.53606e-14
  8 2458.32 0.00000 4.48986e-14
  9 2458.32 0.00000 -3.33855e-13
  10 2458.32 0.00000 -4.09720e-13
  11 2458.32 0.00000 -3.19951e-14
  12 2458.32 0.00000 -2.94205e-13
  13 2458.32 0.00000 -1.38616e-13
  14 2458.32 0.00000 7.79926e-14
  15 2458.32 0.00000 -1.19159e-13
  16 2458.32 0.00000 1.62861e-13
</Section>

newXOutput 76

<Section columns = "stress_xx | stress_yy | stress_xy">
  1 2496.01 0.00000 -2.59919e-13
  2 2496.01 0.00000 -3.89221e-13
  3 2496.01 0.00000 1.49323e-13
  4 2496.01 0.00000 -4.51994e-14
  5 2496.01 0.00000 8.64761e-14
  6 2496.01 0.00000 -1.70601e-14
  7 2496.01 0.00000 -5.73240e-14
  8 2496.01 0.00000 5.97894e-15
  9 2496.01 0.00000 1.97571e-13
  10 2496.01 0.00000 1.45630e-13
  11 2496.01 0.00000 -2.16108e-13
  12 2496.01 0.00000 -2.17609e-13
  13 2496.01 0.00000 -1.00410e-14
  14 2496.01 0.00000 3.93156e-14
  15 2496.01 0.00000 1.60413e-13
  16 2496.01 0.00000 -7.00230e-14
</Section>

newXOutput 77

<Section columns = "stress_xx | stress_yy | stress_xy">
  1 2533.76 0.00000 -6.95173e-14
  2 2533.76 0.00000 -7.84911e-14
  3 2533.76 0.00000 2.40366e-13
  4 2533.76 0.00000 2.23242e-13
  5 2533.76 0.00000 -1.78982e-13
  6 2533.76 0.00000 -1.58800e-13
  7 2533.76 0.00000 -1.09004e-13
  8 2533.76 0.00000 -2.65109e-15
  9 2533.76 0.00000 -1.55029e-13
  10 2533.76 0.00000 9.46164e-15
  11 2533.76 0.00000 -6.44685e-14
  12 2533.76 0.00000 1.05811e-14
  13 2533.76 0.00000 -1.29503e-13
  14 2533.76 0.00000 -5.09015e-13
  15 2533.76 0.00000 -6.67747e-14
  16 2533.76 0.00000 -1.42661e-13
</Section>

newXOutput 78

<Section columns = "stress_xx | stress_yy | stress_xy">
  1 2571.57 0.00000 -7.44230e-15
  2 2571.57 0.00000 1.27147e-14
  3 2571.57 0.00000 2.17306e-13
  4 2571.57 0.00000 2.08166e-13
  5 2571.57 0.00000 -8.89798e-14
  6 2571.57 0.00000 -1.51729e-13
  7 2571.57 0.00000 -2.38671e-13
  8 2571.57 0.00000 -2.70524e-13
  9 2571.57 0.00000 4.49936e-14
  10 2571.57 0.00000 7.47249e-15
  11 2571.57 0.00000 1.51399e-13
  12 2571.57 0.00000 8.31991e-14
  13 2571.57 0.00000 -3.74987e-14
  14 2571.57 0.00000 -2.73846e-13
  15 2571.57 0.00000 2.55715e-13
  16 2571.57 0.00000 4.11079e-14
</Section>

newXOutput 79

<Section columns = "stress_xx | stress_yy | stress_xy">
  1 2609.46 0.00000 8.36776e-14
  2 2609.46 0.00000 7.87898e-14
  3 2609.46 0.00000 -4.01832e-14
  4 2609.46 0.00000 -3.77701e-14
  5 2609.46 0.00000 2.09606e-13
  6 2609.46 0.00000 1.44126e-13
  7 2609.46 0.00000 -1.02462e-13
  8 2609.46 0.00000 -1.91874e-13
  9 2609.46 0.00000 2.87779e-14
  10 2609.46 0.00000 8.80132e-14
  11 2609.46 0.00000 -6.18679e-15
  12 2609.46 0.00000 -5.50175e-14
  13 2609.46 0.00000 -9.99656e-14
  14 2609.46 0.00000 -7.78380e-14
  15 2609.46 0.00000 -3.99878e-13
  16 2609.46 0.00000 9.64362e-14
</Section>

newXOutput 80

<Section columns = "stress_xx | stress_yy | stress_xy">
  1 2647.40 0.00000 -5.99908e-14
  2 2647.40 0.00000 -6.69495e-14
  3 2647.40 0.00000 -7.83144e-14
  4 2647.40 0.00000 -9.71918e-14
  5 2647.40 0.00000 1.06364e-13
  6 2647.40 0.00000 2.93065e-14
  7 2647.40 0.00000 -3.60173e-13
  8 2647.40 0.00000 -3.24085e-13
  9 2647.40 0.00000 -8.38447e-14
  10 2647.40 0.00000 -9.08286e-14
  11 2647.40 0.00000 -2.77421e-13
  12 2647.40 0.00000 -4.48952e-13
  13 2647.40 0.00000 -6.79636e-13
  14 2647.40 0.00000 -6.72656e-13
  15 2647.40 0.00000 7.54184e-14
  16 2647.40 0.00000 -3.69027e-14
</Section>

newXOutput 81

<Section columns = "stress_xx | stress_yy | stress_xy">
  1 2685.42 0.00000 -1.19011e-13
  2 2685.42 0.00000 -1.81747e-13
  3 2685.42 0.00000 2.18421e-14
  4 2685.42 0.00000 -5.56825e-14
  5 2685.42 0.00000 -9.10196e-14
  6 2685.42 0.00000 1.80767e-14
  7 2685.42 0.00000 2.69881e-13
  8 2685.42 0.00000 3.99121e-13
  9 2685.42 0.00000 -7.84090e-14
  10 2685.42 0.00000 -1.55810e-13
  11 2685.42 0.00000 1.42916e-13
  12 2685.42 0.00000 5.37520e-15
  13 2685.42 0.00000 -4.19114e-13
  14 2685.42 0.00000 -1.75131e-13
  15 2685.42 0.00000 -3.45526e-13
  16 2685.42 0.00000 -1.27484e-13
</Section>

newXOutput 82

<Section columns = "stress_xx | stress_yy | stress_xy">
  1 2723.49 0.00000 1.94083e-14
  2 2723.49 0.00000 -6.15043e-14
  3 2723.49 0.00000 1.07134e-13
  4 2723.49 0.00000 5.74069e-14
  5 2723.49 0.00000 4.47600e-14
  6 2723.49 0.00000 4.67845e-14
  7 2723.49 0.00000 -4.64727e-14
  8 2723.49 0.00000 1.92669e-14
  9 2723.49 0.00000 -3.58202e-13
  10 2723.49 0.00000 -5.02495e-13
  11 2723.49 0.00000 3.96526e-13
  12 2723.49 0.00000 1.01077e-13
  13 2723.49 0.00000 4.16832e-15
  14 2723.49 0.00000 6.96555e-15
  15 2723.49 0.00000 -2.40260e-14
  16 2723.49 0.00000 4.58430e-13
</Section>

newXOutput 83

<Section columns = "stress_xx | stress_yy | stress_xy">
  1 2761.64 0.00000 -1.21008e-13
  2 2761.64 0.00000 -1.57966e-13
  3 2761.64 0.00000 -1.00756e-13
  4 2761.64 0.00000 -1.18243e-13
  5 2761.64 0.00000 -1.42624e-13
  6 2761.64 0.00000 -1.54975e-13
  7 2761.64 0.00000 2.72633e-13
  8 2761.64 0.00000 1.37784e-13
  9 2761.64 0.00000 2.81417e-13
  10 2761.64 0.00000 2.31173e-13
  11 2761.64 0.00000 3.47217e-13
  12 2761.64 0.00000 5.24156e-13
  13 2761.64 0.00000 -1.59925e-13
  14 2761.64 0.00000 -6.41408e-14
  15 2761.64 0.00000 -4.97944e-14
  16 2761.64 0.00000 -4.49029e-13
</Section>

newXOutput 84

<Section columns = "stress_xx | stress_yy | stress_xy">
  1 2799.85 0.00000 -4.11107e-14
  2 2799.85 0.00000 7.30492e-14
  3 2799.85 0.00000 -6.28071e-14
  4 2799.85 0.00000 2.48163e-15
  5 2799.85 0.00000 -2.26670e-13
  6 2799.85 0.00000 -1.89111e-13
  7 2799.85 0.00000 -2.49822e-13
  8 2799.85 0.00000 -3.31036e-13
  9 2799.85 0.00000 -6.22638e-14
  10 2799.85 0.00000 -1.65303e-13
  11 2799.85 0.00000 5.58268e-13
  12 2799.85 0.00000 3.94169e-13
  13 2799.85 0.00000 2.28289e-13
  14 2799.85 0.00000 2.21255e-13
  15 2799.85 0.00000 1.57059e-13
  16 2799.85 0.00000 2.54588e-13
</Section>

newXOutput 85

<Section columns = "stress_xx | stress_yy | stress_xy">
  1 2838.13 0.00000 -2.16930e-13
  2 2838.13 0.00000 -1.42640e-13
  3 2838.13 0.00000 -2.54227e-13
  4 2838.13 0.00000 -2.08862e-13
  5 2838.13 0.00000 -1.06977e-13
  6 2838.13 0.00000 -1.21915e-13
  7 2838.13 0.00000 -2.88131e-14
  8 2838.13 0.00000 -8.40033e-15
  9 2838.13 0.00000 2.49567e-13
  10 2838.13 0.00000 2.92563e-13
  11 2838.13 0.00000 -6.68296e-14
  12 2838.13 0.00000 -1.79325e-13
  13 2838.13 0.00000 -5.46690e-14
  14 2838.13 0.00000 -4.24338e-13
  15 2838.13 0.00000 -3.11312e-13
  16 2838.13 0.00000 -7.43859e-13
</Section>

newXOutput 86

<Section columns = "stress_xx | stress_yy | stress_xy">
  1 2876.48 0.00000 -6.54561e-14
  2 2876.48 0.00000 -1.07641e-13
  3 2876.48 0.00000 5.14409e-14
  4 2876.48 0.00000 6.01054e-14
  5 2876.48 0.00000 -4.51188e-14
  6 2876.48 0.00000 -2.46110e-14
  7 2876.48 0.00000 2.33933e-14
  8 2876.48 0.00000 3.93825e-14
  9 2876.48 0.00000 2.91969e-13
  10 2876.48 0.00000 3.22484e-13
  11 2876.48 0.00000 4.71172e-14
  12 2876.48 0.00000 2.30902e-13
  13 2876.48 0.00000 6.65524e-14
  14 2876.48 0.00000 2.68002e-13
  15 2876.48 0.00000 -3.18035e-14
  16 2876.48 0.00000 3.06820e-13
</Section>

newXOutput 87

<Section columns = "stress_xx | stress_yy | stress_xy">
  1 2914.90 0.00000 -1.35612e-13
  2 2914.90 0.00000 1.14100e-13
  3 2914.90 0.00000 -8.78141e-14
  4 2914.90 0.00000 2.41558e-14
  5 2914.90 0.00000 -1.19751e-14
  6 2914.90 0.00000 -7.01038e-14
  7 2914.90 0.00000 -1.55399e-13
  8 2914.90 0.00000 -4.00629e-14
  9 2914.90 0.00000 1.94877e-14
  10 2914.90 0.00000 1.06056e-13
  11 2914.90 0.00000 2.28530e-13
  12 2914.90 0.00000 1.12250e-13
  13 2914.90 0.00000 4.01961e-14
  14 2914.90 0.00000 5.42702e-14
  15 2914.90 0.00000 1.75665e-13
  16 2914.90 0.00000 -5.05833e-14
</Section>

newXOutput 88

<Section columns = "stress_xx | stress_yy | stress_xy">
  1 2953.38 0.00000 -1.74968e-14
  2 2953.38 0.00000 -2.58795e-13
  3 2953.38 0.00000 -1.97575e-14
  4 2953.38 0.00000 -1.60695e-13
  5 2953.38 0.00000 -2.16934e-14
  6 2953.38 0.00000 9.60949e-14
  7 2953.38 0.00000 -2.40496e-13
  8 2953.38 0.00000 -9.83863e-14
  9 2953.38 0.00000 -2.39183e-14
  10 2953.38 0.00000 5.99510e-14
  11 2953.38 0.00000 3.43770e-14
  12 2953.38 0.00000 2.31250e-13
  13 2953.38 0.00000 -3.92994e-13
  14 2953.38 0.00000 -2.61956e-13
  15 2953.38 0.00000 -4.54050e-13
  16 2953.38 0.00000 -9.11262e-14
</Section>

newXOutput 89

<Section columns = "stress_xx | stress_yy | stress_xy">
  1 2991.94 0.00000 -2.48686e-13
  2 2991.94 0.00000 -1.57730e-13
  3 2991.94 0.00000 9.35874e-14
  4 2991.94 0.00000 2.07967e-13
  5 2991.94 0.00000 -9.01094e-14
  6 2991.94 0.00000 1.23342e-14
  7 2991.94 0.00000 1.84491e-13
  8 2991.94 0.00000 2.97738e-13
  9 2991.94 0.00000 -4.57124e-13
  10 2991.94 0.00000 -3.00114e-13
  11 2991.94 0.00000 1.19104e-13
  12 2991.94 0.00000 3.32082e-14
  13 2991.94 0.00000 3.00102e-13
  14 2991.94 0.00000 -1.59675e-13
  15 2991.94 0.00000 2.88243e-13
  16 2991.94 0.00000 1.48918e-13
</Section>

newXOutput 90

<Section columns = "stress_xx | stress_yy | stress_xy">
  1 3030.56 0.00000 3.38434e-13
  2 3030.56 0.00000 1.74877e-13
  3 3030.56 0.00000 6.89141e-14
  4 3030.56 0.00000 2.15165e-14
  5 3030.56 0.00000 -4.36670e-14
  6 3030.56 0.00000 7.12827e-14
  7 3030.56 0.00000 -1.65879e-14
  8 3030.56 0.00000 7.08553e-14
  9 3030.56 0.00000 3.14120e-13
  10 3030.56 0.00000 1.40699e-13
  11 3030.56 0.00000 3.46457e-13
  12 3030.56 0.00000 -5.53406e-14
  13 3030.56 0.00000 1.07491e-13
  14 3030.56 0.00000 1.28521e-13
  15 3030.56 0.00000 -1.69718e-13
  16 3030.56 0.00000 -3.52233e-13
</Section>

newXOutput 91

<Section columns = "stress_xx | stress_yy | stress_xy">
  1 3069.25 0.00000 -5.20915e-13
  2 3069.25 0.00000 -3.47786e-13
  3 3069.25 0.00000 -1.02474e-13
  4 3069.25 0.00000 -7.63259e-14
  5 3069.25 0.00000 -3.00395e-15
  6 3069.25 0.00000 -1.91599e-13
  7 3069.25 0.00000 1.94307e-13
  8 3069.25 0.00000 1.97691e-13
  9 3069.25 0.00000 -5.01984e-13
  10 3069.25 0.00000 -2.54992e-13
  11 3069.25 0.00000 -2.23696e-13
  12 3069.25 0.00000 -1.33411e-13
  13 3069.25 0.00000 2.86172e-13
  14 3069.25 0.00000 4.92553e-14
  15 3069.25 0.00000 -1.79596e-14
  16 3069.25 0.00000 -3.32321e-13
</Section>

newXOutput 92

<Section columns = "stress_xx | stress_yy | stress_xy">
  1 3108.01 0.00000 1.26699e-13
  2 3108.01 0.00000 1.21410e-13
  3 3108.01 0.00000 1.73831e-13
  4 3108.01 0.00000 1.40706e-13
  5 3108.01 0.00000 2.23935e-13
  6 3108.01 0.00000 1.68834e-13
  7 3108.01 0.00000 1.19945e-13
  8 3108.01 0.00000 7.80251e-14
  9 3108.01 0.00000 -1.17808e-13
  10 3108.01 0.00000 -1.83591e-14
  11 3108.01 0.00000 4.09991e-13
  12 3108.01 0.00000 1.63518e-13
  13 3108.01 0.00000 3.23346e-13
  14 3108.01 0.00000 2.17061e-13
  15 3108.01 0.00000 5.03270e-13
  16 3108.01 0.00000 3.09777e-13
</Section>

newXOutput 93

<Section columns = "stress_xx | stress_yy | stress_xy">
  1 3146.84 0.00000 -2.01147e-13
  2 3146.84 0.00000 -3.06910e-13
  3 3146.84 0.00000 -9.66132e-14
  4 3146.84 0.00000 -1.24905e-13
  5 3146.84 0.00000 -7.02233e-14
  6 3146.84 0.00000 4.75120e-14
  7 3146.84 0.00000 2.21959e-14
  8 3146.84 0.00000 -5.67496e-14
  9 3146.84 0.00000 -1.08687e-14
  10 3146.84 0.00000 -2.02965e-13
  11 3146.84 0.00000 2.60057e-13
  12 3146.84 0.00000 2.64584e-13
  13 3146.84 0.00000 2.69195e-13
  14 3146.84 0.00000 3.89491e-13
  15 3146.84 0.00000 1.96102e-13
  16 3146.84 0.00000 4.21432e-16
</Section>

newXOutput 94

<Section columns = "stress_xx | stress_yy | stress_xy">
  1 3185.74 0.00000 -1.15378e-13
  2 3185.74 0.00000 -1.34613e-15
  3 3185.74 0.00000 2.44595e-13
  4 3185.74 0.00000 3.47617e-13
  5 3185.74 0.00000 -4.16274e-14
  6 3185.74 0.00000 3.57448e-14
  7 3185.74 0.00000 2.66496e-13
  8 3185.74 0.00000 2.31030e-13
  9 3185.74 0.00000 -1.80709e-13
  10 3185.74 0.00000 -1.85958e-13
  11 3185.74 0.00000 -1.10896e-13
  12 3185.74 0.00000 1.67501e-13
  13 3185.74 0.00000 -5.14409e-14
  14 3185.74 0.00000 3.26665e-14
  15 3185.74 0.00000 3.08025e-13
  16 3185.74 0.00000 2.30579e-14
</Section>

newXOutput 95

<Section columns = "stress_xx | stress_yy | stress_xy">
  1 3224.71 0.00000 1.31525e-14
  2 3224.71 0.00000 -1.09276e-13
  3 3224.71 0.00000 -4.52340e-14
  4 3224.71 0.00000 -7.40190e-14
  5 3224.71 0.00000 -1.91051e-13
  6 3224.71 0.00000 -1.05088e-13
  7 3224.71 0.00000 -9.45925e-14
  8 3224.71 0.00000 -1.52030e-13
  9 3224.71 0.00000 1.68063e-13
  10 3224.71 0.00000 1.48241e-13
  11 3224.71 0.00000 3.30031e-14
  12 3224.71 0.00000 4.51316e-13
  13 3224.71 0.00000 -2.18837e-13
  14 3224.71 0.00000 6.95953e-15
  15 3224.71 0.00000 -3.85989e-13
  16 3224.71 0.00000 -3.10104e-14
</Section>

newXOutput 96

<Section columns = "stress_xx | stress_yy | stress_xy">
  1 3263.75 0.00000 -3.18555e-14
  2 3263.75 0.00000 -3.66300e-14
  3 3263.75 0.00000 8.21908e-14
  4 3263.75 0.00000 1.44066e-13
  5 3263.75 0.00000 -7.10579e-14
  6 3263.75 0.00000 -8.77545e-14
  7 3263.75 0.00000 -2.34728e-13
  8 3263.75 0.00000 -2.73982e-13
  9 3263.75 0.00000 -1.99859e-15
  10 3263.75 0.00000 4.31622e-14
  11 3263.75 0.00000 -1.10604e-13
  12 3263.75 0.00000 2.17022e-15
  13 3263.75 0.00000 -1.60299e-13
  14 3263.75 0.00000 -1.58566e-13
  15 3263.75 0.00000 1.33908e-13
  16 3263.75 0.00000 -7.94944e-14
</Section>

newXOutput 97

<Section columns = "stress_xx | stress_yy | stress_xy">
  1 3302.86 0.00000 -1.60560e-13
  2 3302.86 0.00000 -1.17581e-13
  3 3302.86 0.00000 -2.84521e-14
  4 3302.86 0.00000 -5.77301e-15
  5 3302.86 0.00000 -2.34211e-13
  6 3302.86 0.00000 -3.44573e-13
  7 3302.86 0.00000 -3.22468e-13
  8 3302.86 0.00000 -4.04167e-13
  9 3302.86 0.00000 -2.05636e-13
  10 3302.86 0.00000 -2.42724e-13
  11 3302.86 0.00000 -7.25751e-13
  12 3302.86 0.00000 -4.61284e-13
  13 3302.86 0.00000 -2.77280e-13
  14 3302.86 0.00000 -8.63678e-14
  15 3302.86 0.00000 -6.56849e-13
  16 3302.86 0.00000 -1.15581e-13
</Section>

newXOutput 98

<Section columns = "stress_xx | stress_yy | stress_xy">
  1 3342.05 0.00000 -5.74304e-14
  2 3342.05 0.00000 -4.30803e-14
  3 3342.05 0.00000 9.82856e-14
  4 3342.05 0.00000 8.51245e-14
  5 3342.05 0.00000 6.64430e-14
  6 3342.05 0.00000 7.98467e-15
  7 3342.05 0.00000 -6.37061e-15
  8 3342.05 0.00000 -4.82884e-14
  9 3342.05 0.00000 -4.09132e-13
  10 3342.05 0.00000 -5.28533e-13
  11 3342.05 0.00000 -5.76955e-16
  12 3342.05 0.00000 -9.87426e-14
  13 3342.05 0.00000 2.72214e-13
  14 3342.05 0.00000 1.66317e-14
  15 3342.05 0.00000 2.09944e-13
  16 3342.05 0.00000 2.83498e-13
</Section>

newXOutput 99

<Section columns = "stress_xx | stress_yy | stress_xy">
  1 3381.30 0.00000 -1.48051e-13
  2 3381.30 0.00000 -4.12787e-14
  3 3381.30 0.00000 -1.43282e-13
  4 3381.30 0.00000 -1.03840e-13
  5 3381.30 0.00000 -2.22066e-14
  6 3381.30 0.00000 -9.37208e-15
  7 3381.30 0.00000 -4.46320e-13
  8 3381.30 0.00000 -2.98231e-13
  9 3381.30 0.00000 6.94248e-14
  10 3381.30 0.00000 1.54537e-13
  11 3381.30 0.00000 -1.52091e-13
  12 3381.30 0.00000 -7.77274e-14
  13 3381.30 0.00000 4.47167e-14
  14 3381.30 0.00000 -1.12390e-13
  15 3381.30 0.00000 -4.78822e-13
  16 3381.30 0.00000 -7.15896e-14
</Section>

newXOutput 100

<Section columns = "stress_xx | stress_yy | stress_xy">
  1 3420.63 0.00000 -4.43392e-14
  2 3420.63 0.00000 -1.55428e-14
  3 3420.63 0.00000 -1.22512e-14
  4 3420.63 0.00000 -2.65733e-14
  5 3420.63 0.00000 2.96089e-13
  6 3420.63 0.00000 2.64898e-13
  7 3420.63 0.00000 1.12036e-13
  8 3420.63 0.00000 2.02103e-14
  9 3420.63 0.00000 6.62651e-13
  10 3420.63 0.00000 4.66962e-13
  11 3420.63 0.00000 4.42369e-13
  12 3420.63 0.00000 2.95241e-13
  13 3420.63 0.00000 1.58511e-13
  14 3420.63 0.00000 1.03425e-14
  15 3420.63 0.00000 2.71939e-13
  16 3420.63 0.00000 5.60060e-14
</Section>

newXOutput 101

<Section columns = "stress_xx | stress_yy | stress_xy">
  1 3460.03 0.00000 -9.22172e-14
  2 3460.03 0.00000 -1.56060e-13
  3 3460.03 0.00000 -3.66704e-15
  4 3460.03 0.00000 -6.32464e-14
  5 3460.03 0.00000 3.08821e-13
  6 3460.03 0.00000 2.79565e-13
  7 3460.03 0.00000 -4.06598e-14
  8 3460.03 0.00000 -8.22834e-14
  9 3460.03 0.00000 -2.05318e-14
  10 3460.03 0.00000 9.96299e-14
  11 3460.03 0.00000 7.10963e-14
  12 3460.03 0.00000 -5.63855e-14
  13 3460.03 0.00000 -4.93929e-13
  14 3460.03 0.00000 -5.96850e-13
  15 3460.03 0.00000 -6.78092e-13
  16 3460.03 0.00000 -4.85968e-13
</Section>

newXOutput 102

<Section columns = "stress_xx | stress_yy | stress_xy">
  1 3499.50 0.00000 -1.01938e-13
  2 3499.50 0.00000 -2.31647e-13
  3 3499.50 0.00000 -3.32439e-14
  4 3499.50 0.00000 -9.71456e-14
  5 3499.50 0.00000 -8.90031e-14
  6 3499.50 0.00000 -1.93833e-14
  7 3499.50 0.00000 -3.10241e-13
  8 3499.50 0.00000 -3.31966e-13
  9 3499.50 0.00000 4.97846e-14
  10 3499.50 0.00000 1.74630e-13
  11 3499.50 0.00000 -2.19095e-13
  12 3499.50 0.00000 -1.81283e-15
  13 3499.50 0.00000 1.60427e-13
  14 3499.50 0.00000 1.17670e-13
  15 3499.50 0.00000 1.93268e-13
  16 3499.50 0.00000 1.18985e-13
</Section>

newXOutput 103

<Section columns = "stress_xx | stress_yy | stress_xy">
  1 3539.05 0.00000 -2.33915e-13
  2 3539.05 0.00000 -2.60804e-13
  3 3539.05 0.00000 -1.36934e-14
  4 3539.05 0.00000 7.54137e-15
  5 3539.05 0.00000 -5.68597e-14
  6 3539.05 0.00000 -8.40954e-14
  7 3539.05 0.00000 1.00865e-14
  8 3539.05 0.00000 -6.62905e-14
  9 3539.05 0.00000 -2.50402e-14
  10 3539.05 0.00000 1.97289e-13
  11 3539.05 0.00000 5.44693e-13
  12 3539.05 0.00000 4.96701e-13
  13 3539.05 0.00000 2.79539e-13
  14 3539.05 0.00000 7.89787e-14
  15 3539.05 0.00000 4.92410e-13
  16 3539.05 0.00000 1.87267e-13
</Section>

newXOutput 104

<Section columns = "stress_xx | stress_yy | stress_xy">
  1 3578.67 0.00000 1.71496e-13
  2 3578.67 0.00000 1.62366e-13
  3 3578.67 0.00000 -1.21784e-13
  4 3578.67 0.00000 -6.16714e-14
  5 3578.67 0.00000 4.63117e-14
  6 3578.67 0.00000 1.43768e-14
  7 3578.67 0.00000 -1.45724e-13
  8 3578.67 0.00000 -1.81669e-13
  9 3578.67 0.00000 -4.27366e-13
  10 3578.67 0.00000 -4.90417e-13
  11 3578.67 0.00000 -1.25969e-13
  12 3578.67 0.00000 -2.26805e-13
  13 3578.67 0.00000 1.39711e-13
  14 3578.67 0.00000 9.89441e-14
  15 3578.67 0.00000 -3.49934e-13
  16 3578.67 0.00000 -1.09849e-13
</Section>

newXOutput 105

<Section columns = "stress_xx | stress_yy | stress_xy">
  1 3618.36 0.00000 -3.94652e-13
  2 3618.36 0.00000 -4.45442e-13
  3 3618.36 0.00000 -6.57303e-14
  4 3618.36 0.00000 -1.09503e-13
  5 3618.36 0.00000 -9.12765e-14
  6 3618.36 0.00000 -1.45396e-13
  7 3618.36 0.00000 -2.71090e-13
  8 3618.36 0.00000 -1.30671e-13
  9 3618.36 0.00000 -3.25547e-15
  10 3618.36 0.00000 1.00646e-13
  11 3618.36 0.00000 -2.39925e-13
  12 3618.36 0.00000 5.63285e-14
  13 3618.36 0.00000 7.58612e-15
  14 3618.36 0.00000 1.01875e-13
  15 3618.36 0.00000 -2.88444e-13
  16 3618.36 0.00000 1.01760e-13
</Section>

newXOutput 106

<Section columns = "stress_xx | stress_yy | stress_xy">
  1 3658.13 0.00000 2.96075e-14
  2 3658.13 0.00000 7.69036e-14
  3 3658.13 0.00000 1.70638e-13
  4 3658.13 0.00000 2.39504e-13
  5 3658.13 0.00000 -2.39105e-14
  6 3658.13 0.00000 -2.44039e-15
  7 3658.13 0.00000 -2.95678e-13
  8 3658.13 0.00000 -3.58975e-13
  9 3658.13 0.00000 -1.50393e-13
  10 3658.13 0.00000 5.93352e-14
  11 3658.13 0.00000 5.01025e-13
  12 3658.13 0.00000 7.66790e-13
  13 3658.13 0.00000 3.63397e-13
  14 3658.13 0.00000 2.71543e-13
  15 3658.13 0.00000 9.32279e-13
  16 3658.13 0.00000 2.87157e-13
</Section>

newXOutput 107

<Section columns = "stress_xx | stress_yy | stress_xy">
  1 3697.97 0.00000 -1.78148e-13
  2 3697.97 0.00000 -1.16800e-13
  3 3697.97 0.00000 2.31851e-13
  4 3697.97 0.00000 1.98258e-13
  5 3697.97 0.00000 2.70006e-13
  6 3697.97 0.00000 1.91591e-13
  7 3697.97 0.00000 -1.88541e-13
  8 3697.97 0.00000 -1.01267e-13
  9 3697.97 0.00000 -3.39081e-13
  10 3697.97 0.00000 -3.42081e-13
  11 3697.97 0.00000 -2.73047e-13
  12 3697.97 0.00000 -5.98985e-13
  13 3697.97 0.00000 -6.24672e-14
  14 3697.97 0.00000 -7.30960e-14
  15 3697.97 0.00000 -4.14428e-13
  16 3697.97 0.00000 -4.22651e-14
</Section>

newXOutput 108

<Section columns = "stress_xx | stress_yy | stress_xy">
  1 3737.88 0.00000 -1.82743e-13
  2 3737.88 0.00000 -2.11924e-13
  3 3737.88 0.00000 1.22620e-13
  4 3737.88 0.00000 1.23952e-13
  5 3737.88 0.00000 -1.16282e-13
  6 3737.88 0.00000 -5.16020e-14
  7 3737.88 0.00000 -1.16102e-13
  8 3737.88 0.00000 -7.35317e-14
  9 3737.88 0.00000 -4.98454e-14
  10 3737.88 0.00000 7.40757e-14
  11 3737.88 0.00000 -1.46504e-13
  12 3737.88 0.00000 1.29542e-13
  13 3737.88 0.00000 -9.16054e-14
  14 3737.88 0.00000 -2.03533e-13
  15 3737.88 0.00000 1.98983e-13
  16 3737.88 0.00000 -2.88599e-13
</Section>

newXOutput 109

<Section columns = "stress_xx | stress_yy | stress_xy">
  1 3777.88 0.00000 1.36653e-13
  2 3777.88 0.00000 5.64984e-14
  3 3777.88 0.00000 2.71392e-14
  4 3777.88 0.00000 3.83009e-14
  5 3777.88 0.00000 2.43680e-13
  6 3777.88 0.00000 3.01274e-13
  7 3777.88 0.00000 4.38154e-14
  8 3777.88 0.00000 8.02663e-14
  9 3777.88 0.00000 -1.49718e-13
  10 3777.88 0.00000 -2.25661e-14
  11 3777.88 0.00000 3.15554e-13
  12 3777.88 0.00000 1.02103e-13
  13 3777.88 0.00000 7.74100e-14
  14 3777.88 0.00000 3.11387e-13
  15 3777.88 0.00000 -2.32460e-13
  16 3777.88 0.00000 2.69820e-13
</Section>

newXOutput 110

<Section columns = "stress_xx | stress_yy | stress_xy">
  1 3817.94 0.00000 -1.59983e-13
  2 3817.94 0.00000 -3.58312e-14
  3 3817.94 0.00000 -1.03024e-13
  4 3817.94 0.00000 -2.09677e-14
  5 3817.94 0.00000 1.86659e-13
  6 3817.94 0.00000 2.30608e-13
  7 3817.94 0.00000 -2.35519e-15
  8 3817.94 0.00000 1.22834e-14
  9 3817.94 0.00000 -2.02765e-14
  10 3817.94 0.00000 3.61762e-14
  11 3817.94 0.00000 6.27846e-14
  12 3817.94 0.00000 1.23701e-13
  13 3817.94 0.00000 1.12388e-13
  14 3817.94 0.00000 8.79255e-14
  15 3817.94 0.00000 1.96697e-13
  16 3817.94 0.00000 -1.25613e-13
</Section>

newXOutput 111

<Section columns = "stress_xx | stress_yy | stress_xy">
  1 3858.09 0.00000 -1.06497e-13
  2 3858.09 0.00000 -3.02820e-14
  3 3858.09 0.00000 -1.11861e-13
  4 3858.09 0.00000 -4.85347e-14
  5 3858.09 0.00000 1.69499e-13
  6 3858.09 0.00000 1.04945e-13
  7 3858.09 0.00000 -6.56376e-14
  8 3858.09 0.00000 -1.02172e-13
  9 3858.09 0.00000 -4.14216e-13
  10 3858.09 0.00000 -3.37939e-13
  11 3858.09 0.00000 -8.15681e-14
  12 3858.09 0.00000 -2.07173e-13
  13 3858.09 0.00000 -2.79355e-13
  14 3858.09 0.00000 1.33583e-13
  15 3858.09 0.00000 -3.65094e-13
  16 3858.09 0.00000 5.75685e-13
</Section>

newXOutput 112

<Section columns = "stress_xx | stress_yy | stress_xy">
  1 3898.31 0.00000 -1.52761e-13
  2 3898.31 0.00000 -2.66657e-13
  3 3898.31 0.00000 -1.58920e-13
  4 3898.31 0.00000 -2.49827e-13
  5 3898.31 0.00000 1.27025e-13
  6 3898.31 0.00000 2.76968e-13
  7 3898.31 0.00000 3.26707e-13
  8 3898.31 0.00000 3.39432e-13
  9 3898.31 0.00000 2.54426e-13
  10 3898.31 0.00000 3.50783e-13
  11 3898.31 0.00000 -1.24913e-13
  12 3898.31 0.00000 3.60928e-13
  13 3898.31 0.00000 6.87094e-13
  14 3898.31 0.00000 6.63139e-13
  15 3898.31 0.00000 2.94194e-13
  16 3898.31 0.00000 1.11086e-13
</Section>

newXOutput 113

<Section columns = "stress_xx | stress_yy | stress_xy">
  1 3938.60 0.00000 -3.02680e-14
  2 3938.60 0.00000 -6.25144e-14
  3 3938.60 0.00000 -7.73659e-15
  4 3938.60 0.00000 -5.92421e-14
  5 3938.60 0.00000 3.58915e-14
  6 3938.60 0.00000 1.48765e-13
  7 3938.60 0.00000 3.17211e-13
  8 3938.60 0.00000 4.69217e-13
  9 3938.60 0.00000 2.28825e-13
  10 3938.60 0.00000 4.29571e-13
  11 3938.60 0.00000 6.81787e-13
  12 3938.60 0.00000 7.33230e-13
  13 3938.60 0.00000 1.79223e-13
  14 3938.60 0.00000 3.01766e-13
  15 3938.60 0.00000 -5.03829e-13
  16 3938.60 0.00000 6.39617e-14
</Section>

newXOutput 114

<Section columns = "stress_xx | stress_yy | stress_xy">
  1 3978.98 0.00000 -2.46276e-13
  2 3978.98 0.00000 -1.99285e-13
  3 3978.98 0.00000 -1.84842e-13
  4 3978.98 0.00000 -1.72780e-13
  5 3978.98 0.00000 -6.65840e-14
  6 3978.98 0.00000 -4.82219e-15
  7 3978.98 0.00000 9.53709e-14
  8 3978.98 0.00000 4.01893e-13
  9 3978.98 0.00000 -1.20543e-13
  10 3978.98 0.00000 1.18851e-13
  11 3978.98 0.00000 -9.69460e-14
  12 3978.98 0.00000 2.14149e-13
  13 3978.98 0.00000 1.97084e-13
  14 3978.98 0.00000 -4.80410e-14
  15 3978.98 0.00000 1.15865e-13
  16 3978.98 0.00000 -3.28511e-13
</Section>

newXOutput 115

<Section columns = "stress_xx | stress_yy | stress_xy">
  1 4019.43 0.00000 -1.09284e-13
  2 4019.43 0.00000 -1.33602e-13
  3 4019.43 0.00000 6.03666e-14
  4 4019.43 0.00000 -3.24273e-14
  5 4019.43 0.00000 -1.49892e-14
  6 4019.43 0.00000 -2.12015e-13
  7 4019.43 0.00000 3.38051e-14
  8 4019.43 0.00000 1.06006e-13
  9 4019.43 0.00000 1.19830e-13
  10 4019.43 0.00000 1.73789e-13
  11 4019.43 0.00000 1.84551e-14
  12 4019.43 0.00000 -4.34990e-14
  13 4019.43 0.00000 -2.35767e-13
  14 4019.43 0.00000 2.07077e-13
  15 4019.43 0.00000 -4.07570e-13
  16 4019.43 0.00000 -2.42971e-13
</Section>

newXOutput 116

<Section columns = "stress_xx | stress_yy | stress_xy">
  1 4059.95 0.00000 -3.63576e-14
  2 4059.95 0.00000 -1.35968e-13
  3 4059.95 0.00000 -2.89714e-14
  4 4059.95 0.00000 -1.03561e-13
  5 4059.95 0.00000 -7.97247e-14
  6 4059.95 0.00000 -2.78469e-13
  7 4059.95 0.00000 9.45633e-14
  8 4059.95 0.00000 1.39274e-13
  9 4059.95 0.00000 2.22738e-14
  10 4059.95 0.00000 6.28242e-14
  11 4059.95 0.00000 -2.29474e-13
  12 4059.95 0.00000 6.15967e-14
  13 4059.95 0.00000 -2.75836e-14
  14 4059.95 0.00000 1.03315e-13
  15 4059.95 0.00000 -2.32472e-13
  16 4059.95 0.00000 1.57527e-13
</Section>

newXOutput 117

<Section columns = "stress_xx | stress_yy | stress_xy">
  1 4100.56 0.00000 -2.74231e-13
  2 4100.56 0.00000 -6.80032e-14
  3 4100.56 0.00000 -1.04323e-13
  4 4100.56 0.00000 9.07279e-14
  5 4100.56 0.00000 -2.11835e-13
  6 4100.56 0.00000 -1.21612e-13
  7 4100.56 0.00000 -4.44185e-13
  8 4100.56 0.00000 -3.70782e-13
  9 4100.56 0.00000 -5.86088e-13
  10 4100.56 0.00000 -5.78596e-13
  11 4100.56 0.00000 -1.07364e-13
  12 4100.56 0.00000 -3.00120e-13
  13 4100.56 0.00000 3.79785e-13
  14 4100.56 0.00000 -8.41046e-15
  15 4100.56 0.00000 1.16411e-12
  16 4100.56 0.00000 6.20453e-13
</Section>

newXOutput 118

<Section columns = "stress_xx | stress_yy | stress_xy">
  1 4141.25 0.00000 -1.14958e-13
  2 4141.25 0.00000 -1.92998e-13
  3 4141.25 0.00000 9.00671e-14
  4 4141.25 0.00000 8.17794e-14
  5 4141.25 0.00000 2.97384e-13
  6 4141.25 0.00000 5.41246e-13
  7 4141.25 0.00000 -1.71695e-13
  8 4141.25 0.00000 -3.96909e-16
  9 4141.25 0.00000 -1.27010e-13
  10 4141.25 0.00000 -2.07317e-13
  11 4141.25 0.00000 3.79747e-14
  12 4141.25 0.00000 -1.39739e-13
  13 4141.25 0.00000 2.31218e-14
  14 4141.25 0.00000 1.30157e-13
  15 4141.25 0.00000 4.33799e-14
  16 4141.25 0.00000 2.39539e-13
</Section>

newXOutput 119

<Section columns = "stress_xx | stress_yy | stress_xy">
  1 4182.01 0.00000 -1.11724e-13
  2 4182.01 0.00000 -7.10050e-14
  3 4182.01 0.00000 4.29519e-13
  4 4182.01 0.00000 4.45371e-13
  5 4182.01 0.00000 5.52903e-14
  6 4182.01 0.00000 3.68119e-13
  7 4182.01 0.00000 -7.45661e-14
  8 4182.01 0.00000 1.14902e-13
  9 4182.01 0.00000 -5.45545e-13
  10 4182.01 0.00000 -4.22212e-13
  11 4182.01 0.00000 -5.39116e-13
  12 4182.01 0.00000 -3.69115e-13
  13 4182.01 0.00000 -4.60522e-13
  14 4182.01 0.00000 -4.07106e-13
  15 4182.01 0.00000 -2.95451e-13
  16 4182.01 0.00000 -3.01547e-13
</Section>

newXOutput 120

<Section columns = "stress_xx | stress_yy | stress_xy">
  1 4222.85 0.00000 -2.71095e-13
  2 4222.85 0.00000 -2.56513e-13
  3 4222.85 0.00000 -9.44007e-15
  4 4222.85 0.00000 9.61860e-14
  5 4222.85 0.00000 -5.13350e-13
  6 4222.85 0.00000 -2.96833e-13
  7 4222.85 0.00000 -7.95944e-13
  8 4222.85 0.00000 -6.12027e-13
  9 4222.85 0.00000 -3.20349e-13
  10 4222.85 0.00000 -5.27962e-13
  11 4222.85 0.00000 6.91549e-13
  12 4222.85 0.00000 5.77300e-13
  13 4222.85 0.00000 3.64470e-13
  14 4222.85 0.00000 5.04698e-13
  15 4222.85 0.00000 -8.44831e-14
  16 4222.85 0.00000 6.27423e-13
</Section>

newXOutput 121

<Section columns = "stress_xx | stress_yy | stress_xy">
  1 4263.78 0.00000 5.16774e-14
  2 4263.78 0.00000 6.65804e-14
  3 4263.78 0.00000 2.58451e-13
  4 4263.78 0.00000 2.06291e-13
  5 4263.78 0.00000 -5.58066e-14
  6 4263.78 0.00000 -2.36685e-13
  7 4263.78 0.00000 -3.87693e-13
  8 4263.78 0.00000 -3.43801e-13
  9 4263.78 0.00000 -4.39024e-13
  10 4263.78 0.00000 -2.35463e-13
  11 4263.78 0.00000 -3.08871e-13
  12 4263.78 0.00000 -2.23139e-13
  13 4263.78 0.00000 2.02434e-14
  14 4263.78 0.00000 4.87303e-14
  15 4263.78 0.00000 -1.43571e-14
  16 4263.78 0.00000 -8.22813e-14
</Section>

newXOutput 122

<Section columns = "stress_xx | stress_yy | stress_xy">
  1 4304.78 0.00000 -1.48550e-13
  2 4304.78 0.00000 -1.48550e-13
  3 4304.78 0.00000 3.82987e-14
  4 4304.78 0.00000 -1.43226e-14
  5 4304.78 0.00000 -2.50603e-13
  6 4304.78 0.00000 -9.26682e-14
  7 4304.78 0.00000 -1.38687e-13
  8 4304.78 0.00000 -4.40080e-14
  9 4304.78 0.00000 -9.69635e-14
  10 4304.78 0.00000 5.89933e-14
  11 4304.78 0.00000 6.13826e-13
  12 4304.78 0.00000 4.72116e-13
  13 4304.78 0.00000 5.22440e-13
  14 4304.78 0.00000 -1.81227e-13
  15 4304.78 0.00000 6.27542e-13
  16 4304.78 0.00000 -2.58460e-13
</Section>

newXOutput 123

<Section columns = "stress_xx | stress_yy | stress_xy">
  1 4345.87 0.00000 -3.59318e-13
  2 4345.87 0.00000 -1.81302e-13
  3 4345.87 0.00000 -1.31133e-13
  4 4345.87 0.00000 -4.97032e-16
  5 4345.87 0.00000 1.98567e-13
  6 4345.87 0.00000 1.35759e-13
  7 4345.87 0.00000 7.26892e-14
  8 4345.87 0.00000 1.89589e-13
  9 4345.87 0.00000 2.62675e-13
  10 4345.87 0.00000 3.43584e-13
  11 4345.87 0.00000 -2.31217e-14
  12 4345.87 0.00000 -1.32298e-13
  13 4345.87 0.00000 -1.65882e-13
  14 4345.87 0.00000 4.73302e-14
  15 4345.87 0.00000 -5.52182e-13
  16 4345.87 0.00000 4.08638e-14
</Section>

newXOutput 124

<Section columns = "stress_xx | stress_yy | stress_xy">
  1 4387.03 0.00000 -7.46626e-16
  2 4387.03 0.00000 -1.61100e-13
  3 4387.03 0.00000 2.87384e-13
  4 4387.03 0.00000 2.30869e-13
  5 4387.03 0.00000 3.24479e-14
  6 4387.03 0.00000 4.48358e-14
  7 4387.03 0.00000 -4.42302e-13
  8 4387.03 0.00000 -3.60902e-13
  9 4387.03 0.00000 -2.93601e-13
  10 4387.03 0.00000 -3.97147e-13
  11 4387.03 0.00000 1.32475e-13
  12 4387.03 0.00000 -4.25126e-14
  13 4387.03 0.00000 1.46047e-13
  14 4387.03 0.00000 -3.87809e-14
  15 4387.03 0.00000 2.90877e-13
  16 4387.03 0.00000 2.18898e-13
</Section>

newXOutput 125

<Section columns = "stress_xx | stress_yy | stress_xy">
  1 4428.28 0.00000 -3.90402e-14
  2 4428.28 0.00000 -1.34050e-13
  3 4428.28 0.00000 1.68966e-13
  4 4428.28 0.00000 5.67726e-14
  5 4428.28 0.00000 2.04463e-13
  6 4428.28 0.00000 2.68124e-13
  7 4428.28 0.00000 8.43965e-14
  8 4428.28 0.00000 2.02854e-13
  9 4428.28 0.00000 -1.92190e-13
  10 4428.28 0.00000 -1.25052e-13
  11 4428.28 0.00000 3.49859e-13
  12 4428.28 0.00000 4.28388e-13
  13 4428.28 0.00000 3.94857e-13
  14 4428.28 0.00000 7.45289e-13
  15 4428.28 0.00000 -2.11218e-13
  16 4428.28 0.00000 5.08829e-13
</Section>

newXOutput 126

<Section columns = "stress_xx | stress_yy | stress_xy">
  1 4469.61 0.00000 -2.16222e-13
  2 4469.61 0.00000 -3.74658e-13
  3 4469.61 0.00000 2.88016e-14
  4 4469.61 0.00000 -6.71145e-14
  5 4469.61 0.00000 9.10497e-14
  6 4469.61 0.00000 1.89301e-13
  7 4469.61 0.00000 4.18972e-14
  8 4469.61 0.00000 1.18310e-13
  9 4469.61 0.00000 3.71574e-13
  10 4469.61 0.00000 3.30801e-13
  11 4469.61 0.00000 4.62354e-13
  12 4469.61 0.00000 3.77364e-13
  13 4469.61 0.00000 7.83243e-13
  14 4469.61 0.00000 4.39999e-13
  15 4469.61 0.00000 4.61401e-13
  16 4469.61 0.00000 -4.21483e-14
</Section>

newXOutput 127

<Section columns = "stress_xx | stress_yy | stress_xy">
  1 4511.02 0.00000 -2.06806e-14
  2 4511.02 0.00000 1.21215e-13
  3 4511.02 0.00000 5.30114e-14
  4 4511.02 0.00000 1.56635e-13
  5 4511.02 0.00000 1.71452e-13
  6 4511.02 0.00000 1.30406e-13
  7 4511.02 0.00000 1.24408e-15
  8 4511.02 0.00000 -1.73279e-14
  9 4511.02 0.00000 -2.86433e-13
  10 4511.02 0.00000 -5.77352e-13
  11 4511.02 0.00000 -1.50417e-13
  12 4511.02 0.00000 -8.72032e-14
  13 4511.02 0.00000 3.44796e-13
  14 4511.02 0.00000 4.03971e-13
  15 4511.02 0.00000 -4.04225e-14
  16 4511.02 0.00000 4.25527e-13
</Section>

newXOutput 128

<Section columns = "stress_xx | stress_yy | stress_xy">
  1 4552.51 0.00000 -2.48401e-13
  2 4552.51 0.00000 -2.29228e-13
  3 4552.51 0.00000 2.64660e-14
  4 4552.51 0.00000 1.12346e-13
  5 4552.51 0.00000 1.94047e-13
  6 4552.51 0.00000 3.23858e-13
  7 4552.51 0.00000 6.07529e-13
  8 4552.51 0.00000 5.02360e-13
  9 4552.51 0.00000 5.46267e-13
  10 4552.51 0.00000 5.83945e-13
  11 4552.51 0.00000 4.53036e-13
  12 4552.51 0.00000 4.37456e-13
  13 4552.51 0.00000 -4.30109e-13
  14 4552.51 0.00000 -1.07587e-12
  15 4552.51 0.00000 -7.54183e-15
  16 4552.51 0.00000 1.06854e-13
</Section>

newXOutput 129

<Section columns = "stress_xx | stress_yy | stress_xy">
  1 4594.09 0.00000 7.53068e-14
  2 4594.09 0.00000 -1.52648e-14
  3 4594.09 0.00000 1.60497e-13
  4 4594.09 0.00000 8.73386e-14
  5 4594.09 0.00000 1.60573e-13
  6 4594.09 0.00000 1.66091e-13
  7 4594.09 0.00000 -3.61993e-13
  8 4594.09 0.00000 -2.55317e-13
  9 4594.09 0.00000 -1.89230e-13
  10 4594.09 0.00000 -1.43430e-13
  11 4594.09 0.00000 8.18686e-15
  12 4594.09 0.00000 1.86055e-13
  13 4594.09 0.00000 -3.72111e-13
  14 4594.09 0.00000 3.17804e-14
  15 4594.09 0.00000 -4.72377e-13
  16 4594.09 0.00000 4.23281e-13
</Section>

newXOutput 130

<Section columns = "stress_xx | stress_yy | stress_xy">
  1 4635.75 0.00000 -7.52655e-14
  2 4635.75 0.00000 -2.65037e-14
  3 4635.75 0.00000 7.06451e-14
  4 4635.75 0.00000 2.46295e-13
  5 4635.75 0.00000 1.04399e-13
  6 4635.75 0.00000 2.03523e-13
  7 4635.75 0.00000 1.10084e-13
  8 4635.75 0.00000 1.21858e-13
  9 4635.75 0.00000 -1.81961e-14
  10 4635.75 0.00000 7.25693e-14
  11 4635.75 0.00000 5.43518e-13
  12 4635.75 0.00000 4.60191e-13
  13 4635.75 0.00000 1.50107e-13
  14 4635.75 0.00000 4.93456e-14
  15 4635.75 0.00000 -5.33212e-13
  16 4635.75 0.00000 -2.36863e-13
</Section>

newXOutput 131

<Section columns = "stress_xx | stress_yy | stress_xy">
  1 4677.50 0.00000 -1.25008e-13
  2 4677.50 0.00000 -1.12361e-13
  3 4677.50 0.00000 -9.03405e-14
  4 4677.50 0.00000 -1.09164e-13
  5 4677.50 0.00000 5.46228e-14
  6 4677.50 0.00000 -3.10385e-14
  7 4677.50 0.00000 -9.03923e-14
  8 4677.50 0.00000 -1.66470e-13
  9 4677.50 0.00000 3.39659e-13
  10 4677.50 0.00000 4.09421e-13
  11 4677.50 0.00000 1.34262e-13
  12 4677.50 0.00000 5.01376e-13
  13 4677.50 0.00000 7.96334e-13
  14 4677.50 0.00000 1.20802e-12
  15 4677.50 0.00000 3.36033e-13
  16 4677.50 0.00000 4.26810e-13
</Section>

newXOutput 132

<Section columns = "stress_xx | stress_yy | stress_xy">
  1 4719.33 0.00000 -1.80577e-13
  2 4719.33 0.00000 4.75798e-15
  3 4719.33 0.00000 -3.01295e-15
  4 4719.33 0.00000 8.92182e-14
  5 4719.33 0.00000 -9.80940e-14
  6 4719.33 0.00000 -2.73824e-13
  7 4719.33 0.00000 -7.12744e-14
  8 4719.33 0.00000 -8.69296e-14
  9 4719.33 0.00000 -1.53826e-13
  10 4719.33 0.00000 -1.31942e-13
  11 4719.33 0.00000 5.36235e-13
  12 4719.33 0.00000 3.60668e-13
  13 4719.33 0.00000 5.53483e-13
  14 4719.33 0.00000 2.46939e-13
  15 4719.33 0.00000 8.58127e-13
  16 4719.33 0.00000 3.33294e-13
</Section>

newXOutput 133

<Section columns = "stress_xx | stress_yy | stress_xy">
  1 4761.24 0.00000 -1.57881e-13
  2 4761.24 0.00000 -3.81642e-13
  3 4761.24 0.00000 -7.74783e-14
  4 4761.24 0.00000 -1.43332e-13
  5 4761.24 0.00000 -1.75946e-13
  6 4761.24 0.00000 -2.76070e-13
  7 4761.24 0.00000 -3.55533e-13
  8 4761.24 0.00000 -3.97714e-13
  9 4761.24 0.00000 2.56314e-13
  10 4761.24 0.00000 9.68507e-14
  11 4761.24 0.00000 5.73497e-13
  12 4761.24 0.00000 4.29605e-13
  13 4761.24 0.00000 -5.08201e-13
  14 4761.24 0.00000 -7.67273e-13
  15 4761.24 0.00000 -6.45746e-13
  16 4761.24 0.00000 -4.17908e-13
</Section>

newXOutput 134

<Section columns = "stress_xx | stress_yy | stress_xy">
  1 4780.70 0.00000 0.216675
  2 4780.70 0.00000 -0.216675
  3 4780.61 0.00000 0.377548
  4 4780.61 0.00000 -0.377548
  5 4780.58 0.00000 0.857347
  6 4780.58 0.00000 -0.857347
  7 4768.25 0.00000 0.588161
  8 4768.25 0.00000 -0.588161
  9 4768.25 0.00000 -0.588161
  10 4768.25 0.00000 0.588161
  11 4780.58 0.00000 -0.857347
  12 4780.58 0.00000 0.857347
  13 4780.61 0.00000 -0.377548
  14 4780.61 0.00000 0.377548
  15 4780.70 0.00000 -0.216675
  16 4780.70 0.00000 0.216675
</Section>

newXOutput 135

<Section columns = "stress_xx | stress_yy | stress_xy">
  1 4784.80 0.00000 0.521421
  2 4784.80 0.00000 -0.521421
  3 4784.59 0.00000 0.837859
  4 4784.59 0.00000 -0.837859
  5 4784.31 0.00000 1.33821
  6 4784.31 0.00000 -1.33821
  7 4749.59 0.00000 0.761087
  8 4749.59 0.00000 -0.761087
  9 4749.59 0.00000 -0.761087
  10 4749.59 0.00000 0.761087
  11 4784.31 0.00000 -1.33821
  12 4784.31 0.00000 1.33821
  13 4784.59 0.00000 -0.837859
  14 4784.59 0.00000 0.837859
  15 4784.80 0.00000 -0.521421
  16 4784.80 0.00000 0.521421
</Section>

newXOutput 136

<Section columns = "stress_xx | stress_yy | stress_xy">
  1 4785.29 0.00000 0.644057
  2 4785.29 0.00000 -0.644057
  3 4785.03 0.00000 1.01789
  4 4785.03 0.00000 -1.01789
  5 4784.69 0.00000 1.60952
  6 4784.69 0.00000 -1.60952
  7 4726.46 0.00000 0.913697
  8 4726.46 0.00000 -0.913697
  9 4726.46 0.00000 -0.913697
  10 4726.46 0.00000 0.913697
  11 4784.69 0.00000 -1.60952
  12 4784.69 0.00000 1.60952
  13 4785.03 0.00000 -1.01789
  14 4785.03 0.00000 1.01789
  15 4785.29 0.00000 -0.644057
  16 4785.29 0.00000 0.644057
</Section>

newXOutput 137

<Section columns = "stress_xx | stress_yy | stress_xy">
  1 4781.84 0.00000 0.713452
  2 4781.84 0.00000 -0.713452
  3 4781.54 0.00000 1.10440
  4 4781.54 0.00000 -1.10440
  5 4781.22 0.00000 1.81730
  6 4781.22 0.00000 -1.81730
  7 4698.01 0.00000 1.06969
  8 4698.01 0.00000 -1.06969
  9 4698.01 0.00000 -1.06969
  10 4698.01 0.00000 1.06969
  11 4781.22 0.00000 -1.81730
  12 4781.22 0.00000 1.81730
  13 4781.54 0.00000 -1.10440
  14 4781.54 0.00000 1.10440
  15 4781.84 0.00000 -0.713452
  16 4781.84 0.00000 0.713452
</Section>

newXOutput 138

<Section columns = "stress_xx | stress_yy | stress_xy">
  1 4776.18 0.00000 0.615522
  2 4776.18 0.00000 -0.615522
  3 4775.91 0.00000 0.913510
  4 4775.91 0.00000 -0.913510
  5 4775.66 0.00000 1.47020
  6 4775.66 0.00000 -1.47020
  7 4666.40 0.00000 0.864493
  8 4666.40 0.00000 -0.864493
  9 4666.40 0.00000 -0.864493
  10 4666.40 0.00000 0.864493
  11 4775.66 0.00000 -1.47020
  12 4775.66 0.00000 1.47020
  13 4775.91 0.00000 -0.913510
  14 4775.91 0.00000 0.913510
  15 4776.18 0.00000 -0.615522
  16 4776.18 0.00000 0.615522
</Section>

newXOutput 139

<Section columns = "stress_xx | stress_yy | stress_xy">
  1 4764.73 0.00000 0.371948
  2 4764.73 0.00000 -0.371948
  3 4764.55 0.00000 0.504878
  4 4764.55 0.00000 -0.504878
  5 4764.52 0.00000 0.973059
  6 4764.52 0.00000 -0.973059
  7 4627.26 0.00000 0.654185
  8 4627.26 0.00000 -0.654185
  9 4627.26 0.00000 -0.654185
  10 4627.26 0.00000 0.654185
  11 4764.52 0.00000 -0.973059
  12 4764.52 0.00000 0.973059
  13 4764.55 0.00000 -0.504878
  14 4764.55 0.00000 0.504878
  15 4764.73 0.00000 -0.371948
  16 4764.73 0.00000 0.371948
</Section>

newXOutput 140

<Section columns = "stress_xx | stress_yy | stress_xy">
  1 4745.24 0.00000 0.0652793
  2 4745.24 0.00000 -0.0652793
  3 4745.17 0.00000 -0.000679732
  4 4745.17 0.00000 0.000679732
  5 4745.46 0.00000 0.490381
  6 4745.46 0.00000 -0.490381
  7 4577.59 0.00000 0.523723
  8 4577.59 0.00000 -0.523723
  9 4577.59 0.00000 -0.523723
  10 4577.59 0.00000 0.523723
  11 4745.46 0.00000 -0.490381
  12 4745.46 0.00000 0.490381
  13 4745.17 0.00000 0.000679732
  14 4745.17 0.00000 -0.000679732
  15 4745.24 0.00000 -0.0652793
  16 4745.24 0.00000 0.0652793
</Section>

