newXOutput 1

<Section columns = "stress_xx | stress_yy | stress_xy">
  1 0.00000 0.00000 0.00000
  2 0.00000 0.00000 0.00000
  3 0.00000 0.00000 0.00000
  4 0.00000 0.00000 0.00000
  5 0.00000 0.00000 0.00000
  6 0.00000 0.00000 0.00000
  7 0.00000 0.00000 0.00000
  8 0.00000 0.00000 0.00000
  9 0.00000 0.00000 0.00000
  10 0.00000 0.00000 0.00000
  11 0.00000 0.00000 0.00000
  12 0.00000 0.00000 0.00000
  13 0.00000 0.00000 0.00000
  14 0.00000 0.00000 0.00000
  15 0.00000 0.00000 0.00000
  16 0.00000 0.00000 0.00000
  17 0.00000 0.00000 0.00000
  18 0.00000 0.00000 0.00000
  19 0.00000 0.00000 0.00000
  20 0.00000 0.00000 0.00000
  21 0.00000 0.00000 0.00000
  22 0.00000 0.00000 0.00000
  23 0.00000 0.00000 0.00000
  24 0.00000 0.00000 0.00000
  25 0.00000 0.00000 0.00000
  26 0.00000 0.00000 0.00000
  27 0.00000 0.00000 0.00000
  28 0.00000 0.00000 0.00000
  29 0.00000 0.00000 0.00000
  30 0.00000 0.00000 0.00000
  31 0.00000 0.00000 0.00000
  32 0.00000 0.00000 0.00000
  33 0.00000 0.00000 0.00000
  34 0.00000 0.00000 0.00000
  35 0.00000 0.00000 0.00000
  36 0.00000 0.00000 0.00000
  37 0.00000 0.00000 0.00000
  38 0.00000 0.00000 0.00000
  39 0.00000 0.00000 0.00000
  40 0.00000 0.00000 0.00000
  41 0.00000 0.00000 0.00000
  42 0.00000 0.00000 0.00000
  43 0.00000 0.00000 0.00000
  44 0.00000 0.00000 0.00000
  45 0.00000 0.00000 0.00000
  46 0.00000 0.00000 0.00000
  47 0.00000 0.00000 0.00000
  48 0.00000 0.00000 0.00000
  49 0.00000 0.00000 0.00000
  50 0.00000 0.00000 0.00000
  51 0.00000 0.00000 0.00000
  52 0.00000 0.00000 0.00000
  53 0.00000 0.00000 0.00000
  54 0.00000 0.00000 0.00000
  55 0.00000 0.00000 0.00000
  56 0.00000 0.00000 0.00000
  57 0.00000 0.00000 0.00000
  58 0.00000 0.00000 0.00000
  59 0.00000 0.00000 0.00000
  60 0.00000 0.00000 0.00000
  61 0.00000 0.00000 0.00000
  62 0.00000 0.00000 0.00000
  63 0.00000 0.00000 0.00000
  64 0.00000 0.00000 0.00000
  65 0.00000 0.00000 0.00000
  66 0.00000 0.00000 0.00000
  67 0.00000 0.00000 0.00000
  68 0.00000 0.00000 0.00000
  69 0.00000 0.00000 0.00000
  70 0.00000 0.00000 0.00000
  71 0.00000 0.00000 0.00000
  72 0.00000 0.00000 0.00000
  73 0.00000 0.00000 0.00000
  74 0.00000 0.00000 0.00000
  75 0.00000 0.00000 0.00000
  76 0.00000 0.00000 0.00000
  77 0.00000 0.00000 0.00000
  78 0.00000 0.00000 0.00000
  79 0.00000 0.00000 0.00000
  80 0.00000 0.00000 0.00000
  81 0.00000 0.00000 0.00000
  82 0.00000 0.00000 0.00000
  83 0.00000 0.00000 0.00000
  84 0.00000 0.00000 0.00000
  85 0.00000 0.00000 0.00000
  86 0.00000 0.00000 0.00000
  87 0.00000 0.00000 0.00000
  88 0.00000 0.00000 0.00000
  89 0.00000 0.00000 0.00000
  90 0.00000 0.00000 0.00000
  91 0.00000 0.00000 0.00000
  92 0.00000 0.00000 0.00000
  93 0.00000 0.00000 0.00000
  94 0.00000 0.00000 0.00000
  95 0.00000 0.00000 0.00000
  96 0.00000 0.00000 0.00000
  97 0.00000 0.00000 0.00000
  98 0.00000 0.00000 0.00000
  99 0.00000 0.00000 0.00000
  100 0.00000 0.00000 0.00000
  101 0.00000 0.00000 0.00000
  102 0.00000 0.00000 0.00000
  103 0.00000 0.00000 0.00000
  104 0.00000 0.00000 0.00000
  105 0.00000 0.00000 0.00000
  106 0.00000 0.00000 0.00000
  107 0.00000 0.00000 0.00000
  108 0.00000 0.00000 0.00000
  109 0.00000 0.00000 0.00000
  110 0.00000 0.00000 0.00000
  111 0.00000 0.00000 0.00000
  112 0.00000 0.00000 0.00000
  113 0.00000 0.00000 0.00000
  114 0.00000 0.00000 0.00000
  115 0.00000 0.00000 0.00000
  116 0.00000 0.00000 0.00000
  117 0.00000 0.00000 0.00000
  118 0.00000 0.00000 0.00000
  119 0.00000 0.00000 0.00000
  120 0.00000 0.00000 0.00000
  121 0.00000 0.00000 0.00000
  122 0.00000 0.00000 0.00000
  123 0.00000 0.00000 0.00000
  124 0.00000 0.00000 0.00000
  125 0.00000 0.00000 0.00000
  126 0.00000 0.00000 0.00000
  127 0.00000 0.00000 0.00000
  128 0.00000 0.00000 0.00000
  129 0.00000 0.00000 0.00000
  130 0.00000 0.00000 0.00000
  131 0.00000 0.00000 0.00000
  132 0.00000 0.00000 0.00000
  133 0.00000 0.00000 0.00000
  134 0.00000 0.00000 0.00000
  135 0.00000 0.00000 0.00000
  136 0.00000 0.00000 0.00000
  137 0.00000 0.00000 0.00000
  138 0.00000 0.00000 0.00000
  139 0.00000 0.00000 0.00000
  140 0.00000 0.00000 0.00000
  141 0.00000 0.00000 0.00000
  142 0.00000 0.00000 0.00000
  143 0.00000 0.00000 0.00000
  144 0.00000 0.00000 0.00000
  145 0.00000 0.00000 0.00000
  146 0.00000 0.00000 0.00000
  147 0.00000 0.00000 0.00000
  148 0.00000 0.00000 0.00000
  149 0.00000 0.00000 0.00000
  150 0.00000 0.00000 0.00000
  151 0.00000 0.00000 0.00000
  152 0.00000 0.00000 0.00000
  153 0.00000 0.00000 0.00000
  154 0.00000 0.00000 0.00000
  155 0.00000 0.00000 0.00000
  156 0.00000 0.00000 0.00000
  157 0.00000 0.00000 0.00000
  158 0.00000 0.00000 0.00000
  159 0.00000 0.00000 0.00000
  160 0.00000 0.00000 0.00000
  161 0.00000 0.00000 0.00000
  162 0.00000 0.00000 0.00000
  163 0.00000 0.00000 0.00000
  164 0.00000 0.00000 0.00000
  165 0.00000 0.00000 0.00000
  166 0.00000 0.00000 0.00000
  167 0.00000 0.00000 0.00000
  168 0.00000 0.00000 0.00000
  169 0.00000 0.00000 0.00000
  170 0.00000 0.00000 0.00000
  171 0.00000 0.00000 0.00000
  172 0.00000 0.00000 0.00000
  173 0.00000 0.00000 0.00000
  174 0.00000 0.00000 0.00000
  175 0.00000 0.00000 0.00000
  176 0.00000 0.00000 0.00000
  177 0.00000 0.00000 0.00000
  178 0.00000 0.00000 0.00000
  179 0.00000 0.00000 0.00000
  180 0.00000 0.00000 0.00000
  181 0.00000 0.00000 0.00000
  182 0.00000 0.00000 0.00000
  183 0.00000 0.00000 0.00000
  184 0.00000 0.00000 0.00000
  185 0.00000 0.00000 0.00000
  186 0.00000 0.00000 0.00000
  187 0.00000 0.00000 0.00000
  188 0.00000 0.00000 0.00000
  189 0.00000 0.00000 0.00000
  190 0.00000 0.00000 0.00000
  191 0.00000 0.00000 0.00000
  192 0.00000 0.00000 0.00000
  193 0.00000 0.00000 0.00000
  194 0.00000 0.00000 0.00000
  195 0.00000 0.00000 0.00000
  196 0.00000 0.00000 0.00000
  197 0.00000 0.00000 0.00000
  198 0.00000 0.00000 0.00000
  199 0.00000 0.00000 0.00000
  200 0.00000 0.00000 0.00000
  201 0.00000 0.00000 0.00000
  202 0.00000 0.00000 0.00000
  203 0.00000 0.00000 0.00000
  204 0.00000 0.00000 0.00000
  205 0.00000 0.00000 0.00000
  206 0.00000 0.00000 0.00000
  207 0.00000 0.00000 0.00000
  208 0.00000 0.00000 0.00000
  209 0.00000 0.00000 0.00000
  210 0.00000 0.00000 0.00000
  211 0.00000 0.00000 0.00000
  212 0.00000 0.00000 0.00000
  213 0.00000 0.00000 0.00000
  214 0.00000 0.00000 0.00000
  215 0.00000 0.00000 0.00000
  216 0.00000 0.00000 0.00000
  217 0.00000 0.00000 0.00000
  218 0.00000 0.00000 0.00000
  219 0.00000 0.00000 0.00000
  220 0.00000 0.00000 0.00000
  221 0.00000 0.00000 0.00000
  222 0.00000 0.00000 0.00000
  223 0.00000 0.00000 0.00000
  224 0.00000 0.00000 0.00000
  225 0.00000 0.00000 0.00000
  226 0.00000 0.00000 0.00000
  227 0.00000 0.00000 0.00000
  228 0.00000 0.00000 0.00000
  229 0.00000 0.00000 0.00000
  230 0.00000 0.00000 0.00000
  231 0.00000 0.00000 0.00000
  232 0.00000 0.00000 0.00000
  233 0.00000 0.00000 0.00000
  234 0.00000 0.00000 0.00000
  235 0.00000 0.00000 0.00000
  236 0.00000 0.00000 0.00000
  237 0.00000 0.00000 0.00000
  238 0.00000 0.00000 0.00000
  239 0.00000 0.00000 0.00000
  240 0.00000 0.00000 0.00000
  241 0.00000 0.00000 0.00000
  242 0.00000 0.00000 0.00000
  243 0.00000 0.00000 0.00000
  244 0.00000 0.00000 0.00000
  245 0.00000 0.00000 0.00000
  246 0.00000 0.00000 0.00000
  247 0.00000 0.00000 0.00000
  248 0.00000 0.00000 0.00000
  249 0.00000 0.00000 0.00000
  250 0.00000 0.00000 0.00000
  251 0.00000 0.00000 0.00000
  252 0.00000 0.00000 0.00000
  253 0.00000 0.00000 0.00000
  254 0.00000 0.00000 0.00000
  255 0.00000 0.00000 0.00000
  256 0.00000 0.00000 0.00000
  257 0.00000 0.00000 0.00000
  258 0.00000 0.00000 0.00000
  259 0.00000 0.00000 0.00000
  260 0.00000 0.00000 0.00000
  261 0.00000 0.00000 0.00000
  262 0.00000 0.00000 0.00000
  263 0.00000 0.00000 0.00000
  264 0.00000 0.00000 0.00000
  265 0.00000 0.00000 0.00000
  266 0.00000 0.00000 0.00000
  267 0.00000 0.00000 0.00000
  268 0.00000 0.00000 0.00000
  269 0.00000 0.00000 0.00000
  270 0.00000 0.00000 0.00000
  271 0.00000 0.00000 0.00000
  272 0.00000 0.00000 0.00000
  273 0.00000 0.00000 0.00000
  274 0.00000 0.00000 0.00000
  275 0.00000 0.00000 0.00000
  276 0.00000 0.00000 0.00000
  277 0.00000 0.00000 0.00000
  278 0.00000 0.00000 0.00000
  279 0.00000 0.00000 0.00000
  280 0.00000 0.00000 0.00000
  281 0.00000 0.00000 0.00000
  282 0.00000 0.00000 0.00000
  283 0.00000 0.00000 0.00000
  284 0.00000 0.00000 0.00000
  285 0.00000 0.00000 0.00000
  286 0.00000 0.00000 0.00000
  287 0.00000 0.00000 0.00000
  288 0.00000 0.00000 0.00000
  289 0.00000 0.00000 0.00000
  290 0.00000 0.00000 0.00000
  291 0.00000 0.00000 0.00000
  292 0.00000 0.00000 0.00000
  293 0.00000 0.00000 0.00000
  294 0.00000 0.00000 0.00000
  295 0.00000 0.00000 0.00000
  296 0.00000 0.00000 0.00000
  297 0.00000 0.00000 0.00000
  298 0.00000 0.00000 0.00000
  299 0.00000 0.00000 0.00000
  300 0.00000 0.00000 0.00000
  301 0.00000 0.00000 0.00000
  302 0.00000 0.00000 0.00000
  303 0.00000 0.00000 0.00000
  304 0.00000 0.00000 0.00000
  305 0.00000 0.00000 0.00000
  306 0.00000 0.00000 0.00000
  307 0.00000 0.00000 0.00000
  308 0.00000 0.00000 0.00000
  309 0.00000 0.00000 0.00000
  310 0.00000 0.00000 0.00000
  311 0.00000 0.00000 0.00000
  312 0.00000 0.00000 0.00000
  313 0.00000 0.00000 0.00000
  314 0.00000 0.00000 0.00000
  315 0.00000 0.00000 0.00000
  316 0.00000 0.00000 0.00000
  317 0.00000 0.00000 0.00000
  318 0.00000 0.00000 0.00000
  319 0.00000 0.00000 0.00000
  320 0.00000 0.00000 0.00000
  321 0.00000 0.00000 0.00000
  322 0.00000 0.00000 0.00000
  323 0.00000 0.00000 0.00000
  324 0.00000 0.00000 0.00000
  325 0.00000 0.00000 0.00000
  326 0.00000 0.00000 0.00000
  327 0.00000 0.00000 0.00000
  328 0.00000 0.00000 0.00000
  329 0.00000 0.00000 0.00000
  330 0.00000 0.00000 0.00000
  331 0.00000 0.00000 0.00000
  332 0.00000 0.00000 0.00000
  333 0.00000 0.00000 0.00000
  334 0.00000 0.00000 0.00000
  335 0.00000 0.00000 0.00000
  336 0.00000 0.00000 0.00000
  337 0.00000 0.00000 0.00000
  338 0.00000 0.00000 0.00000
  339 0.00000 0.00000 0.00000
  340 0.00000 0.00000 0.00000
  341 0.00000 0.00000 0.00000
  342 0.00000 0.00000 0.00000
  343 0.00000 0.00000 0.00000
  344 0.00000 0.00000 0.00000
  345 0.00000 0.00000 0.00000
  346 0.00000 0.00000 0.00000
  347 0.00000 0.00000 0.00000
  348 0.00000 0.00000 0.00000
  349 0.00000 0.00000 0.00000
  350 0.00000 0.00000 0.00000
  351 0.00000 0.00000 0.00000
  352 0.00000 0.00000 0.00000
  353 0.00000 0.00000 0.00000
  354 0.00000 0.00000 0.00000
  355 0.00000 0.00000 0.00000
  356 0.00000 0.00000 0.00000
  357 0.00000 0.00000 0.00000
  358 0.00000 0.00000 0.00000
  359 0.00000 0.00000 0.00000
  360 0.00000 0.00000 0.00000
  361 0.00000 0.00000 0.00000
  362 0.00000 0.00000 0.00000
  363 0.00000 0.00000 0.00000
  364 0.00000 0.00000 0.00000
  365 0.00000 0.00000 0.00000
  366 0.00000 0.00000 0.00000
  367 0.00000 0.00000 0.00000
  368 0.00000 0.00000 0.00000
  369 0.00000 0.00000 0.00000
  370 0.00000 0.00000 0.00000
  371 0.00000 0.00000 0.00000
  372 0.00000 0.00000 0.00000
  373 0.00000 0.00000 0.00000
  374 0.00000 0.00000 0.00000
  375 0.00000 0.00000 0.00000
  376 0.00000 0.00000 0.00000
  377 0.00000 0.00000 0.00000
  378 0.00000 0.00000 0.00000
  379 0.00000 0.00000 0.00000
  380 0.00000 0.00000 0.00000
  381 0.00000 0.00000 0.00000
  382 0.00000 0.00000 0.00000
  383 0.00000 0.00000 0.00000
  384 0.00000 0.00000 0.00000
  385 0.00000 0.00000 0.00000
  386 0.00000 0.00000 0.00000
  387 0.00000 0.00000 0.00000
  388 0.00000 0.00000 0.00000
  389 0.00000 0.00000 0.00000
  390 0.00000 0.00000 0.00000
  391 0.00000 0.00000 0.00000
  392 0.00000 0.00000 0.00000
  393 0.00000 0.00000 0.00000
  394 0.00000 0.00000 0.00000
  395 0.00000 0.00000 0.00000
  396 0.00000 0.00000 0.00000
  397 0.00000 0.00000 0.00000
  398 0.00000 0.00000 0.00000
  399 0.00000 0.00000 0.00000
  400 0.00000 0.00000 0.00000
  401 0.00000 0.00000 0.00000
  402 0.00000 0.00000 0.00000
  403 0.00000 0.00000 0.00000
  404 0.00000 0.00000 0.00000
  405 0.00000 0.00000 0.00000
  406 0.00000 0.00000 0.00000
  407 0.00000 0.00000 0.00000
  408 0.00000 0.00000 0.00000
  409 0.00000 0.00000 0.00000
  410 0.00000 0.00000 0.00000
  411 0.00000 0.00000 0.00000
  412 0.00000 0.00000 0.00000
  413 0.00000 0.00000 0.00000
  414 0.00000 0.00000 0.00000
  415 0.00000 0.00000 0.00000
  416 0.00000 0.00000 0.00000
  417 0.00000 0.00000 0.00000
  418 0.00000 0.00000 0.00000
  419 0.00000 0.00000 0.00000
  420 0.00000 0.00000 0.00000
  421 0.00000 0.00000 0.00000
  422 0.00000 0.00000 0.00000
  423 0.00000 0.00000 0.00000
  424 0.00000 0.00000 0.00000
  425 0.00000 0.00000 0.00000
  426 0.00000 0.00000 0.00000
  427 0.00000 0.00000 0.00000
  428 0.00000 0.00000 0.00000
  429 0.00000 0.00000 0.00000
  430 0.00000 0.00000 0.00000
  431 0.00000 0.00000 0.00000
  432 0.00000 0.00000 0.00000
  433 0.00000 0.00000 0.00000
  434 0.00000 0.00000 0.00000
  435 0.00000 0.00000 0.00000
  436 0.00000 0.00000 0.00000
  437 0.00000 0.00000 0.00000
  438 0.00000 0.00000 0.00000
  439 0.00000 0.00000 0.00000
  440 0.00000 0.00000 0.00000
  441 0.00000 0.00000 0.00000
  442 0.00000 0.00000 0.00000
  443 0.00000 0.00000 0.00000
  444 0.00000 0.00000 0.00000
  445 0.00000 0.00000 0.00000
  446 0.00000 0.00000 0.00000
  447 0.00000 0.00000 0.00000
  448 0.00000 0.00000 0.00000
  449 0.00000 0.00000 0.00000
  450 0.00000 0.00000 0.00000
  451 0.00000 0.00000 0.00000
  452 0.00000 0.00000 0.00000
  453 0.00000 0.00000 0.00000
  454 0.00000 0.00000 0.00000
  455 0.00000 0.00000 0.00000
  456 0.00000 0.00000 0.00000
  457 0.00000 0.00000 0.00000
  458 0.00000 0.00000 0.00000
  459 0.00000 0.00000 0.00000
  460 0.00000 0.00000 0.00000
  461 0.00000 0.00000 0.00000
  462 0.00000 0.00000 0.00000
  463 0.00000 0.00000 0.00000
  464 0.00000 0.00000 0.00000
  465 0.00000 0.00000 0.00000
  466 0.00000 0.00000 0.00000
  467 0.00000 0.00000 0.00000
  468 0.00000 0.00000 0.00000
  469 0.00000 0.00000 0.00000
  470 0.00000 0.00000 0.00000
  471 0.00000 0.00000 0.00000
  472 0.00000 0.00000 0.00000
  473 0.00000 0.00000 0.00000
  474 0.00000 0.00000 0.00000
  475 0.00000 0.00000 0.00000
  476 0.00000 0.00000 0.00000
  477 0.00000 0.00000 0.00000
  478 0.00000 0.00000 0.00000
  479 0.00000 0.00000 0.00000
  480 0.00000 0.00000 0.00000
  481 0.00000 0.00000 0.00000
  482 0.00000 0.00000 0.00000
  483 0.00000 0.00000 0.00000
  484 0.00000 0.00000 0.00000
  485 0.00000 0.00000 0.00000
  486 0.00000 0.00000 0.00000
  487 0.00000 0.00000 0.00000
  488 0.00000 0.00000 0.00000
  489 0.00000 0.00000 0.00000
  490 0.00000 0.00000 0.00000
  491 0.00000 0.00000 0.00000
  492 0.00000 0.00000 0.00000
  493 0.00000 0.00000 0.00000
  494 0.00000 0.00000 0.00000
  495 0.00000 0.00000 0.00000
  496 0.00000 0.00000 0.00000
  497 0.00000 0.00000 0.00000
  498 0.00000 0.00000 0.00000
  499 0.00000 0.00000 0.00000
  500 0.00000 0.00000 0.00000
  501 0.00000 0.00000 0.00000
  502 0.00000 0.00000 0.00000
  503 0.00000 0.00000 0.00000
  504 0.00000 0.00000 0.00000
  505 0.00000 0.00000 0.00000
  506 0.00000 0.00000 0.00000
  507 0.00000 0.00000 0.00000
  508 0.00000 0.00000 0.00000
  509 0.00000 0.00000 0.00000
  510 0.00000 0.00000 0.00000
  511 0.00000 0.00000 0.00000
  512 0.00000 0.00000 0.00000
  513 0.00000 0.00000 0.00000
  514 0.00000 0.00000 0.00000
  515 0.00000 0.00000 0.00000
  516 0.00000 0.00000 0.00000
  517 0.00000 0.00000 0.00000
  518 0.00000 0.00000 0.00000
  519 0.00000 0.00000 0.00000
  520 0.00000 0.00000 0.00000
  521 0.00000 0.00000 0.00000
  522 0.00000 0.00000 0.00000
  523 0.00000 0.00000 0.00000
  524 0.00000 0.00000 0.00000
  525 0.00000 0.00000 0.00000
  526 0.00000 0.00000 0.00000
  527 0.00000 0.00000 0.00000
  528 0.00000 0.00000 0.00000
  529 0.00000 0.00000 0.00000
  530 0.00000 0.00000 0.00000
  531 0.00000 0.00000 0.00000
  532 0.00000 0.00000 0.00000
  533 0.00000 0.00000 0.00000
  534 0.00000 0.00000 0.00000
  535 0.00000 0.00000 0.00000
  536 0.00000 0.00000 0.00000
  537 0.00000 0.00000 0.00000
  538 0.00000 0.00000 0.00000
  539 0.00000 0.00000 0.00000
  540 0.00000 0.00000 0.00000
  541 0.00000 0.00000 0.00000
  542 0.00000 0.00000 0.00000
  543 0.00000 0.00000 0.00000
  544 0.00000 0.00000 0.00000
  545 0.00000 0.00000 0.00000
  546 0.00000 0.00000 0.00000
  547 0.00000 0.00000 0.00000
  548 0.00000 0.00000 0.00000
  549 0.00000 0.00000 0.00000
  550 0.00000 0.00000 0.00000
  551 0.00000 0.00000 0.00000
  552 0.00000 0.00000 0.00000
  553 0.00000 0.00000 0.00000
  554 0.00000 0.00000 0.00000
  555 0.00000 0.00000 0.00000
  556 0.00000 0.00000 0.00000
  557 0.00000 0.00000 0.00000
  558 0.00000 0.00000 0.00000
  559 0.00000 0.00000 0.00000
  560 0.00000 0.00000 0.00000
  561 0.00000 0.00000 0.00000
  562 0.00000 0.00000 0.00000
  563 0.00000 0.00000 0.00000
  564 0.00000 0.00000 0.00000
  565 0.00000 0.00000 0.00000
  566 0.00000 0.00000 0.00000
  567 0.00000 0.00000 0.00000
  568 0.00000 0.00000 0.00000
  569 0.00000 0.00000 0.00000
  570 0.00000 0.00000 0.00000
  571 0.00000 0.00000 0.00000
  572 0.00000 0.00000 0.00000
  573 0.00000 0.00000 0.00000
  574 0.00000 0.00000 0.00000
  575 0.00000 0.00000 0.00000
  576 0.00000 0.00000 0.00000
  577 0.00000 0.00000 0.00000
  578 0.00000 0.00000 0.00000
  579 0.00000 0.00000 0.00000
  580 0.00000 0.00000 0.00000
  581 0.00000 0.00000 0.00000
  582 0.00000 0.00000 0.00000
  583 0.00000 0.00000 0.00000
  584 0.00000 0.00000 0.00000
  585 0.00000 0.00000 0.00000
  586 0.00000 0.00000 0.00000
  587 0.00000 0.00000 0.00000
  588 0.00000 0.00000 0.00000
  589 0.00000 0.00000 0.00000
  590 0.00000 0.00000 0.00000
  591 0.00000 0.00000 0.00000
  592 0.00000 0.00000 0.00000
  593 0.00000 0.00000 0.00000
  594 0.00000 0.00000 0.00000
</Section>

newXOutput 2

<Section columns = "stress_xx | stress_yy | stress_xy">
  1 23.6160 0.153967 -0.159149
  2 23.6167 0.154005 0.159188
  3 36.9297 0.0359224 -0.0295520
  4 36.9290 0.0358802 0.0295092
  5 4.82673 -21.8649 1.03837
  6 75.9035 2.31614 -0.0261101
  7 4.82504 -21.8845 -1.04246
  8 85.7849 0.782113 -0.713844
  9 23.9394 0.107100 -0.147264
  10 24.5022 0.179932 -0.394153
  11 25.7676 0.262931 -0.808982
  12 27.6771 0.151185 -1.45651
  13 30.7051 0.0984205 -1.52758
  14 33.6990 0.376319 -2.38215
  15 38.9811 0.0505056 -2.95586
  16 44.1380 -0.200464 -2.83691
  17 51.2915 -1.08969 -1.25362
  18 52.4576 -1.05071 0.119837
  19 52.3024 -0.371462 1.66188
  20 51.6354 0.705518 1.51798
  21 51.3896 1.50212 0.386431
  22 54.2969 -0.0730003 -0.789378
  23 51.4924 0.390132 -1.74690
  24 52.3305 -0.363828 -1.64601
  25 52.4760 -1.04837 -0.115336
  26 51.3074 -1.08968 1.25628
  27 44.1470 -0.200021 2.83896
  28 38.9880 0.0507026 2.95734
  29 33.7036 0.376471 2.38310
  30 30.7088 0.0983783 1.52819
  31 27.6793 0.151205 1.45710
  32 25.7691 0.263015 0.809315
  33 24.5032 0.179983 0.394364
  34 23.9402 0.107145 0.147361
  35 24.7567 0.197170 0.212415
  36 25.6060 0.692407 0.307482
  37 26.1647 1.14097 0.311248
  38 27.0263 1.53419 0.183216
  39 27.9855 1.74394 0.0730102
  40 29.2232 1.67703 -0.0322294
  41 30.6488 1.39110 -0.0767789
  42 32.8342 0.921888 -0.187916
  43 34.4120 0.570402 -0.0322253
  44 35.6549 0.326950 -0.108057
  45 36.9344 0.00872655 -0.221208
  46 37.7511 -0.0645428 -0.286128
  47 37.9989 0.0971265 -0.511586
  48 39.2466 0.0238339 -0.658180
  49 41.0569 -0.194537 -0.568152
  50 42.3142 -0.205507 -0.605451
  51 42.9965 -0.276951 -0.335087
  52 43.1314 -0.410158 0.198292
  53 42.0215 -0.485111 1.06258
  54 39.8867 -0.182467 1.52946
  55 36.0646 0.143792 1.72613
  56 32.3873 0.632396 1.30198
  57 30.4870 0.727112 0.592378
  58 30.1643 0.809092 -0.712574
  59 32.7403 0.456413 -1.30252
  60 35.9709 0.0855456 -1.45449
  61 39.9358 -0.146954 -1.44002
  62 42.0385 -0.468665 -1.04020
  63 43.1261 -0.405568 -0.197199
  64 42.9906 -0.276747 0.334034
  65 42.3093 -0.205510 0.604548
  66 41.0533 -0.194481 0.567602
  67 39.2444 0.0237716 0.657694
  68 37.9975 0.0970408 0.511251
  69 37.7499 -0.0645542 0.285949
  70 36.9336 0.00870249 0.221099
  71 35.6544 0.326800 0.107981
  72 34.4118 0.570089 0.0321595
  73 32.8343 0.921389 0.187814
  74 30.6493 1.39041 0.0767302
  75 29.2239 1.67624 0.0322092
  76 27.9862 1.74315 -0.0729880
  77 27.0268 1.53351 -0.183161
  78 26.1647 1.14048 -0.311133
  79 25.6057 0.692100 -0.307412
  80 24.7562 0.197029 -0.212343
  81 7.85943 -17.5178 -0.126923
  82 16.7635 -6.56338 3.74309
  83 29.8198 1.33428 9.07622
  84 43.2994 4.48754 11.4716
  85 56.5713 4.82125 12.1234
  86 70.0621 2.94416 10.9652
  87 76.1925 1.67545 5.41546
  88 76.3478 1.61650 -5.49483
  89 70.1733 2.87766 -10.9559
  90 56.5400 4.82532 -12.0741
  91 43.2767 4.51969 -11.4550
  92 29.7827 1.31576 -9.07051
  93 16.7425 -6.56539 -3.73463
  94 7.86794 -17.5116 0.129723
  95 6.28736 -19.1097 -2.14368
  96 13.8333 -8.84269 1.51770
  97 25.2645 -1.86326 4.89364
  98 40.7689 2.15097 7.50878
  99 56.6502 2.57605 7.39094
  100 70.5266 1.40500 6.77796
  101 82.7514 0.857116 5.30824
  102 80.6061 0.602909 -4.53074
  103 70.6926 1.80047 -6.55970
  104 56.6206 2.55471 -7.38335
  105 40.7893 2.15786 -7.51847
  106 25.2996 -1.85236 -4.90812
  107 13.8461 -8.83318 -1.53214
  108 6.29263 -19.0853 2.13220
  109 24.8033 2.98066 -0.899842
  110 24.8049 2.98047 0.899692
  111 33.4880 -2.71347 3.96491
  112 33.4883 -2.71865 -3.96560
  113 18.4367 3.07782 3.26060
  114 18.4398 3.07817 -3.26132
  115 32.4145 1.14884 1.50706
  116 32.4140 1.14938 -1.50764
  117 25.5775 1.79497 1.57954
  118 25.5778 1.79438 -1.57894
  119 43.0467 -1.65320 2.04401
  120 43.0641 -1.63114 -2.07132
  121 19.8208 -0.584808 5.38195
  122 19.8200 -0.588301 -5.38276
  123 46.2076 2.49258 -1.85919
  124 46.0700 2.36716 1.93809
  125 27.8549 2.15508 0.265374
  126 27.8539 2.15587 -0.265380
  127 33.9859 0.257355 -2.68356
  128 33.9865 0.257473 2.68295
  129 24.2594 -1.28327 7.27269
  130 24.2637 -1.28328 -7.27344
  131 33.7204 -5.65838 5.19758
  132 33.7186 -5.66619 -5.20696
  133 25.6366 2.06935 -3.51391
  134 25.6366 2.06995 3.51499
  135 40.1050 -1.97765 0.236258
  136 40.1062 -1.96468 -0.230797
  137 28.9766 0.939515 3.27013
  138 28.9753 0.938786 -3.27049
  139 11.2516 -0.334428 0.0202931
  140 11.2541 -0.329947 -0.0236852
  141 22.3448 3.48639 -1.84133
  142 22.3431 3.48683 1.84154
  143 38.6187 -0.982248 -1.53059
  144 38.6189 -0.980971 1.53096
  145 35.2756 0.368085 0.667098
  146 35.2761 0.368320 -0.667469
  147 28.2696 1.30307 -5.65212
  148 28.2700 1.30372 5.65370
  149 25.5190 0.685081 0.892618
  150 25.5185 0.684820 -0.892270
  151 53.7259 3.85432 0.150153
  152 28.9668 1.69839 2.00222
  153 28.9656 1.69874 -2.00264
  154 30.6802 1.42704 0.634365
  155 30.6797 1.42772 -0.634595
  156 26.5795 1.78208 0.547440
  157 26.5800 1.78138 -0.547198
  158 25.7452 2.58250 -0.677154
  159 25.7442 2.58323 0.677449
  160 36.0164 0.369968 -1.44882
  161 36.0157 0.369681 1.44805
  162 38.6550 -2.65163 -3.63125
  163 38.6505 -2.65199 3.63257
  164 21.0276 2.71776 1.66835
  165 21.0258 2.71663 -1.66910
  166 41.5952 -2.53792 3.08054
  167 41.6006 -2.54075 -3.10431
  168 21.4153 -5.81118 7.44138
  169 21.4114 -5.81161 -7.43934
  170 49.3638 1.12705 0.842111
  171 49.4869 1.31409 -0.934959
  172 26.2270 0.980895 -2.03215
  173 26.2277 0.981244 2.03291
  174 39.6377 1.82223 0.874595
  175 40.8155 0.348625 3.34044
  176 39.9862 0.375639 -3.16665
  177 40.0105 -4.11580 0.868816
  178 40.0229 -4.13076 -0.872362
  179 27.0497 -0.463424 4.75793
  180 27.0484 -0.465832 -4.75860
  181 40.9700 -1.19184 -2.13087
  182 40.9775 -1.26292 2.13870
  183 27.4538 -3.63989 6.47012
  184 27.4511 -3.64395 -6.47173
  185 27.0872 2.47756 -0.767632
  186 27.0885 2.47693 0.767527
  187 57.9775 3.96542 2.10090
  188 58.2469 3.73460 -2.15877
  189 24.9698 2.40623 -2.12648
  190 24.9692 2.40690 2.12719
  191 29.4827 1.86041 1.10093
  192 29.4818 1.86110 -1.10123
  193 33.7536 -0.467415 3.14947
  194 33.7527 -0.468634 -3.14962
  195 38.0812 1.16563 -1.85156
  196 32.1829 1.00538 2.23176
  197 32.1822 1.00569 -2.23239
  198 10.4967 -5.89941 -4.10289
  199 10.4897 -5.90740 4.09846
  200 45.9980 -1.38555 -1.30260
  201 45.9994 -1.38431 1.30210
  202 28.4482 1.80583 -0.0650556
  203 28.4488 1.80501 0.0650564
  204 9.81521 -5.57961 -3.64440
  205 9.81341 -5.57292 3.64254
  206 38.5620 -0.221788 -1.53607
  207 38.5608 -0.221899 1.53525
  208 16.2993 2.42503 0.114387
  209 16.2970 2.42314 -0.116067
  210 37.4511 -0.815140 -4.79983
  211 37.4544 -0.814347 4.80212
  212 29.6274 0.684364 -3.59933
  213 29.6295 0.684713 3.60067
  214 26.3167 -4.69162 6.53410
  215 26.2992 -4.69796 -6.53644
  216 26.0917 1.22868 0.637032
  217 26.0917 1.22817 -0.636738
  218 24.2073 2.54987 -5.01524
  219 24.2063 2.55062 5.01635
  220 24.9093 1.93472 2.97443
  221 24.9077 1.93382 -2.97491
  222 32.5476 1.00664 0.578995
  223 32.5475 1.00716 -0.579246
  224 17.6953 1.77247 5.23328
  225 17.6993 1.77296 -5.23423
  226 35.7488 -3.98353 -3.36134
  227 35.7464 -3.97442 3.35931
  228 17.9865 -4.55764 5.39807
  229 17.9933 -4.55384 -5.40453
  230 36.3751 0.211578 -0.884023
  231 36.3743 0.211421 0.883524
  232 41.5160 -0.528825 0.240697
  233 41.5176 -0.529733 -0.240590
  234 27.3313 1.01725 -2.63223
  235 27.3326 1.01764 2.63315
  236 40.3652 1.59557 2.17338
  237 56.0393 0.297191 1.94384
  238 56.0360 0.311713 -1.94864
  239 47.1326 1.70505 6.68013
  240 47.0860 1.75337 -6.69487
  241 23.8958 3.28802 -0.645356
  242 23.8943 3.28851 0.645510
  243 38.1809 -2.18858 -1.54975
  244 38.1810 -2.18188 1.55260
  245 25.5127 0.376739 -0.989096
  246 25.5136 0.376873 0.989500
  247 64.8862 2.85214 -1.81812
  248 38.3351 0.113073 -1.18235
  249 38.3335 0.112882 1.18160
  250 26.6722 2.24199 -0.357898
  251 26.6713 2.24276 0.358100
  252 20.0615 3.56524 -1.18420
  253 20.0592 3.56504 1.18374
  254 45.0122 0.612762 2.31207
  255 44.7895 0.624482 -2.32240
  256 64.6032 2.86114 1.77131
  257 26.9161 2.12898 2.23183
  258 26.9147 2.12889 -2.23217
  259 31.3889 0.686653 -2.98895
  260 31.3899 0.686864 2.98843
  261 35.9823 0.206088 0.297084
  262 35.9829 0.206202 -0.297244
  263 63.0219 -0.281218 1.81093
  264 62.7191 0.735498 -1.37955
  265 43.9595 2.74283 -1.01714
  266 23.1101 0.928069 4.13873
  267 23.1087 0.925985 -4.13944
  268 23.3641 0.877586 -6.84759
  269 23.3614 0.877877 6.84814
  270 34.3027 0.663027 1.24304
  271 34.3029 0.663414 -1.24363
  272 25.8273 1.12585 -1.56596
  273 25.8277 1.12625 1.56657
  274 24.7435 0.203254 0.303426
  275 24.7429 0.203154 -0.303283
  276 22.5094 3.46378 0.0554848
  277 22.5076 3.46377 -0.0556827
  278 41.3870 -0.864326 -0.823528
  279 41.3851 -0.875886 0.827930
  280 6.39780 -7.89579 0.423797
  281 6.40074 -7.88664 -0.427352
  282 29.9177 1.61319 -0.235104
  283 29.9183 1.61242 0.235028
  284 32.3780 1.11879 1.02917
  285 32.3778 1.11934 -1.02960
  286 36.5076 -0.170548 7.65024
  287 36.4883 -0.161975 -7.65672
  288 41.0673 -2.43704 -1.31190
  289 41.0799 -2.46066 1.31176
  290 27.3556 1.77838 -0.133544
  291 27.3550 1.77915 0.133624
  292 36.3591 0.205211 -4.44016
  293 36.3636 0.205745 4.44210
  294 41.0708 -0.215719 0.808146
  295 41.0737 -0.215740 -0.808971
  296 56.7795 2.74068 -6.16649
  297 56.6757 2.68773 6.12602
  298 25.6526 -3.84164 -4.81543
  299 25.6358 -3.84435 4.80774
  300 39.4561 -0.294224 2.39395
  301 39.4622 -0.157011 -2.35201
  302 25.7970 1.83979 -2.82860
  303 25.7971 1.84037 2.82956
  304 14.5036 -0.378475 3.67199
  305 14.5031 -0.382594 -3.67389
  306 25.9819 1.66936 1.05822
  307 25.9823 1.66874 -1.05779
  308 30.7283 -0.787163 4.02636
  309 30.7273 -0.789446 -4.02671
  310 45.7229 3.34339 0.755665
  311 23.7877 2.77718 -3.56885
  312 23.7866 2.77783 3.56971
  313 44.5691 -0.916636 -0.0911818
  314 44.5151 -0.945187 0.0694512
  315 28.8797 1.84416 -0.324384
  316 28.8804 1.84337 0.324307
  317 66.1845 0.372042 -0.553986
  318 71.8034 -0.158499 1.55360
  319 34.0511 0.402104 -3.78798
  320 34.0552 0.402357 3.78952
  321 47.3152 0.303653 -4.53491
  322 47.3086 0.309777 4.52803
  323 34.4158 0.583456 0.310259
  324 34.4161 0.583781 -0.310440
  325 27.5926 1.96624 -0.0822062
  326 27.5918 1.96704 0.0822910
  327 26.6447 1.50924 -0.280922
  328 26.6443 1.50989 0.281054
  329 36.0858 -0.479252 -2.31417
  330 36.0862 -0.478700 2.31380
  331 51.9734 3.45199 -0.467469
  332 31.3790 1.25167 -0.307281
  333 31.3793 1.25103 0.307158
  334 25.5373 0.682175 0.410387
  335 25.5370 0.681876 -0.410231
  336 25.3168 2.46273 -1.35527
  337 25.3160 2.46343 1.35577
  338 37.1236 0.461415 -2.20176
  339 35.6379 -1.10776 -4.99421
  340 35.6181 -1.11473 4.98932
  341 37.9040 0.175928 -0.821988
  342 37.9025 0.175793 0.821464
  343 38.8980 -4.69007 2.56385
  344 38.9042 -4.70469 -2.57593
  345 35.2185 0.440843 1.99782
  346 35.2187 0.441183 -1.99870
  347 34.0176 0.759220 1.78357
  348 34.0175 0.759658 -1.78434
  349 38.5811 -3.70344 1.41212
  350 38.5870 -3.71589 -1.41140
  351 12.8741 -8.45136 4.69767
  352 12.8775 -8.44821 -4.69493
  353 26.7452 2.42650 0.135091
  354 26.7441 2.42723 -0.135031
  355 36.9050 0.0542084 0.424222
  356 36.9060 0.0542776 -0.424475
  357 21.5857 3.37132 -3.60788
  358 21.5837 3.37183 3.60821
  359 30.7999 -2.88302 -6.11974
  360 30.7949 -2.88287 6.11972
  361 30.4783 1.55724 1.62381
  362 30.4775 1.55780 -1.62427
  363 41.8190 -0.864319 3.04525
  364 41.7402 -0.764221 -3.08981
  365 25.5436 2.78974 0.130324
  366 25.5422 2.79032 -0.130258
  367 22.5633 -3.60050 -6.92501
  368 22.5650 -3.59740 6.92518
  369 35.3906 -1.54719 -2.83450
  370 35.3910 -1.54399 2.83501
  371 52.3925 3.57206 0.224865
  372 42.1308 -2.86554 -0.0107242
  373 42.1532 -2.88038 0.00460549
  374 14.5061 1.92014 2.66775
  375 14.5099 1.92193 -2.66984
  376 29.6601 -2.19277 5.21283
  377 29.6590 -2.19641 -5.21400
  378 48.0481 -1.45875 1.24898
  379 48.0379 -1.45978 -1.24636
  380 37.1657 0.526160 2.32621
  381 34.7737 1.12070 -0.191167
  382 27.5648 -5.29064 6.62220
  383 27.5585 -5.29378 -6.62568
  384 25.9828 2.13723 0.979331
  385 25.9834 2.13652 -0.978922
  386 41.8409 1.23044 -2.53562
  387 29.8157 1.27119 2.60503
  388 29.8145 1.27121 -2.60548
  389 36.3424 -4.83797 4.66164
  390 36.3403 -4.84060 -4.67464
  391 26.3830 0.292410 -1.29695
  392 26.3844 0.292527 1.29747
  393 50.6308 2.84218 0.243725
  394 50.9333 2.95165 -0.269476
  395 43.4085 -1.49703 3.00968
  396 43.4025 -1.49743 -3.00726
  397 32.4805 -4.46389 5.14379
  398 32.4803 -4.46984 -5.14764
  399 30.1651 -0.206601 -6.48648
  400 30.1643 -0.206078 6.48792
  401 21.8613 2.67911 -5.48319
  402 21.8590 2.67979 5.48377
  403 18.5773 1.47672 3.14415
  404 18.5761 1.47420 -3.14543
  405 34.7839 0.781851 1.14176
  406 26.8000 2.42992 -1.30590
  407 26.8014 2.42951 1.30569
  408 26.7731 0.592725 4.16200
  409 26.7717 0.591069 -4.16249
  410 24.6248 -1.53956 -5.83404
  411 24.6263 -1.53636 5.83329
  412 24.7259 0.256067 0.512189
  413 24.7251 0.255980 -0.511965
  414 28.3786 2.10543 -1.29276
  415 28.3798 2.10484 1.29247
  416 28.2005 2.24832 0.729441
  417 28.1995 2.24905 -0.729576
  418 9.13603 -10.7943 1.32319
  419 9.14091 -10.7811 -1.33200
  420 41.9573 0.764828 3.02469
  421 30.7863 1.48036 1.10306
  422 30.7856 1.48101 -1.10343
  423 25.8593 1.21688 1.21455
  424 25.8593 1.21641 -1.21406
  425 23.9451 3.09536 2.07032
  426 23.9462 3.09471 -2.06978
  427 25.6113 1.60447 -2.19605
  428 25.6114 1.60500 2.19686
  429 36.5551 0.0145112 -2.05885
  430 36.5547 0.0142965 2.05797
  431 26.5166 1.88575 -4.36755
  432 26.5168 1.88633 4.36882
  433 16.2937 -3.61596 -6.17504
  434 16.2928 -3.61102 6.17549
  435 52.0390 -0.583255 -0.191379
  436 52.0360 -0.588462 0.193358
  437 66.2025 2.22398 6.29160
  438 66.4179 2.12187 -6.32055
  439 23.6996 2.71961 1.57007
  440 23.6979 2.71927 -1.57044
  441 5.54250 -14.6362 -1.74071
  442 5.53592 -14.6300 1.74171
  443 39.9364 -1.46859 0.510756
  444 39.9346 -1.47216 -0.508123
  445 40.9497 -0.374522 1.62760
  446 40.9431 -0.355093 -1.59475
  447 5.96688 -14.8844 0.154868
  448 5.97317 -14.8648 -0.161604
  449 37.1108 -4.79208 -2.96827
  450 37.1063 -4.78052 2.96236
  451 40.6192 -0.0659079 -0.762206
  452 40.6162 -0.0659701 0.761481
  453 36.5098 0.273908 -2.19431
  454 40.8356 -1.66452 -1.46415
  455 40.8260 -1.69246 1.47631
  456 31.8021 0.228972 -3.22546
  457 31.8032 0.229689 3.22511
  458 29.9289 0.312908 -1.96325
  459 29.9319 0.313006 1.96401
  460 12.1585 -0.716543 3.71725
  461 12.1634 -0.713277 -3.72038
  462 36.3906 -2.94522 2.68676
  463 36.3927 -2.95233 -2.68616
  464 33.7680 0.853369 0.774103
  465 33.7681 0.853815 -0.774488
  466 24.7159 2.88391 -1.15649
  467 24.7148 2.88459 1.15688
  468 36.5412 0.126931 0.116122
  469 36.5419 0.126980 -0.116179
  470 29.2962 1.87745 -0.722836
  471 29.2971 1.87670 0.722640
  472 23.9847 0.0307769 0.0871250
  473 23.9840 0.0307389 -0.0870745
  474 24.6859 2.47335 -2.97519
  475 24.6853 2.47398 2.97606
  476 17.6940 -1.37043 -6.23571
  477 17.6884 -1.37297 6.23365
  478 33.4801 0.286748 -1.18436
  479 5.60400 -1.57636 0.0370595
  480 5.42864 -1.21447 -0.264879
  481 5.40953 -1.12807 0.301506
  482 5.42790 -1.36081 -0.0317306
  483 5.67438 -1.77909 -0.339316
  484 5.39547 -1.34908 0.0369667
  485 5.63593 -1.67283 0.388825
  486 5.31469 -1.15292 -0.0803557
  487 5.45138 -1.22719 -0.510216
  488 5.43670 -1.48035 -0.00664949
  489 5.79928 -2.09033 0.0312015
  490 5.21729 -0.669340 -0.321226
  491 5.27379 -1.12123 0.0822773
  492 5.42912 -1.12245 0.543779
  493 5.55623 -1.50179 -0.139699
  494 5.18985 -0.618128 0.324388
  495 5.53285 -1.42975 0.176547
  496 5.20519 -0.805707 -0.170891
  497 5.19534 -0.700748 0.188474
  498 5.53699 -1.50311 -0.000822739
  499 5.70337 -1.76208 -0.0369653
  500 5.28864 -0.733684 -0.530149
  501 5.31976 -1.25251 0.00247983
  502 5.57948 -1.64156 -0.556576
  503 5.42341 -1.37637 -0.0201068
  504 5.71157 -2.04690 0.343764
  505 5.41860 -1.42802 0.00535652
  506 5.75320 -2.10669 -0.225296
  507 5.30578 -1.19439 0.00997061
  508 5.54969 -1.45451 0.582866
  509 5.44426 -1.30895 -0.143411
  510 5.55696 -1.43186 -0.338961
  511 5.25042 -0.664984 0.529350
  512 5.51601 -1.41370 0.314395
  513 5.65018 -1.61326 0.208294
  514 5.53434 -1.45432 0.0735631
  515 5.42682 -1.22197 0.184081
  516 5.37974 -1.04087 -0.374654
  517 5.18496 -0.937487 -0.0279193
  518 5.10152 -0.486787 -0.161134
  519 5.72656 -1.84821 0.130511
  520 5.31903 -1.05606 -0.171158
  521 5.22863 -1.13920 0.0107991
  522 5.50307 -1.30362 -0.639418
  523 5.65220 -1.65407 -0.178491
  524 5.32427 -0.951921 0.389038
  525 5.12814 -0.408351 -0.385863
  526 5.33266 -1.49053 -0.0189127
  527 5.76003 -2.36538 0.143420
  528 5.10628 -0.449948 0.196655
  529 5.13929 -0.811518 0.0597573
  530 5.28684 -0.973844 0.184262
  531 5.37859 -0.954224 -0.670061
  532 5.46996 -1.43083 0.0167817
  533 5.52662 -1.47923 -0.0677047
  534 5.34990 -0.884751 0.668587
  535 5.34702 -1.24091 -0.0563765
  536 5.58425 -1.47944 -0.485582
  537 5.49138 -1.46158 -0.0135203
  538 5.74219 -1.92396 -0.104901
  539 5.16427 -1.02738 -0.0324873
  540 5.30315 -0.956398 -0.276251
  541 5.10527 -0.350236 -0.256955
  542 5.52033 -1.38354 0.467444
  543 5.10860 -0.371578 0.383983
  544 5.62254 -1.59230 -0.0501574
  545 5.56480 -1.42539 -0.229787
  546 5.37281 -1.25558 0.0895611
  547 5.33484 -1.49176 0.00435264
  548 5.81696 -2.31812 -0.0841038
  549 5.36597 -1.34417 0.0551107
  550 5.62759 -1.97878 -0.534668
  551 5.10327 -0.667460 -0.0496624
  552 5.28839 -1.29346 -0.0488901
  553 5.58330 -1.76758 0.580783
  554 5.26714 -0.881368 0.283027
  555 5.47936 -1.16192 0.677406
  556 5.47647 -1.32149 0.248903
  557 5.62008 -1.56084 0.122798
  558 5.45580 -1.34193 0.119586
  559 5.08954 -0.330299 0.261227
  560 5.08839 -0.541078 0.120096
  561 5.47257 -1.18101 0.405140
  562 5.63989 -1.69934 0.0742571
  563 5.08017 -0.258678 0.197265
  564 5.24414 -1.51135 -0.00393561
  565 5.09514 -0.267228 -0.180198
  566 5.79346 -2.48103 0.0394422
  567 5.04522 -0.404307 0.148503
  568 5.03746 -0.577087 0.0628152
  569 5.07664 -0.843270 -0.0403534
  570 5.05090 -1.05309 -0.104830
  571 5.17412 -1.19225 -0.0809169
  572 5.35365 -1.31564 -0.0768330
  573 5.37280 -1.42103 -0.0252366
  574 5.39395 -1.39560 0.0320624
  575 5.37901 -1.34946 0.122196
  576 5.18523 -1.26199 0.0812013
  577 5.09132 -1.03871 0.0747858
  578 5.05933 -0.786757 0.0272915
  579 5.01431 -0.562414 -0.0597241
  580 5.04527 -0.352434 -0.141993
  581 5.06538 -0.237180 -0.284662
  582 5.15917 -0.378930 -0.484811
  583 5.22983 -0.760470 -0.677135
  584 5.40754 -1.06591 -0.735261
  585 5.48007 -1.65703 -0.681035
  586 5.54749 -2.05148 -0.661938
  587 5.81159 -2.16987 -0.325197
  588 5.74086 -2.30480 0.341498
  589 5.56612 -1.99974 0.605299
  590 5.50052 -1.50783 0.703981
  591 5.40535 -0.988692 0.738639
  592 5.20627 -0.712392 0.672354
  593 5.13045 -0.355623 0.482625
  594 5.04176 -0.229293 0.287108
</Section>

newXOutput 3

<Section columns = "stress_xx | stress_yy | stress_xy">
  1 46.9334 0.306620 -0.316956
  2 46.9347 0.306695 0.317033
  3 73.4130 0.0702775 -0.0575646
  4 73.4117 0.0701933 0.0574789
  5 9.64062 -43.7106 2.06736
  6 150.504 4.57601 -0.0512177
  7 9.63712 -43.7504 -2.07554
  8 169.951 1.48576 -1.41350
  9 47.5747 0.212163 -0.289515
  10 48.6891 0.357782 -0.778004
  11 51.1922 0.522633 -1.60192
  12 54.9800 0.300687 -2.88669
  13 60.9712 0.198433 -3.02750
  14 66.9251 0.750379 -4.72817
  15 77.4163 0.101213 -5.87246
  16 87.6882 -0.395169 -5.64805
  17 101.909 -2.16902 -2.50751
  18 104.271 -2.09052 0.207661
  19 104.025 -0.740000 3.26313
  20 102.760 1.40237 2.98062
  21 102.339 2.99125 0.745519
  22 108.087 -0.154649 -1.55943
  23 102.480 0.779559 -3.42911
  24 104.081 -0.723252 -3.23042
  25 104.307 -2.08578 -0.198561
  26 101.941 -2.16898 2.51285
  27 87.7061 -0.394275 5.65215
  28 77.4301 0.101606 5.87541
  29 66.9341 0.750681 4.73007
  30 60.9785 0.198349 3.02873
  31 54.9844 0.300724 2.88786
  32 51.1953 0.522800 1.60259
  33 48.6910 0.357884 0.778424
  34 47.5762 0.212253 0.289709
  35 49.2145 0.387326 0.421655
  36 50.9180 1.37040 0.612200
  37 52.0465 2.25899 0.617489
  38 53.7793 3.03663 0.364660
  39 55.6946 3.45367 0.146004
  40 58.1559 3.32218 -0.0626009
  41 60.9845 2.75648 -0.150950
  42 65.3115 1.82611 -0.371624
  43 68.4338 1.12988 -0.0615285
  44 70.8926 0.648869 -0.213455
  45 73.4230 0.0162527 -0.438819
  46 75.0390 -0.129574 -0.566567
  47 75.5336 0.193503 -1.01437
  48 78.0119 0.0478422 -1.30868
  49 81.6099 -0.388145 -1.13230
  50 84.1195 -0.410056 -1.21026
  51 85.4996 -0.552109 -0.677581
  52 85.7923 -0.820134 0.379940
  53 83.6135 -0.972655 2.10490
  54 79.3784 -0.368931 3.03802
  55 71.7775 0.287718 3.43825
  56 64.4550 1.26871 2.59683
  57 60.6671 1.45978 1.18505
  58 60.0263 1.62060 -1.42143
  59 65.1576 0.913229 -2.59524
  60 71.5928 0.169343 -2.89582
  61 79.4755 -0.298079 -2.86022
  62 83.6468 -0.939816 -2.06052
  63 85.7815 -0.811063 -0.377895
  64 85.4877 -0.551726 0.675438
  65 84.1097 -0.410067 1.20844
  66 81.6027 -0.388033 1.13120
  67 78.0075 0.0477170 1.30771
  68 75.5307 0.193331 1.01370
  69 75.0367 -0.129597 0.566209
  70 73.4215 0.0162048 0.438602
  71 70.8916 0.648571 0.213302
  72 68.4333 1.12926 0.0613965
  73 65.3116 1.82511 0.371419
  74 60.9854 2.75510 0.150852
  75 58.1571 3.32059 0.0625603
  76 55.6958 3.45209 -0.145959
  77 53.7802 3.03527 -0.364550
  78 52.0466 2.25803 -0.617259
  79 50.9174 1.36978 -0.612061
  80 49.2135 0.387045 -0.421511
  81 15.6698 -35.0439 -0.277963
  82 33.3632 -13.1437 7.41547
  83 59.2684 2.62126 18.0139
  84 85.9885 8.91617 22.7728
  85 112.273 9.57572 24.0603
  86 138.891 5.82319 21.7459
  87 151.017 3.29328 10.7334
  88 151.322 3.17590 -10.8916
  89 139.111 5.68978 -21.7270
  90 112.210 9.58451 -23.9621
  91 85.9432 8.98099 -22.7400
  92 59.1940 2.58379 -18.0027
  93 33.3215 -13.1475 -7.39860
  94 15.6868 -35.0314 0.283384
  95 12.5603 -38.2029 -4.29137
  96 27.5583 -17.6732 2.99615
  97 50.2431 -3.73976 9.69638
  98 80.9675 4.27679 14.8960
  99 112.434 5.12625 14.6773
  100 139.891 2.77616 13.4692
  101 163.978 1.64620 10.5446
  102 159.786 1.15052 -9.00175
  103 140.216 3.56458 -13.0398
  104 112.374 5.08178 -14.6639
  105 81.0089 4.29069 -14.9155
  106 50.3136 -3.71785 -9.72558
  107 27.5839 -17.6541 -3.02516
  108 12.5708 -38.1537 4.26829
  109 49.3817 5.94769 -1.77585
  110 49.3849 5.94730 1.77557
  111 66.5770 -5.38503 7.90096
  112 66.5775 -5.39534 -7.90230
  113 36.7338 6.15649 6.50006
  114 36.7399 6.15718 -6.50147
  115 64.4786 2.28972 2.99118
  116 64.4778 2.29080 -2.99233
  117 50.8890 3.56382 3.13346
  118 50.8896 3.56264 -3.13227
  119 85.5877 -3.30737 4.04964
  120 85.6216 -3.26276 -4.10415
  121 39.4588 -1.13279 10.6903
  122 39.4572 -1.13981 -10.6919
  123 91.9191 4.95997 -3.68254
  124 91.6460 4.71020 3.83911
  125 55.4398 4.28054 0.523200
  126 55.4380 4.28214 -0.523210
  127 67.5870 0.531910 -5.34272
  128 67.5882 0.532104 5.34147
  129 48.2801 -2.52410 14.4881
  130 48.2886 -2.52417 -14.4896
  131 67.0310 -11.2919 10.3417
  132 67.0273 -11.3078 -10.3604
  133 50.9938 4.11893 -6.97784
  134 50.9938 4.12014 6.98001
  135 79.7481 -3.93909 0.444218
  136 79.7505 -3.91331 -0.433312
  137 57.6447 1.89839 6.49574
  138 57.6420 1.89697 -6.49646
  139 22.4518 -0.626174 0.0578889
  140 22.4569 -0.617231 -0.0646597
  141 44.4970 6.95088 -3.66974
  142 44.4936 6.95178 3.67018
  143 76.7923 -1.94614 -3.06766
  144 76.7927 -1.94365 3.06833
  145 70.1437 0.730581 1.32303
  146 70.1447 0.731053 -1.32377
  147 56.2161 2.60468 -11.2419
  148 56.2170 2.60597 11.2450
  149 50.7377 1.35778 1.76858
  150 50.7368 1.35726 -1.76789
  151 106.832 7.65614 0.300120
  152 57.6399 3.39449 3.97206
  153 57.6375 3.39521 -3.97291
  154 61.0455 2.83204 1.25688
  155 61.0444 2.83340 -1.25734
  156 52.8925 3.53308 1.08651
  157 52.8936 3.53168 -1.08603
  158 51.2467 5.13419 -1.34825
  159 51.2447 5.13567 1.34885
  160 71.6151 0.740784 -2.87984
  161 71.6137 0.740204 2.87828
  162 76.8581 -5.26956 -7.23804
  163 76.8491 -5.27021 7.24073
  164 41.8800 5.44081 3.29773
  165 41.8764 5.43857 -3.29920
  166 82.6561 -5.06609 6.13128
  167 82.6670 -5.07201 -6.17867
  168 42.6063 -11.5993 14.8017
  169 42.5986 -11.6002 -14.7976
  170 98.1054 2.24100 1.70430
  171 98.3496 2.61626 -1.88929
  172 52.1400 1.94757 -4.02946
  173 52.1416 1.94826 4.03098
  174 78.8826 3.62810 1.74222
  175 81.1970 0.687102 6.64164
  176 79.5528 0.743252 -6.29828
  177 79.5303 -8.21578 1.74699
  178 79.5548 -8.24605 -1.75396
  179 53.8047 -0.888505 9.45483
  180 53.8022 -0.893294 -9.45612
  181 81.4957 -2.38521 -4.22519
  182 81.5100 -2.52736 4.24080
  183 54.5934 -7.23671 12.8704
  184 54.5881 -7.24489 -12.8735
  185 53.9166 4.93335 -1.51712
  186 53.9190 4.93206 1.51691
  187 115.213 7.87932 4.20274
  188 115.745 7.41615 -4.31943
  189 49.6892 4.78485 -4.22258
  190 49.6880 4.78621 4.22401
  191 58.6693 3.70218 2.18117
  192 58.6674 3.70357 -2.18175
  193 67.1201 -0.906120 6.27437
  194 67.1182 -0.908495 -6.27471
  195 75.7806 2.32230 -3.68716
  196 64.0154 2.01497 4.43511
  197 64.0141 2.01562 -4.43639
  198 20.9368 -11.7355 -8.18890
  199 20.9230 -11.7515 8.18005
  200 91.4388 -2.74541 -2.61072
  201 91.4417 -2.74286 2.60981
  202 56.6162 3.57832 -0.128120
  203 56.6175 3.57669 0.128122
  204 19.5798 -11.1057 -7.24843
  205 19.5763 -11.0922 7.24463
  206 76.6747 -0.433476 -3.06830
  207 76.6724 -0.433718 3.06664
  208 32.4900 4.86322 0.207121
  209 32.4854 4.85947 -0.210454
  210 74.4527 -1.61086 -9.55999
  211 74.4593 -1.60924 9.56460
  212 58.8820 1.36138 -7.14759
  213 58.8862 1.36207 7.15026
  214 52.3334 -9.37934 12.9863
  215 52.2985 -9.39229 -12.9909
  216 51.9021 2.43344 1.26115
  217 51.9023 2.43242 -1.26056
  218 48.1706 5.08670 -9.97372
  219 48.1686 5.08821 9.97597
  220 49.5787 3.88187 5.89854
  221 49.5755 3.88011 -5.89947
  222 64.7449 1.99685 1.14783
  223 64.7445 1.99789 -1.14834
  224 35.2518 3.56405 10.4267
  225 35.2599 3.56502 -10.4285
  226 71.0632 -7.93065 -6.70532
  227 71.0586 -7.91243 6.70136
  228 35.8206 -9.06719 10.7551
  229 35.8343 -9.05961 -10.7681
  230 72.3213 0.421835 -1.75477
  231 72.3196 0.421521 1.75377
  232 82.5658 -1.04897 0.496917
  233 82.5690 -1.05072 -0.496779
  234 54.3272 2.02268 -5.22381
  235 54.3297 2.02345 5.22565
  236 80.3188 3.17770 4.32190
  237 111.360 0.589680 3.89269
  238 111.355 0.615915 -3.90251
  239 93.6324 3.39290 13.2838
  240 93.5398 3.48997 -13.3132
  241 47.5792 6.55179 -1.29170
  242 47.5762 6.55277 1.29202
  243 75.9136 -4.35079 -3.10924
  244 75.9138 -4.33750 3.11487
  245 50.7072 0.747002 -1.95889
  246 50.7091 0.747271 1.95970
  247 128.844 5.65284 -3.61866
  248 76.2151 0.230209 -2.35440
  249 76.2117 0.229821 2.35289
  250 53.0870 4.45208 -0.712892
  251 53.0853 4.45363 0.713300
  252 39.9660 7.12048 -2.37066
  253 39.9615 7.12010 2.36977
  254 89.5111 1.21285 4.58099
  255 89.0691 1.23586 -4.60175
  256 128.287 5.67028 3.52560
  257 53.5677 4.25859 4.42468
  258 53.5648 4.25845 -4.42534
  259 62.4352 1.39087 -5.94319
  260 62.4372 1.39124 5.94215
  261 71.5404 0.408474 0.589045
  262 71.5416 0.408701 -0.589364
  263 125.217 -0.578319 3.62149
  264 124.621 1.45166 -2.76467
  265 87.4684 5.46081 -2.02009
  266 45.9969 1.88363 8.21407
  267 45.9942 1.87947 -8.21547
  268 46.4987 1.77362 -13.6351
  269 46.4932 1.77423 13.6362
  270 68.2194 1.31961 2.46755
  271 68.2198 1.32039 -2.46875
  272 51.3579 2.23394 -3.10356
  273 51.3587 2.23474 3.10479
  274 49.1846 0.401150 0.599631
  275 49.1834 0.400949 -0.599344
  276 44.8280 6.91278 0.0953234
  277 44.8244 6.91277 -0.0956962
  278 82.3241 -1.72290 -1.61981
  279 82.3204 -1.74583 1.62847
  280 12.7872 -15.7181 0.856283
  281 12.7932 -15.6997 -0.863383
  282 59.5341 3.19721 -0.465416
  283 59.5353 3.19567 0.465263
  284 64.4088 2.22325 2.04097
  285 64.4082 2.22437 -2.04184
  286 72.5467 -0.352818 15.1989
  287 72.5086 -0.335705 -15.2121
  288 81.6577 -4.86721 -2.59072
  289 81.6825 -4.91463 2.59061
  290 54.4390 3.52311 -0.265138
  291 54.4379 3.52466 0.265300
  292 72.2534 0.416429 -8.83179
  293 72.2624 0.417503 8.83566
  294 81.6647 -0.424599 1.62043
  295 81.6706 -0.424620 -1.62211
  296 112.765 5.44344 -12.2675
  297 112.560 5.33782 12.1874
  298 51.0425 -7.66092 -9.57535
  299 51.0089 -7.66630 9.55989
  300 78.5067 -0.592822 4.75903
  301 78.5201 -0.317815 -4.67615
  302 51.3078 3.65787 -5.61335
  303 51.3081 3.65903 5.61529
  304 28.9065 -0.720562 7.28958
  305 28.9055 -0.728824 -7.29340
  306 51.6939 3.31082 2.09833
  307 51.6946 3.30957 -2.09746
  308 61.1085 -1.53764 8.01142
  309 61.1064 -1.54214 -8.01211
  310 90.9715 6.65979 1.49482
  311 47.3438 5.53311 -7.09488
  312 47.3418 5.53440 7.09661
  313 88.5916 -1.83190 -0.200994
  314 88.4846 -1.88892 0.157454
  315 57.4746 3.65867 -0.641385
  316 57.4761 3.65708 0.641233
  317 131.498 0.722650 -1.10571
  318 142.548 -0.349993 3.09738
  319 67.6508 0.802621 -7.52629
  320 67.6590 0.803124 7.52935
  321 94.0181 0.607984 -9.02489
  322 94.0047 0.620544 9.01112
  323 68.4415 1.15659 0.614306
  324 68.4420 1.15724 -0.614668
  325 54.9157 3.89947 -0.164783
  326 54.9142 3.90107 0.164954
  327 53.0151 2.98867 -0.556753
  328 53.0145 2.98996 0.557016
  329 71.7554 -0.937543 -4.61802
  330 71.7562 -0.936490 4.61723
  331 103.359 6.85648 -0.911613
  332 62.4305 2.48028 -0.608709
  333 62.4312 2.47900 0.608462
  334 50.7807 1.35006 0.813480
  335 50.7802 1.34946 -0.813169
  336 50.3871 4.89507 -2.69239
  337 50.3855 4.89649 2.69339
  338 73.8719 0.914856 -4.38270
  339 70.8544 -2.20583 -9.92741
  340 70.8147 -2.21983 9.91762
  341 75.3516 0.352543 -1.63280
  342 75.3486 0.352270 1.63176
  343 77.3102 -9.36329 5.10768
  344 77.3226 -9.39286 -5.13167
  345 70.0348 0.888154 3.97510
  346 70.0351 0.888851 -3.97688
  347 67.6549 1.51829 3.54429
  348 67.6548 1.51918 -3.54584
  349 76.6994 -7.38438 2.83319
  350 76.7109 -7.40934 -2.83167
  351 25.6461 -16.8805 9.34164
  352 25.6530 -16.8740 -9.33630
  353 53.2373 4.82510 0.262802
  354 53.2351 4.82657 -0.262677
  355 73.3663 0.106664 0.840722
  356 73.3682 0.106803 -0.841227
  357 42.9830 6.72768 -7.18221
  358 42.9789 6.72870 7.18289
  359 61.2646 -5.72584 -12.1919
  360 61.2546 -5.72548 12.1918
  361 60.6408 3.10544 3.22157
  362 60.6391 3.10657 -3.22248
  363 83.1710 -1.73426 6.04754
  364 83.0159 -1.53346 -6.13665
  365 50.8522 5.55537 0.251047
  366 50.8495 5.55655 -0.250905
  367 44.8859 -7.16146 -13.7714
  368 44.8892 -7.15520 13.7718
  369 70.3663 -3.06117 -5.65643
  370 70.3672 -3.05485 5.65741
  371 104.188 7.09808 0.424690
  372 83.7427 -5.72201 -0.00652757
  373 83.7872 -5.75217 -0.00570662
  374 28.9263 3.86217 5.32641
  375 28.9339 3.86571 -5.33054
  376 58.9775 -4.34208 10.3696
  377 58.9752 -4.34936 -10.3719
  378 95.5008 -2.89150 2.50537
  379 95.4803 -2.89360 -2.50007
  380 73.9550 1.04633 4.63005
  381 69.2019 2.23599 -0.380063
  382 54.8109 -10.5461 13.1738
  383 54.7985 -10.5525 -13.1807
  384 51.7079 4.24321 1.94414
  385 51.7092 4.24178 -1.94332
  386 83.2470 2.44518 -5.03834
  387 59.3168 2.55061 5.17280
  388 59.3144 2.55068 -5.17371
  389 72.2275 -9.66095 9.26732
  390 72.2235 -9.66655 -9.29329
  391 52.4265 0.579296 -2.57009
  392 52.4293 0.579531 2.57111
  393 100.666 5.66007 0.516822
  394 101.266 5.87741 -0.569568
  395 86.2813 -2.97035 6.00181
  396 86.2694 -2.97120 -5.99693
  397 64.5674 -8.88988 10.2391
  398 64.5670 -8.90184 -10.2467
  399 59.9925 -0.389937 -12.9141
  400 59.9909 -0.388868 12.9170
  401 43.5215 5.35586 -10.9132
  402 43.5169 5.35725 10.9144
  403 37.0054 2.97709 6.23282
  404 37.0030 2.97207 -6.23535
  405 69.2207 1.55855 2.27368
  406 53.3449 4.84638 -2.58499
  407 53.3477 4.84553 2.58458
  408 53.2662 1.21439 8.26661
  409 53.2634 1.21111 -8.26757
  410 48.9874 -3.03670 -11.5961
  411 48.9905 -3.03030 11.5947
  412 49.1414 0.507996 1.01337
  413 49.1398 0.507822 -1.01293
  414 56.4781 4.19630 -2.56126
  415 56.4804 4.19511 2.56069
  416 56.1259 4.47235 1.44299
  417 56.1238 4.47383 -1.44326
  418 18.2309 -21.5395 2.63546
  419 18.2406 -21.5129 -2.65314
  420 83.4701 1.51170 6.01296
  421 61.2539 2.94433 2.18664
  422 61.2526 2.94565 -2.18738
  423 51.4357 2.41194 2.40712
  424 51.4357 2.41101 -2.40615
  425 47.6664 6.16369 4.11768
  426 47.6687 6.16238 -4.11659
  427 50.9430 3.18650 -4.35539
  428 50.9430 3.18757 4.35702
  429 72.6875 0.0411446 -4.10352
  430 72.6867 0.0406914 4.10173
  431 52.7359 3.75676 -8.67832
  432 52.7365 3.75793 8.68088
  433 32.4473 -7.18995 -12.2780
  434 32.4453 -7.17999 12.2788
  435 103.446 -1.15997 -0.349946
  436 103.440 -1.17051 0.354032
  437 131.377 4.40254 12.4950
  438 131.802 4.19748 -12.5529
  439 47.1875 5.43669 3.10478
  440 47.1841 5.43604 -3.10550
  441 11.0716 -29.2338 -3.46095
  442 11.0588 -29.2212 3.46295
  443 79.4200 -2.92172 1.04342
  444 79.4163 -2.92874 -1.03826
  445 81.4785 -0.749024 3.22933
  446 81.4651 -0.710179 -3.16403
  447 11.9259 -29.7092 0.312530
  448 11.9385 -29.6698 -0.326054
  449 73.7631 -9.55514 -5.91719
  450 73.7542 -9.53185 5.90551
  451 80.7532 -0.128163 -1.52141
  452 80.7471 -0.128292 1.51995
  453 72.6550 0.545402 -4.36992
  454 81.2141 -3.32358 -2.89182
  455 81.1950 -3.37917 2.91614
  456 63.2469 0.482412 -6.41672
  457 63.2491 0.483793 6.41601
  458 59.4502 0.623345 -3.89418
  459 59.4561 0.623539 3.89571
  460 24.2530 -1.38525 7.41551
  461 24.2627 -1.37874 -7.42172
  462 72.3459 -5.85540 5.36695
  463 72.3499 -5.86956 -5.36572
  464 67.1608 1.69446 1.53482
  465 67.1610 1.69535 -1.53559
  466 49.2021 5.73858 -2.30153
  467 49.1998 5.73995 2.30232
  468 72.6453 0.252031 0.230325
  469 72.6466 0.252127 -0.230439
  470 58.3006 3.73056 -1.43102
  471 58.3022 3.72904 1.43063
  472 47.6700 0.0594201 0.171842
  473 47.6687 0.0593445 -0.171742
  474 49.1214 4.92282 -5.91002
  475 49.1202 4.92408 5.91177
  476 35.2442 -2.69895 -12.4267
  477 35.2330 -2.70402 12.4227
  478 66.6271 0.565936 -2.36155
  479 11.2274 -3.13490 0.0741752
  480 10.8734 -2.41248 -0.529882
  481 10.8346 -2.23974 0.603377
  482 10.8767 -2.70585 -0.0609027
  483 11.3741 -3.54334 -0.682895
  484 10.8112 -2.68247 0.0710516
  485 11.2957 -3.33039 0.782071
  486 10.6457 -2.29088 -0.156502
  487 10.9202 -2.43939 -1.02614
  488 10.8975 -2.94453 -0.0135182
  489 11.6316 -4.16667 0.0629051
  490 10.4455 -1.32218 -0.643044
  491 10.5634 -2.22786 0.160124
  492 10.8754 -2.22981 1.09384
  493 11.1311 -2.98596 -0.279451
  494 10.3901 -1.21963 0.649505
  495 11.0840 -2.84219 0.353074
  496 10.4223 -1.59637 -0.338441
  497 10.4018 -1.38579 0.374094
  498 11.0936 -2.98890 -0.00178959
  499 11.4289 -3.50714 -0.0740812
  500 10.5900 -1.45123 -1.06622
  501 10.6609 -2.49097 0.0103144
  502 11.1849 -3.26941 -1.12169
  503 10.8718 -2.73879 -0.0432725
  504 11.4566 -4.08150 0.692697
  505 10.8619 -2.84175 0.0127411
  506 11.5395 -4.20143 -0.454136
  507 10.6313 -2.37478 0.0142467
  508 11.1224 -2.89520 1.17443
  509 10.9062 -2.60121 -0.285507
  510 11.1333 -2.84729 -0.680129
  511 10.5127 -1.31370 1.06469
  512 11.0502 -2.81086 0.630532
  513 11.3211 -3.20928 0.417801
  514 11.0879 -2.89106 0.146521
  515 10.8703 -2.42776 0.366645
  516 10.7745 -2.06555 -0.751502
  517 10.3839 -1.86117 -0.0491812
  518 10.2113 -0.957362 -0.318042
  519 11.4780 -3.68029 0.262621
  520 10.6528 -2.09678 -0.339899
  521 10.4756 -2.26485 0.0284227
  522 11.0271 -2.59309 -1.28891
  523 11.3255 -3.29106 -0.358038
  524 10.6623 -1.88779 0.780372
  525 10.2648 -0.799816 -0.775193
  526 10.6944 -2.96767 -0.0390266
  527 11.5602 -4.72123 0.288944
  528 10.2206 -0.882630 0.390630
  529 10.2903 -1.60909 0.113246
  530 10.5874 -1.93225 0.366156
  531 10.7733 -1.89323 -1.35028
  532 10.9608 -2.84514 0.0322371
  533 11.0724 -2.94109 -0.134835
  534 10.7148 -1.75419 1.34750
  535 10.7135 -2.46584 -0.109065
  536 11.1911 -2.94308 -0.976606
  537 11.0039 -2.90669 -0.0261241
  538 11.5103 -3.83286 -0.210954
  539 10.3449 -2.04192 -0.0729661
  540 10.6201 -1.89695 -0.552132
  541 10.2184 -0.682215 -0.513993
  542 11.0603 -2.75129 0.939410
  543 10.2252 -0.726104 0.771531
  544 11.2649 -3.16686 -0.100336
  545 11.1479 -2.83355 -0.459997
  546 10.7636 -2.49531 0.176019
  547 10.6988 -2.96974 0.00915007
  548 11.6741 -4.62606 -0.169331
  549 10.7573 -2.67520 0.114931
  550 11.2890 -3.94620 -1.07770
  551 10.2177 -1.32061 -0.0922828
  552 10.6006 -2.57350 -0.103281
  553 11.1964 -3.52261 1.17072
  554 10.5471 -1.74689 0.565699
  555 10.9780 -2.30974 1.36589
  556 10.9698 -2.62645 0.497953
  557 11.2595 -3.10383 0.245934
  558 10.9295 -2.66709 0.237709
  559 10.1866 -0.642138 0.522844
  560 10.1856 -1.06690 0.234644
  561 10.9624 -2.34567 0.813058
  562 11.3001 -3.38124 0.149024
  563 10.1668 -0.498126 0.392989
  564 10.5211 -3.01003 -0.00838831
  565 10.1975 -0.515128 -0.358370
  566 11.6327 -4.95422 0.0794362
  567 10.0971 -0.792503 0.291754
  568 10.0835 -1.14108 0.117563
  569 10.1650 -1.67498 -0.0901844
  570 10.1179 -2.09452 -0.219672
  571 10.3707 -2.37129 -0.169380
  572 10.7334 -2.61908 -0.159138
  573 10.7767 -2.82930 -0.0534887
  574 10.8178 -2.77817 0.0668717
  575 10.7856 -2.68678 0.250001
  576 10.3928 -2.51187 0.169516
  577 10.1986 -2.06536 0.158620
  578 10.1293 -1.56143 0.0639410
  579 10.0357 -1.11154 -0.111508
  580 10.0964 -0.688513 -0.278167
  581 10.1375 -0.456217 -0.571795
  582 10.3269 -0.741525 -0.976185
  583 10.4709 -1.50598 -1.36469
  584 10.8320 -2.11789 -1.48360
  585 10.9867 -3.30291 -1.37393
  586 11.1333 -4.09302 -1.33445
  587 11.6653 -4.32942 -0.655592
  588 11.5265 -4.60008 0.688344
  589 11.1671 -3.98912 1.22029
  590 11.0268 -3.00297 1.42003
  591 10.8270 -1.96248 1.49017
  592 10.4228 -1.40952 1.35500
  593 10.2689 -0.694790 0.971798
  594 10.0899 -0.440366 0.576793
</Section>

newXOutput 4

<Section columns = "stress_xx | stress_yy | stress_xy">
  1 68.8822 0.464858 -0.480586
  2 68.8838 0.464965 0.480696
  3 109.328 0.100555 -0.0809841
  4 109.326 0.100423 0.0808486
  5 10.2970 -65.3348 3.10004
  6 223.357 5.62589 -0.0547137
  7 10.2907 -65.3683 -3.10392
  8 252.704 1.38442 -2.04398
  9 69.8504 0.317917 -0.425781
  10 71.5194 0.542284 -1.15646
  11 75.2649 0.792657 -2.40469
  12 80.9790 0.463954 -4.34845
  13 89.9696 0.316909 -4.56929
  14 99.0381 1.15257 -7.16239
  15 114.933 0.150595 -8.90158
  16 130.663 -0.638203 -8.55074
  17 152.034 -3.26585 -3.73378
  18 155.786 -2.95197 0.231222
  19 155.956 -0.848271 4.34871
  20 155.514 2.04632 3.60398
  21 155.924 4.09315 0.703662
  22 164.219 -0.481918 -1.97024
  23 155.126 1.15419 -4.24759
  24 156.044 -0.834344 -4.28598
  25 155.826 -2.93655 -0.209759
  26 152.063 -3.26316 3.73952
  27 130.682 -0.637513 8.55341
  28 114.949 0.150636 8.90395
  29 99.0491 1.15272 7.16431
  30 89.9787 0.316785 4.57067
  31 80.9848 0.463956 4.34987
  32 75.2689 0.792852 2.40555
  33 71.5219 0.542414 1.15702
  34 69.8523 0.318038 0.426042
  35 72.4102 0.567879 0.634754
  36 75.0632 2.04765 0.928499
  37 76.8544 3.37976 0.927379
  38 79.5782 4.53637 0.550437
  39 82.5343 5.15860 0.220765
  40 86.2942 4.95807 -0.0914898
  41 90.5867 4.11001 -0.222219
  42 97.1154 2.71698 -0.551778
  43 101.818 1.68085 -0.0821226
  44 105.524 0.970817 -0.314580
  45 109.335 0.0203296 -0.655426
  46 111.747 -0.201103 -0.840083
  47 112.466 0.286297 -1.50476
  48 116.158 0.0689098 -1.94348
  49 121.497 -0.585535 -1.67623
  50 125.220 -0.616832 -1.78850
  51 127.270 -0.821499 -0.995669
  52 127.716 -1.20577 0.560365
  53 124.532 -1.40995 3.06905
  54 118.374 -0.508417 4.41332
  55 107.429 0.443232 4.95874
  56 96.8967 1.86149 3.73426
  57 91.4966 2.12639 1.70906
  58 90.5417 2.36317 -2.05223
  59 97.9108 1.33998 -3.70832
  60 107.144 0.270639 -4.15791
  61 118.502 -0.406512 -4.15546
  62 124.571 -1.36156 -3.00552
  63 127.695 -1.19248 -0.559005
  64 127.249 -0.821234 0.991382
  65 125.204 -0.617016 1.78520
  66 121.486 -0.585473 1.67423
  67 116.152 0.0686588 1.94186
  68 112.462 0.285996 1.50368
  69 111.744 -0.201163 0.839525
  70 109.333 0.0202492 0.655103
  71 105.523 0.970374 0.314344
  72 101.817 1.67991 0.0819084
  73 97.1156 2.71546 0.551462
  74 90.5880 4.10791 0.222077
  75 86.2958 4.95569 0.0914438
  76 82.5359 5.15627 -0.220680
  77 79.5794 4.53441 -0.550260
  78 76.8545 3.37839 -0.927039
  79 75.0624 2.04680 -0.928292
  80 72.4089 0.567499 -0.634550
  81 21.1313 -51.3608 1.05826
  82 50.7581 -17.5658 13.2146
  83 91.2662 6.12972 28.9128
  84 130.749 14.4417 35.2900
  85 168.105 13.8770 36.3621
  86 206.452 7.65419 32.4204
  87 224.038 3.77785 15.9950
  88 224.553 3.56580 -16.2574
  89 206.789 7.54729 -32.4163
  90 167.912 13.8428 -36.1728
  91 130.625 14.4974 -35.2194
  92 91.1842 6.07824 -28.8957
  93 50.7220 -17.5642 -13.2176
  94 21.1329 -51.3525 -1.05225
  95 15.4024 -57.0244 -5.08179
  96 40.4593 -25.7491 6.46550
  97 77.2399 -4.32811 16.8097
  98 124.858 7.88342 24.3632
  99 170.983 8.31275 23.3225
  100 209.638 3.88471 20.8078
  101 244.059 1.67321 15.9352
  102 238.030 1.04395 -13.6996
  103 210.137 5.01237 -20.1894
  104 171.036 8.31518 -23.3340
  105 124.889 7.86478 -24.3822
  106 77.2597 -4.33431 -16.8323
  107 40.4769 -25.7278 -6.48604
  108 15.4135 -56.9837 5.06412
  109 73.0448 9.08696 -2.74779
  110 73.0496 9.08548 2.74823
  111 99.3678 -7.96100 12.0060
  112 99.3655 -7.97398 -12.0086
  113 53.5327 9.79229 9.95869
  114 53.5388 9.79281 -9.95761
  115 95.8916 3.42993 4.48278
  116 95.8902 3.43193 -4.48463
  117 75.1185 5.38662 4.70368
  118 75.1191 5.38503 -4.70185
  119 127.800 -4.55560 5.52490
  120 127.851 -4.47818 -5.60548
  121 58.1161 -1.24707 16.6580
  122 58.1093 -1.25366 -16.6599
  123 137.593 7.01586 -4.95544
  124 137.166 6.65614 5.20084
  125 82.1927 6.43281 0.800463
  126 82.1901 6.43535 -0.800309
  127 100.625 0.808224 -8.03264
  128 100.627 0.807368 8.03001
  129 71.4002 -3.68008 22.6259
  130 71.4035 -3.67913 -22.6240
  131 100.583 -16.3575 15.8220
  132 100.575 -16.3787 -15.8463
  133 75.1889 6.30038 -10.5546
  134 75.1897 6.30161 10.5577
  135 118.969 -5.74236 0.554666
  136 118.973 -5.70499 -0.542289
  137 85.6904 2.92815 9.87647
  138 85.6851 2.92767 -9.87752
  139 31.2874 0.0596998 0.0379105
  140 31.2955 0.0670614 -0.0412023
  141 65.4873 10.7050 -5.52110
  142 65.4833 10.7063 5.52303
  143 114.445 -2.88218 -4.60293
  144 114.446 -2.87958 4.60189
  145 104.390 1.08476 1.96916
  146 104.392 1.08553 -1.97033
  147 83.1051 4.04045 -17.1691
  148 83.1086 4.04103 17.1730
  149 74.7543 2.04057 2.65327
  150 74.7530 2.03987 -2.65229
  151 159.684 10.5925 0.433451
  152 85.6018 5.13065 6.00840
  153 85.5979 5.13260 -6.00955
  154 90.6877 4.23114 1.88511
  155 90.6862 4.23330 -1.88577
  156 78.2344 5.30219 1.62373
  157 78.2358 5.30016 -1.62293
  158 75.7902 7.76948 -2.00623
  159 75.7875 7.77174 2.00746
  160 106.601 1.10520 -4.29621
  161 106.599 1.10409 4.29358
  162 115.598 -7.82491 -11.3782
  163 115.597 -7.81448 11.3766
  164 61.6126 8.52517 5.14624
  165 61.6064 8.52388 -5.14649
  166 123.858 -6.62234 9.68427
  167 123.861 -6.64436 -9.75759
  168 63.4608 -16.8837 23.2348
  169 63.4472 -16.8865 -23.2366
  170 146.702 3.38477 3.36573
  171 147.060 3.91371 -3.62606
  172 76.8500 2.95029 -6.06610
  173 76.8522 2.95110 6.06814
  174 118.386 5.15555 2.46835
  175 121.418 1.06888 9.42400
  176 119.011 1.13733 -8.95059
  177 118.833 -11.8175 2.82168
  178 118.862 -11.8629 -2.83512
  179 80.0119 -1.17868 14.4820
  180 80.0059 -1.18363 -14.4838
  181 121.582 -3.41285 -6.08488
  182 121.607 -3.62181 6.10481
  183 81.4644 -10.6461 19.8046
  184 81.4556 -10.6566 -19.8099
  185 79.9225 7.46175 -2.31527
  186 79.9262 7.45939 2.31533
  187 172.014 10.8968 6.69909
  188 172.786 10.2431 -6.87610
  189 73.3117 7.27751 -6.35129
  190 73.3105 7.27923 6.35364
  191 87.1181 5.56217 3.28818
  192 87.1153 5.56464 -3.28895
  193 99.9916 -1.33026 9.46925
  194 99.9876 -1.33213 -9.47073
  195 113.706 3.31686 -5.23797
  196 95.2230 3.03229 6.67049
  197 95.2206 3.03408 -6.67269
  198 28.9257 -16.9331 -13.4596
  199 28.9125 -16.9456 13.4544
  200 137.617 -3.77864 -4.29094
  201 137.612 -3.75732 4.29539
  202 83.9524 5.34734 -0.195496
  203 83.9543 5.34490 0.195539
  204 26.9578 -15.7133 -11.7163
  205 26.9631 -15.7016 11.7140
  206 114.201 -0.650006 -4.57719
  207 114.197 -0.650927 4.57359
  208 47.0511 7.92916 0.419303
  209 47.0441 7.92633 -0.420298
  210 110.953 -2.48717 -14.6232
  211 110.964 -2.48654 14.6267
  212 87.0093 2.07866 -10.8358
  213 87.0153 2.07911 10.8388
  214 79.1047 -12.9944 20.5538
  215 79.0709 -13.0088 -20.5677
  216 76.6364 3.64647 1.88300
  217 76.6366 3.64505 -1.88213
  218 70.9273 7.86640 -15.1848
  219 70.9266 7.86749 15.1885
  220 73.4383 6.01468 9.04897
  221 73.4324 6.01387 -9.04956
  222 96.2671 2.97747 1.71622
  223 96.2666 2.97911 -1.71699
  224 51.1707 5.91298 16.1708
  225 51.1774 5.91401 -16.1697
  226 106.171 -11.6785 -10.1973
  227 106.168 -11.6536 10.1908
  228 52.5355 -13.3277 17.5241
  229 52.5465 -13.3205 -17.5302
  230 107.656 0.627440 -2.61313
  231 107.653 0.626895 2.61152
  232 122.983 -1.54656 0.746629
  233 122.991 -1.54862 -0.748295
  234 80.1250 3.08085 -7.89588
  235 80.1287 3.08157 7.89821
  236 120.415 4.53299 6.09366
  237 167.832 1.07422 6.72129
  238 167.878 1.13053 -6.74514
  239 140.520 5.42464 20.5697
  240 140.357 5.53510 -20.6055
  241 70.2443 10.0171 -1.90117
  242 70.2403 10.0188 1.90258
  243 113.244 -6.40332 -4.72135
  244 113.246 -6.38539 4.72716
  245 74.6259 1.12720 -2.93839
  246 74.6284 1.12753 2.93948
  247 191.885 7.34702 -5.51437
  248 113.480 0.342583 -3.50564
  249 113.475 0.341775 3.50291
  250 78.5843 6.70401 -1.05542
  251 78.5820 6.70638 1.05623
  252 58.5768 11.1084 -3.54141
  253 58.5712 11.1085 3.54239
  254 133.824 1.85771 6.18324
  255 133.161 1.89464 -6.21326
  256 191.059 7.39210 5.37266
  257 79.4547 6.50188 6.74909
  258 79.4496 6.50290 -6.74957
  259 92.8826 2.11182 -8.97433
  260 92.8864 2.11101 8.97241
  261 106.496 0.608047 0.877499
  262 106.498 0.608397 -0.877986
  263 188.368 -1.23073 6.07369
  264 187.476 1.70969 -4.81507
  265 131.077 7.72687 -2.82773
  266 68.0387 3.10292 12.6707
  267 68.0323 3.09929 -12.6720
  268 68.4238 2.91225 -21.0642
  269 68.4216 2.91214 21.0675
  270 101.503 1.96693 3.68461
  271 101.504 1.96831 -3.68656
  272 75.7211 3.37262 -4.66038
  273 75.7222 3.37365 4.66209
  274 72.3484 0.597035 0.893823
  275 72.3468 0.596766 -0.893427
  276 66.0873 10.6579 0.224266
  277 66.0821 10.6588 -0.223363
  278 122.695 -2.51149 -2.34129
  279 122.694 -2.54553 2.35155
  280 15.6277 -22.6382 1.52340
  281 15.6360 -22.6226 -1.52781
  282 88.3908 4.77219 -0.699099
  283 88.3924 4.76984 0.698894
  284 95.7689 3.32172 3.05369
  285 95.7681 3.32357 -3.05504
  286 110.024 0.750458 23.6866
  287 109.952 0.757894 -23.6950
  288 121.880 -6.94945 -3.61177
  289 121.913 -7.02276 3.60873
  290 80.6062 5.27008 -0.392938
  291 80.6048 5.27234 0.393215
  292 107.349 0.632574 -13.4579
  293 107.360 0.632866 13.4611
  294 121.609 -0.630234 2.40407
  295 121.620 -0.629862 -2.40775
  296 168.400 7.46436 -18.7706
  297 168.144 7.29238 18.6721
  298 76.8561 -11.0862 -15.8692
  299 76.8439 -11.0853 15.8558
  300 117.280 -0.820842 6.83714
  301 117.280 -0.424073 -6.72975
  302 75.6617 5.56535 -8.46641
  303 75.6627 5.56668 8.46916
  304 41.6015 -0.390939 11.5152
  305 41.5950 -0.397889 -11.5176
  306 76.3568 4.98093 3.14283
  307 76.3575 4.97919 -3.14150
  308 91.0034 -2.23601 12.1737
  309 90.9985 -2.24069 -12.1751
  310 136.262 9.41498 2.00852
  311 69.7144 8.50416 -10.7475
  312 69.7128 8.50550 10.7506
  313 132.423 -2.27304 -0.970893
  314 132.270 -2.33374 0.904644
  315 85.2751 5.47699 -0.967868
  316 85.2772 5.47452 0.967715
  317 197.761 0.505629 -1.86500
  318 213.483 -1.18205 4.78417
  319 100.254 1.23750 -11.4339
  320 100.264 1.23769 11.4368
  321 142.844 1.74113 -14.6117
  322 142.806 1.76062 14.6027
  323 101.830 1.72104 0.911798
  324 101.831 1.72204 -0.912362
  325 81.3656 5.84520 -0.238592
  326 81.3636 5.84761 0.238946
  327 78.3889 4.47172 -0.830914
  328 78.3881 4.47356 0.831322
  329 106.906 -1.39465 -6.93089
  330 106.908 -1.39431 6.92842
  331 154.576 9.51522 -0.990169
  332 92.7727 3.69567 -0.911110
  333 92.7738 3.69369 0.910748
  334 74.8513 2.01861 1.22098
  335 74.8505 2.01778 -1.22054
  336 74.4277 7.42017 -4.03488
  337 74.4258 7.42216 4.03664
  338 110.752 1.31869 -6.24032
  339 107.860 -2.50588 -16.2048
  340 107.840 -2.48867 16.1911
  341 112.187 0.527524 -2.42735
  342 112.183 0.527034 2.42560
  343 115.760 -13.3330 7.89990
  344 115.768 -13.3784 -7.93742
  345 104.255 1.32802 5.94637
  346 104.255 1.32961 -5.94955
  347 100.672 2.27051 5.30330
  348 100.671 2.27229 -5.30591
  349 114.519 -10.7893 4.37446
  350 114.532 -10.8248 -4.37461
  351 37.1355 -24.2633 15.4650
  352 37.1280 -24.2586 -15.4650
  353 78.8581 7.28313 0.420074
  354 78.8550 7.28556 -0.419563
  355 109.233 0.152937 1.24890
  356 109.236 0.153175 -1.24968
  357 63.1007 10.4463 -10.9214
  358 63.0971 10.4473 10.9239
  359 91.4912 -8.65979 -19.0211
  360 91.4914 -8.65949 19.0218
  361 90.1129 4.66772 4.85180
  362 90.1102 4.66999 -4.85316
  363 124.193 -2.42090 8.59291
  364 123.969 -2.12369 -8.72691
  365 75.2468 8.43613 0.419120
  366 75.2429 8.43826 -0.418345
  367 66.6525 -10.4188 -21.4126
  368 66.6609 -10.4113 21.4102
  369 104.928 -4.53147 -8.54739
  370 104.931 -4.52411 8.54738
  371 155.785 9.85957 0.258873
  372 125.116 -7.94356 0.391705
  373 125.175 -7.99585 -0.413356
  374 41.4341 6.58085 8.26648
  375 41.4422 6.58386 -8.26747
  376 87.9498 -6.36357 15.8619
  377 87.9442 -6.37229 -15.8653
  378 142.882 -4.33874 3.82794
  379 142.864 -4.34740 -3.82201
  380 110.810 1.52577 6.61109
  381 104.081 3.20060 -0.526511
  382 82.1196 -15.4752 20.3556
  383 82.1044 -15.4852 -20.3660
  384 76.4357 6.40245 2.90718
  385 76.4373 6.40041 -2.90580
  386 124.682 3.52227 -7.05896
  387 88.1708 3.86954 7.83148
  388 88.1665 3.87081 -7.83285
  389 108.679 -13.5309 14.2926
  390 108.664 -13.5407 -14.3301
  391 77.1846 0.874832 -3.86527
  392 77.1884 0.875084 3.86659
  393 150.526 8.01477 1.41896
  394 151.401 8.32382 -1.49228
  395 128.967 -4.52922 9.16997
  396 128.952 -4.53197 -9.16677
  397 96.5654 -13.0958 15.6437
  398 96.5616 -13.1121 -15.6540
  399 89.0779 -0.521606 -19.8832
  400 89.0814 -0.521705 19.8869
  401 63.8556 8.38327 -16.7239
  402 63.8525 8.38419 16.7270
  403 54.1704 4.94417 9.73640
  404 54.1639 4.94005 -9.73781
  405 104.037 2.23824 3.23904
  406 79.0802 7.35443 -3.94050
  407 79.0845 7.35243 3.94033
  408 79.0965 1.95903 12.6375
  409 79.0906 1.95624 -12.6386
  410 72.7597 -4.31895 -17.8722
  411 72.7670 -4.31179 17.8696
  412 72.2440 0.765308 1.51531
  413 72.2419 0.765073 -1.51470
  414 83.8194 6.33196 -3.87510
  415 83.8230 6.32960 3.87445
  416 83.2609 6.73631 2.18824
  417 83.2578 6.73884 -2.18843
  418 24.8622 -31.7404 5.54729
  419 24.8767 -31.7154 -5.56133
  420 124.961 2.16211 8.45600
  421 91.0171 4.41011 3.28375
  422 91.0152 4.41237 -3.28485
  423 75.9033 3.62802 3.60938
  424 75.9031 3.62678 -3.60798
  425 70.2830 9.42677 6.19641
  426 70.2855 9.42504 -6.19412
  427 75.1368 4.82812 -6.55130
  428 75.1372 4.82944 6.55363
  429 108.244 0.0576974 -6.13753
  430 108.242 0.0563167 6.13399
  431 77.8001 5.77292 -13.1775
  432 77.8022 5.77388 13.1809
  433 47.4531 -10.1493 -19.3910
  434 47.4596 -10.1401 19.3898
  435 155.229 -1.27176 0.00259482
  436 155.232 -1.29368 0.0213385
  437 195.511 5.46155 18.7628
  438 196.189 5.22244 -18.8925
  439 69.7403 8.36096 4.79448
  440 69.7346 8.36137 -4.79439
  441 12.9794 -43.1048 -6.12947
  442 12.9785 -43.0885 6.13312
  443 118.397 -4.30179 1.60144
  444 118.392 -4.31127 -1.59668
  445 121.479 -1.07448 4.69069
  446 121.450 -1.01754 -4.59663
  447 14.2129 -44.1956 1.53331
  448 14.2235 -44.1673 -1.54301
  449 110.338 -13.9238 -9.03988
  450 110.331 -13.8913 9.02220
  451 120.236 -0.192268 -2.25511
  452 120.226 -0.192635 2.25232
  453 108.810 0.805717 -6.26998
  454 121.147 -4.78307 -4.16437
  455 121.120 -4.86607 4.19583
  456 94.1578 0.763209 -9.70179
  457 94.1623 0.763741 9.70021
  458 87.7448 0.956166 -5.88467
  459 87.7524 0.956288 5.88639
  460 34.0358 -1.20573 11.7414
  461 34.0456 -1.20005 -11.7439
  462 107.984 -8.64462 8.14805
  463 107.987 -8.66325 -8.14780
  464 99.9067 2.52800 2.28869
  465 99.9070 2.52944 -2.28990
  466 72.6691 8.72881 -3.44056
  467 72.6662 8.73085 3.44225
  468 108.169 0.378543 0.343994
  469 108.171 0.378680 -0.344161
  470 86.5438 5.59578 -2.15611
  471 86.5462 5.59329 2.15561
  472 70.0190 0.0834348 0.254321
  473 70.0175 0.0833350 -0.254183
  474 72.4119 7.52129 -8.92369
  475 72.4111 7.52277 8.92653
  476 51.2373 -3.57400 -19.5846
  477 51.2289 -3.57813 19.5844
  478 100.211 0.799529 -3.36837
  479 14.0650 -4.86086 0.0675150
  480 12.9244 -4.11719 -0.522467
  481 12.7560 -3.93463 0.644068
  482 14.3649 -4.71351 0.389626
  483 14.5827 -5.65666 -1.41290
  484 14.2501 -4.66738 -0.435501
  485 14.3120 -5.37825 1.55561
  486 13.4280 -4.23920 0.680690
  487 12.9413 -4.39849 -2.05710
  488 14.8746 -5.07641 -0.0577122
  489 15.7730 -6.60435 0.139632
  490 11.4005 -3.20871 -0.764747
  491 13.2808 -4.23146 -0.739074
  492 12.8486 -4.15273 2.22034
  493 13.7849 -4.65276 -0.258187
  494 11.2166 -3.10337 0.824563
  495 13.6670 -4.53417 0.308520
  496 11.9573 -3.57583 0.330070
  497 11.6503 -3.28236 -0.188372
  498 14.1975 -4.85968 -0.0242467
  499 14.3790 -5.35731 -0.110598
  500 11.8621 -3.31312 -2.08130
  501 14.6349 -4.76847 0.776551
  502 14.5693 -5.51744 -2.53464
  503 15.1312 -5.06215 -0.422743
  504 15.6848 -6.71356 1.45434
  505 14.9502 -5.16994 0.274271
  506 15.7012 -6.83438 -0.968594
  507 14.2924 -4.61180 -0.915342
  508 13.9937 -5.10301 2.64667
  509 13.5775 -4.34570 0.0319237
  510 13.5508 -4.60702 -1.09770
  511 11.6708 -3.17081 2.08369
  512 13.3444 -4.56989 0.956227
  513 14.0878 -4.96751 0.632814
  514 14.0579 -4.63128 -0.0116751
  515 13.2848 -4.22636 -0.00177548
  516 12.4361 -3.80426 -1.17181
  517 13.0122 -4.00880 1.23408
  518 10.9526 -3.09618 0.411103
  519 14.6948 -5.70470 0.531469
  520 12.7641 -3.96521 0.198211
  521 14.2736 -4.52899 1.12828
  522 13.6146 -4.73218 -3.01702
  523 14.1166 -5.07145 -0.559461
  524 12.1003 -3.65486 1.23811
  525 10.8139 -2.91161 -1.42390
  526 15.1054 -5.47561 -0.175592
  527 16.2539 -7.82282 0.589071
  528 10.7061 -2.96987 -0.0481907
  529 12.2690 -3.74464 -1.08028
  530 12.4540 -3.75545 -0.160584
  531 12.6128 -3.78613 -3.07331
  532 14.4253 -4.82672 -0.239450
  533 14.0296 -4.72220 0.0173281
  534 12.3988 -3.60327 3.05410
  535 14.1563 -4.33637 0.584744
  536 14.0141 -4.81336 -1.93032
  537 14.4951 -4.90445 0.174338
  538 14.8483 -6.00884 -0.423738
  539 13.8487 -4.40907 -1.46055
  540 12.2314 -3.69104 -0.446205
  541 10.5312 -2.78557 -0.638056
  542 13.4244 -4.62588 1.76928
  543 10.6978 -2.83581 1.44200
  544 14.0809 -4.89229 -0.101530
  545 13.5812 -4.49702 -0.516550
  546 13.7229 -4.40919 -0.447638
  547 15.1058 -5.45307 0.0464833
  548 16.4740 -7.59388 -0.301159
  549 15.3605 -5.00471 0.601073
  550 15.7892 -6.61776 -2.28909
  551 12.0026 -3.44064 1.28459
  552 15.0037 -4.91569 -0.767960
  553 15.0740 -6.05106 2.60993
  554 11.9379 -3.52735 0.485119
  555 13.2870 -4.39520 3.23739
  556 13.2047 -4.36000 0.483335
  557 13.9869 -4.79384 0.280179
  558 13.7053 -4.47062 -0.0932129
  559 10.4527 -2.73865 0.725357
  560 11.2597 -3.20993 -0.785021
  561 13.0036 -4.06213 1.34408
  562 14.0920 -5.17074 0.226938
  563 10.2247 -2.78455 0.276041
  564 15.1377 -5.59399 -0.0580791
  565 10.3988 -2.79693 -0.172342
  566 16.8548 -8.23425 0.193064
  567 10.5575 -3.16332 -0.602701
  568 11.4755 -3.51301 -1.34844
  569 12.6411 -4.22295 -1.77599
  570 14.1591 -4.62339 -1.82818
  571 15.0850 -4.73659 -1.14928
  572 15.6426 -5.06634 -0.645512
  573 15.6104 -5.30874 -0.305564
  574 15.5612 -5.27109 0.293176
  575 15.9906 -5.12439 0.662737
  576 15.0863 -5.02893 0.997079
  577 14.1285 -4.54818 1.63835
  578 12.3236 -4.02382 1.86479
  579 11.0517 -3.47786 1.27634
  580 10.5152 -3.10316 0.609291
  581 10.3495 -2.73525 -1.13736
  582 10.9842 -2.81468 -2.05689
  583 11.6146 -3.42524 -3.02711
  584 12.8332 -4.20217 -3.68348
  585 14.5917 -5.97773 -3.26164
  586 16.3654 -7.05627 -2.70225
  587 16.8594 -7.23758 -1.30022
  588 16.8461 -7.64914 1.37286
  589 15.7845 -6.89527 2.58433
  590 14.3568 -5.41715 3.37483
  591 12.7503 -3.82453 3.58871
  592 11.5018 -3.27015 2.94777
  593 10.8853 -2.76192 2.03523
  594 10.2924 -2.71025 1.14982
</Section>

newXOutput 5

<Section columns = "stress_xx | stress_yy | stress_xy">
  1 89.2896 0.629447 -0.650833
  2 89.2897 0.629429 0.650814
  3 144.665 0.128240 -0.101179
  4 144.665 0.128246 0.101187
  5 10.2836 -86.3423 4.02480
  6 295.051 5.16361 -0.0589577
  7 10.2794 -86.3522 -4.03354
  8 335.405 0.0999596 -2.59834
  9 90.5947 0.424335 -0.556455
  10 92.8221 0.732159 -1.52886
  11 97.8102 1.06924 -3.21218
  12 105.483 0.637234 -5.82442
  13 117.467 0.453428 -6.13190
  14 129.765 1.58622 -9.65664
  15 151.233 0.242872 -12.0649
  16 172.778 -0.820448 -11.7225
  17 202.078 -4.38755 -5.29050
  18 207.817 -4.00093 0.0103877
  19 208.846 -0.901466 5.46131
  20 209.918 3.04477 3.84772
  21 211.940 5.06374 0.0897769
  22 222.752 -1.09972 -1.96800
  23 209.483 1.86627 -4.67511
  24 208.982 -0.884228 -5.35477
  25 207.873 -3.97547 0.0274921
  26 202.110 -4.38260 5.30363
  27 172.789 -0.818186 11.7285
  28 151.238 0.243853 12.0678
  29 129.767 1.58677 9.65770
  30 117.467 0.453507 6.13227
  31 105.483 0.637341 5.82456
  32 97.8101 1.06927 3.21215
  33 92.8221 0.732156 1.52881
  34 90.5948 0.424322 0.556428
  35 94.1743 0.738977 0.852616
  36 97.8767 2.72728 1.25823
  37 100.428 4.50861 1.24364
  38 104.267 6.04418 0.743974
  39 108.355 6.87744 0.300885
  40 113.500 6.60995 -0.116494
  41 119.334 5.47910 -0.289847
  42 128.159 3.61619 -0.731325
  43 134.507 2.23785 -0.0950778
  44 139.518 1.30141 -0.414442
  45 144.663 0.0218664 -0.877277
  46 147.892 -0.279634 -1.11639
  47 148.827 0.381482 -2.00276
  48 153.765 0.0921892 -2.59507
  49 160.897 -0.789865 -2.23851
  50 165.883 -0.831278 -2.39277
  51 168.652 -1.10212 -1.33564
  52 169.291 -1.61022 0.735426
  53 165.087 -1.86213 4.05657
  54 156.965 -0.626728 5.81536
  55 142.688 0.638275 6.45829
  56 129.060 2.47413 4.81448
  57 122.197 2.77618 2.19883
  58 120.913 3.08882 -2.65252
  59 130.392 1.78966 -4.74564
  60 142.310 0.405537 -5.40044
  61 157.155 -0.501841 -5.48310
  62 165.168 -1.80112 -3.97490
  63 169.291 -1.59407 -0.731837
  64 168.648 -1.10218 1.33288
  65 165.881 -0.831695 2.39125
  66 160.896 -0.789910 2.23814
  67 153.765 0.0920836 2.59490
  68 148.827 0.381458 2.00274
  69 147.892 -0.279608 1.11639
  70 144.663 0.0218719 0.877267
  71 139.518 1.30140 0.414459
  72 134.507 2.23788 0.0951136
  73 128.159 3.61630 0.731373
  74 119.334 5.47930 0.289884
  75 113.500 6.61023 0.116516
  76 108.355 6.87775 -0.300892
  77 104.267 6.04443 -0.744001
  78 100.428 4.50879 -1.24369
  79 97.8767 2.72739 -1.25827
  80 94.1743 0.739015 -0.852645
  81 24.7773 -67.7096 1.89318
  82 64.8516 -22.6271 18.7676
  83 120.601 9.24448 40.4201
  84 176.000 21.1788 49.2871
  85 227.186 19.7997 50.5482
  86 276.141 9.19897 43.9345
  87 296.939 3.09682 21.2692
  88 297.462 2.69845 -21.5657
  89 276.516 8.90733 -43.9490
  90 227.012 19.8009 -50.3318
  91 175.907 21.2832 -49.2357
  92 120.554 9.28827 -40.4332
  93 64.8562 -22.5738 -18.7847
  94 24.7913 -67.6728 -1.89963
  95 16.9589 -75.5204 -6.15557
  96 50.6502 -33.9848 9.74848
  97 100.635 -5.60488 24.0649
  98 166.464 11.1959 34.5854
  99 230.817 12.5242 33.5578
  100 284.320 5.80215 30.0348
  101 327.116 1.41481 21.8079
  102 319.507 0.577489 -19.0078
  103 285.074 7.37179 -29.2520
  104 230.995 12.4804 -33.5665
  105 166.558 11.1926 -34.6387
  106 100.703 -5.59087 -24.1057
  107 50.6896 -33.9594 -9.77615
  108 16.9759 -75.4860 6.13428
  109 95.6466 12.3672 -3.70329
  110 95.6451 12.3694 3.70213
  111 131.287 -10.5097 16.4077
  112 131.296 -10.5231 -16.4043
  113 69.0997 13.6625 13.5169
  114 69.1048 13.6594 -13.5226
  115 126.523 4.61554 6.00427
  116 126.523 4.61511 -6.00367
  117 98.1268 7.24155 6.29943
  118 98.1269 7.24166 -6.29983
  119 169.889 -5.61286 6.94801
  120 169.961 -5.52850 -7.06864
  121 75.3753 -1.03689 22.6205
  122 75.3861 -1.04063 -22.6285
  123 183.425 9.08357 -5.77882
  124 182.825 8.56860 6.10641
  125 107.956 8.63397 1.07371
  126 107.956 8.63333 -1.07372
  127 132.921 1.14550 -10.8218
  128 132.923 1.14701 10.8245
  129 92.9004 -4.39732 31.0379
  130 92.9170 -4.40475 -31.0372
  131 133.051 -21.6514 22.0099
  132 133.065 -21.6499 -22.0371
  133 98.1056 8.55280 -14.2039
  134 98.1045 8.55370 14.2035
  135 157.809 -7.62185 0.585544
  136 157.824 -7.57979 -0.566368
  137 112.774 4.10123 13.3456
  138 112.777 4.09707 -13.3440
  139 39.0239 1.00082 0.120858
  140 39.0264 0.999481 -0.133716
  141 85.3010 14.6079 -7.45195
  142 85.3003 14.6083 7.44933
  143 151.562 -3.83506 -6.24894
  144 151.569 -3.83287 6.25434
  145 137.976 1.44635 2.62534
  146 137.975 1.44633 -2.62524
  147 108.698 5.63668 -23.2798
  148 108.695 5.64004 23.2816
  149 97.4044 2.73055 3.54797
  150 97.4044 2.73062 -3.54810
  151 212.978 12.6513 0.569070
  152 112.642 6.96410 8.07911
  153 112.643 6.96238 -8.07836
  154 119.478 5.65757 2.52094
  155 119.478 5.65726 -2.52076
  156 102.452 7.09240 2.17227
  157 102.452 7.09272 -2.17243
  158 99.2330 10.4715 -2.69193
  159 99.2333 10.4708 2.69141
  160 140.938 1.48964 -5.74800
  161 140.939 1.48957 5.74828
  162 153.174 -10.4855 -16.2861
  163 153.155 -10.4710 16.2919
  164 80.1757 11.8357 6.94375
  165 80.1790 11.8328 -6.94834
  166 164.985 -8.22913 13.6955
  167 165.013 -8.21596 -13.8043
  168 82.4023 -21.8667 31.9498
  169 82.4165 -21.8537 -31.9596
  170 195.672 5.30478 5.50704
  171 196.141 6.02578 -5.89132
  172 100.199 3.97043 -8.13030
  173 100.198 3.97060 8.13018
  174 158.024 6.49866 3.09444
  175 161.420 1.63886 12.0674
  176 158.264 1.68830 -11.4906
  177 157.795 -15.6473 4.15170
  178 157.837 -15.6853 -4.16661
  179 105.070 -1.26140 19.6578
  180 105.079 -1.26863 -19.6586
  181 161.377 -4.45858 -7.96802
  182 161.395 -4.72589 7.98705
  183 106.983 -13.8603 27.0821
  184 106.996 -13.8673 -27.0878
  185 104.935 10.0720 -3.10983
  186 104.935 10.0732 3.10972
  187 229.451 13.6517 9.88449
  188 230.482 12.6778 -10.1434
  189 95.7236 9.83309 -8.52645
  190 95.7233 9.83323 8.52569
  191 114.667 7.48096 4.40690
  192 114.667 7.48011 -4.40655
  193 132.089 -1.68365 12.8167
  194 132.088 -1.68786 -12.8119
  195 151.588 4.24525 -6.61584
  196 125.629 4.12111 8.96687
  197 125.629 4.11999 -8.96552
  198 35.5221 -21.7152 -18.6025
  199 35.5015 -21.7180 18.5910
  200 183.556 -5.10107 -6.51838
  201 183.537 -5.06994 6.52682
  202 110.311 7.13510 -0.261576
  203 110.311 7.13545 0.261591
  204 33.0472 -19.9915 -15.9257
  205 33.0404 -19.9946 15.9130
  206 151.171 -0.858726 -6.15870
  207 151.174 -0.859360 6.15965
  208 60.4198 11.2405 0.523254
  209 60.4200 11.2405 -0.531882
  210 146.348 -3.18227 -20.0860
  211 146.349 -3.17736 20.0935
  212 113.794 2.83320 -14.6032
  213 113.793 2.83417 14.6043
  214 103.689 -16.7702 28.7214
  215 103.688 -16.7372 -28.7436
  216 100.136 4.86701 2.50757
  217 100.136 4.86718 -2.50769
  218 92.4233 10.8038 -20.5238
  219 92.4200 10.8068 20.5231
  220 96.2007 8.34381 12.2281
  221 96.2052 8.33952 -12.2293
  222 127.018 3.97622 2.29411
  223 127.018 3.97608 -2.29398
  224 65.7871 8.57387 22.0040
  225 65.7974 8.56825 -22.0093
  226 140.560 -15.5020 -14.0547
  227 140.545 -15.4791 14.0537
  228 67.2424 -17.1824 24.4569
  229 67.2699 -17.1813 -24.4656
  230 142.361 0.839888 -3.48798
  231 142.361 0.839860 3.48806
  232 163.016 -2.06016 1.03797
  233 163.007 -2.06183 -1.03668
  234 104.558 4.16933 -10.6167
  235 104.557 4.16991 10.6168
  236 160.540 5.83224 7.61883
  237 226.036 1.94911 10.4278
  238 226.137 2.03436 -10.4356
  239 188.266 8.50617 28.8436
  240 188.084 8.69527 -28.9095
  241 91.7869 13.6085 -2.55921
  242 91.7876 13.6077 2.55754
  243 150.042 -8.51749 -6.50511
  244 150.047 -8.49899 6.51964
  245 97.1021 1.51263 -3.92524
  246 97.1020 1.51264 3.92515
  247 254.990 7.85791 -7.54656
  248 150.174 0.467418 -4.69472
  249 150.174 0.467155 4.69485
  250 103.011 9.00304 -1.41329
  251 103.011 9.00250 1.41306
  252 76.0007 15.2952 -4.80295
  253 75.9999 15.2956 4.79814
  254 178.099 2.86751 7.50177
  255 177.206 2.90136 -7.57199
  256 253.921 7.98723 7.37916
  257 104.335 8.88891 9.09978
  258 104.338 8.88605 -9.09975
  259 122.486 2.92972 -12.0970
  260 122.486 2.93236 12.0994
  261 140.826 0.811946 1.17118
  262 140.827 0.811953 -1.17117
  263 254.629 -1.87868 9.35305
  264 253.515 2.01353 -7.77723
  265 174.925 9.70242 -3.47009
  266 88.8657 4.57845 17.1649
  267 88.8734 4.57307 -17.1685
  268 88.9707 4.38460 -28.6901
  269 88.9606 4.39094 28.6903
  270 134.082 2.63589 4.92741
  271 134.082 2.63575 -4.92710
  272 98.7612 4.52810 -6.23629
  273 98.7610 4.52810 6.23608
  274 94.0652 0.790532 1.18657
  275 94.0652 0.790560 -1.18662
  276 86.2113 14.5742 0.297669
  277 86.2128 14.5729 -0.300517
  278 162.733 -3.33777 -3.05474
  279 162.712 -3.37968 3.06835
  280 17.6437 -29.2135 2.20400
  281 17.6503 -29.2123 -2.21549
  282 116.356 6.36565 -0.934154
  283 116.356 6.36594 0.934218
  284 126.351 4.44904 4.08373
  285 126.350 4.44880 -4.08345
  286 146.402 1.91529 33.1051
  287 146.344 1.98126 -33.1472
  288 161.836 -9.09232 -4.58053
  289 161.871 -9.17423 4.57462
  290 105.702 7.03636 -0.523984
  291 105.702 7.03604 0.523947
  292 141.271 0.966667 -18.3218
  293 141.273 0.969209 18.3263
  294 161.113 -0.836248 3.23921
  295 161.111 -0.835800 -3.23984
  296 225.473 9.86195 -26.2605
  297 225.128 9.67813 26.0807
  298 100.251 -14.5913 -22.6349
  299 100.211 -14.5931 22.6189
  300 155.727 -0.996059 8.90325
  301 155.726 -0.488899 -8.79643
  302 98.7273 7.51930 -11.3697
  303 98.7267 7.51972 11.3694
  304 53.0103 0.257800 15.5861
  305 53.0166 0.256852 -15.5974
  306 99.8199 6.67139 4.20252
  307 99.8199 6.67161 -4.20277
  308 119.950 -2.81807 16.5170
  309 119.954 -2.82542 -16.5137
  310 181.859 11.7712 2.27565
  311 90.8530 11.5911 -14.4919
  312 90.8513 11.5924 14.4907
  313 176.342 -2.21375 -1.91691
  314 176.135 -2.32025 1.80950
  315 112.136 7.32443 -1.29428
  316 112.136 7.32487 1.29436
  317 265.844 -0.600268 -2.79476
  318 285.876 -2.85960 6.66921
  319 131.564 1.72636 -15.4682
  320 131.565 1.72754 15.4706
  321 191.349 2.87472 -21.0812
  322 191.266 2.92271 21.0525
  323 134.525 2.29461 1.21101
  324 134.525 2.29456 -1.21095
  325 106.788 7.82192 -0.318994
  326 106.788 7.82148 0.318942
  327 102.608 5.96829 -1.10921
  328 102.608 5.96804 1.10915
  329 141.394 -1.82730 -9.35838
  330 141.398 -1.82582 9.36209
  331 206.217 11.6658 -0.588315
  332 122.293 4.92448 -1.21640
  333 122.294 4.92467 1.21648
  334 97.5841 2.68891 1.63458
  335 97.5841 2.68901 -1.63464
  336 97.3073 10.0056 -5.41284
  337 97.3074 10.0053 5.41221
  338 147.445 1.75094 -7.95383
  339 142.871 -3.19704 -23.2641
  340 142.814 -3.18813 23.2427
  341 148.441 0.712073 -3.23970
  342 148.441 0.711996 3.23971
  343 153.783 -17.5725 11.1581
  344 153.810 -17.6024 -11.2073
  345 137.793 1.80733 7.98304
  346 137.791 1.80730 -7.98214
  347 132.967 3.06477 7.10917
  348 132.966 3.06453 -7.10852
  349 151.856 -14.3535 6.16773
  350 151.874 -14.3870 -6.16222
  351 46.5047 -31.5304 21.4636
  352 46.5192 -31.5015 -21.4733
  353 103.449 9.80842 0.564035
  354 103.450 9.80757 -0.564287
  355 144.505 0.197015 1.66327
  356 144.505 0.197006 -1.66326
  357 81.9933 14.3475 -14.7714
  358 81.9901 14.3499 14.7685
  359 120.138 -11.3146 -26.3965
  360 120.121 -11.3073 26.4012
  361 118.726 6.29635 6.51149
  362 118.726 6.29539 -6.51083
  363 164.980 -2.98606 11.1134
  364 164.705 -2.60245 -11.3094
  365 98.5781 11.4148 0.565284
  366 98.5789 11.4137 -0.565959
  367 86.8973 -13.3476 -29.2490
  368 86.8828 -13.3463 29.2415
  369 138.783 -5.98447 -11.6247
  370 138.783 -5.97576 11.6321
  371 207.827 12.0530 -0.411921
  372 166.367 -10.2416 0.946355
  373 166.447 -10.2851 -0.980038
  374 52.7405 9.55119 11.2751
  375 52.7473 9.54815 -11.2843
  376 115.815 -8.21884 21.6294
  377 115.826 -8.22779 -21.6303
  378 190.105 -5.86777 5.63405
  379 190.088 -5.88159 -5.61894
  380 147.424 2.05389 8.47634
  381 138.938 4.07900 -0.641281
  382 107.810 -20.2914 28.0483
  383 107.823 -20.2888 -28.0605
  384 100.020 8.59934 3.88981
  385 100.020 8.59967 -3.89018
  386 166.090 4.68324 -8.80557
  387 116.120 5.29612 10.5505
  388 116.122 5.29380 -10.5491
  389 144.306 -17.7237 20.0696
  390 144.310 -17.6944 -20.1237
  391 100.485 1.17277 -5.17260
  392 100.485 1.17285 5.17257
  393 200.722 10.7629 2.95070
  394 201.886 11.1094 -3.11135
  395 170.886 -6.01781 12.8282
  396 170.879 -6.02439 -12.8180
  397 127.521 -17.2954 21.5242
  398 127.536 -17.3059 -21.5321
  399 116.802 -0.374987 -27.1904
  400 116.794 -0.369566 27.1950
  401 82.9080 11.6412 -22.6782
  402 82.9017 11.6459 22.6765
  403 70.0830 7.20138 13.1674
  404 70.0893 7.19810 -13.1750
  405 138.753 2.88055 4.11036
  406 103.822 9.96710 -5.30012
  407 103.821 9.96885 5.30003
  408 103.850 2.90268 17.1133
  409 103.856 2.89641 -17.1131
  410 95.2345 -5.34751 -24.3144
  411 95.2232 -5.34069 24.3104
  412 93.8622 1.02709 2.01786
  413 93.8622 1.02711 -2.01793
  414 110.224 8.54763 -5.20031
  415 110.223 8.54895 5.20063
  416 109.437 9.06744 2.93490
  417 109.438 9.06650 -2.93479
  418 29.7209 -41.6793 8.21618
  419 29.7454 -41.6590 -8.23465
  420 166.359 2.90249 10.6268
  421 119.935 5.91895 4.39617
  422 119.935 5.91846 -4.39580
  423 99.1071 4.85584 4.82610
  424 99.1071 4.85594 -4.82631
  425 91.7195 12.7945 8.33396
  426 91.7200 12.7943 -8.33545
  427 98.0542 6.50031 -8.78000
  428 98.0539 6.50044 8.77967
  429 143.162 0.100007 -8.25060
  430 143.165 0.0997293 8.25198
  431 101.571 7.88147 -17.7827
  432 101.569 7.88308 17.7829
  433 60.7887 -12.7367 -26.4657
  434 60.7751 -12.7382 26.4555
  435 207.789 -1.55702 0.570771
  436 207.809 -1.59800 -0.532250
  437 260.395 5.65995 25.3841
  438 261.215 5.17951 -25.5433
  439 91.1919 11.4636 6.46318
  440 91.1948 11.4606 -6.46516
  441 13.8888 -56.5551 -8.47956
  442 13.8807 -56.5657 8.47383
  443 156.949 -5.74098 2.25380
  444 156.932 -5.74966 -2.24242
  445 161.125 -1.40592 6.18699
  446 161.107 -1.33319 -6.06717
  447 15.5477 -58.1455 2.53528
  448 15.5617 -58.1282 -2.54882
  449 146.289 -18.4824 -12.6060
  450 146.266 -18.4589 12.5884
  451 159.226 -0.253203 -3.01995
  452 159.227 -0.253447 3.01949
  453 144.659 1.11867 -8.11633
  454 160.769 -6.29597 -5.43074
  455 160.722 -6.39633 5.47063
  456 124.217 1.13857 -13.1056
  457 124.215 1.14210 13.1090
  458 114.595 1.30683 -7.90762
  459 114.595 1.30710 7.90806
  460 42.6120 -0.713741 16.0574
  461 42.6240 -0.717328 -16.0681
  462 142.962 -11.4769 11.1947
  463 142.971 -11.4958 -11.1870
  464 131.931 3.38134 3.05416
  465 131.931 3.38123 -3.05399
  466 94.9988 11.8057 -4.62199
  467 94.9991 11.8053 4.62101
  468 143.099 0.510012 0.460474
  469 143.100 0.510029 -0.460479
  470 113.877 7.50352 -2.88569
  471 113.877 7.50411 2.88590
  472 90.8590 0.102832 0.334866
  473 90.8590 0.102841 -0.334882
  474 94.4676 10.2005 -12.0054
  475 94.4666 10.2010 12.0045
  476 65.7296 -4.03089 -26.8130
  477 65.7114 -4.02603 26.8076
  478 133.662 1.00680 -4.27739
  479 14.4749 -7.86486 0.0948780
  480 12.9344 -6.58673 -0.611781
  481 12.6946 -6.24258 0.769445
  482 15.1269 -7.83868 0.717943
  483 14.7713 -9.07899 -1.84817
  484 14.8296 -7.85340 -0.768063
  485 14.2662 -8.63624 2.11753
  486 13.4071 -6.95355 1.23431
  487 12.5580 -6.46550 -2.58288
  488 16.2797 -8.11467 -0.0971429
  489 16.3273 -9.72679 0.154448
  490 11.0023 -4.69392 -0.767334
  491 13.1470 -6.70790 -1.28254
  492 12.2708 -6.03392 2.71863
  493 14.1258 -7.60285 -0.341895
  494 10.7969 -4.51044 0.834735
  495 13.9808 -7.39317 0.396583
  496 11.5863 -5.21148 0.562691
  497 11.2765 -4.79280 -0.351122
  498 14.7673 -7.84017 -0.0438909
  499 14.5744 -8.49332 -0.120798
  500 11.3312 -4.73572 -2.25458
  501 14.9075 -7.94329 1.71486
  502 13.7997 -8.49172 -3.69202
  503 16.6265 -8.46771 -1.04371
  504 15.3735 -10.5283 2.31150
  505 16.4807 -8.53050 0.636713
  506 16.0780 -10.5640 -1.51918
  507 14.3595 -7.68305 -1.89362
  508 13.3195 -7.40833 3.59641
  509 13.8725 -7.15634 0.104501
  510 13.5877 -7.36131 -1.43929
  511 11.1068 -4.46860 2.20873
  512 13.3956 -7.32051 1.26577
  513 14.3707 -8.01418 0.801755
  514 14.5674 -7.57591 0.0112501
  515 13.4711 -6.84051 -0.0956245
  516 12.1921 -5.79863 -1.39050
  517 12.4904 -5.77436 1.90661
  518 10.4491 -4.24480 0.539039
  519 14.8567 -8.94940 0.625738
  520 12.6926 -6.20346 0.435379
  521 13.6771 -7.27890 2.32807
  522 12.7162 -6.56176 -3.81049
  523 14.3767 -8.14062 -0.685974
  524 11.7568 -5.51669 1.43734
  525 10.2865 -4.12112 -1.41267
  526 17.7339 -9.07224 -0.496833
  527 18.6148 -11.6219 1.05798
  528 10.2313 -4.11598 -0.151553
  529 11.6823 -5.32493 -1.45338
  530 12.2568 -5.80429 -0.352288
  531 11.8853 -5.12860 -3.43952
  532 15.2010 -7.83417 -0.349941
  533 14.5406 -7.70729 -0.000354372
  534 11.6944 -4.75059 3.32305
  535 14.4783 -7.22501 1.08351
  536 13.7006 -7.60093 -2.72547
  537 15.3400 -7.97137 0.240979
  538 15.0197 -9.24139 -0.424724
  539 12.9698 -6.47567 -2.55258
  540 11.9927 -5.65971 -0.437568
  541 10.0496 -3.89582 -0.595318
  542 13.1990 -7.19101 2.39002
  543 10.1697 -3.97683 1.41877
  544 14.4485 -7.92065 -0.135651
  545 13.8241 -7.35506 -0.659080
  546 14.0566 -7.30013 -0.816356
  547 17.8082 -8.91525 0.147884
  548 18.9707 -11.2559 -0.633345
  549 16.3447 -8.70367 1.80170
  550 14.2002 -10.7126 -3.77355
  551 11.4166 -4.69468 1.59500
  552 15.1488 -8.57390 -2.06571
  553 13.9025 -9.38970 4.09799
  554 11.6377 -5.38613 0.486043
  555 12.2711 -5.78257 3.85516
  556 13.3491 -7.05219 0.598705
  557 14.3388 -7.78315 0.370785
  558 14.0786 -7.39120 -0.156365
  559 9.95765 -3.80312 0.678499
  560 10.6872 -4.40500 -0.953639
  561 12.8568 -6.27861 1.71031
  562 14.3724 -8.26727 0.278086
  563 9.72943 -3.70901 0.189799
  564 18.8108 -9.39325 -0.224381
  565 9.89489 -3.78510 -0.0929324
  566 21.0039 -12.5772 0.330520
  567 10.0103 -4.12750 -0.691810
  568 10.8387 -4.45367 -1.49009
  569 11.8610 -5.10771 -2.35722
  570 12.6251 -6.24156 -3.32585
  571 14.0685 -8.06016 -2.95309
  572 16.2444 -8.96811 -2.29754
  573 18.8395 -8.95078 -1.11578
  574 18.4799 -8.66576 1.00688
  575 17.0085 -9.20008 2.62817
  576 14.2663 -8.75478 2.78256
  577 12.7425 -6.55541 3.01885
  578 11.5555 -5.18707 2.27773
  579 10.4378 -4.54278 1.44692
  580 9.97069 -4.04074 0.681757
  581 9.85313 -3.73571 -1.07678
  582 10.4530 -3.85758 -2.01530
  583 10.9535 -4.50895 -3.14034
  584 11.9148 -5.30831 -4.07341
  585 13.0730 -8.38111 -4.62682
  586 12.8406 -11.2546 -4.82941
  587 17.4704 -11.2657 -2.56759
  588 18.1365 -11.9699 2.80375
  589 13.2009 -11.1819 4.71147
  590 12.6221 -7.60141 4.79306
  591 11.8170 -4.85586 3.96238
  592 10.8770 -4.27979 3.00016
  593 10.3478 -3.76649 1.96669
  594 9.78580 -3.66146 1.08053
</Section>

newXOutput 6

<Section columns = "stress_xx | stress_yy | stress_xy">
  1 109.034 0.796004 -0.823131
  2 109.035 0.796047 0.823174
  3 179.536 0.155013 -0.120286
  4 179.535 0.155002 0.120279
  5 10.0340 -107.936 4.95420
  6 365.532 3.97945 -0.102006
  7 10.0111 -107.988 -4.97310
  8 423.606 -0.592323 -3.25358
  9 110.677 0.530755 -0.684714
  10 113.462 0.923111 -1.89784
  11 119.687 1.34650 -4.01724
  12 129.318 0.810307 -7.29531
  13 144.270 0.592635 -7.68710
  14 159.803 2.01989 -12.1423
  15 186.826 0.336004 -15.2187
  16 214.188 -0.983252 -14.9065
  17 251.471 -5.47309 -6.92929
  18 259.408 -4.99639 -0.437410
  19 261.705 -1.09760 6.31294
  20 264.438 3.75368 4.27637
  21 268.134 6.23662 -0.126693
  22 281.728 -1.54601 -2.26373
  23 263.879 2.27335 -5.33503
  24 261.872 -1.07855 -6.19446
  25 259.502 -4.96929 0.472833
  26 251.550 -5.47195 6.94515
  27 214.228 -0.980887 14.9189
  28 186.851 0.337631 15.2273
  29 159.816 2.02124 12.1467
  30 144.279 0.592706 7.68939
  31 129.322 0.810600 7.29705
  32 119.690 1.34679 4.01795
  33 113.464 0.923237 1.89818
  34 110.678 0.530827 0.684849
  35 115.304 0.906981 1.07190
  36 120.081 3.40719 1.59208
  37 123.417 5.63846 1.56160
  38 128.404 7.55243 0.940044
  39 133.645 8.59934 0.383091
  40 140.192 8.26671 -0.139740
  41 147.582 6.85401 -0.355968
  42 158.716 4.51892 -0.910561
  43 166.717 2.79734 -0.105186
  44 173.038 1.63517 -0.513987
  45 179.525 0.0222946 -1.10113
  46 183.574 -0.360637 -1.39406
  47 184.729 0.478727 -2.50501
  48 190.929 0.117246 -3.25749
  49 199.885 -0.997294 -2.81541
  50 206.173 -1.04798 -3.02125
  51 209.713 -1.38535 -1.70779
  52 210.601 -2.02933 0.879885
  53 205.426 -2.34600 5.05145
  54 195.306 -0.775071 7.25810
  55 177.543 0.829293 8.04387
  56 160.630 3.12617 5.97074
  57 152.195 3.47847 2.72249
  58 150.592 3.86271 -3.29938
  59 162.325 2.25932 -5.86033
  60 177.095 0.529879 -6.71211
  61 195.564 -0.623832 -6.84204
  62 205.545 -2.27039 -4.94673
  63 210.610 -2.00906 -0.872305
  64 209.713 -1.38483 1.70653
  65 206.172 -1.04811 3.02055
  66 199.883 -0.997074 2.81559
  67 190.928 0.117268 3.25747
  68 184.728 0.478764 2.50498
  69 183.572 -0.360568 1.39401
  70 179.524 0.0223046 1.10105
  71 173.038 1.63507 0.513967
  72 166.717 2.79719 0.105198
  73 158.716 4.51874 0.910532
  74 147.583 6.85373 0.355931
  75 140.193 8.26630 0.139683
  76 133.646 8.59879 -0.383139
  77 128.404 7.55180 -0.940054
  78 123.417 5.63794 -1.56152
  79 120.080 3.40684 -1.59202
  80 115.303 0.906791 -1.07182
  81 28.0500 -84.6536 2.41720
  82 78.1810 -28.0324 23.8566
  83 148.418 12.1939 51.4343
  84 218.554 27.6133 63.0411
  85 283.830 25.5133 65.2330
  86 347.743 11.2291 56.8318
  87 371.991 2.29923 26.8118
  88 372.787 1.94940 -27.1175
  89 348.302 10.7463 -56.8574
  90 283.657 25.5716 -64.9993
  91 218.490 27.7565 -62.9909
  92 148.385 12.2857 -51.4689
  93 78.2031 -27.9542 -23.8830
  94 28.0621 -84.6284 -2.42797
  95 18.2248 -94.5209 -7.53814
  96 60.2209 -42.4126 12.6424
  97 122.870 -6.84884 30.8695
  98 205.998 14.5774 44.4571
  99 287.751 16.3912 43.7280
  100 356.548 7.17075 39.6083
  101 412.431 1.15717 28.6722
  102 402.446 0.00398184 -25.0876
  103 357.495 9.22767 -38.6064
  104 287.978 16.2823 -43.7437
  105 206.129 14.6049 -44.5597
  106 123.005 -6.77787 -30.9503
  107 60.3145 -42.3255 -12.7003
  108 18.2747 -94.4181 7.49167
  109 117.713 15.6766 -4.63229
  110 117.714 15.6793 4.62794
  111 162.563 -13.0341 20.8395
  112 162.586 -13.0579 -20.8337
  113 84.1548 17.5102 17.1027
  114 84.1738 17.5044 -17.1133
  115 156.659 5.82018 7.53133
  116 156.659 5.81922 -7.53105
  117 120.559 9.09959 7.90089
  118 120.561 9.09830 -7.90068
  119 211.586 -6.90853 8.37419
  120 211.666 -6.80987 -8.51938
  121 92.0724 -0.850676 28.4807
  122 92.0878 -0.862826 -28.5010
  123 229.034 11.3091 -6.69932
  124 228.253 10.6906 7.11905
  125 133.200 10.8448 1.34085
  126 133.199 10.8448 -1.34147
  127 164.706 1.52097 -13.6461
  128 164.705 1.52554 13.6501
  129 113.826 -5.09489 39.3942
  130 113.864 -5.09976 -39.3898
  131 164.657 -26.9921 28.1619
  132 164.696 -26.9913 -28.1961
  133 120.435 10.8029 -17.8541
  134 120.432 10.8066 17.8560
  135 196.188 -9.55056 0.554617
  136 196.204 -9.49642 -0.522440
  137 139.301 5.32103 16.8050
  138 139.307 5.31224 -16.8053
  139 46.3287 1.82202 0.249462
  140 46.3470 1.82746 -0.276371
  141 104.586 18.5138 -9.41017
  142 104.580 18.5169 9.40517
  143 188.221 -4.78171 -7.96099
  144 188.230 -4.77663 7.97192
  145 171.084 1.81090 3.28453
  146 171.085 1.81085 -3.28457
  147 133.692 7.23126 -29.3833
  148 133.686 7.23811 29.3910
  149 119.436 3.42139 4.44407
  150 119.435 3.42093 -4.44363
  151 266.441 14.7095 0.671030
  152 139.160 8.83211 10.1442
  153 139.162 8.82873 -10.1449
  154 147.769 7.09122 3.15630
  155 147.769 7.09118 -3.15648
  156 126.116 8.88625 2.72478
  157 126.117 8.88556 -2.72489
  158 122.138 13.1811 -3.38889
  159 122.136 13.1817 3.38772
  160 174.806 1.88730 -7.21818
  161 174.805 1.88769 7.21865
  162 189.900 -12.9796 -21.1910
  163 189.878 -12.9822 21.1939
  164 98.2156 15.1608 8.68469
  165 98.2159 15.1555 -8.69676
  166 205.135 -10.0325 17.8616
  167 205.204 -10.0048 -17.9981
  168 100.683 -26.9924 40.4651
  169 100.714 -26.9849 -40.4859
  170 244.320 6.99200 7.68137
  171 244.932 7.92683 -8.17519
  172 122.924 4.98848 -10.1922
  173 122.925 4.98977 10.1937
  174 197.318 7.95395 3.74950
  175 201.096 2.16849 14.8787
  176 197.173 2.20949 -14.1792
  177 196.106 -19.5959 5.59143
  178 196.175 -19.6445 -5.60192
  179 129.518 -1.30472 24.7950
  180 129.536 -1.32037 -24.8005
  181 200.835 -5.59365 -9.86313
  182 200.847 -5.92693 9.89248
  183 131.820 -17.0836 34.2873
  184 131.849 -17.1018 -34.2995
  185 129.421 12.7057 -3.89209
  186 129.421 12.7068 3.89048
  187 287.202 17.1156 13.2497
  188 288.551 15.9668 -13.5529
  189 117.571 12.3894 -10.7086
  190 117.569 12.3917 10.7083
  191 141.708 9.41780 5.52107
  192 141.708 9.41676 -5.52155
  193 163.642 -1.99406 16.2004
  194 163.645 -2.00364 -16.1935
  195 189.064 5.23075 -8.10229
  196 155.526 5.24287 11.2758
  197 155.527 5.23993 -11.2746
  198 41.7182 -26.6406 -23.6415
  199 41.6631 -26.6641 23.6190
  200 228.568 -6.30144 -8.90791
  201 228.560 -6.27473 8.89897
  202 136.147 8.92817 -0.326290
  203 136.148 8.92774 0.326161
  204 38.7119 -24.5056 -20.0191
  205 38.7120 -24.4960 19.9912
  206 187.698 -1.05396 -7.78655
  207 187.702 -1.05345 7.78980
  208 73.3104 14.5245 0.568767
  209 73.3006 14.5229 -0.587688
  210 181.085 -3.83802 -25.5502
  211 181.096 -3.83392 25.5662
  212 139.942 3.58295 -18.3622
  213 139.944 3.58559 18.3677
  214 127.370 -20.6471 36.6201
  215 127.390 -20.5961 -36.6534
  216 123.051 6.08761 3.13216
  217 123.052 6.08692 -3.13194
  218 113.360 13.7355 -25.8675
  219 113.350 13.7429 25.8694
  220 118.413 10.7116 15.3674
  221 118.419 10.7033 -15.3737
  222 157.281 4.98003 2.87351
  223 157.281 4.98010 -2.87358
  224 79.8991 11.2011 27.8363
  225 79.9292 11.1933 -27.8449
  226 174.278 -19.3537 -17.9667
  227 174.246 -19.3187 17.9695
  228 81.3899 -21.0750 31.2071
  229 81.4540 -21.0518 -31.2229
  230 176.598 1.05704 -4.37126
  231 176.597 1.05711 4.37129
  232 202.685 -2.57264 1.37478
  233 202.670 -2.57568 -1.36935
  234 128.361 5.25499 -13.3344
  235 128.362 5.25719 13.3369
  236 200.309 7.23903 9.25558
  237 283.209 2.59301 14.2738
  238 283.337 2.69850 -14.2861
  239 234.610 11.3392 37.3336
  240 234.425 11.6170 -37.4191
  241 112.799 17.2119 -3.24252
  242 112.796 17.2125 3.23855
  243 186.320 -10.6487 -8.36149
  244 186.321 -10.6218 8.38556
  245 118.935 1.89729 -4.90997
  246 118.936 1.89768 4.91066
  247 318.427 8.46913 -9.68312
  248 186.421 0.602777 -5.90705
  249 186.421 0.602958 5.90790
  250 126.902 11.3081 -1.77804
  251 126.901 11.3086 1.77741
  252 92.9148 19.4796 -6.10618
  253 92.9058 19.4818 6.09594
  254 222.120 3.81060 8.95305
  255 220.984 3.82979 -9.04100
  256 317.045 8.51905 9.45414
  257 128.681 11.3131 11.4284
  258 128.684 11.3079 -11.4312
  259 151.557 3.79424 -15.2385
  260 151.555 3.80067 15.2408
  261 174.683 1.01697 1.46631
  262 174.684 1.01702 -1.46638
  263 320.715 -2.79332 12.7878
  264 319.283 2.14812 -10.7996
  265 218.581 11.8071 -4.15926
  266 109.127 6.07959 21.5959
  267 109.138 6.06778 -21.6073
  268 108.973 5.85585 -36.2974
  269 108.948 5.86505 36.3011
  270 166.180 3.31444 6.17787
  271 166.180 3.31402 -6.17769
  272 121.192 5.68228 -7.81064
  273 121.192 5.68330 7.81146
  274 115.143 0.982834 1.47835
  275 115.143 0.982681 -1.47816
  276 105.811 18.5040 0.332171
  277 105.809 18.5032 -0.339391
  278 202.437 -4.19107 -3.73669
  279 202.403 -4.24386 3.75900
  280 19.3438 -36.0589 2.88312
  281 19.3718 -36.0373 -2.90688
  282 143.815 7.96553 -1.16882
  283 143.815 7.96526 1.16871
  284 156.442 5.58645 5.11655
  285 156.442 5.58619 -5.11658
  286 181.353 3.01216 42.4019
  287 181.310 3.10899 -42.4706
  288 201.327 -11.3724 -5.49711
  289 201.376 -11.4735 5.49945
  290 130.259 8.80255 -0.656144
  291 130.258 8.80315 0.656066
  292 174.531 1.31066 -23.1771
  293 174.546 1.31472 23.1892
  294 200.223 -1.03475 4.11414
  295 200.219 -1.03502 -4.11257
  296 282.354 12.5336 -34.2167
  297 281.864 12.3097 33.9704
  298 122.842 -17.9910 -29.1463
  299 122.763 -18.0298 29.1145
  300 193.848 -1.21798 11.0594
  301 193.856 -0.589665 -10.9391
  302 121.198 9.47129 -14.2731
  303 121.196 9.47382 14.2746
  304 63.9392 0.839745 19.5579
  305 63.9408 0.831537 -19.5841
  306 122.711 8.36420 5.26593
  307 122.711 8.36326 -5.26578
  308 148.306 -3.35316 20.8685
  309 148.317 -3.36821 -20.8655
  310 227.323 14.3349 2.52299
  311 111.437 14.6756 -18.2467
  312 111.430 14.6803 18.2464
  313 219.724 -2.47697 -2.98736
  314 219.442 -2.62935 2.85517
  315 138.482 9.18155 -1.61840
  316 138.482 9.18141 1.61811
  317 335.836 -1.29611 -3.84453
  318 361.143 -4.18057 8.89467
  319 162.207 2.21324 -19.4915
  320 162.218 2.21572 19.4996
  321 238.288 4.01778 -27.6474
  322 238.195 4.08962 27.5756
  323 166.740 2.87056 1.51021
  324 166.740 2.87066 -1.51024
  325 131.683 9.80192 -0.403074
  326 131.682 9.80233 0.402772
  327 126.267 7.46321 -1.38797
  328 126.266 7.46386 1.38799
  329 175.384 -2.23244 -11.8385
  330 175.385 -2.22766 11.8453
  331 257.862 14.0130 -0.101809
  332 151.319 6.15861 -1.52217
  333 151.319 6.15841 1.52210
  334 119.706 3.35894 2.04948
  335 119.706 3.35856 -2.04932
  336 119.634 12.5947 -6.79971
  337 119.632 12.5961 6.79900
  338 183.717 2.19543 -9.78812
  339 176.663 -3.68924 -30.1602
  340 176.577 -3.71365 30.1140
  341 184.239 0.903045 -4.06238
  342 184.239 0.903103 4.06253
  343 190.956 -21.9379 14.5142
  344 191.014 -21.9742 -14.5724
  345 170.845 2.31109 10.0448
  346 170.845 2.30986 -10.0432
  347 164.774 3.88078 8.93009
  348 164.774 3.87966 -8.92939
  349 188.605 -17.9765 8.04316
  350 188.638 -18.0219 -8.02892
  351 55.3913 -39.0831 27.1859
  352 55.4134 -39.0559 -27.2045
  353 127.515 12.3461 0.696654
  354 127.514 12.3459 -0.697922
  355 179.306 0.240338 2.07935
  356 179.307 0.240301 -2.07942
  357 100.358 18.2423 -18.6418
  358 100.346 18.2488 18.6376
  359 148.108 -13.8933 -33.7126
  360 148.078 -13.8956 33.7223
  361 146.831 7.94989 8.17160
  362 146.832 7.94809 -8.17170
  363 205.439 -3.67473 13.7263
  364 205.105 -3.19630 -13.9701
  365 121.382 14.4097 0.693259
  366 121.381 14.4091 -0.695666
  367 106.494 -16.3414 -36.9685
  368 106.466 -16.3299 36.9503
  369 172.080 -7.41473 -14.7574
  370 172.074 -7.39877 14.7696
  371 259.885 14.5976 -1.19696
  372 207.005 -12.7173 1.62453
  373 207.125 -12.7678 -1.65930
  374 63.5748 12.4635 14.3066
  375 63.6001 12.4612 -14.3250
  376 143.027 -10.0507 27.3706
  377 143.051 -10.0701 -27.3744
  378 236.654 -7.31009 7.54080
  379 236.606 -7.31915 -7.52708
  380 183.614 2.59997 10.4654
  381 173.267 5.02350 -0.776799
  382 132.749 -25.1540 35.6211
  383 132.783 -25.1579 -35.6402
  384 123.049 10.8017 4.87945
  385 123.050 10.8007 -4.87979
  386 207.192 5.88515 -10.6891
  387 143.538 6.76360 13.2669
  388 143.540 6.75849 -13.2668
  389 178.865 -22.0108 25.8310
  390 178.895 -21.9687 -25.9029
  391 123.134 1.46863 -6.47697
  392 123.136 1.46911 6.47811
  393 250.817 13.7398 4.45356
  394 252.297 14.1992 -4.67146
  395 212.122 -7.44738 16.5171
  396 212.094 -7.44938 -16.5018
  397 157.740 -21.5114 27.3850
  398 157.776 -21.5320 -27.3950
  399 143.912 -0.207689 -34.4756
  400 143.898 -0.201251 34.4878
  401 101.430 14.8906 -28.6362
  402 101.411 14.9003 28.6358
  403 85.4765 9.45314 16.5180
  404 85.4811 9.44467 -16.5370
  405 172.937 3.57360 5.04360
  406 128.034 12.6098 -6.64428
  407 128.033 12.6123 6.64210
  408 128.029 3.89360 21.5590
  409 128.039 3.88060 -21.5629
  410 117.083 -6.37409 -30.6930
  411 117.062 -6.35734 30.6811
  412 114.832 1.28985 2.51989
  413 114.831 1.28970 -2.51957
  414 136.108 10.7922 -6.51959
  415 136.108 10.7941 6.51865
  416 135.097 11.4152 3.67346
  417 135.097 11.4144 -3.67433
  418 34.1803 -51.8784 10.6172
  419 34.2454 -51.8101 -10.6558
  420 207.433 3.66497 12.9783
  421 148.352 7.44267 5.50800
  422 148.352 7.44207 -5.50818
  423 121.720 6.08363 6.04513
  424 121.721 6.08275 -6.04469
  425 112.605 16.1698 10.4910
  426 112.609 16.1671 -10.4931
  427 120.380 8.17042 -11.0081
  428 120.379 8.17214 11.0092
  429 177.608 0.166054 -10.4049
  430 177.610 0.167356 10.4079
  431 124.747 9.98606 -22.3865
  432 124.743 9.99074 22.3902
  433 73.5760 -15.4628 -33.3890
  434 73.5563 -15.4544 33.3650
  435 259.766 -1.84237 1.37362
  436 259.785 -1.89543 -1.34828
  437 327.540 6.62622 32.6811
  438 328.662 6.02937 -32.8186
  439 112.112 14.5962 8.09201
  440 112.114 14.5913 -8.09875
  441 14.5158 -70.4834 -10.6713
  442 14.5170 -70.4757 10.6581
  443 195.070 -7.19384 2.97477
  444 195.048 -7.20662 -2.95437
  445 200.506 -1.76320 7.71027
  446 200.499 -1.67222 -7.55685
  447 16.5978 -72.4822 3.37244
  448 16.6404 -72.4219 -3.40148
  449 181.497 -23.1133 -16.2294
  450 181.450 -23.0804 16.2118
  451 197.810 -0.309487 -3.80890
  452 197.811 -0.309379 3.80950
  453 180.101 1.43175 -10.0705
  454 199.987 -7.89823 -6.65538
  455 199.925 -8.02222 6.71395
  456 153.720 1.55914 -16.5304
  457 153.715 1.56725 16.5342
  458 140.776 1.65748 -9.92424
  459 140.782 1.65828 9.92708
  460 50.7542 -0.323615 20.3552
  461 50.7912 -0.321398 -20.3761
  462 177.336 -14.3042 14.3047
  463 177.357 -14.3340 -14.2905
  464 163.473 4.24132 3.82209
  465 163.473 4.24127 -3.82210
  466 116.788 14.8897 -5.81854
  467 116.785 14.8911 5.81672
  468 177.559 0.642884 0.577735
  469 177.560 0.642939 -0.577780
  470 140.699 9.42702 -3.61265
  471 140.699 9.42736 3.61224
  472 111.046 0.120761 0.414875
  473 111.045 0.120708 -0.414811
  474 115.956 12.8802 -15.0943
  475 115.952 12.8833 15.0945
  476 79.7294 -4.53180 -33.9832
  477 79.6837 -4.53197 33.9743
  478 166.556 1.22234 -5.26366
  479 14.5726 -11.6863 0.163400
  480 12.5336 -8.91299 -0.710485
  481 12.2692 -8.25443 0.904554
  482 15.0704 -11.5457 0.778647
  483 14.0619 -12.7703 -2.28872
  484 14.5689 -11.5081 -0.937594
  485 13.6068 -11.9547 2.64151
  486 13.0158 -9.25345 1.64288
  487 11.8860 -8.10006 -2.93291
  488 16.2283 -11.5205 -0.0372756
  489 14.9996 -14.3191 0.205368
  490 10.3686 -5.41389 -0.771291
  491 12.6481 -8.73419 -1.62678
  492 11.5120 -7.41413 3.02807
  493 14.1317 -11.1273 -0.489750
  494 10.1669 -5.13150 0.835355
  495 13.9073 -10.6485 0.532990
  496 10.9840 -6.10291 0.640231
  497 10.6946 -5.51252 -0.393692
  498 14.7716 -11.4939 -0.0294678
  499 14.4583 -12.6082 -0.173933
  500 10.6595 -5.44126 -2.27303
  501 14.0494 -11.3441 2.27684
  502 12.7626 -11.1523 -4.35565
  503 15.7082 -12.4360 -1.47789
  504 13.7472 -14.7264 2.63168
  505 16.2989 -12.3531 0.917926
  506 14.5350 -15.0337 -1.68188
  507 13.7350 -10.4186 -2.36291
  508 12.4130 -9.40307 4.13439
  509 13.7292 -10.1802 0.150336
  510 13.1653 -10.1472 -1.84388
  511 10.4360 -5.02552 2.18162
  512 13.0467 -10.1173 1.60479
  513 14.2502 -11.6539 1.10029
  514 14.6146 -11.2197 0.117703
  515 13.2559 -9.38818 -0.151729
  516 11.5979 -7.32376 -1.56818
  517 11.8464 -6.83421 2.17514
  518 9.83189 -4.53303 0.520346
  519 14.4135 -13.1337 0.794358
  520 12.2463 -7.96378 0.588087
  521 12.9389 -9.40386 2.90728
  522 11.8590 -7.97188 -4.17515
  523 14.2360 -11.8935 -0.945345
  524 11.1246 -6.81032 1.56807
  525 9.64510 -4.46671 -1.30780
  526 19.2760 -12.6923 -0.758917
  527 16.3357 -16.3048 1.09926
  528 9.64533 -4.39746 -0.153737
  529 11.0382 -6.12871 -1.53226
  530 11.7466 -7.28137 -0.463244
  531 11.1883 -5.82786 -3.50285
  532 15.0630 -11.6242 -0.196851
  533 14.5690 -11.3862 -0.0913487
  534 11.0431 -5.27606 3.30284
  535 14.1226 -10.2956 1.52792
  536 12.8756 -10.2000 -3.36053
  537 15.2440 -11.6256 0.0996362
  538 14.5106 -13.5246 -0.544745
  539 12.2583 -7.80841 -2.92353
  540 11.3873 -7.05265 -0.462566
  541 9.42699 -4.14079 -0.552041
  542 12.5369 -9.56162 2.91148
  543 9.55124 -4.25407 1.30756
  544 14.5026 -11.7502 -0.211068
  545 13.7129 -10.5132 -0.876899
  546 13.7965 -10.2534 -1.08784
  547 19.4321 -12.5043 0.404841
  548 16.4614 -16.0376 -0.737803
  549 14.2377 -12.8884 2.61514
  550 12.2726 -14.5493 -4.29628
  551 10.7700 -5.11085 1.59282
  552 13.8553 -12.1699 -2.76836
  553 12.5451 -12.4971 4.75401
  554 11.0332 -6.60037 0.506120
  555 11.4515 -6.73874 4.08957
  556 13.1302 -9.75490 0.740652
  557 14.4177 -11.5130 0.542793
  558 13.9870 -10.7082 -0.180429
  559 9.34280 -4.00407 0.627185
  560 10.0605 -4.72614 -0.920736
  561 12.3287 -8.16703 2.03437
  562 14.3531 -12.2806 0.391116
  563 9.15576 -3.76197 0.152302
  564 22.0279 -13.4193 -0.323123
  565 9.29651 -3.89051 -0.0613581
  566 17.8317 -17.3507 0.207784
  567 9.43387 -4.19239 -0.605706
  568 10.2394 -4.52362 -1.32701
  569 11.2864 -5.32739 -2.34473
  570 11.9099 -7.13181 -3.71767
  571 12.4523 -10.8418 -3.76538
  572 13.2731 -13.3019 -3.60318
  573 19.0701 -13.1319 -2.18645
  574 18.0436 -12.7176 1.92480
  575 12.8065 -13.3322 3.86510
  576 12.7828 -11.5417 3.49993
  577 11.9506 -7.57263 3.41491
  578 10.9917 -5.46404 2.16684
  579 9.89052 -4.69655 1.30814
  580 9.38561 -4.08902 0.591443
  581 9.27467 -3.83807 -0.936219
  582 9.86750 -4.04312 -1.79756
  583 10.4053 -4.85045 -2.95820
  584 11.3084 -5.84928 -4.03477
  585 11.9136 -10.4517 -5.08430
  586 9.97003 -15.1802 -5.26198
  587 14.3931 -15.7726 -2.79788
  588 15.1685 -16.5938 2.98859
  589 11.0495 -14.9939 5.28309
  590 11.4069 -9.44501 5.33184
  591 11.2315 -5.33850 3.94060
  592 10.3810 -4.56261 2.77964
  593 9.77790 -3.92560 1.73886
  594 9.21320 -3.72716 0.942619
</Section>

newXOutput 7

<Section columns = "stress_xx | stress_yy | stress_xy">
  1 128.424 0.962474 -0.995349
  2 128.427 0.962661 0.995540
  3 213.948 0.181058 -0.138689
  4 213.945 0.180910 0.138541
  5 9.68823 -129.817 5.85598
  6 439.552 3.97556 -0.154895
  7 9.65034 -129.918 -5.87938
  8 510.546 -1.37226 -3.88638
  9 130.402 0.636316 -0.810216
  10 133.739 1.11328 -2.26149
  11 141.187 1.62218 -4.81397
  12 152.759 0.981446 -8.75116
  13 170.641 0.732151 -9.22436
  14 189.382 2.44903 -14.6013
  15 221.902 0.423682 -18.3341
  16 255.028 -1.14725 -18.0499
  17 300.167 -6.54660 -8.54570
  18 310.310 -5.95563 -0.918927
  19 313.982 -1.27754 7.05253
  20 318.552 4.42772 4.60418
  21 324.076 7.38832 -0.373800
  22 340.382 -2.01641 -2.54196
  23 317.877 2.65751 -5.87007
  24 314.161 -1.25112 -6.91513
  25 310.419 -5.92230 0.950390
  26 300.271 -6.54789 8.55870
  27 255.091 -1.14598 18.0635
  28 221.948 0.424907 18.3453
  29 189.410 2.45048 14.6084
  30 170.662 0.732022 9.22860
  31 152.770 0.981737 8.75491
  32 141.194 1.62276 4.81588
  33 133.744 1.11360 2.26260
  34 130.406 0.636554 0.810703
  35 136.080 1.07137 1.29016
  36 141.935 4.08105 1.92564
  37 146.062 6.75856 1.87784
  38 152.200 9.04725 1.13603
  39 158.593 10.3081 0.465962
  40 166.531 9.91242 -0.161665
  41 175.463 8.22098 -0.420742
  42 188.876 5.41629 -1.08823
  43 198.510 3.35340 -0.113753
  44 206.123 1.96754 -0.612615
  45 213.930 0.0220120 -1.32397
  46 218.790 -0.441980 -1.67019
  47 220.171 0.577144 -3.00620
  48 227.634 0.143636 -3.92302
  49 238.422 -1.20459 -3.40076
  50 246.036 -1.26401 -3.66549
  51 250.393 -1.66660 -2.10719
  52 251.584 -2.45392 0.988556
  53 245.520 -2.84881 6.02620
  54 233.425 -0.952401 8.69916
  55 212.122 0.999020 9.68143
  56 191.771 3.79584 7.20335
  57 181.618 4.23186 3.29655
  58 179.685 4.68910 -3.98653
  59 193.812 2.73451 -7.05348
  60 211.577 0.633980 -8.06620
  61 233.718 -0.768062 -8.19756
  62 245.643 -2.75647 -5.89977
  63 251.577 -2.42900 -0.980466
  64 250.378 -1.66569 2.10414
  65 246.022 -1.26396 3.66302
  66 238.411 -1.20414 3.39958
  67 227.626 0.143559 3.92168
  68 220.166 0.576945 3.00516
  69 218.785 -0.441959 1.66959
  70 213.926 0.0219473 1.32356
  71 206.121 1.96698 0.612342
  72 198.509 3.35223 0.113529
  73 188.876 5.41444 1.08782
  74 175.465 8.21832 0.420507
  75 166.534 9.90920 0.161511
  76 158.595 10.3047 -0.465946
  77 152.202 9.04413 -1.13585
  78 146.062 6.75627 -1.87734
  79 141.933 4.07958 -1.92532
  80 136.078 1.07067 -1.28981
  81 31.1235 -101.946 2.77027
  82 91.1107 -33.6638 28.6847
  83 175.505 15.0142 62.1382
  84 259.921 33.9085 76.5452
  85 338.770 30.9318 79.7670
  86 416.496 13.0032 69.7196
  87 446.649 1.77949 33.0453
  88 447.745 1.49073 -33.4000
  89 417.128 12.3166 -69.7507
  90 338.523 31.0323 -79.4932
  91 259.822 34.0563 -76.4603
  92 175.429 15.0908 -62.1624
  93 91.1090 -33.6147 -28.6985
  94 31.1178 -101.968 -2.77278
  95 19.4570 -113.638 -8.98238
  96 69.7202 -50.7832 15.4605
  97 144.918 -7.90888 37.6084
  98 245.034 18.1419 54.2985
  99 343.804 20.2745 53.9155
  100 427.534 8.44174 49.1762
  101 496.252 0.752593 35.5312
  102 484.152 -0.664087 -31.1900
  103 428.618 10.9876 -47.9594
  104 344.023 20.0931 -53.9180
  105 245.138 18.1711 -54.4198
  106 145.061 -7.82199 -37.7017
  107 69.8295 -50.6693 -15.5320
  108 19.5221 -113.492 8.92086
  109 139.455 18.9947 -5.53041
  110 139.462 18.9950 5.52561
  111 193.344 -15.5216 25.2671
  112 193.366 -15.5554 -25.2640
  113 98.9850 21.3283 20.7119
  114 99.0133 21.3240 -20.7198
  115 186.399 7.03140 9.05144
  116 186.398 7.03232 -9.05348
  117 142.659 10.9455 9.49388
  118 142.662 10.9419 -9.49135
  119 252.784 -8.34435 9.74188
  120 252.876 -8.21630 -9.90805
  121 108.438 -0.661677 34.2460
  122 108.441 -0.682595 -34.2704
  123 274.403 13.4848 -7.78822
  124 273.451 12.7569 8.31392
  125 158.102 13.0471 1.60120
  126 158.098 13.0502 -1.60198
  127 196.062 1.92972 -16.4809
  128 196.062 1.93416 16.4814
  129 134.531 -5.80366 47.6921
  130 134.570 -5.80153 -47.6849
  131 195.674 -32.3551 34.2379
  132 195.711 -32.3730 -34.2793
  133 142.430 13.0373 -21.4804
  134 142.428 13.0427 21.4867
  135 234.108 -11.4846 0.458317
  136 234.121 -11.4157 -0.419359
  137 165.431 6.57542 20.2371
  138 165.432 6.56625 -20.2405
  139 53.4605 2.60340 0.453038
  140 53.4943 2.62032 -0.480904
  141 123.587 22.4039 -11.3800
  142 123.574 22.4092 11.3775
  143 224.446 -5.70903 -9.72091
  144 224.450 -5.70170 9.73049
  145 203.764 2.17478 3.94070
  146 203.766 2.17546 -3.94198
  147 158.338 8.80661 -35.4433
  148 158.337 8.81319 35.4561
  149 141.114 4.10668 5.33295
  150 141.112 4.10526 -5.33123
  151 319.827 17.4280 0.795774
  152 165.310 10.7176 12.1911
  153 165.308 10.7163 -12.1941
  154 175.692 8.51906 3.78613
  155 175.690 8.52142 -3.78724
  156 149.444 10.6679 3.27573
  157 149.447 10.6646 -3.27496
  158 144.720 15.8795 -4.08921
  159 144.714 15.8833 4.08925
  160 208.243 2.29337 -8.69157
  161 208.241 2.29301 8.68949
  162 226.184 -15.4066 -26.0335
  163 226.173 -15.4179 26.0305
  164 115.962 18.4934 10.3710
  165 115.952 18.4875 -10.3842
  166 244.508 -11.8953 22.0191
  167 244.591 -11.8798 -22.1749
  168 118.564 -32.1987 48.8415
  169 118.581 -32.2110 -48.8655
  170 292.256 8.40297 9.98654
  171 292.988 9.53186 -10.5833
  172 145.290 5.99792 -12.2364
  173 145.293 6.00039 12.2407
  174 236.195 9.56027 4.49507
  175 240.451 2.57105 17.7691
  176 235.746 2.63189 -16.9489
  177 233.831 -23.5786 7.07581
  178 233.914 -23.6503 -7.08543
  179 153.551 -1.30945 29.8792
  180 153.562 -1.33022 -29.8888
  181 239.916 -6.77788 -11.7257
  182 239.938 -7.18267 11.7641
  183 156.198 -20.2959 41.4149
  184 156.220 -20.3272 -41.4324
  185 153.564 15.3422 -4.65752
  186 153.569 15.3403 4.65528
  187 344.607 20.2524 16.6495
  188 346.251 18.8596 -16.9948
  189 139.097 14.9305 -12.8808
  190 139.092 14.9354 12.8836
  191 168.387 11.3561 6.62352
  192 168.384 11.3579 -6.62541
  193 194.752 -2.26549 19.5916
  194 194.754 -2.27713 -19.5878
  195 226.156 6.28999 -9.72957
  196 185.022 6.38470 13.5784
  197 185.022 6.38317 -13.5802
  198 47.8054 -31.6073 -28.6716
  199 47.7359 -31.6505 28.6466
  200 273.003 -7.42485 -11.3082
  201 273.011 -7.39371 11.2851
  202 161.637 10.7097 -0.389264
  203 161.640 10.7063 0.389091
  204 44.1681 -29.1104 -24.0047
  205 44.1851 -29.0791 23.9746
  206 223.795 -1.23414 -9.44298
  207 223.793 -1.23358 9.44346
  208 85.9703 17.7949 0.558412
  209 85.9479 17.7898 -0.577464
  210 215.384 -4.49384 -30.9565
  211 215.409 -4.49296 30.9746
  212 165.700 4.32214 -22.0877
  213 165.711 4.32527 22.0974
  214 150.527 -24.6084 44.3301
  215 150.529 -24.5736 -44.3633
  216 145.624 7.29767 3.75155
  217 145.624 7.29509 -3.75025
  218 133.995 16.6431 -31.1856
  219 133.983 16.6516 31.1928
  220 140.276 13.1048 18.4591
  221 140.274 13.0963 -18.4678
  222 187.153 5.97914 3.44900
  223 187.152 5.98096 -3.44999
  224 93.8162 13.7924 33.6709
  225 93.8549 13.7888 -33.6762
  226 207.444 -23.1918 -21.8912
  227 207.409 -23.1409 21.8921
  228 95.4104 -24.9514 37.8936
  229 95.4830 -24.9133 -37.9125
  230 210.396 1.27656 -5.25369
  231 210.393 1.27619 5.25212
  232 241.955 -3.07694 1.74927
  233 241.950 -3.08124 -1.74437
  234 151.795 6.33091 -16.0296
  235 151.801 6.33412 16.0354
  236 239.730 8.68771 11.0637
  237 339.678 3.23252 18.2192
  238 339.819 3.35580 -18.2246
  239 279.923 14.0227 45.7993
  240 279.689 14.3718 -45.8865
  241 133.505 20.8070 -3.94172
  242 133.496 20.8104 3.93906
  243 222.120 -12.7626 -10.2704
  244 222.118 -12.7266 10.2966
  245 140.404 2.27830 -5.88509
  246 140.408 2.27917 5.88726
  247 382.571 9.56945 -12.0336
  248 222.229 0.746730 -7.12970
  249 222.224 0.746544 7.12828
  250 150.462 13.6015 -2.14520
  251 150.458 13.6051 2.14529
  252 109.568 23.6500 -7.44001
  253 109.550 23.6528 7.43136
  254 265.751 4.53316 10.4175
  255 264.374 4.56039 -10.5162
  256 380.841 9.54403 11.7499
  257 152.670 13.7567 13.7254
  258 152.667 13.7531 -13.7304
  259 180.217 4.69720 -18.3743
  260 180.217 4.70328 18.3731
  261 208.098 1.22066 1.75974
  262 208.100 1.22106 -1.76033
  263 386.031 -3.78286 16.2856
  264 384.285 2.21458 -13.8843
  265 261.903 14.1473 -4.94997
  266 129.036 7.60589 25.9590
  267 129.038 7.59042 -25.9738
  268 128.715 7.30269 -43.8654
  269 128.688 7.30856 43.8737
  270 197.862 3.99563 7.42432
  271 197.863 3.99644 -7.42626
  272 143.272 6.82719 -9.37133
  273 143.273 6.82968 9.37445
  274 135.867 1.17244 1.76669
  275 135.864 1.17192 -1.76598
  276 125.115 22.4301 0.334851
  277 125.104 22.4312 -0.341512
  278 241.769 -5.05076 -4.37624
  279 241.739 -5.11563 4.40340
  280 20.9448 -42.9895 3.61177
  281 20.9887 -42.9429 -3.63829
  282 170.914 9.55646 -1.40111
  283 170.916 9.55348 1.40067
  284 186.143 6.72277 6.14310
  285 186.142 6.72441 -6.14475
  286 215.494 4.06232 51.5166
  287 215.421 4.15286 -51.5907
  288 240.337 -13.7094 -6.35670
  289 240.398 -13.8387 6.36425
  290 154.477 10.5540 -0.788055
  291 154.475 10.5574 0.788244
  292 207.338 1.64716 -27.9817
  293 207.368 1.65034 27.9972
  294 238.909 -1.22438 5.01476
  295 238.914 -1.22484 -5.01518
  296 337.964 14.8210 -42.2962
  297 337.381 14.5737 41.9866
  298 145.193 -21.3086 -35.5624
  299 145.111 -21.3626 35.5234
  300 231.675 -1.49011 13.2413
  301 231.675 -0.728265 -13.0989
  302 143.327 11.4094 -17.1558
  303 143.327 11.4139 17.1611
  304 74.6210 1.40270 23.4390
  305 74.6077 1.38440 -23.4680
  306 145.265 10.0451 6.32332
  307 145.266 10.0418 -6.32154
  308 176.223 -3.84414 25.2024
  309 176.231 -3.86340 -25.2029
  310 272.478 17.1874 2.92859
  311 131.719 17.7405 -21.9872
  312 131.709 17.7471 21.9912
  313 262.433 -2.91563 -4.14700
  314 262.092 -3.09416 3.99734
  315 164.477 11.0310 -1.93775
  316 164.480 11.0280 1.93707
  317 405.226 -2.02010 -4.92047
  318 435.510 -5.58214 11.1437
  319 192.407 2.69186 -23.4741
  320 192.433 2.69424 23.4861
  321 284.597 5.25479 -34.2392
  322 284.523 5.36317 34.1412
  323 198.536 3.44313 1.80714
  324 198.537 3.44427 -1.80780
  325 156.239 11.7689 -0.489209
  326 156.235 11.7723 0.489152
  327 149.585 8.94421 -1.66472
  328 149.584 8.94724 1.66521
  329 208.932 -2.60668 -14.3475
  330 208.932 -2.60084 14.3513
  331 309.358 16.5800 0.176576
  332 179.968 7.38604 -1.82563
  333 179.969 7.38364 1.82508
  334 141.478 4.02270 2.46145
  335 141.476 4.02121 -2.46070
  336 141.639 15.1698 -8.18312
  337 141.634 15.1741 8.18448
  338 219.618 2.62236 -11.7460
  339 210.051 -4.03942 -36.9952
  340 209.974 -4.07343 36.9382
  341 219.588 1.09789 -4.88666
  342 219.583 1.09760 4.88522
  343 227.469 -26.3419 17.8646
  344 227.536 -26.4038 -17.9317
  345 203.473 2.83124 12.1109
  346 203.474 2.83089 -12.1126
  347 196.169 4.70852 10.7488
  348 196.169 4.70875 -10.7509
  349 224.831 -21.6056 9.96003
  350 224.871 -21.6691 -9.94321
  351 64.0087 -46.7983 32.7459
  352 64.0148 -46.7993 -32.7617
  353 151.248 14.8772 0.819594
  354 151.243 14.8801 -0.820729
  355 213.653 0.283156 2.49295
  356 213.657 0.283330 -2.49382
  357 118.454 22.1136 -22.5112
  358 118.436 22.1213 22.5108
  359 175.758 -16.4560 -40.9504
  360 175.733 -16.4671 40.9602
  361 174.560 9.61299 9.81994
  362 174.558 9.61350 -9.82218
  363 245.508 -4.47512 16.3302
  364 245.110 -3.89187 -16.6200
  365 143.864 17.4006 0.806178
  366 143.858 17.4030 -0.808282
  367 125.666 -19.3524 -44.5785
  368 125.649 -19.3271 44.5554
  369 204.903 -8.80655 -17.9179
  370 204.897 -8.78527 17.9283
  371 311.791 17.3211 -1.76572
  372 247.026 -15.2606 2.36169
  373 247.171 -15.3355 -2.39585
  374 74.2290 15.3437 17.3803
  375 74.2670 15.3470 -17.3973
  376 169.775 -11.8503 33.0652
  377 169.794 -11.8787 -33.0733
  378 282.572 -8.71294 9.42422
  379 282.505 -8.71970 -9.41660
  380 219.464 3.11718 12.5573
  381 207.101 6.05900 -0.926832
  382 157.199 -30.0380 43.0900
  383 157.225 -30.0586 -43.1141
  384 145.746 12.9916 5.86700
  385 145.750 12.9877 -5.86577
  386 247.989 7.03849 -12.7285
  387 170.566 8.25728 15.9642
  388 170.565 8.25332 -15.9670
  389 212.724 -26.3351 31.4967
  390 212.749 -26.3073 -31.5804
  391 145.409 1.76063 -7.76890
  392 145.416 1.76148 7.77189
  393 300.564 16.3978 5.96618
  394 302.355 16.9407 -6.23455
  395 252.824 -8.85906 20.1509
  396 252.777 -8.85675 -20.1372
  397 187.428 -25.7198 33.1982
  398 187.462 -25.7557 -33.2128
  399 170.683 -0.0501130 -41.6991
  400 170.675 -0.0471081 41.7150
  401 119.690 18.1130 -34.5729
  402 119.667 18.1225 34.5774
  403 100.583 11.7110 19.7908
  404 100.576 11.6979 -19.8122
  405 206.665 4.30833 6.06361
  406 151.900 15.2634 -7.96507
  407 151.905 15.2632 7.96170
  408 151.819 4.92300 25.9588
  409 151.822 4.90748 -25.9664
  410 138.512 -7.37496 -36.9930
  411 138.499 -7.34955 36.9763
  412 135.444 1.55089 3.01694
  413 135.440 1.55041 -3.01580
  414 161.634 13.0471 -7.82356
  415 161.638 13.0463 7.82113
  416 160.409 13.7604 4.40037
  417 160.405 13.7628 -4.40200
  418 38.5957 -62.0910 12.9711
  419 38.6762 -61.9946 -13.0201
  420 248.216 4.33549 15.4790
  421 176.396 8.96709 6.61094
  422 176.394 8.96888 -6.61270
  423 143.990 7.30102 7.25533
  424 143.990 7.29841 -7.25308
  425 133.185 19.5296 12.6508
  426 133.193 19.5242 -12.6501
  427 142.367 9.82783 -13.2192
  428 142.366 9.83148 13.2234
  429 211.622 0.253863 -12.5788
  430 211.621 0.254842 12.5784
  431 147.584 12.0731 -26.9591
  432 147.582 12.0789 26.9676
  433 86.0391 -18.2401 -40.1839
  434 86.0340 -18.2153 40.1563
  435 311.078 -2.07012 2.26572
  436 311.105 -2.14274 -2.24559
  437 392.928 7.21432 40.3668
  438 394.291 6.48468 -40.4874
  439 132.713 17.7420 9.68021
  440 132.707 17.7383 -9.68806
  441 15.0031 -84.6529 -12.7599
  442 15.0203 -84.6072 12.7472
  443 232.760 -8.63823 3.75013
  444 232.742 -8.65591 -3.72762
  445 239.612 -2.13351 9.21517
  446 239.589 -2.02281 -9.02910
  447 17.5962 -86.9270 4.19358
  448 17.6538 -86.8317 -4.23123
  449 216.096 -27.7605 -19.8517
  450 216.043 -27.7078 19.8305
  451 235.960 -0.360422 -4.61287
  452 235.952 -0.360334 4.61169
  453 215.202 1.71555 -12.1007
  454 238.779 -9.53604 -7.82357
  455 238.712 -9.68828 7.89648
  456 182.789 2.02143 -19.9516
  457 182.787 2.03033 19.9521
  458 166.543 2.00508 -11.9205
  459 166.560 2.00604 11.9258
  460 58.7627 0.0279148 24.6827
  461 58.8132 0.0412034 -24.7031
  462 211.206 -17.1042 17.4399
  463 211.229 -17.1455 -17.4258
  464 194.607 5.09901 4.58566
  465 194.608 5.10043 -4.58703
  466 138.264 17.9615 -7.01854
  467 138.257 17.9658 7.01858
  468 211.565 0.775032 0.694276
  469 211.568 0.775226 -0.694498
  470 167.163 11.3487 -4.33128
  471 167.166 11.3462 4.32994
  472 130.880 0.137471 0.493790
  473 130.877 0.137284 -0.493544
  474 137.127 15.5440 -18.1682
  475 137.121 15.5493 18.1722
  476 93.5523 -5.06092 -41.1290
  477 93.4985 -5.07088 41.1218
  478 198.961 1.45566 -6.34156
  479 14.6206 -15.8064 0.179313
  480 12.0316 -11.1460 -0.783145
  481 11.7656 -10.1246 1.01925
  482 14.5075 -15.2186 0.886474
  483 13.3292 -16.5479 -2.69294
  484 13.9541 -15.0610 -1.11493
  485 12.9321 -15.3238 3.12308
  486 12.4809 -11.3128 1.93141
  487 11.1959 -9.66594 -3.27637
  488 15.2235 -15.6858 -0.0509127
  489 13.6047 -19.1038 0.244014
  490 9.68250 -5.86729 -0.814830
  491 12.0661 -10.5235 -1.88916
  492 10.7452 -8.67279 3.32622
  493 14.0479 -14.7950 -0.556500
  494 9.48781 -5.47314 0.856948
  495 13.7259 -13.9579 0.583388
  496 10.3292 -6.72024 0.639364
  497 10.0650 -5.94436 -0.391148
  498 14.6208 -15.6016 -0.0185014
  499 14.3582 -16.9321 -0.222303
  500 9.96307 -5.91921 -2.31231
  501 13.1338 -14.3878 2.52676
  502 11.7282 -13.8561 -4.96457
  503 14.2788 -16.3752 -1.55482
  504 12.0920 -19.0262 2.89222
  505 15.0538 -16.4419 0.925940
  506 12.9397 -19.6145 -1.80985
  507 12.9654 -12.9012 -2.62302
  508 11.5108 -11.3885 4.62718
  509 13.3960 -13.1449 0.256084
  510 12.7043 -12.9394 -2.21289
  511 9.74130 -5.33298 2.15874
  512 12.6414 -12.9070 1.88953
  513 14.1098 -15.4215 1.34231
  514 14.4873 -15.0454 0.105879
  515 12.9147 -11.8144 -0.230262
  516 10.9437 -8.70556 -1.74256
  517 11.2293 -7.63288 2.29492
  518 9.19682 -4.51243 0.419512
  519 13.9779 -17.4915 0.943220
  520 11.6818 -9.51213 0.701307
  521 12.2683 -11.2861 3.21490
  522 11.0195 -9.35880 -4.53438
  523 14.0705 -15.7943 -1.16359
  524 10.4367 -7.91617 1.69069
  525 8.97158 -4.51344 -1.23305
  526 17.6156 -16.7982 -0.760404
  527 13.7235 -21.1624 1.11586
  528 9.03148 -4.36505 -0.108135
  529 10.3924 -6.64907 -1.52238
  530 11.1609 -8.52171 -0.551146
  531 10.4973 -6.36979 -3.58660
  532 14.5796 -15.6757 -0.222686
  533 14.4359 -15.3178 -0.0562303
  534 10.3987 -5.61200 3.28284
  535 13.5037 -13.1254 1.85468
  536 12.0471 -12.8118 -3.96291
  537 14.7956 -15.6838 0.107953
  538 14.0036 -17.9795 -0.664900
  539 11.6217 -8.90603 -3.09272
  540 10.6897 -8.23322 -0.505678
  541 8.76914 -4.07506 -0.556877
  542 11.8536 -11.9015 3.39841
  543 8.90380 -4.22620 1.20904
  544 14.5270 -15.8375 -0.257616
  545 13.5316 -13.7029 -1.03688
  546 13.3073 -13.0633 -1.33578
  547 17.6586 -16.6819 0.461929
  548 13.7783 -20.9399 -0.809258
  549 12.3926 -16.6765 2.82047
  550 10.3548 -18.4470 -4.75256
  551 10.1435 -5.22582 1.47153
  552 12.4592 -15.5113 -3.00284
  553 11.1854 -15.6421 5.33268
  554 10.3581 -7.57401 0.536217
  555 10.6606 -7.60896 4.31907
  556 12.8136 -12.3995 0.831785
  557 14.4437 -15.4520 0.632212
  558 13.7216 -13.9896 -0.276263
  559 8.69442 -3.89218 0.603492
  560 9.42559 -4.72812 -0.819297
  561 11.7590 -9.95406 2.33132
  562 14.3322 -16.5188 0.473562
  563 8.55883 -3.49493 0.153671
  564 19.8987 -17.5998 -0.245217
  565 8.67856 -3.67554 -0.0884990
  566 14.2441 -22.2306 0.129756
  567 8.85050 -3.92758 -0.453280
  568 9.65762 -4.27462 -1.07189
  569 10.7827 -5.29789 -2.17932
  570 11.4029 -7.79651 -3.85065
  571 11.1057 -13.3412 -4.10280
  572 11.1004 -17.0549 -3.89258
  573 16.7739 -17.2609 -2.28093
  574 15.6437 -16.7840 2.04401
  575 9.98361 -17.1649 4.10109
  576 11.5342 -14.2062 3.73158
  577 11.3648 -8.37996 3.58369
  578 10.5166 -5.46441 1.90485
  579 9.38175 -4.53459 1.05211
  580 8.80085 -3.81814 0.414722
  581 8.67053 -3.61984 -0.826710
  582 9.26084 -3.93097 -1.59693
  583 9.85735 -4.96640 -2.79384
  584 10.7280 -6.28035 -4.02136
  585 10.7575 -12.5778 -5.50190
  586 7.15681 -19.1654 -5.61720
  587 11.2594 -20.3535 -2.94404
  588 11.8813 -21.3223 3.08533
  589 8.97989 -18.8190 5.73318
  590 10.2219 -11.2929 5.81609
  591 10.6813 -5.66423 3.92159
  592 9.89386 -4.60098 2.55484
  593 9.19039 -3.78337 1.51112
  594 8.61594 -3.47282 0.819589
</Section>

newXOutput 8

<Section columns = "stress_xx | stress_yy | stress_xy">
  1 147.503 1.12831 -1.16692
  2 147.506 1.12855 1.16717
  3 247.943 0.205562 -0.155542
  4 247.939 0.205369 0.155348
  5 9.29367 -151.808 6.74459
  6 512.951 4.07356 -0.212721
  7 9.24854 -151.929 -6.77338
  8 595.898 -2.24456 -4.50732
  9 149.813 0.740462 -0.931775
  10 153.694 1.30210 -2.61730
  11 162.342 1.89559 -5.59870
  12 175.832 1.15116 -10.1867
  13 196.594 0.872847 -10.7398
  14 218.516 2.87545 -17.0304
  15 256.470 0.509530 -21.4136
  16 295.316 -1.30918 -21.1638
  17 348.215 -7.61246 -10.1513
  18 360.574 -6.90033 -1.42143
  19 365.676 -1.44582 7.73058
  20 372.167 5.09727 4.86299
  21 379.609 8.52331 -0.660759
  22 398.566 -2.50209 -2.80259
  23 371.405 3.03841 -6.32880
  24 365.886 -1.41434 -7.56489
  25 360.702 -6.85956 1.45770
  26 348.339 -7.61432 10.1660
  27 295.391 -1.30783 21.1798
  28 256.526 0.510919 21.4269
  29 218.550 2.87713 17.0389
  30 196.620 0.872673 10.7449
  31 175.847 1.15149 10.1913
  32 162.352 1.89629 5.60106
  33 153.700 1.30249 2.61868
  34 149.817 0.740758 0.932385
  35 156.547 1.22980 1.50605
  36 163.484 4.74336 2.25750
  37 168.414 7.86012 2.19011
  38 175.713 10.5159 1.33071
  39 183.256 11.9885 0.548904
  40 192.577 11.5315 -0.181943
  41 203.034 9.56647 -0.483166
  42 218.691 6.29863 -1.26220
  43 229.930 3.90020 -0.119322
  44 238.814 2.29593 -0.708828
  45 247.918 0.0205129 -1.54394
  46 253.575 -0.524187 -1.94143
  47 255.182 0.674897 -3.49979
  48 263.892 0.170088 -4.58225
  49 276.495 -1.41168 -3.98292
  50 285.432 -1.47969 -4.30999
  51 290.620 -1.94660 -2.51451
  52 292.137 -2.87919 1.08062
  53 285.224 -3.35549 6.98222
  54 271.186 -1.13560 10.1223
  55 246.375 1.16718 11.3123
  56 222.600 4.47174 8.43816
  57 210.724 4.99713 3.87674
  58 208.463 5.52502 -4.67617
  59 224.986 3.21152 -8.24873
  60 245.742 0.734315 -9.41545
  61 271.526 -0.918631 -9.53705
  62 285.364 -3.24739 -6.83508
  63 292.126 -2.85023 -1.07148
  64 290.600 -1.94548 2.51073
  65 285.413 -1.47958 4.30687
  66 276.480 -1.41111 3.98133
  67 263.882 0.169984 4.58047
  68 255.174 0.674626 3.49843
  69 253.569 -0.524172 1.94064
  70 247.914 0.0204261 1.54341
  71 238.811 2.29520 0.708470
  72 229.929 3.89868 0.119025
  73 218.692 6.29621 1.26167
  74 203.036 9.56301 0.482865
  75 192.581 11.5274 0.181753
  76 183.259 11.9841 -0.548871
  77 175.716 10.5119 -1.33047
  78 168.414 7.85722 -2.18946
  79 163.483 4.74150 -2.25709
  80 156.544 1.22892 -1.50561
  81 34.1026 -119.358 3.04698
  82 103.824 -39.3540 33.3854
  83 202.157 17.8008 72.6662
  84 300.586 40.1513 89.8698
  85 392.732 36.2480 94.1238
  86 483.828 14.6779 82.4536
  87 520.168 1.24210 39.2941
  88 521.462 0.994192 -39.6895
  89 484.550 13.7795 -82.4887
  90 392.427 36.3901 -93.8155
  91 300.473 40.3162 -89.7601
  92 202.060 17.8781 -72.6917
  93 103.817 -39.3077 -33.4001
  94 34.0930 -119.393 -3.05105
  95 20.6489 -132.819 -10.4650
  96 79.0800 -59.1692 18.2028
  97 166.650 -8.95927 44.2300
  98 283.463 21.7193 64.0132
  99 398.958 24.1425 64.0066
  100 497.343 9.66563 58.6614
  101 578.544 0.260835 42.3171
  102 564.482 -1.39686 -37.2435
  103 498.608 12.7149 -57.2492
  104 399.220 23.9035 -64.0038
  105 283.580 21.7573 -64.1591
  106 166.818 -8.85433 -44.3393
  107 79.2091 -59.0351 -18.2866
  108 20.7258 -132.649 10.3922
  109 160.956 22.3013 -6.40836
  110 160.965 22.3011 6.40292
  111 223.733 -17.9741 29.6711
  112 223.758 -18.0150 -29.6679
  113 113.644 25.1387 24.3045
  114 113.677 25.1339 -24.3130
  115 215.799 8.23783 10.5540
  116 215.798 8.23923 -10.5567
  117 164.479 12.7698 11.0655
  118 164.482 12.7654 -11.0622
  119 293.507 -9.78842 11.0640
  120 293.614 -9.63546 -11.2555
  121 124.590 -0.453515 39.9415
  122 124.591 -0.479102 -39.9700
  123 319.347 15.6329 -8.86835
  124 318.226 14.7889 9.49125
  125 182.725 15.2271 1.85577
  126 182.720 15.2312 -1.85666
  127 227.051 2.35481 -19.2958
  128 227.051 2.35985 19.2957
  129 154.984 -6.48682 55.9319
  130 155.030 -6.48422 -55.9232
  131 226.273 -37.7012 40.2540
  132 226.316 -37.7279 -40.3031
  133 164.133 15.2545 -25.0677
  134 164.130 15.2609 25.0755
  135 271.593 -13.4036 0.333497
  136 271.607 -13.3226 -0.287107
  137 191.250 7.84828 23.6329
  138 191.250 7.83776 -23.6372
  139 60.5012 3.40160 0.676230
  140 60.5417 3.42253 -0.708431
  141 142.367 26.2742 -13.3417
  142 142.352 26.2805 13.3394
  143 260.252 -6.61947 -11.4890
  144 260.256 -6.61067 11.4997
  145 236.059 2.53434 4.58822
  146 236.062 2.53524 -4.58990
  147 182.659 10.3742 -41.4506
  148 182.659 10.3818 41.4661
  149 162.483 4.78215 6.20839
  150 162.480 4.78038 -6.20621
  151 372.700 20.1806 0.925932
  152 191.163 12.6040 14.2125
  153 191.159 12.6029 -14.2163
  154 203.301 9.93011 4.40689
  155 203.298 9.93323 -4.40831
  156 172.494 12.4241 3.81947
  157 172.497 12.4198 -3.81843
  158 167.041 18.5544 -4.78501
  159 167.034 18.5593 4.78530
  160 241.287 2.70064 -10.1502
  161 241.284 2.70008 10.1474
  162 262.028 -17.8015 -30.8329
  163 262.018 -17.8163 30.8298
  164 133.502 21.8279 12.0215
  165 133.489 21.8210 -12.0365
  166 283.335 -13.7455 26.1507
  167 283.436 -13.7328 -26.3296
  168 136.192 -37.4138 57.1264
  169 136.210 -37.4328 -57.1552
  170 339.589 9.76760 12.3316
  171 340.443 11.0943 -13.0374
  172 167.335 6.99611 -14.2540
  173 167.340 6.99910 14.2593
  174 274.708 11.1691 5.24447
  175 279.414 2.95156 20.6298
  176 273.943 3.03588 -19.6995
  177 271.081 -27.5516 8.57151
  178 271.178 -27.6401 -8.58063
  179 177.279 -1.28293 34.9101
  180 177.290 -1.30767 -34.9217
  181 278.594 -7.96977 -13.5552
  182 278.618 -8.44380 13.6008
  183 180.251 -23.4811 48.4753
  184 180.275 -23.5199 -48.4965
  185 177.441 17.9607 -5.40812
  186 177.447 17.9580 5.40551
  187 401.361 23.2964 20.0533
  188 403.282 21.6451 -20.4498
  189 160.355 17.4496 -15.0296
  190 160.349 17.4556 15.0333
  191 194.767 13.2811 7.70984
  192 194.763 13.2836 -7.71221
  193 225.490 -2.51045 22.9657
  194 225.492 -2.52413 -22.9620
  195 262.897 7.35142 -11.3615
  196 214.177 7.53251 15.8597
  197 214.176 7.53106 -15.8623
  198 53.7990 -36.5620 -33.6818
  199 53.7174 -36.6130 33.6522
  200 316.893 -8.51432 -13.7028
  201 316.907 -8.47684 13.6737
  202 186.841 12.4636 -0.450786
  203 186.845 12.4592 0.450590
  204 49.5372 -33.7003 -27.9435
  205 49.5592 -33.6612 27.9081
  206 259.472 -1.40495 -11.0977
  207 259.469 -1.40428 11.0977
  208 98.4797 21.0657 0.523756
  209 98.4523 21.0592 -0.545472
  210 249.252 -5.13991 -36.3188
  211 249.283 -5.13904 36.3402
  212 191.092 5.05314 -25.7718
  213 191.106 5.05680 25.7835
  214 173.350 -28.5757 51.9315
  215 173.350 -28.5426 -51.9706
  216 167.904 8.48819 4.36006
  217 167.905 8.48494 -4.35840
  218 154.367 19.5347 -36.4589
  219 154.354 19.5445 36.4680
  220 161.881 15.5093 21.5076
  221 161.878 15.4996 -21.5178
  222 216.684 6.96564 4.01669
  223 216.684 6.96803 -4.01797
  224 107.564 16.3874 39.4713
  225 107.609 16.3835 -39.4770
  226 240.189 -26.9966 -25.7991
  227 240.149 -26.9347 25.8002
  228 109.257 -28.8006 44.5250
  229 109.343 -28.7558 -44.5470
  230 243.792 1.49508 -6.12495
  231 243.787 1.49457 6.12286
  232 280.803 -3.57340 2.14063
  233 280.798 -3.57847 -2.13509
  234 174.892 7.39664 -18.6932
  235 174.900 7.40046 18.7003
  236 278.780 10.1276 12.8673
  237 395.432 3.86858 22.1833
  238 395.601 4.01695 -22.1823
  239 324.562 16.6797 54.2025
  240 324.291 17.1065 -54.2976
  241 153.976 24.3828 -4.64311
  242 153.965 24.3871 4.64039
  243 257.495 -14.8523 -12.1902
  244 257.492 -14.8093 12.2206
  245 161.549 2.65435 -6.84564
  246 161.554 2.65541 6.84835
  247 446.011 10.6704 -14.4002
  248 257.613 0.894667 -8.34406
  249 257.605 0.894386 8.34202
  250 173.751 15.8706 -2.51002
  251 173.746 15.8752 2.51028
  252 126.031 27.8076 -8.77960
  253 126.009 27.8109 8.77009
  254 308.917 5.22126 11.8368
  255 307.306 5.25576 -11.9536
  256 443.992 10.5901 14.0585
  257 176.384 16.2032 15.9903
  258 176.379 16.1994 -15.9962
  259 208.543 5.61667 -21.4811
  260 208.543 5.62351 21.4792
  261 241.114 1.42150 2.04926
  262 241.118 1.42201 -2.05002
  263 450.534 -4.80101 19.7910
  264 448.499 2.25575 -16.9911
  265 304.825 16.4961 -5.74158
  266 148.701 9.15248 30.2655
  267 148.701 9.13413 -30.2829
  268 148.213 8.75037 -51.3819
  269 148.181 8.75709 51.3921
  270 229.177 4.67224 8.65670
  271 229.178 4.67340 -8.65930
  272 165.045 7.95850 -10.9102
  273 165.047 7.96156 10.9141
  274 156.277 1.35770 2.04912
  275 156.273 1.35705 -2.04822
  276 144.200 26.3433 0.322260
  277 144.187 26.3449 -0.329634
  278 280.694 -5.90685 -4.98926
  279 280.661 -5.98250 5.02119
  280 22.5001 -49.8971 4.35216
  281 22.5521 -49.8409 -4.38379
  282 197.711 11.1229 -1.62955
  283 197.714 11.1191 1.62900
  284 215.507 7.84850 7.15628
  285 215.506 7.85071 -7.15845
  286 249.118 5.11770 60.5167
  287 249.032 5.21350 -60.6025
  288 278.901 -16.0466 -7.18299
  289 278.970 -16.1999 7.19440
  290 178.413 12.2795 -0.918293
  291 178.410 12.2839 0.918561
  292 239.703 1.98408 -32.7402
  293 239.738 1.98776 32.7585
  294 277.161 -1.40756 5.92210
  295 277.169 -1.40811 -5.92294
  296 392.753 17.0165 -50.3455
  297 392.075 16.7493 49.9705
  298 167.277 -24.6049 -41.8984
  299 167.181 -24.6696 41.8534
  300 269.132 -1.77061 15.3999
  301 269.133 -0.874584 -15.2386
  302 165.159 13.3298 -20.0045
  303 165.158 13.3352 20.0111
  304 85.1585 1.97754 27.2651
  305 85.1409 1.95487 -27.2987
  306 167.536 11.7032 7.36553
  307 167.538 11.6990 -7.36321
  308 203.795 -4.30269 29.5032
  309 203.804 -4.32555 -29.5043
  310 317.218 20.0469 3.33726
  311 151.747 20.7856 -25.6947
  312 151.736 20.7934 25.7000
  313 304.610 -3.36077 -5.34424
  314 304.211 -3.57131 5.17209
  315 190.183 12.8559 -2.25127
  316 190.187 12.8519 2.25045
  317 473.779 -2.77656 -6.00291
  318 508.830 -7.03249 13.3820
  319 222.178 3.16642 -27.4140
  320 222.209 3.16917 27.4283
  321 330.304 6.52136 -40.7914
  322 330.224 6.66038 40.6704
  323 229.962 4.00763 2.09908
  324 229.963 4.00913 -2.09993
  325 180.515 13.7106 -0.575467
  326 180.510 13.7150 0.575462
  327 172.619 10.4024 -1.93741
  328 172.617 10.4063 1.93806
  329 242.086 -2.96135 -16.8493
  330 242.086 -2.95447 16.8532
  331 360.360 19.1381 0.445522
  332 208.294 8.59397 -2.12426
  333 208.296 8.59085 2.12355
  334 162.945 4.67494 2.86761
  335 162.944 4.67307 -2.86666
  336 163.380 17.7215 -9.55257
  337 163.374 17.7268 9.55451
  338 255.174 3.04056 -13.7024
  339 243.023 -4.35272 -43.7560
  340 242.935 -4.39610 43.6896
  341 254.511 1.29371 -5.70148
  342 254.504 1.29332 5.69955
  343 263.495 -30.7338 21.1945
  344 263.576 -30.8125 -21.2715
  345 235.719 3.35872 14.1627
  346 235.721 3.35850 -14.1653
  347 227.200 5.53792 12.5506
  348 227.201 5.53845 -12.5536
  349 260.613 -25.2188 11.8880
  350 260.660 -25.2957 -11.8674
  351 72.4822 -54.5456 38.2210
  352 72.4862 -54.5535 -38.2402
  353 174.715 17.3872 0.936608
  354 174.709 17.3911 -0.937830
  355 247.588 0.324332 2.90049
  356 247.592 0.324570 -2.90162
  357 136.334 25.9672 -26.3558
  358 136.312 25.9761 26.3561
  359 203.079 -18.9955 -48.1300
  360 203.050 -19.0089 48.1420
  361 201.976 11.2708 11.4482
  362 201.973 11.2719 -11.4511
  363 285.147 -5.29008 18.8928
  364 284.692 -4.60351 -19.2330
  365 166.093 20.3733 0.910904
  366 166.085 20.3767 -0.913177
  367 144.584 -22.3393 -52.1100
  368 144.568 -22.3073 52.0824
  369 237.329 -10.1679 -21.0687
  370 237.322 -10.1425 21.0803
  371 363.192 20.0124 -2.33551
  372 286.543 -17.7994 3.11833
  373 286.713 -17.8923 -3.15466
  374 84.7590 18.2293 20.4483
  375 84.8040 18.2337 -20.4677
  376 196.177 -13.6166 38.7094
  377 196.198 -13.6510 -38.7194
  378 327.906 -10.0889 11.3067
  379 327.824 -10.0964 -11.2984
  380 254.966 3.62577 14.6393
  381 240.599 7.10130 -1.07719
  382 181.316 -34.9048 50.4824
  383 181.344 -34.9330 -50.5115
  384 168.173 15.1555 6.84207
  385 168.177 15.1507 -6.84037
  386 288.401 8.17300 -14.7597
  387 197.280 9.76050 18.6321
  388 197.278 9.75624 -18.6358
  389 246.105 -30.6442 37.0967
  390 246.135 -30.6195 -37.1954
  391 167.342 2.04808 -9.04275
  392 167.351 2.04911 9.04644
  393 349.784 18.9903 7.50801
  394 351.880 19.6113 -7.83624
  395 293.004 -10.2504 23.7591
  396 292.947 -10.2472 -23.7430
  397 216.721 -29.9024 38.9634
  398 216.760 -29.9476 -38.9810
  399 197.120 0.116663 -48.8653
  400 197.112 0.120071 48.8844
  401 137.726 21.3240 -40.4677
  402 137.699 21.3350 40.4736
  403 115.506 13.9811 23.0113
  404 115.495 13.9653 -23.0361
  405 240.059 5.04317 7.08405
  406 175.502 17.9060 -9.26343
  407 175.508 17.9053 9.25945
  408 175.318 5.97754 30.3100
  409 175.321 5.95935 -30.3192
  410 159.670 -8.34311 -43.2256
  411 159.658 -8.31226 43.2057
  412 155.735 1.80877 3.50520
  413 155.731 1.80817 -3.50376
  414 186.877 15.2904 -9.10754
  415 186.882 15.2889 9.10454
  416 185.438 16.0878 5.11482
  417 185.433 16.0911 -5.11677
  418 42.9401 -72.3023 15.2879
  419 43.0351 -72.1894 -15.3458
  420 288.606 4.97765 17.9598
  421 204.124 10.4798 7.69883
  422 204.121 10.4822 -7.70110
  423 165.966 8.50054 8.44742
  424 165.966 8.49730 -8.44455
  425 153.521 22.8656 14.7913
  426 153.531 22.8590 -14.7899
  427 164.061 11.4675 -15.4020
  428 164.060 11.4720 15.4072
  429 245.238 0.353140 -14.7419
  430 245.236 0.354198 14.7408
  431 170.114 14.1454 -31.4865
  432 170.113 14.1523 31.4970
  433 98.3372 -20.9986 -46.9029
  434 98.3341 -20.9671 46.8705
  435 361.766 -2.28138 3.19690
  436 361.800 -2.37236 -3.17403
  437 457.226 7.69927 48.0364
  438 458.828 6.83457 -48.1361
  439 153.080 20.8867 11.2375
  440 153.071 20.8828 -11.2466
  441 15.4448 -98.8527 -14.8077
  442 15.4670 -98.7951 14.7916
  443 270.033 -10.0700 4.54951
  444 270.012 -10.0910 -4.52331
  445 278.334 -2.50459 10.6964
  446 278.306 -2.37475 -10.4793
  447 18.5570 -101.381 5.00280
  448 18.6249 -101.269 -5.04789
  449 250.247 -32.3791 -23.4536
  450 250.185 -32.3134 23.4294
  451 273.661 -0.407956 -5.41479
  452 273.650 -0.407852 5.41312
  453 249.971 1.99395 -14.1258
  454 277.150 -11.1738 -8.95628
  455 277.072 -11.3513 9.04294
  456 211.511 2.50640 -23.3438
  457 211.509 2.51670 23.3437
  458 191.918 2.35036 -13.8913
  459 191.938 2.35147 13.8977
  460 66.6695 0.399918 28.9942
  461 66.7288 0.416265 -29.0178
  462 244.657 -19.8750 20.5724
  463 244.684 -19.9248 -20.5561
  464 225.382 5.94740 5.33880
  465 225.383 5.94929 -5.34060
  466 159.489 21.0104 -8.21016
  467 159.481 21.0158 8.21057
  468 245.164 0.905937 0.809388
  469 245.168 0.906182 -0.809672
  470 193.333 13.2503 -5.03797
  471 193.337 13.2469 5.03630
  472 150.401 0.152365 0.570750
  473 150.398 0.152132 -0.570440
  474 158.028 18.1881 -21.2111
  475 158.022 18.1944 21.2163
  476 107.207 -5.57924 -48.2345
  477 107.144 -5.59128 48.2263
  478 231.041 1.68447 -7.42541
  479 14.6752 -19.9629 0.190584
  480 11.5317 -13.3493 -0.843481
  481 11.2627 -11.9491 1.12745
  482 13.8782 -18.8846 1.00109
  483 12.6173 -20.3305 -3.08681
  484 13.2866 -18.5976 -1.29582
  485 12.2734 -18.6889 3.60356
  486 11.9314 -13.3345 2.21781
  487 10.5226 -11.1992 -3.61579
  488 14.0804 -19.9504 -0.0688166
  489 12.2272 -23.9038 0.286546
  490 8.99712 -6.23440 -0.850912
  491 11.4721 -12.2632 -2.15018
  492 9.98870 -9.88105 3.62636
  493 13.9670 -18.4764 -0.607894
  494 8.80459 -5.71843 0.875159
  495 13.5427 -17.2649 0.621644
  496 9.67115 -7.26079 0.647799
  497 9.43013 -6.28301 -0.394545
  498 14.4544 -19.7674 -0.00460302
  499 14.2799 -21.2786 -0.266062
  500 9.27783 -6.31727 -2.34940
  501 12.1977 -17.3930 2.74054
  502 10.7131 -16.5570 -5.56365
  503 12.7613 -20.3162 -1.58552
  504 10.4481 -23.3331 3.15479
  505 13.6647 -20.5548 0.900330
  506 11.3632 -24.2052 -1.92981
  507 12.1662 -15.3404 -2.85889
  508 10.6221 -13.3497 5.12142
  509 13.0480 -16.0946 0.376048
  510 12.2591 -15.7195 -2.57131
  511 9.05020 -5.54949 2.13705
  512 12.2438 -15.6797 2.16714
  513 13.9850 -19.1983 1.57829
  514 14.3448 -18.8914 0.0796560
  515 12.5649 -14.2086 -0.316174
  516 10.2971 -10.0384 -1.90870
  517 10.6131 -8.37310 2.41890
  518 8.55877 -4.38439 0.327072
  519 13.5640 -21.8657 1.09253
  520 11.1102 -11.0127 0.823699
  521 11.5956 -13.1399 3.50174
  522 10.2007 -10.7221 -4.89327
  523 13.9220 -19.7084 -1.37109
  524 9.74984 -8.95682 1.80963
  525 8.30136 -4.45504 -1.15106
  526 15.4629 -20.9895 -0.733144
  527 11.1144 -26.0336 1.13815
  528 8.41163 -4.21923 -0.0666966
  529 9.74438 -7.08579 -1.51663
  530 10.5698 -9.69685 -0.646017
  531 9.82455 -6.85136 -3.67374
  532 14.0507 -19.7622 -0.270800
  533 14.2883 -19.2790 -0.000887422
  534 9.76382 -5.87485 3.26863
  535 12.8509 -15.9239 2.17235
  536 11.2403 -15.4131 -4.55767
  537 14.2945 -19.7904 0.138762
  538 13.5194 -22.4502 -0.779383
  539 10.9840 -9.95314 -3.24752
  540 9.99037 -9.35456 -0.538878
  541 8.11018 -3.89789 -0.553493
  542 11.1826 -14.2164 3.88438
  543 8.25437 -4.08647 1.10759
  544 14.5627 -19.9552 -0.296756
  545 13.3588 -16.8887 -1.18327
  546 12.7874 -15.8444 -1.58520
  547 15.4753 -20.9163 0.483345
  548 11.1129 -25.8519 -0.872760
  549 10.5544 -20.4194 2.95470
  550 8.45138 -22.3487 -5.19998
  551 9.51671 -5.24607 1.36002
  552 11.0272 -18.8132 -3.17677
  553 9.83578 -18.7792 5.91353
  554 9.67824 -8.47333 0.560434
  555 9.88181 -8.43206 4.55550
  556 12.4967 -15.0213 0.913981
  557 14.4777 -19.4136 0.712072
  558 13.4393 -17.2594 -0.383471
  559 8.04047 -3.66368 0.575996
  560 8.78606 -4.61892 -0.722673
  561 11.1977 -11.6992 2.62479
  562 14.3286 -20.7819 0.554552
  563 7.95589 -3.10507 0.150892
  564 17.0501 -21.8004 -0.179657
  565 8.05828 -3.34167 -0.106336
  566 10.6611 -27.1215 0.0625369
  567 8.26087 -3.54093 -0.302827
  568 9.07340 -3.91464 -0.819009
  569 10.2807 -5.19709 -2.01079
  570 10.9023 -8.41841 -3.96436
  571 9.77152 -15.7945 -4.38164
  572 9.01041 -20.7244 -4.04691
  573 14.0447 -21.3990 -2.25281
  574 13.0220 -20.8427 2.05526
  575 7.29043 -20.9636 4.22343
  576 10.2866 -16.8646 3.91232
  577 10.7883 -9.15352 3.74886
  578 10.0470 -5.38518 1.65119
  579 8.87262 -4.26490 0.803415
  580 8.21208 -3.42717 0.244451
  581 8.06862 -3.28352 -0.706994
  582 8.66260 -3.71009 -1.38881
  583 9.32372 -5.00025 -2.63058
  584 10.1673 -6.66265 -4.01407
  585 9.61483 -14.6992 -5.91509
  586 4.35229 -23.1530 -5.96583
  587 8.14447 -24.9406 -3.08110
  588 8.58539 -26.0611 3.18724
  589 6.91392 -22.6424 6.18655
  590 9.04455 -13.1177 6.30616
  591 10.1414 -5.92560 3.91117
  592 9.41385 -4.54859 2.33395
  593 8.60480 -3.52754 1.27995
  594 8.01561 -3.09650 0.691246
</Section>

newXOutput 9

<Section columns = "stress_xx | stress_yy | stress_xy">
  1 166.279 1.29334 -1.33768
  2 166.284 1.29363 1.33798
  3 281.534 0.228440 -0.170751
  4 281.530 0.228201 0.170510
  5 8.86995 -173.818 7.62242
  6 585.139 4.11169 -0.269558
  7 8.81749 -173.958 -7.65676
  8 679.708 -3.20151 -5.11471
  9 168.916 0.843003 -1.04898
  10 173.332 1.48938 -2.96440
  11 183.159 2.16645 -6.37012
  12 198.540 1.31965 -11.6000
  13 222.126 1.01511 -12.2317
  14 247.199 3.29971 -19.4281
  15 290.523 0.595044 -24.4574
  16 335.047 -1.46691 -24.2526
  17 395.627 -8.66915 -11.7547
  18 410.224 -7.83459 -1.95284
  19 416.819 -1.60713 8.34899
  20 425.300 5.75987 5.06306
  21 434.731 9.64265 -0.977054
  22 456.272 -2.99830 -3.04229
  23 424.457 3.42043 -6.71947
  24 417.059 -1.56941 -8.15396
  25 410.371 -7.78619 1.99400
  26 395.770 -8.67157 11.7712
  27 335.136 -1.46549 24.2708
  28 290.588 0.596583 24.4728
  29 247.239 3.30161 19.4379
  30 222.158 1.01489 12.2377
  31 198.558 1.32001 11.6054
  32 183.170 2.16728 6.37293
  33 173.339 1.48984 2.96605
  34 168.921 0.843359 1.04971
  35 176.713 1.38200 1.71945
  36 184.740 5.39354 2.58754
  37 190.483 8.94221 2.49817
  38 198.955 11.9570 1.52397
  39 207.647 13.6390 0.631863
  40 218.341 13.1224 -0.200531
  41 230.305 10.8891 -0.543125
  42 248.174 7.16491 -1.43225
  43 260.991 4.43713 -0.121736
  44 271.124 2.62008 -0.802464
  45 281.502 0.0177557 -1.76086
  46 287.942 -0.607311 -2.20744
  47 289.771 0.771795 -3.98513
  48 299.714 0.196492 -5.23423
  49 314.110 -1.61848 -4.56078
  50 324.364 -1.69501 -4.95324
  51 330.397 -2.22539 -2.92788
  52 332.259 -3.30476 1.15798
  53 324.533 -3.86465 7.91981
  54 308.585 -1.32207 11.5258
  55 280.307 1.33646 12.9294
  56 253.140 5.15250 9.66550
  57 239.555 5.76872 4.45713
  58 236.971 6.36393 -5.36211
  59 255.869 3.68962 -9.43362
  60 279.590 0.833531 -10.7517
  61 308.970 -1.07279 -10.8580
  62 324.690 -3.74084 -7.75229
  63 332.244 -3.27186 -1.14791
  64 330.371 -2.22410 2.92333
  65 324.341 -1.69483 4.94946
  66 314.092 -1.61779 4.55877
  67 299.702 0.196360 5.23201
  68 289.762 0.771450 3.98344
  69 287.935 -0.607302 2.20646
  70 281.497 0.0176465 1.76022
  71 271.121 2.61918 0.802021
  72 260.990 4.43526 0.121364
  73 248.174 7.16193 1.43160
  74 230.309 10.8848 0.542758
  75 218.346 13.1173 0.200305
  76 207.651 13.6336 -0.631813
  77 198.958 11.9522 -1.52366
  78 190.483 8.93869 -2.49738
  79 184.738 5.39129 -2.58704
  80 176.710 1.38095 -1.71891
  81 37.0175 -136.803 3.28032
  82 116.362 -45.0580 37.9992
  83 228.430 20.5609 83.0520
  84 340.646 46.3466 103.030
  85 445.855 41.4917 108.302
  86 549.994 16.2771 95.0130
  87 592.407 0.638036 45.4510
  88 593.893 0.433390 -45.8870
  89 550.801 15.1634 -95.0523
  90 445.491 41.6772 -107.960
  91 340.520 46.5309 -102.896
  92 228.314 20.6377 -83.0784
  93 116.350 -45.0158 -38.0147
  94 37.0038 -136.850 -3.28595
  95 21.8041 -152.024 -11.9708
  96 88.2980 -67.5658 20.8829
  97 188.058 -10.0281 50.7402
  98 321.296 25.2755 73.5949
  99 453.248 27.9953 73.9880
  100 566.023 10.8547 68.0627
  101 659.375 -0.305721 49.0332
  102 643.446 -2.19258 -43.2392
  103 567.464 14.4075 -66.4612
  104 453.551 27.6965 -73.9812
  105 321.425 25.3217 -73.7649
  106 188.253 -9.90567 -50.8654
  107 88.4468 -67.4117 -20.9792
  108 21.8930 -151.828 11.8864
  109 182.232 25.5943 -7.26697
  110 182.243 25.5937 7.26091
  111 253.754 -20.3877 34.0478
  112 253.781 -20.4358 -34.0446
  113 128.143 28.9451 27.8768
  114 128.182 28.9399 -27.8859
  115 244.872 9.43652 12.0359
  116 244.871 9.43843 -12.0393
  117 186.029 14.5715 12.6144
  118 186.033 14.5662 -12.6104
  119 333.767 -11.2277 12.3459
  120 333.888 -11.0495 -12.5625
  121 140.558 -0.215404 45.5696
  122 140.557 -0.245791 -45.6023
  123 363.842 17.7544 -9.90928
  124 362.554 16.7952 10.6285
  125 207.083 17.3806 2.10463
  126 207.077 17.3857 -2.10563
  127 257.683 2.79490 -22.0880
  128 257.683 2.80051 22.0873
  129 175.188 -7.13563 64.1157
  130 175.240 -7.13254 -64.1055
  131 256.487 -43.0176 46.2191
  132 256.536 -43.0540 -46.2756
  133 185.552 17.4537 -28.6110
  134 185.549 17.4611 28.6204
  135 308.655 -15.3062 0.183469
  136 308.671 -15.2133 -0.129580
  137 216.778 9.13733 26.9890
  138 216.777 9.12549 -26.9944
  139 67.4667 4.22912 0.914901
  140 67.5140 4.25417 -0.951382
  141 160.943 30.1233 -15.2903
  142 160.925 30.1307 15.2881
  143 295.651 -7.51320 -13.2618
  144 295.655 -7.50294 13.2735
  145 267.981 2.88855 5.22544
  146 267.984 2.88970 -5.22754
  147 206.657 11.9378 -47.4017
  148 206.657 11.9464 47.4198
  149 183.550 5.44731 7.06970
  150 183.547 5.44519 -7.06706
  151 425.001 22.8756 1.05614
  152 216.736 14.4873 16.2059
  153 216.731 14.4864 -16.2105
  154 230.611 11.3212 5.01746
  155 230.608 11.3251 -5.01919
  156 195.277 14.1531 4.35541
  157 195.281 14.1480 -4.35409
  158 189.116 21.2018 -5.47426
  159 189.108 21.2077 5.47483
  160 273.948 3.10840 -11.5923
  161 273.943 3.10764 11.5886
  162 297.427 -20.1654 -35.6054
  163 297.418 -20.1835 35.6022
  164 150.860 25.1645 13.6386
  165 150.845 25.1566 -13.6555
  166 321.664 -15.5741 30.2598
  167 321.784 -15.5642 -30.4610
  168 153.600 -42.6089 65.3308
  169 153.617 -42.6350 -65.3646
  170 386.349 11.1218 14.7034
  171 387.322 12.6479 -15.5180
  172 189.067 7.98192 -16.2417
  173 189.073 7.98543 16.2481
  174 312.872 12.7599 5.98623
  175 317.985 3.32444 23.4495
  176 311.759 3.43401 -22.4134
  177 307.878 -31.5056 10.0767
  178 307.990 -31.6113 -10.0850
  179 200.728 -1.22268 39.8857
  180 200.739 -1.25144 -39.8993
  181 316.866 -9.16228 -15.3504
  182 316.890 -9.70547 15.4032
  183 204.007 -26.6275 55.4703
  184 204.032 -26.6740 -55.4952
  185 201.065 20.5591 -6.14400
  186 201.072 20.5555 6.14102
  187 457.423 26.2847 23.4595
  188 459.614 24.3721 -23.9080
  189 181.356 19.9442 -17.1510
  190 181.349 19.9513 17.1557
  191 220.864 15.1886 8.77844
  192 220.859 15.1918 -8.78130
  193 255.871 -2.72984 26.3169
  194 255.873 -2.74556 -26.3132
  195 299.298 8.40349 -12.9759
  196 243.006 8.68323 18.1155
  197 243.004 8.68187 -18.1189
  198 59.7086 -41.4719 -38.6705
  199 59.6151 -41.5309 38.6363
  200 360.245 -9.57849 -16.1005
  201 360.264 -9.53436 16.0655
  202 211.771 14.1880 -0.510885
  203 211.776 14.1826 0.510666
  204 54.8373 -38.2523 -31.8408
  205 54.8644 -38.2051 31.8002
  206 294.738 -1.56686 -12.7477
  207 294.733 -1.56609 12.7473
  208 110.862 24.3433 0.470671
  209 110.829 24.3355 -0.494980
  210 282.685 -5.76967 -41.6426
  211 282.722 -5.76882 41.6673
  212 216.119 5.77643 -29.4112
  213 216.136 5.78060 29.4249
  214 195.879 -32.5292 59.4484
  215 195.876 -32.4987 -59.4933
  216 189.902 9.65817 4.95709
  217 189.903 9.65423 -4.95505
  218 174.485 22.4122 -41.6812
  219 174.471 22.4234 41.6922
  220 183.252 17.9234 24.5121
  221 183.247 17.9125 -24.5239
  222 245.888 7.93724 4.57540
  223 245.887 7.94021 -4.57699
  224 121.151 18.9934 45.2340
  225 121.203 18.9893 -45.2401
  226 272.533 -30.7664 -29.6902
  227 272.487 -30.6933 29.6915
  228 122.931 -32.6127 51.1088
  229 123.028 -32.5613 -51.1340
  230 276.795 1.71225 -6.98395
  231 276.790 1.71161 6.98134
  232 319.224 -4.06160 2.54513
  233 319.220 -4.06739 -2.53899
  234 197.657 8.45167 -21.3218
  235 197.666 8.45608 21.3302
  236 317.462 11.5537 14.6439
  237 450.490 4.50508 26.1548
  238 450.686 4.67637 -26.1474
  239 368.601 19.3265 62.5396
  240 368.291 19.8331 -62.6426
  241 174.228 27.9358 -5.34360
  242 174.214 27.9411 5.34086
  243 292.458 -16.9173 -14.1177
  244 292.455 -16.8673 14.1523
  245 182.377 3.02495 -7.78993
  246 182.383 3.02620 7.79318
  247 508.583 11.7140 -16.7509
  248 292.581 1.04615 -9.54829
  249 292.572 1.04576 9.54560
  250 196.783 18.1116 -2.87130
  251 196.777 18.1172 2.87174
  252 142.321 31.9533 -10.1195
  253 142.296 31.9571 10.1092
  254 351.616 5.90008 13.2090
  255 349.773 5.94135 -13.3441
  256 506.284 11.5770 16.3518
  257 199.841 18.6489 18.2215
  258 199.835 18.6449 -18.2284
  259 236.549 6.55096 -24.5568
  260 236.550 6.55853 24.5540
  261 273.744 1.61905 2.33420
  262 273.748 1.61968 -2.33514
  263 514.242 -5.83986 23.3010
  264 511.927 2.27295 -20.1082
  265 347.342 18.8177 -6.51806
  266 168.146 10.7218 34.5154
  267 168.144 10.7006 -34.5354
  268 167.468 10.2098 -58.8428
  269 167.433 10.2173 58.8549
  270 260.136 5.34240 9.87213
  271 260.137 5.34392 -9.87540
  272 186.522 9.07462 -12.4245
  273 186.524 9.07826 12.4293
  274 176.383 1.53845 2.32535
  275 176.379 1.53767 -2.32427
  276 163.087 30.2414 0.297579
  277 163.071 30.2434 -0.305621
  278 319.207 -6.75720 -5.57776
  279 319.170 -6.84346 5.61440
  280 24.0228 -56.7532 5.10121
  281 24.0831 -56.6874 -5.13798
  282 224.218 12.6634 -1.85399
  283 224.222 12.6586 1.85333
  284 244.545 8.96096 8.15398
  285 244.544 8.96377 -8.15668
  286 282.286 6.17940 69.4219
  287 282.188 6.28085 -69.5187
  288 317.028 -18.3741 -7.97761
  289 317.105 -18.5515 7.99315
  290 202.078 13.9757 -1.04647
  291 202.074 13.9811 1.04682
  292 271.620 2.32482 -37.4538
  293 271.662 2.32897 37.4749
  294 314.978 -1.58446 6.83220
  295 314.989 -1.58511 -6.83348
  296 446.793 19.1666 -58.3378
  297 446.023 18.8812 57.8980
  298 189.080 -27.8846 -48.1676
  299 188.970 -27.9596 48.1166
  300 306.219 -2.05426 17.5302
  301 306.221 -1.02378 -17.3513
  302 186.701 15.2310 -22.8149
  303 186.701 15.2373 22.8229
  304 95.5807 2.57948 31.0412
  305 95.5588 2.55230 -31.0795
  306 189.535 13.3370 8.39159
  307 189.538 13.3320 -8.38873
  308 231.042 -4.72837 33.7662
  309 231.051 -4.75483 -33.7680
  310 361.529 22.8769 3.72785
  311 171.535 23.8105 -29.3637
  312 171.521 23.8195 29.3703
  313 346.283 -3.79624 -6.56645
  314 345.827 -4.03926 6.37182
  315 215.612 14.6543 -2.55885
  316 215.617 14.6494 2.55788
  317 541.498 -3.56066 -7.08464
  318 581.134 -8.52228 15.6119
  319 251.515 3.63832 -31.3095
  320 251.552 3.64142 31.3260
  321 375.403 7.79515 -47.2971
  322 375.316 7.96589 47.1536
  323 261.027 4.56270 2.38520
  324 261.029 4.56456 -2.38626
  325 204.525 15.6231 -0.661389
  326 204.520 15.6286 0.661441
  327 195.378 11.8350 -2.20544
  328 195.376 11.8396 2.20624
  329 274.858 -3.29730 -19.3407
  330 274.857 -3.28939 19.3444
  331 410.823 21.6441 0.738955
  332 236.311 9.78109 -2.41779
  333 236.313 9.77723 2.41692
  334 184.118 5.31511 3.26767
  335 184.116 5.31285 -3.26653
  336 184.869 20.2463 -10.9051
  337 184.862 20.2528 10.9076
  338 290.394 3.45098 -15.6366
  339 275.561 -4.65449 -50.4492
  340 275.463 -4.70677 50.3737
  341 289.019 1.49022 -6.50571
  342 289.011 1.48972 6.50328
  343 299.070 -35.1029 24.5073
  344 299.164 -35.1988 -24.5938
  345 267.596 3.89164 16.1953
  346 267.598 3.89157 -16.1988
  347 257.880 6.36659 14.3316
  348 257.880 6.36744 -14.3355
  349 295.971 -28.8094 13.8238
  350 296.024 -28.8999 -13.7993
  351 80.8425 -62.2778 43.6336
  352 80.8441 -62.2931 -43.6562
  353 197.931 19.8721 1.04839
  354 197.923 19.8770 -1.04969
  355 281.119 0.363561 3.30094
  356 281.125 0.363863 -3.30234
  357 154.010 29.8044 -30.1693
  358 153.985 29.8146 30.1703
  359 230.063 -21.5000 -55.2613
  360 230.031 -21.5156 55.2754
  361 229.092 12.9196 13.0537
  362 229.088 12.9212 -13.0573
  363 324.361 -6.10805 21.4124
  364 323.851 -5.31754 -21.8031
  365 188.086 23.3238 1.00875
  366 188.076 23.3281 -1.01117
  367 163.269 -25.2924 -59.5675
  368 163.252 -25.2534 59.5353
  369 269.374 -11.4990 -24.2070
  370 269.366 -11.4695 24.2197
  371 414.045 22.6535 -2.93180
  372 325.582 -20.3222 3.89205
  373 325.778 -20.4333 -3.93029
  374 95.1780 21.1276 23.5066
  375 95.2299 21.1332 -23.5283
  376 222.258 -15.3437 44.3016
  377 222.281 -15.3843 -44.3135
  378 372.670 -11.4402 13.1937
  379 372.574 -11.4485 -13.1847
  380 290.128 4.12917 16.6980
  381 273.790 8.13771 -1.22490
  382 205.131 -39.7373 57.8061
  383 205.161 -39.7735 -57.8403
  384 190.339 17.2921 7.80358
  385 190.345 17.2862 -7.80139
  386 328.423 9.29242 -16.7550
  387 223.697 11.2700 21.2671
  388 223.694 11.2654 -21.2717
  389 279.053 -34.9276 42.6453
  390 279.089 -34.9065 -42.7584
  391 188.940 2.33066 -10.2965
  392 188.951 2.33186 10.3009
  393 398.457 21.5579 9.08433
  394 400.853 22.2544 -9.47375
  395 332.672 -11.6202 27.3483
  396 332.604 -11.6161 -27.3298
  397 245.647 -34.0490 44.6824
  398 245.690 -34.1036 -44.7030
  399 223.220 0.301938 -55.9759
  400 223.212 0.305711 55.9981
  401 155.545 24.5286 -46.3141
  402 155.514 24.5410 46.3213
  403 130.270 16.2691 26.1827
  404 130.256 16.2506 -26.2107
  405 273.143 5.77269 8.09374
  406 198.855 20.5355 -10.5393
  407 198.863 20.5343 10.5347
  408 198.551 7.05692 34.6102
  409 198.552 7.03606 -34.6210
  410 180.576 -9.27437 -49.3925
  411 180.564 -9.23794 49.3693
  412 175.716 2.06333 3.98426
  413 175.710 2.06261 -3.98253
  414 211.851 17.5199 -10.3709
  415 211.857 17.5177 10.3674
  416 210.200 18.3931 5.81624
  417 210.194 18.3972 -5.81850
  418 47.2159 -82.4901 17.5783
  419 47.3253 -82.3607 -17.6452
  420 328.596 5.60206 20.4017
  421 231.550 11.9772 8.76969
  422 231.546 11.9804 -8.77249
  423 187.657 9.68135 9.62042
  424 187.658 9.67747 -9.61692
  425 173.624 26.1768 16.9101
  426 173.636 26.1690 -16.9081
  427 185.472 13.0876 -17.5526
  428 185.471 13.0928 17.5590
  429 278.466 0.462998 -16.8911
  430 278.464 0.464123 16.8892
  431 192.344 16.2035 -35.9637
  432 192.343 16.2114 35.9762
  433 110.488 -23.7239 -53.5519
  434 110.488 -23.6854 53.5144
  435 411.848 -2.48397 4.15820
  436 411.889 -2.59384 -4.13230
  437 520.558 8.12913 55.6246
  438 522.391 7.12785 -55.7038
  439 173.233 24.0275 12.7650
  440 173.222 24.0233 -12.7752
  441 15.8553 -113.037 -16.8262
  442 15.8826 -112.967 16.8064
  443 306.891 -11.4873 5.36787
  444 306.868 -11.5116 -5.33804
  445 316.669 -2.87523 12.1537
  446 316.637 -2.72626 -11.9059
  447 19.4884 -115.805 5.80649
  448 19.5665 -115.677 -5.85918
  449 283.974 -36.9674 -27.0368
  450 283.902 -36.8882 27.0099
  451 310.920 -0.452241 -6.21301
  452 310.905 -0.452121 6.21085
  453 284.408 2.27054 -16.1319
  454 315.102 -12.8051 -10.0556
  455 315.014 -13.0075 10.1560
  456 239.901 3.01281 -26.7047
  457 239.899 3.02447 26.7040
  458 216.898 2.69348 -15.8345
  459 216.922 2.69475 15.8420
  460 74.4856 0.805595 33.2861
  461 74.5537 0.825073 -33.3128
  462 277.708 -22.6128 23.6979
  463 277.739 -22.6711 -23.6794
  464 255.809 6.78449 6.07971
  465 255.810 6.78686 -6.08195
  466 180.479 24.0329 -9.39031
  467 180.469 24.0394 9.39112
  468 278.366 1.03545 0.922859
  469 278.371 1.03575 -0.923207
  470 219.222 15.1298 -5.73233
  471 219.227 15.1255 5.73033
  472 169.620 0.165378 0.645657
  473 169.616 0.165097 -0.645282
  474 178.673 20.8105 -24.2178
  475 178.665 20.8180 24.2243
  476 120.696 -6.06662 -55.2956
  477 120.624 -6.08079 55.2864
  478 262.824 1.90515 -8.50144
  479 14.7386 -24.1157 0.201919
  480 11.0385 -15.5341 -0.900041
  481 10.7670 -13.7518 1.23138
  482 13.2464 -22.5456 1.11706
  483 11.9167 -24.1042 -3.48227
  484 12.6157 -22.1292 -1.47878
  485 11.6260 -22.0417 4.08589
  486 11.3824 -15.3427 2.51081
  487 9.85834 -12.7070 -3.95444
  488 12.9293 -24.2129 -0.0870131
  489 10.8598 -28.7024 0.329520
  490 8.31426 -6.56016 -0.880099
  491 10.8769 -13.9887 -2.41904
  492 9.24096 -11.0605 3.92514
  493 13.8947 -22.1509 -0.658331
  494 8.12353 -5.92023 0.885807
  495 13.3672 -20.5625 0.658648
  496 9.01354 -7.76714 0.666758
  497 8.79607 -6.58197 -0.408982
  498 14.2916 -23.9299 0.00945649
  499 14.2147 -25.6217 -0.309734
  500 8.59922 -6.67467 -2.38395
  501 11.2537 -20.3925 2.95730
  502 9.70826 -19.2402 -6.16571
  503 11.2321 -24.2544 -1.61754
  504 8.81344 -27.6342 3.41898
  505 12.2658 -24.6652 0.874886
  506 9.79559 -28.7932 -2.05046
  507 11.3601 -17.7715 -3.09865
  508 9.74377 -15.2876 5.61718
  509 12.7045 -19.0338 0.499171
  510 11.8239 -18.4843 -2.92927
  511 8.36539 -5.72287 2.11200
  512 11.8558 -18.4374 2.44365
  513 13.8719 -22.9677 1.81479
  514 14.2071 -22.7324 0.0529548
  515 12.2200 -16.5892 -0.405956
  516 9.65747 -11.3429 -2.07143
  517 9.99438 -9.08982 2.55507
  518 7.91861 -4.20594 0.245729
  519 13.1631 -26.2359 1.24270
  520 10.5416 -12.4919 0.953238
  521 10.9159 -14.9843 3.79517
  522 9.39121 -12.0584 -5.25299
  523 13.7853 -23.6159 -1.57869
  524 9.06924 -9.96594 1.92391
  525 7.63372 -4.34575 -1.06263
  526 13.2942 -25.1791 -0.706365
  527 8.50954 -30.9037 1.16048
  528 7.79043 -4.02181 -0.0361239
  529 9.09475 -7.48997 -1.52443
  530 9.98169 -10.8467 -0.749569
  531 9.16039 -7.29831 -3.76098
  532 13.5198 -23.8454 -0.319422
  533 14.1455 -23.2358 0.0554941
  534 9.13765 -6.10104 3.25363
  535 12.1961 -18.7134 2.49369
  536 10.4432 -17.9968 -5.15417
  537 13.7921 -23.8937 0.169866
  538 13.0482 -26.9177 -0.894255
  539 10.3375 -10.9862 -3.41276
  540 9.29497 -10.4471 -0.565974
  541 7.45129 -3.66719 -0.541617
  542 10.5213 -16.5113 4.37053
  543 7.60755 -3.89462 0.999236
  544 14.6084 -24.0687 -0.335627
  545 13.1957 -20.0639 -1.32825
  546 12.2674 -18.6160 -1.83838
  547 13.2766 -25.1486 0.504662
  548 8.45074 -30.7635 -0.936578
  549 8.70142 -24.1595 3.09145
  550 6.55580 -26.2414 -5.65015
  551 8.88704 -5.22408 1.26286
  552 9.58149 -22.1107 -3.35386
  553 8.49709 -21.9008 6.49764
  554 9.00169 -9.34079 0.577261
  555 9.11244 -9.22415 4.79163
  556 12.1878 -17.6292 0.993677
  557 14.5218 -23.3700 0.791918
  558 13.1606 -20.5213 -0.492567
  559 7.38644 -3.38080 0.539588
  560 8.14412 -4.46096 -0.639168
  561 10.6455 -13.4203 2.91609
  562 14.3367 -25.0413 0.635998
  563 7.35140 -2.65727 0.137785
  564 14.1815 -25.9990 -0.114303
  565 7.43633 -2.95046 -0.113942
  566 7.07657 -32.0117 -0.00524381
  567 7.66759 -3.09898 -0.163750
  568 8.48560 -3.50730 -0.579771
  569 9.77253 -5.07077 -1.85688
  570 10.3851 -9.03175 -4.09058
  571 8.42058 -18.2409 -4.66667
  572 6.90190 -24.3910 -4.20499
  573 11.2954 -25.5355 -2.22578
  574 10.3820 -24.8991 2.06732
  575 4.57614 -24.7606 4.34932
  576 9.02423 -19.5185 4.09841
  577 10.2018 -9.91360 3.92645
  578 9.57297 -5.27203 1.41335
  579 8.35894 -3.94609 0.568061
  580 7.61926 -2.97889 0.0848258
  581 7.46815 -2.88991 -0.578703
  582 8.06922 -3.43598 -1.17509
  583 8.79707 -4.99235 -2.46690
  584 9.61494 -7.01195 -4.00708
  585 8.48227 -16.7985 -6.33061
  586 1.55225 -27.1313 -6.31669
  587 5.03063 -29.5249 -3.21921
  588 5.29088 -30.7974 3.28980
  589 4.85692 -26.4552 6.64250
  590 7.87753 -14.9176 6.79859
  591 9.61008 -6.15289 3.90053
  592 8.94087 -4.45317 2.11193
  593 8.02397 -3.21813 1.04270
  594 7.41657 -2.66252 0.554045
</Section>

newXOutput 10

<Section columns = "stress_xx | stress_yy | stress_xy">
  1 184.757 1.45756 -1.50761
  2 184.762 1.45789 1.50796
  3 314.729 0.249685 -0.184309
  4 314.724 0.249399 0.184020
  5 8.42329 -195.811 8.48835
  6 656.141 4.09138 -0.325333
  7 8.36341 -195.971 -8.52835
  8 762.010 -4.24264 -5.70838
  9 187.717 0.943931 -1.16182
  10 192.658 1.67509 -3.30274
  11 203.639 2.43475 -7.12817
  12 220.886 1.48697 -12.9908
  13 247.242 1.15902 -13.7000
  14 275.435 3.72187 -21.7940
  15 324.063 0.680528 -27.4655
  16 374.226 -1.62006 -27.3169
  17 442.408 -9.71601 -13.3579
  18 459.271 -8.75935 -2.51484
  19 467.422 -1.76177 8.90832
  20 477.961 6.41565 5.20522
  21 489.453 10.7461 -1.32216
  22 513.510 -3.50458 -3.26111
  23 477.043 3.80388 -7.04298
  24 467.694 -1.71665 -8.68307
  25 459.436 -8.70316 2.56092
  26 442.570 -9.71900 13.3760
  27 374.327 -1.61859 27.3374
  28 324.138 0.682203 27.4829
  29 275.481 3.72398 21.8052
  30 247.278 1.15874 13.7068
  31 220.907 1.48736 12.9971
  32 203.653 2.43570 7.13143
  33 192.666 1.67563 3.30467
  34 187.723 0.944346 1.16268
  35 196.584 1.52796 1.93032
  36 205.706 6.03153 2.91572
  37 212.273 10.0047 2.80202
  38 221.928 13.3705 1.71578
  39 231.770 15.2592 0.714828
  40 243.828 14.6849 -0.217430
  41 257.284 12.1886 -0.600609
  42 277.328 8.01502 -1.59835
  43 291.698 4.96412 -0.120988
  44 303.059 2.93994 -0.893506
  45 314.690 0.0137502 -1.97470
  46 321.897 -0.691340 -2.46820
  47 323.946 0.867810 -4.46217
  48 335.106 0.222852 -5.87885
  49 351.273 -1.82490 -5.13425
  50 362.839 -1.90986 -5.59518
  51 369.728 -2.50290 -3.34731
  52 371.956 -3.73060 1.22049
  53 363.454 -4.37640 8.83880
  54 345.628 -1.51196 12.9097
  55 313.925 1.50681 14.5329
  56 283.398 5.83812 10.8855
  57 268.117 6.54671 5.03777
  58 265.215 7.20583 -6.04438
  59 286.467 4.16880 -10.6083
  60 313.125 0.931536 -12.0751
  61 346.057 -1.23067 -12.1604
  62 363.627 -4.23692 -8.65125
  63 371.937 -3.69386 -1.20959
  64 369.698 -2.50143 3.34197
  65 362.811 -1.90962 5.59072
  66 351.252 -1.82409 5.13180
  67 335.092 0.222692 5.87617
  68 323.936 0.867390 4.46013
  69 321.889 -0.691339 2.46703
  70 314.684 0.0136183 1.97394
  71 303.055 2.93888 0.892975
  72 291.696 4.96189 0.120539
  73 277.328 8.01146 1.59758
  74 257.287 12.1835 0.600174
  75 243.833 14.6788 0.217169
  76 231.774 15.2529 -0.714759
  77 221.932 13.3648 -1.71541
  78 212.274 10.0006 -2.80108
  79 205.704 6.02887 -2.91513
  80 196.580 1.52672 -1.92969
  81 39.8719 -154.256 3.47848
  82 128.725 -50.7760 42.5340
  83 254.328 23.2806 93.2995
  84 380.110 52.4846 116.026
  85 498.157 46.6643 122.302
  86 615.019 17.8039 107.401
  87 663.395 -0.0304702 51.5181
  88 665.066 -0.189447 -51.9948
  89 615.906 16.4720 -107.445
  90 497.733 46.8945 -121.926
  91 379.972 52.6895 -115.867
  92 254.192 23.3561 -93.3266
  93 128.707 -50.7388 -42.5504
  94 39.8540 -154.317 -3.48566
  95 22.9279 -171.222 -13.4892
  96 97.3796 -75.9606 23.5119
  97 209.149 -11.1194 57.1478
  98 358.543 28.8006 83.0469
  99 506.693 31.8315 83.8592
  100 633.599 12.0107 77.3813
  101 738.776 -0.946315 55.6803
  102 721.072 -3.05053 -49.1778
  103 635.210 16.0667 -75.5962
  104 507.036 31.4707 -83.8500
  105 358.684 28.8545 -83.2406
  106 209.370 -10.9799 -57.2887
  107 97.5480 -75.7865 -23.6206
  108 23.0287 -171.001 13.3930
  109 203.286 28.8737 -8.10611
  110 203.300 28.8726 8.09946
  111 283.411 -22.7605 38.3980
  112 283.441 -22.8158 -38.3948
  113 142.488 32.7486 31.4288
  114 142.532 32.7430 -31.4384
  115 273.624 10.6273 13.4968
  116 273.622 10.6297 -13.5010
  117 207.315 16.3502 14.1404
  118 207.319 16.3441 -14.1356
  119 373.572 -12.6638 13.5876
  120 373.707 -12.4599 -13.8293
  121 156.346 0.0566711 51.1294
  122 156.343 0.0213907 -51.1661
  123 407.894 19.8497 -10.9120
  124 406.441 18.7763 11.7265
  125 231.181 19.5073 2.34781
  126 231.174 19.5135 -2.34891
  127 287.966 3.25021 -24.8572
  128 287.966 3.25635 24.8557
  129 195.147 -7.74585 72.2448
  130 195.204 -7.74225 -72.2331
  131 286.320 -48.3046 52.1375
  132 286.375 -48.3512 -52.2013
  133 206.691 19.6346 -32.1099
  134 206.688 19.6430 32.1210
  135 345.300 -17.1923 0.00729734
  136 345.317 -17.0875 0.0540990
  137 242.019 10.4431 30.3053
  138 242.018 10.4300 -30.3117
  139 74.3637 5.09176 1.17018
  140 74.4180 5.12101 -1.21086
  141 179.320 33.9508 -17.2256
  142 179.298 33.9593 17.2237
  143 330.648 -8.38980 -15.0394
  144 330.651 -8.37813 15.0522
  145 299.534 3.23738 5.85224
  146 299.538 3.23876 -5.85475
  147 230.335 13.4980 -53.2962
  148 230.336 13.5076 53.3170
  149 204.322 6.10211 7.91681
  150 204.319 6.09963 -7.91371
  151 476.737 25.5141 1.18642
  152 242.034 16.3673 18.1709
  153 242.027 16.3668 -18.1763
  154 257.626 12.6920 5.61777
  155 257.622 12.6967 -5.61982
  156 217.798 15.8550 4.88348
  157 217.803 15.8489 -4.88187
  158 210.949 23.8213 -6.15685
  159 210.940 23.8283 6.15771
  160 306.232 3.51658 -13.0174
  161 306.226 3.51559 13.0130
  162 332.388 -22.4977 -40.3569
  163 332.379 -22.5190 40.3537
  164 168.042 28.5041 15.2218
  165 168.022 28.4952 -15.2406
  166 359.502 -17.3868 34.3483
  167 359.641 -17.3798 -34.5713
  168 170.789 -47.7772 73.4569
  169 170.806 -47.8109 -73.4957
  170 432.545 12.4647 17.0998
  171 433.635 14.1915 -18.0228
  172 210.491 8.95520 -18.1992
  173 210.497 8.95923 18.2067
  174 350.691 14.3328 6.72052
  175 356.168 3.68941 26.2288
  176 349.202 3.82612 -25.0912
  177 344.231 -35.4416 11.5935
  178 344.357 -35.5650 -11.6006
  179 223.902 -1.12665 44.8058
  180 223.913 -1.15944 -44.8214
  181 354.737 -10.3558 -17.1108
  182 354.762 -10.9681 17.1709
  183 227.469 -29.7309 62.4006
  184 227.496 -29.7855 -62.4292
  185 224.440 23.1370 -6.86512
  186 224.449 23.1325 6.86180
  187 512.802 29.2188 26.8672
  188 515.255 27.0426 -27.3687
  189 202.105 22.4140 -19.2448
  190 202.098 22.4221 19.2504
  191 246.682 17.0783 9.82923
  192 246.676 17.0824 -9.83259
  193 285.900 -2.92294 29.6448
  194 285.901 -2.94065 -29.6414
  195 335.364 9.44636 -14.5732
  196 271.513 9.83678 20.3453
  197 271.511 9.83557 -20.3497
  198 65.5411 -46.3251 -43.6396
  199 65.4358 -46.3921 43.6008
  200 403.067 -10.6194 -18.5050
  201 403.092 -10.5684 18.4642
  202 236.432 15.8827 -0.569573
  203 236.437 15.8763 0.569332
  204 60.0740 -42.7554 -35.6958
  205 60.1064 -42.6998 35.6499
  206 329.599 -1.71972 -14.3931
  207 329.593 -1.71887 14.3921
  208 123.123 27.6299 0.398399
  209 123.085 27.6207 -0.425219
  210 315.687 -6.38152 -46.9292
  211 315.730 -6.38070 46.9571
  212 240.784 6.49199 -33.0053
  213 240.804 6.49666 33.0210
  214 218.115 -36.4709 66.8865
  215 218.110 -36.4438 -66.9373
  216 211.624 10.8075 5.54256
  217 211.625 10.8028 -5.54014
  218 194.354 25.2756 -46.8518
  219 194.338 25.2882 46.8647
  220 204.393 20.3476 27.4724
  221 204.386 20.3356 -27.4857
  222 274.769 8.89377 5.12505
  223 274.768 8.89734 -5.12695
  224 134.585 21.6129 50.9591
  225 134.643 21.6086 -50.9654
  226 304.482 -34.4997 -33.5662
  227 304.431 -34.4152 33.5679
  228 136.434 -36.3796 57.6498
  229 136.544 -36.3217 -57.6781
  230 309.413 1.92803 -7.83054
  231 309.407 1.92724 7.82740
  232 357.224 -4.54133 2.96296
  233 357.221 -4.54781 -2.95629
  234 220.092 9.49583 -23.9151
  235 220.103 9.50082 23.9249
  236 355.780 12.9661 16.3940
  237 504.867 5.14237 30.1326
  238 505.090 5.33436 -30.1189
  239 412.049 21.9596 70.8094
  240 411.702 22.5474 -70.9200
  241 194.265 31.4658 -6.04313
  242 194.250 31.4721 6.04041
  243 327.017 -18.9567 -16.0537
  244 327.013 -18.8999 16.0924
  245 202.892 3.39005 -8.71785
  246 202.900 3.39149 8.72166
  247 570.301 12.7018 -19.0860
  248 327.140 1.20115 -10.7422
  249 327.129 1.20066 10.7388
  250 219.562 20.3240 -3.22896
  251 219.555 20.3307 3.22959
  252 158.446 36.0873 -11.4599
  253 158.416 36.0916 11.4489
  254 393.855 6.56905 14.5354
  255 391.785 6.61664 -14.6889
  256 567.731 12.5064 18.6300
  257 223.048 21.0938 20.4190
  258 223.041 21.0897 -20.4268
  259 264.240 7.50036 -27.6009
  260 264.242 7.50861 27.5973
  261 305.994 1.81329 2.61453
  262 305.998 1.81405 -2.61564
  263 577.170 -6.89874 26.8153
  264 574.584 2.26630 -23.2352
  265 389.459 21.1128 -7.27964
  266 187.376 12.3158 38.7082
  267 187.373 12.2916 -38.7307
  268 186.487 11.6833 -66.2479
  269 186.448 11.6916 66.2619
  270 290.744 6.00600 11.0704
  271 290.746 6.00789 -11.0743
  272 207.705 10.1754 -13.9142
  273 207.708 10.1796 13.9197
  274 196.191 1.71468 2.59537
  275 196.186 1.71377 -2.59410
  276 181.781 34.1243 0.260688
  277 181.762 34.1269 -0.269344
  278 357.313 -7.60178 -6.14136
  279 357.274 -7.69848 6.18259
  280 25.5201 -63.5431 5.85987
  281 25.5885 -63.4674 -5.90179
  282 250.441 14.1775 -2.07442
  283 250.446 14.1717 2.07364
  284 273.264 10.0600 9.13606
  285 273.262 10.0634 -9.13930
  286 315.004 7.23748 78.2353
  287 314.895 7.34457 -78.3427
  288 354.725 -20.6927 -8.73969
  289 354.810 -20.8944 8.75960
  290 225.478 15.6424 -1.17255
  291 225.474 15.6488 1.17299
  292 303.093 2.66995 -42.1226
  293 303.143 2.67456 42.1465
  294 352.365 -1.75499 7.74501
  295 352.379 -1.75573 -7.74678
  296 500.096 21.2741 -66.2723
  297 499.238 20.9717 65.7683
  298 210.606 -31.1455 -54.3783
  299 210.483 -31.2304 54.3214
  300 342.942 -2.34125 19.6324
  301 342.947 -1.17601 -19.4370
  302 207.959 17.1124 -25.5866
  303 207.959 17.1197 25.5959
  304 105.893 3.21327 34.7658
  305 105.867 3.18149 -34.8086
  306 211.268 14.9465 9.40139
  307 211.271 14.9406 -9.39797
  308 257.971 -5.11984 37.9917
  309 257.980 -5.14989 -37.9942
  310 405.418 25.6781 4.10077
  311 191.085 26.8148 -32.9936
  312 191.070 26.8250 33.0015
  313 387.462 -4.22507 -7.81270
  314 386.949 -4.50076 7.59560
  315 240.770 16.4260 -2.86046
  316 240.775 16.4201 2.85935
  317 608.400 -4.37223 -8.16561
  318 652.440 -10.0511 17.8329
  319 280.423 4.10776 -35.1603
  320 280.465 4.11120 35.1791
  321 419.905 9.07135 -53.7576
  322 419.811 9.27478 53.5917
  323 291.739 5.10826 2.66546
  324 291.741 5.11048 -2.66673
  325 228.273 17.5063 -0.746930
  326 228.267 17.5128 0.747044
  327 217.868 13.2417 -2.46876
  328 217.865 13.2472 2.46973
  329 307.253 -3.61410 -21.8215
  330 307.252 -3.60521 21.8251
  331 460.752 24.0991 1.05620
  332 264.023 10.9472 -2.70619
  333 264.026 10.9426 2.70516
  334 205.002 5.94312 3.66160
  335 205.000 5.94047 -3.66025
  336 206.112 22.7441 -12.2405
  337 206.104 22.7516 12.2437
  338 325.282 3.85365 -17.5489
  339 307.672 -4.95040 -57.0814
  340 307.564 -5.01125 56.9969
  341 323.118 1.68735 -7.29923
  342 323.108 1.68674 7.29628
  343 334.201 -39.4513 27.8062
  344 334.309 -39.5648 -27.9017
  345 299.108 4.42997 18.2084
  346 299.111 4.43006 -18.2128
  347 288.214 7.19440 16.0914
  348 288.214 7.19559 -16.0961
  349 330.910 -32.3770 15.7691
  350 330.969 -32.4811 -15.7406
  351 89.0917 -69.9854 48.9882
  352 89.0907 -70.0086 -49.0142
  353 220.900 22.3314 1.15497
  354 220.891 22.3374 -1.15634
  355 314.254 0.400831 3.69422
  356 314.260 0.401201 -3.69590
  357 171.488 33.6255 -33.9513
  358 171.459 33.6369 33.9530
  359 256.714 -23.9654 -62.3480
  360 256.680 -23.9832 62.3642
  361 255.915 14.5591 14.6363
  362 255.910 14.5613 -14.6407
  363 363.155 -6.92964 23.8892
  364 362.593 -6.03448 -24.3305
  365 209.848 26.2517 1.09974
  366 209.836 26.2569 -1.10229
  367 181.722 -28.2061 -66.9510
  368 181.706 -28.1600 66.9143
  369 301.042 -12.7987 -27.3331
  370 301.034 -12.7651 27.3468
  371 464.356 25.2455 -3.55385
  372 364.152 -22.8314 4.68395
  373 364.372 -22.9613 -4.72392
  374 105.492 24.0414 26.5556
  375 105.551 24.0483 -26.5795
  376 248.023 -17.0287 49.8423
  377 248.047 -17.0756 -49.8561
  378 416.874 -12.7667 15.0886
  379 416.764 -12.7759 -15.0790
  380 324.957 4.62740 18.7335
  381 306.680 9.16836 -1.37000
  382 228.644 -44.5316 65.0643
  383 228.676 -44.5762 -65.1036
  384 212.251 19.4009 8.75139
  385 212.257 19.3940 -8.74870
  386 368.061 10.3968 -18.7152
  387 249.823 12.7857 23.8688
  388 249.819 12.7810 -23.8743
  389 311.575 -39.1892 48.1475
  390 311.617 -39.1722 -48.2746
  391 210.206 2.60832 -11.5300
  392 210.219 2.60969 11.5351
  393 446.590 24.1013 10.6936
  394 449.281 24.8710 -11.1454
  395 371.832 -12.9672 30.9211
  396 371.754 -12.9623 -30.9004
  397 274.211 -38.1568 50.3576
  398 274.259 -38.2212 -50.3811
  399 248.987 0.507840 -63.0317
  400 248.979 0.511951 63.0568
  401 173.153 27.7273 -52.1115
  402 173.119 27.7412 52.1203
  403 144.882 18.5773 29.3037
  404 144.865 18.5560 -29.3349
  405 305.923 6.49697 9.09284
  406 221.962 23.1516 -11.7926
  407 221.972 23.1498 11.7874
  408 221.521 8.16243 38.8589
  409 221.521 8.13892 -38.8713
  410 201.235 -10.1653 -55.4932
  411 201.224 -10.1232 55.4668
  412 195.389 2.31454 4.45407
  413 195.383 2.31371 -4.45204
  414 236.561 19.7353 -11.6137
  415 236.568 19.7325 11.6096
  416 234.699 20.6758 6.50457
  417 234.692 20.6809 -6.50716
  418 51.4284 -92.6364 19.8502
  419 51.5521 -92.4905 -19.9262
  420 368.191 6.20877 22.8056
  421 258.679 13.4592 9.82342
  422 258.675 13.4632 -9.82675
  423 209.069 10.8433 10.7742
  424 209.069 10.8388 -10.7701
  425 193.500 29.4629 19.0071
  426 193.514 29.4539 -19.0043
  427 206.605 14.6877 -19.6710
  428 206.604 14.6938 19.6785
  429 311.312 0.583535 -19.0261
  430 311.309 0.584705 19.0235
  431 214.277 18.2473 -40.3903
  432 214.277 18.2561 40.4048
  433 122.496 -26.4085 -60.1304
  434 122.498 -26.3628 60.0879
  435 461.336 -2.67997 5.14964
  436 461.384 -2.80919 -5.12052
  437 582.941 8.50615 63.1325
  438 584.998 7.36707 -63.1918
  439 193.179 27.1645 14.2623
  440 193.165 27.1601 -14.2736
  441 16.2397 -127.184 -18.8181
  442 16.2722 -127.101 18.7947
  443 343.340 -12.8897 6.20573
  444 343.315 -12.9172 -6.17236
  445 354.625 -3.24549 13.5871
  446 354.589 -3.07737 -13.3088
  447 20.3967 -130.175 6.60978
  448 20.4850 -130.029 -6.67015
  449 317.282 -41.5250 -30.6042
  450 317.201 -41.4321 30.5749
  451 347.742 -0.493230 -7.00745
  452 347.725 -0.493097 7.00476
  453 318.521 2.54528 -18.1195
  454 352.643 -14.4304 -11.1207
  455 352.545 -14.6574 11.2350
  456 267.964 3.54115 -30.0341
  457 267.963 3.55414 30.0327
  458 241.488 3.03446 -17.7499
  459 241.516 3.03587 17.7584
  460 82.2176 1.25100 37.5589
  461 82.2945 1.27365 -37.5887
  462 310.364 -25.3160 26.8174
  463 310.398 -25.3829 -26.7966
  464 285.895 7.61011 6.80827
  465 285.896 7.61298 -6.81097
  466 201.238 27.0286 -10.5588
  467 201.227 27.0363 10.5601
  468 311.179 1.16358 1.03467
  469 311.183 1.16393 -1.03508
  470 244.834 16.9870 -6.41431
  471 244.840 16.9817 6.41198
  472 188.542 0.176510 0.718500
  473 188.537 0.176182 -0.718059
  474 199.064 23.4111 -27.1882
  475 199.055 23.4196 27.1959
  476 134.026 -6.51711 -62.3129
  477 133.945 -6.53344 62.3028
  478 294.315 2.11771 -9.56980
  479 14.8067 -28.2627 0.213246
  480 10.5477 -17.7040 -0.953845
  481 10.2741 -15.5378 1.33206
  482 12.6121 -26.2001 1.23521
  483 11.2238 -27.8683 -3.88041
  484 11.9416 -25.6540 -1.66454
  485 10.9857 -25.3818 4.57093
  486 10.8320 -17.3381 2.80803
  487 9.19893 -14.1938 -4.29146
  488 11.7729 -28.4719 -0.105516
  489 9.50063 -33.4989 0.372982
  490 7.63214 -6.86025 -0.904027
  491 10.2788 -15.7017 -2.69290
  492 8.49755 -12.2179 4.22135
  493 13.8266 -25.8171 -0.708024
  494 7.44305 -6.09541 0.890698
  495 13.1950 -23.8503 0.694591
  496 8.35494 -8.25178 0.692459
  497 8.16125 -6.85651 -0.430723
  498 14.1302 -28.0874 0.0235832
  499 14.1580 -29.9595 -0.353470
  500 7.92419 -7.00653 -2.41533
  501 10.3042 -23.3830 3.17807
  502 8.71111 -21.9045 -6.77216
  503 9.69520 -28.1886 -1.65145
  504 7.18636 -31.9288 3.68561
  505 10.8602 -28.7721 0.850250
  506 8.23510 -33.3780 -2.17253
  507 10.5486 -20.1917 -3.34222
  508 8.87221 -17.2021 6.11471
  509 12.3620 -21.9625 0.624860
  510 11.3937 -21.2351 -3.28715
  511 7.68410 -5.86965 2.08322
  512 11.4722 -21.1813 2.71951
  513 13.7655 -26.7283 2.05209
  514 14.0714 -26.5666 0.0254359
  515 11.8764 -18.9574 -0.498698
  516 9.02094 -12.6272 -2.23117
  517 9.37249 -9.79057 2.69821
  518 7.27633 -3.99794 0.172002
  519 12.7710 -30.6007 1.39413
  520 9.97285 -13.9552 1.08733
  521 10.2307 -16.8172 4.09273
  522 8.58755 -13.3698 -5.61194
  523 13.6557 -27.5157 -1.78681
  524 8.39139 -10.9533 2.03413
  525 6.96732 -4.20620 -0.969181
  526 11.1141 -29.3662 -0.680106
  527 5.90780 -35.7727 1.18303
  528 7.16761 -3.79407 -0.0131274
  529 8.44273 -7.87365 -1.54059
  530 9.39369 -11.9788 -0.858777
  531 8.50121 -7.72187 -3.84577
  532 12.9871 -27.9239 -0.369185
  533 14.0047 -27.1865 0.113020
  534 8.51692 -6.30344 3.23548
  535 11.5382 -21.4928 2.81845
  536 9.65112 -20.5633 -5.75269
  537 13.2881 -27.9922 0.201769
  538 12.5862 -31.3809 -1.00998
  539 9.68432 -12.0068 -3.58391
  540 8.60066 -11.5196 -0.588705
  541 6.79189 -3.40507 -0.523514
  542 9.86489 -18.7882 4.85676
  543 6.96204 -3.67201 0.885484
  544 14.6597 -28.1761 -0.374314
  545 13.0372 -23.2282 -1.47221
  546 11.7455 -21.3773 -2.09492
  547 11.0668 -29.3784 0.525996
  548 5.79095 -35.6744 -1.00084
  549 6.83976 -27.8948 3.23148
  550 4.66846 -30.1244 -6.10423
  551 8.25437 -5.17724 1.17471
  552 8.12790 -25.4010 -3.53502
  553 7.16903 -25.0058 7.08636
  554 8.32596 -10.1871 0.588759
  555 8.34948 -9.98976 5.02454
  556 11.8820 -20.2244 1.07144
  557 14.5712 -27.3192 0.871779
  558 12.8825 -23.7743 -0.603734
  559 6.73190 -3.06607 0.496626
  560 7.49975 -4.27448 -0.564380
  561 10.0973 -15.1224 3.20528
  562 14.3517 -29.2950 0.717951
  563 6.74531 -2.17596 0.117322
  564 11.2983 -30.1952 -0.0490912
  565 6.81272 -2.52596 -0.114316
  566 3.49016 -36.9011 -0.0735041
  567 7.07126 -2.62533 -0.0327309
  568 7.89447 -3.07306 -0.349679
  569 9.25905 -4.92918 -1.71177
  570 9.85710 -9.63663 -4.22313
  571 7.06025 -20.6764 -4.95651
  572 4.78263 -28.0531 -4.36685
  573 8.53206 -29.6699 -2.19995
  574 7.72935 -28.9526 2.08044
  575 1.84974 -28.5539 4.47857
  576 7.75399 -22.1628 4.28895
  577 9.60800 -10.6621 4.11043
  578 9.09466 -5.13896 1.18528
  579 7.84139 -3.59899 0.341724
  580 7.02317 -2.49768 -0.0671736
  581 6.86810 -2.46299 -0.444272
  582 7.47845 -3.13075 -0.956940
  583 8.27464 -4.95904 -2.30123
  584 9.06783 -7.33660 -3.99697
  585 7.36028 -18.8739 -6.74830
  586 -1.24058 -31.0998 -6.67026
  587 1.91797 -34.1063 -3.35884
  588 1.99761 -35.5310 3.39347
  589 2.81015 -30.2571 7.10178
  590 6.72129 -16.6911 7.29256
  591 9.08488 -6.35662 3.88614
  592 8.47222 -4.33211 1.88757
  593 7.44579 -2.87753 0.800696
  594 6.81794 -2.19513 0.410450
</Section>

newXOutput 11

<Section columns = "stress_xx | stress_yy | stress_xy">
  1 202.942 1.62095 -1.67671
  2 202.948 1.62134 1.67711
  3 347.533 0.269304 -0.196220
  4 347.527 0.268970 0.195881
  5 7.95695 -217.770 9.34178
  6 725.980 4.01392 -0.380007
  7 7.88960 -217.951 -9.38753
  8 842.838 -5.36740 -6.28823
  9 206.220 1.04326 -1.27033
  10 211.677 1.85925 -3.63241
  11 223.790 2.70048 -7.87292
  12 242.875 1.65317 -14.3593
  13 271.946 1.30459 -15.1449
  14 303.229 4.14195 -24.1284
  15 357.096 0.766101 -30.4381
  16 412.859 -1.76857 -30.3571
  17 488.566 -10.7527 -14.9615
  18 507.723 -9.67506 -3.10787
  19 517.494 -1.90975 9.40921
  20 530.158 7.06476 5.29006
  21 543.778 11.8333 -1.69563
  22 570.286 -4.02059 -3.45908
  23 529.171 4.18895 -7.29999
  24 517.798 -1.85611 -9.15296
  25 507.907 -9.61094 3.15886
  26 488.747 -10.7563 14.9812
  27 412.972 -1.76706 30.3798
  28 357.181 0.767900 30.4574
  29 303.282 4.14427 24.1410
  30 271.987 1.30426 15.1526
  31 242.899 1.65358 14.3664
  32 223.805 2.70155 7.87664
  33 211.686 1.85985 3.63462
  34 206.227 1.04373 1.27131
  35 216.163 1.66771 2.13870
  36 226.387 6.65740 3.24208
  37 233.789 11.0478 3.10166
  38 244.638 14.7565 1.90615
  39 255.629 16.8495 0.797787
  40 269.042 16.2190 -0.232660
  41 283.972 13.4651 -0.655633
  42 306.159 8.84899 -1.76051
  43 322.056 5.48117 -0.117092
  44 334.626 3.25553 -0.981956
  45 347.487 0.00851038 -2.18548
  46 355.447 -0.776268 -2.72373
  47 357.713 0.962925 -4.93090
  48 370.075 0.249160 -6.51605
  49 387.992 -2.03089 -5.70328
  50 400.863 -2.12421 -6.23570
  51 408.620 -2.77907 -3.77270
  52 411.233 -4.15671 1.26822
  53 401.992 -4.89076 9.73925
  54 382.321 -1.70534 14.2740
  55 347.234 1.67819 16.1228
  56 313.379 6.52863 12.0982
  57 296.416 7.33115 5.61867
  58 293.198 8.05073 -6.72302
  59 316.784 4.64905 -11.7729
  60 346.353 1.02829 -13.3859
  61 382.793 -1.39234 -13.4443
  62 402.180 -4.73565 -9.53202
  63 411.210 -4.11623 -1.25663
  64 408.585 -2.77746 3.76652
  65 400.831 -2.12391 6.23054
  66 387.966 -2.02996 5.70038
  67 370.058 0.248969 6.51291
  68 357.701 0.962425 4.92851
  69 355.437 -0.776275 2.72236
  70 347.480 0.00835539 2.18459
  71 334.621 3.25429 0.981336
  72 322.054 5.47858 0.116564
  73 306.159 8.84485 1.75961
  74 283.976 13.4592 0.655128
  75 269.048 16.2119 0.232363
  76 255.634 16.8422 -0.797699
  77 244.642 14.7499 -1.90571
  78 233.790 11.0430 -3.10057
  79 226.385 6.65434 -3.24139
  80 216.158 1.66628 -2.13797
  81 42.6679 -171.707 3.64574
  82 140.914 -56.5082 46.9943
  83 279.855 25.9527 103.411
  84 418.990 58.5604 128.858
  85 549.652 51.7673 136.125
  86 678.927 19.2610 119.619
  87 733.159 -0.761474 57.4974
  88 735.008 -0.872395 -58.0147
  89 679.891 17.7082 -119.668
  90 549.169 52.0436 -135.716
  91 418.839 58.7866 -128.673
  92 279.700 26.0262 -103.439
  93 140.890 -56.4770 -47.0115
  94 42.6456 -171.782 -3.65446
  95 24.0231 -190.398 -15.0145
  96 106.329 -84.3464 26.0957
  97 229.929 -12.2343 63.4583
  98 395.217 32.2903 92.3724
  99 559.310 35.6508 93.6214
  100 700.092 13.1346 86.6182
  101 816.779 -1.66023 62.2587
  102 797.390 -3.97008 -55.0598
  103 701.867 17.6934 -84.6551
  104 559.691 35.2258 -93.6111
  105 395.370 32.3515 -92.5893
  106 230.175 -12.0781 -63.6147
  107 106.517 -84.1525 -26.2169
  108 24.1358 -190.152 14.9063
  109 224.124 32.1392 -8.92597
  110 224.140 32.1377 8.91876
  111 312.710 -25.0918 42.7224
  112 312.742 -25.1543 -42.7190
  113 156.684 36.5494 34.9606
  114 156.733 36.5434 -34.9706
  115 302.058 11.8099 14.9369
  116 302.056 11.8129 -14.9419
  117 228.339 18.1061 15.6435
  118 228.344 18.0991 -15.6379
  119 412.930 -14.0977 14.7897
  120 413.079 -13.8676 -15.0565
  121 171.957 0.364445 56.6206
  122 171.952 0.324202 -56.6613
  123 451.509 21.9194 -11.8772
  124 449.894 20.7329 12.7863
  125 255.023 21.6072 2.58541
  126 255.014 21.6144 -2.58661
  127 317.905 3.72067 -27.6033
  128 317.905 3.72729 27.6011
  129 214.863 -8.31580 80.3197
  130 214.925 -8.31170 -80.3064
  131 315.779 -53.5624 58.0116
  132 315.839 -53.6197 -58.0826
  133 227.555 21.7971 -35.5645
  134 227.552 21.8065 35.5772
  135 381.534 -19.0618 -0.195177
  136 381.553 -18.9453 0.264061
  137 266.980 11.7657 33.5818
  138 266.977 11.7513 -33.5892
  139 81.1962 5.99205 1.44261
  140 81.2573 6.02556 -1.48742
  141 197.500 37.7567 -19.1475
  142 197.476 37.7662 19.1459
  143 365.248 -9.24917 -16.8219
  144 365.252 -9.23613 16.8355
  145 330.726 3.58079 6.46861
  146 330.730 3.58242 -6.47155
  147 253.698 15.0549 -59.1341
  148 253.700 15.0654 59.1575
  149 224.803 6.74659 8.74979
  150 224.799 6.74375 -8.74623
  151 527.916 28.0971 1.31679
  152 267.061 18.2440 20.1078
  153 267.054 18.2437 -20.1140
  154 284.351 14.0426 6.20788
  155 284.347 14.0481 -6.21026
  156 240.060 17.5296 5.40366
  157 240.066 17.5226 -5.40176
  158 232.545 26.4129 -6.83269
  159 232.535 26.4210 6.83387
  160 338.144 3.92507 -14.4257
  161 338.138 3.92386 14.4204
  162 366.916 -24.7983 -45.0903
  163 366.908 -24.8227 45.0870
  164 185.049 31.8468 16.7713
  165 185.027 31.8370 -16.7918
  166 396.860 -19.1866 38.4169
  167 397.017 -19.1829 -38.6613
  168 187.761 -52.9155 81.5062
  169 187.777 -52.9570 -81.5499
  170 478.183 13.7961 19.5189
  171 479.388 15.7249 -20.5498
  172 231.610 9.91597 -20.1267
  173 231.617 9.92052 20.1353
  174 388.171 15.8879 7.44747
  175 393.971 4.04639 28.9682
  176 386.278 4.21217 -27.7332
  177 380.147 -39.3603 13.1224
  178 380.286 -39.5017 -13.1283
  179 246.807 -0.994134 49.6706
  180 246.818 -1.03093 -49.6882
  181 392.215 -11.5506 -18.8367
  182 392.240 -12.2320 18.9039
  183 250.642 -32.7894 69.2673
  184 250.670 -32.8522 -69.2995
  185 247.570 25.6943 -7.57167
  186 247.581 25.6889 7.56800
  187 567.507 32.0999 30.2758
  188 570.216 29.6577 -30.8311
  189 222.607 24.8588 -21.3108
  190 222.599 24.8680 21.3174
  191 272.226 18.9501 10.8623
  192 272.219 18.9551 -10.8662
  193 315.582 -3.08964 32.9497
  194 315.584 -3.10928 -32.9465
  195 371.100 10.4802 -16.1536
  196 299.704 10.9930 22.5494
  197 299.701 10.9920 -22.5546
  198 71.3008 -51.1154 -48.5904
  199 71.1838 -51.1904 48.5470
  200 445.368 -11.6379 -20.9179
  201 445.399 -11.5798 20.8714
  202 260.827 17.5479 -0.626883
  203 260.833 17.5405 0.626621
  204 65.2507 -47.2041 -39.5081
  205 65.2885 -47.1401 39.4570
  206 364.061 -1.86356 -16.0334
  207 364.053 -1.86264 16.0318
  208 135.266 30.9259 0.306719
  209 135.223 30.9153 -0.335960
  210 348.262 -6.97490 -52.1791
  211 348.311 -6.97413 52.2101
  212 265.092 7.19981 -36.5542
  213 265.114 7.20497 36.5718
  214 240.063 -40.4021 74.2493
  215 240.055 -40.3789 -74.3058
  216 233.072 11.9362 6.11652
  217 233.073 11.9309 -6.11372
  218 213.978 28.1250 -51.9707
  219 213.961 28.1389 51.9855
  220 225.309 22.7820 30.3886
  221 225.300 22.7689 -30.4033
  222 303.333 9.83523 5.66568
  223 303.331 9.83941 -5.66789
  224 147.868 24.2466 56.6464
  225 147.932 24.2423 -56.6529
  226 336.042 -38.1958 -37.4283
  227 335.986 -38.0998 37.4304
  228 149.772 -40.0973 64.1506
  229 149.893 -40.0329 -64.1820
  230 341.652 2.14238 -8.66470
  231 341.645 2.14144 8.66101
  232 394.809 -5.01254 3.39400
  233 394.808 -5.01965 -3.38688
  234 242.204 10.5291 -26.4732
  235 242.216 10.5347 26.4844
  236 393.740 14.3653 18.1181
  237 558.572 5.78066 34.1165
  238 558.825 5.99110 -34.0963
  239 454.918 24.5772 79.0112
  240 454.533 25.2475 -79.1291
  241 214.093 34.9725 -6.74156
  242 214.075 34.9798 6.73890
  243 361.176 -20.9705 -17.9985
  244 361.172 -20.9068 18.0412
  245 223.099 3.74968 -9.62952
  246 223.107 3.75131 9.63387
  247 631.178 13.6349 -21.4054
  248 361.295 1.35960 -11.9257
  249 361.283 1.35899 11.9216
  250 242.093 22.5080 -3.58294
  251 242.085 22.5157 3.58376
  252 174.407 40.2096 -12.8008
  253 174.373 40.2143 12.7891
  254 435.641 7.22799 15.8171
  255 433.346 7.28148 -15.9890
  256 628.346 13.3794 20.8932
  257 246.009 23.5378 22.5828
  258 245.999 23.5336 -22.5915
  259 291.623 8.46477 -30.6136
  260 291.625 8.47364 30.6090
  261 337.868 2.00424 2.89024
  262 337.874 2.00512 -2.89154
  263 639.331 -7.97719 30.3338
  264 636.484 2.23586 -26.3721
  265 431.182 23.3817 -8.02653
  266 206.395 13.9351 42.8439
  267 206.390 13.9080 -42.8689
  268 205.272 13.1716 -73.5972
  269 205.230 13.1806 73.6131
  270 321.006 6.66296 12.2514
  271 321.008 6.66524 -12.2561
  272 228.600 11.2609 -15.3792
  273 228.603 11.2657 15.3857
  274 215.704 1.88643 2.85921
  275 215.698 1.88539 -2.85775
  276 200.285 37.9920 0.211731
  277 200.263 37.9950 -0.220946
  278 395.020 -8.44058 -6.68008
  279 394.977 -8.54753 6.72580
  280 26.9955 -70.2596 6.62864
  281 27.0721 -70.1738 -6.67571
  282 276.384 15.6653 -2.29087
  283 276.389 15.6586 2.28998
  284 301.667 11.1454 10.1026
  285 301.666 11.1495 -10.1064
  286 347.279 8.28671 86.9589
  287 347.159 8.39928 -87.0767
  288 391.999 -23.0029 -9.46916
  289 392.092 -23.2290 9.49364
  290 248.617 17.2797 -1.29653
  291 248.611 17.2871 1.29705
  292 334.128 3.01959 -46.7468
  293 334.184 3.02463 46.7735
  294 389.329 -1.91915 8.66039
  295 389.345 -1.91996 -8.66268
  296 552.675 23.3409 -74.1485
  297 551.731 23.0226 73.5810
  298 231.860 -34.3858 -60.5353
  299 231.723 -34.4807 60.4725
  300 379.308 -2.63161 21.7066
  301 379.316 -1.33130 -21.4960
  302 228.936 18.9742 -28.3197
  303 228.936 18.9824 28.3304
  304 116.100 3.88100 38.4383
  305 116.069 3.84455 -38.4856
  306 232.736 16.5317 10.3950
  307 232.740 16.5250 -10.3910
  308 284.585 -5.47674 42.1796
  309 284.594 -5.51033 -42.1829
  310 448.890 28.4510 4.45633
  311 210.402 29.7985 -36.5844
  312 210.386 29.8099 36.5938
  313 428.153 -4.64881 -9.08203
  314 427.586 -4.95720 8.84246
  315 265.659 18.1711 -3.15620
  316 265.666 18.1641 3.15493
  317 674.497 -5.21107 -9.24580
  318 722.765 -11.6185 20.0451
  319 308.904 4.57479 -38.9665
  320 308.953 4.57855 38.9874
  321 463.821 10.3478 -60.1740
  322 463.722 10.5848 59.9859
  323 322.103 5.64430 2.93986
  324 322.105 5.64689 -2.94135
  325 251.763 19.3602 -0.832036
  326 251.756 19.3677 0.832216
  327 240.092 14.6228 -2.72740
  328 240.089 14.6291 2.72852
  329 339.277 -3.91173 -24.2917
  330 339.276 -3.90189 24.2950
  331 510.155 26.5038 1.39662
  332 291.435 12.0924 -2.98948
  333 291.438 12.0870 2.98828
  334 225.600 6.55908 4.04944
  335 225.597 6.55602 -4.04789
  336 227.113 25.2147 -13.5588
  337 227.104 25.2234 13.5626
  338 359.845 4.24860 -19.4396
  339 339.365 -5.24286 -63.6564
  340 339.247 -5.31205 63.5631
  341 356.813 1.88507 -8.08200
  342 356.802 1.88434 8.07851
  343 368.895 -43.7799 31.0928
  344 369.016 -43.9116 -31.1970
  345 330.262 4.97356 20.2018
  346 330.265 4.97383 -20.2072
  347 318.207 8.02121 17.8299
  348 318.208 8.02276 -17.8355
  349 365.436 -35.9215 17.7245
  350 365.502 -36.0395 -17.6919
  351 97.2312 -77.6641 54.2873
  352 97.2275 -77.6956 -54.3169
  353 243.626 24.7651 1.25650
  354 243.616 24.7721 -1.25792
  355 346.998 0.436143 4.08037
  356 347.006 0.436581 -4.08233
  357 188.771 37.4302 -37.7018
  358 188.739 37.4428 37.7043
  359 283.037 -26.3897 -69.3918
  360 283.000 -26.4097 69.4100
  361 282.449 16.1892 16.1961
  362 282.443 16.1920 -16.2012
  363 401.538 -7.75509 26.3237
  364 400.925 -6.75455 -26.8156
  365 231.382 29.1568 1.18405
  366 231.369 29.1629 -1.18670
  367 199.949 -31.0778 -74.2612
  368 199.933 -31.0243 74.2200
  369 332.340 -14.0668 -30.4471
  370 332.331 -14.0292 30.4619
  371 514.131 27.7894 -4.20097
  372 402.260 -25.3285 5.49420
  373 402.505 -25.4777 -5.53580
  374 115.706 26.9718 29.5957
  375 115.772 26.9800 -29.6216
  376 273.477 -18.6706 55.3320
  377 273.502 -18.7238 -55.3478
  378 460.524 -14.0683 16.9928
  379 460.400 -14.0783 -16.9826
  380 359.457 5.12049 20.7462
  381 339.273 10.1933 -1.51254
  382 251.860 -49.2860 72.2586
  383 251.894 -49.3394 -72.3030
  384 233.911 21.4821 9.68548
  385 233.918 21.4741 -9.68228
  386 407.319 11.4864 -20.6407
  387 275.663 14.3076 26.4373
  388 275.658 14.3027 -26.4438
  389 343.678 -43.4310 53.6059
  390 343.725 -43.4187 -53.7467
  391 231.145 2.88109 -12.7433
  392 231.159 2.88263 12.7491
  393 494.191 26.6214 12.3346
  394 497.172 27.4620 -12.8498
  395 410.490 -14.2908 34.4787
  396 410.402 -14.2850 -34.4557
  397 302.418 -42.2247 55.9903
  398 302.470 -42.2990 -56.0166
  399 274.425 0.735065 -70.0329
  400 274.418 0.739492 70.0611
  401 190.553 30.9203 -57.8601
  402 190.516 30.9356 57.8703
  403 159.345 20.9066 32.3743
  404 159.324 20.8826 -32.4087
  405 338.403 7.21609 10.0815
  406 244.830 25.7542 -13.0234
  407 244.841 25.7518 13.0177
  408 244.233 9.29440 43.0564
  409 244.233 9.26829 -43.0704
  410 221.651 -11.0145 -61.5281
  411 221.640 -10.9668 61.4985
  412 214.761 2.56244 4.91470
  413 214.753 2.56149 -4.91238
  414 261.010 21.9365 -12.8359
  415 261.019 21.9329 12.8312
  416 258.940 22.9358 7.17998
  417 258.931 22.9419 -7.18288
  418 55.5810 -102.732 22.1077
  419 55.7189 -102.569 -22.1928
  420 407.398 6.79788 25.1720
  421 285.517 14.9257 10.8601
  422 285.512 14.9304 -10.8640
  423 230.206 11.9865 11.9089
  424 230.206 11.9813 -11.9041
  425 213.152 32.7238 21.0822
  426 213.168 32.7136 -21.0786
  427 227.463 16.2679 -21.7571
  428 227.462 16.2748 21.7657
  429 343.782 0.714672 -21.1469
  430 343.778 0.715860 21.1434
  431 235.919 20.2766 -44.7663
  432 235.918 20.2864 44.7828
  433 134.363 -29.0489 -66.6386
  434 134.368 -28.9959 66.5911
  435 510.241 -2.87029 6.17100
  436 510.295 -3.01929 -6.13850
  437 644.393 8.83217 70.5611
  438 646.665 7.55420 -70.6010
  439 212.920 30.2976 15.7297
  440 212.904 30.2930 -15.7420
  441 16.6004 -141.284 -20.7853
  442 16.6382 -141.187 20.7582
  443 379.386 -14.2771 7.06308
  444 379.359 -14.3077 -7.02629
  445 392.207 -3.61535 14.9964
  446 392.166 -3.42808 -14.6882
  447 21.2852 -144.477 7.41532
  448 21.3837 -144.315 -7.48346
  449 350.178 -46.0519 -34.1574
  450 350.089 -45.9449 34.1257
  451 384.135 -0.530928 -7.79801
  452 384.114 -0.530787 7.79477
  453 352.315 2.81820 -20.0885
  454 389.778 -16.0497 -12.1516
  455 389.670 -16.3011 12.2798
  456 295.706 4.09144 -33.3320
  457 295.705 4.10569 33.3299
  458 265.692 3.37331 -19.6376
  459 265.724 3.37486 19.6472
  460 89.8695 1.73869 41.8129
  461 89.9551 1.76455 -41.8457
  462 342.632 -27.9843 29.9314
  463 342.669 -28.0597 -29.9083
  464 315.643 8.42425 7.52450
  465 315.644 8.42761 -7.52766
  466 221.771 29.9975 -11.7156
  467 221.757 30.0064 11.7174
  468 343.607 1.29033 1.14483
  469 343.613 1.29073 -1.14531
  470 270.175 18.8217 -7.08401
  471 270.181 18.8156 7.08134
  472 207.169 0.185784 0.789296
  473 207.164 0.185408 -0.788790
  474 219.206 25.9896 -30.1222
  475 219.196 25.9992 30.1312
  476 147.199 -6.92814 -69.2867
  477 147.111 -6.94663 69.2758
  478 325.519 2.32214 -10.6306
  479 14.8775 -32.4028 0.224540
  480 10.0568 -19.8607 -1.00563
  481 9.78132 -17.3097 1.43026
  482 11.9756 -29.8470 1.35592
  483 10.5360 -31.6224 -4.28180
  484 11.2646 -29.1708 -1.85342
  485 10.3499 -28.7092 5.05917
  486 10.2793 -19.3209 3.10804
  487 8.54183 -15.6623 -4.62664
  488 10.6128 -32.7266 -0.124336
  489 8.14800 -38.2929 0.416957
  490 6.94970 -7.14262 -0.923868
  491 9.67720 -17.4030 -2.97003
  492 7.75584 -13.3567 4.51469
  493 13.7605 -29.4743 -0.757150
  494 6.76218 -6.25253 0.891109
  495 13.0239 -27.1279 0.729675
  496 7.69464 -8.72094 0.722651
  497 7.52491 -7.11429 -0.457504
  498 13.9692 -32.2388 0.0377238
  499 14.1068 -34.2911 -0.397353
  500 7.25085 -7.32058 -2.44351
  501 9.35081 -26.3622 3.40334
  502 7.71977 -24.5494 -7.38377
  503 8.15309 -32.1181 -1.68755
  504 5.56543 -36.2170 3.95511
  505 9.45000 -32.8749 0.826746
  506 6.68023 -37.9593 -2.29640
  507 9.73269 -22.5995 -3.58941
  508 8.00508 -19.0935 6.61431
  509 12.0189 -24.8804 0.752677
  510 10.9655 -23.9728 -3.64527
  511 7.00458 -5.99824 2.05083
  512 11.0901 -23.9121 2.99510
  513 13.6632 -30.4797 2.29038
  514 13.9362 -30.3930 -0.00304025
  515 11.5319 -21.3139 -0.593736
  516 8.38526 -13.8950 -2.38838
  517 8.74730 -10.4790 2.84540
  518 6.63193 -3.77095 0.103699
  519 12.3852 -34.9594 1.54702
  520 9.40260 -15.4051 1.22440
  521 9.54077 -18.6371 4.39296
  522 7.78744 -14.6578 -5.96957
  523 13.5302 -31.4070 -1.99573
  524 7.71430 -11.9240 2.14090
  525 6.30124 -4.04694 -0.871740
  526 8.92563 -33.5506 -0.654378
  527 3.30799 -40.6405 1.20595
  528 6.54300 -3.54686 0.00439626
  529 7.78809 -8.24277 -1.56213
  530 8.80433 -13.0970 -0.971817
  531 7.84472 -8.12781 -3.92716
  532 12.4529 -31.9967 -0.420411
  533 13.8643 -31.1299 0.171698
  534 7.89946 -6.48861 3.21334
  535 10.8769 -24.2609 3.14641
  536 8.86138 -23.1131 -6.35350
  537 12.7830 -32.0850 0.234716
  538 12.1310 -35.8391 -1.12678
  539 9.02565 -13.0155 -3.75838
  540 7.90590 -12.5766 -0.608239
  541 6.13163 -3.12283 -0.500716
  542 9.21045 -21.0482 5.34322
  543 6.31695 -3.42953 0.767449
  544 14.7142 -32.2763 -0.412882
  545 12.8806 -26.3816 -1.61548
  546 11.2211 -24.1275 -2.35443
  547 8.84895 -33.6053 0.547404
  548 3.13237 -40.5847 -1.06559
  549 4.97310 -31.6241 3.37515
  550 2.78874 -33.9975 -6.56282
  551 7.61878 -5.11417 1.09249
  552 6.66999 -28.6826 -3.72070
  553 5.85064 -28.0938 7.68037
  554 7.64970 -11.0176 0.596292
  555 7.59079 -10.7315 5.25312
  556 11.5767 -22.8074 1.14774
  557 14.6236 -31.2604 0.951709
  558 12.6036 -27.0176 -0.716965
  559 6.07648 -2.73104 0.448706
  560 6.85297 -4.06965 -0.495633
  561 9.55029 -16.8082 3.49261
  562 14.3708 -33.5420 0.800446
  563 6.13759 -1.67366 0.0914584
  564 8.40375 -34.3887 0.0160128
  565 6.18743 -2.08052 -0.109414
  566 -0.0989810 -41.7899 -0.142176
  567 6.47224 -2.13189 0.0924008
  568 7.30029 -2.62214 -0.126018
  569 8.74102 -4.77746 -1.57223
  570 9.32138 -10.2330 -4.35850
  571 5.69483 -23.0983 -5.25028
  572 2.65728 -31.7095 -4.53249
  573 5.75804 -33.8015 -2.17538
  574 5.06759 -33.0028 2.09475
  575 -0.883475 -32.3421 4.61104
  576 6.47985 -24.7945 4.48339
  577 9.00851 -11.3997 4.29739
  578 8.61238 -4.99287 0.963607
  579 7.32043 -3.23404 0.121744
  580 6.42429 -1.99592 -0.213553
  581 6.26779 -2.01508 -0.305289
  582 6.88885 -2.80568 -0.735252
  583 7.75459 -4.90859 -2.13304
  584 8.52389 -7.64099 -3.98236
  585 6.24828 -20.9248 -7.16824
  586 -4.02574 -35.0583 -7.02683
  587 -1.19420 -38.6849 -3.50024
  588 -1.29527 -40.2621 3.49853
  589 0.773324 -34.0479 7.56480
  590 5.57523 -18.4379 7.78785
  591 8.56397 -6.54222 3.86656
  592 8.00604 -4.19420 1.66053
  593 6.86888 -2.51719 0.554916
  594 6.21910 -1.70678 0.262081
</Section>

newXOutput 12

<Section columns = "stress_xx | stress_yy | stress_xy">
  1 220.837 1.78355 -1.84499
  2 220.844 1.78399 1.84544
  3 379.954 0.287306 -0.206491
  4 379.947 0.286923 0.206102
  5 7.47290 -239.686 10.1823
  6 794.679 3.88051 -0.433554
  7 7.39803 -239.888 -10.2339
  8 922.222 -6.57517 -6.85416
  9 224.430 1.14101 -1.37457
  10 230.393 2.04186 -3.95353
  11 243.615 2.96367 -8.60458
  12 264.513 1.81829 -15.7057
  13 296.245 1.45181 -16.5666
  14 330.588 4.55996 -26.4315
  15 389.629 0.851802 -33.3754
  16 450.951 -1.91253 -33.3732
  17 534.110 -11.7792 -16.5655
  18 555.587 -10.5820 -3.73177
  19 567.042 -2.05094 9.85240
  20 581.896 7.70728 5.31812
  21 597.712 12.9040 -2.09702
  22 626.604 -4.54600 -3.63629
  23 580.847 4.57581 -7.49112
  24 567.377 -1.98771 -9.56444
  25 555.790 -10.5098 3.78764
  26 534.309 -11.7833 16.5867
  27 451.077 -1.91099 33.3981
  28 389.723 0.853714 33.3966
  29 330.647 4.56248 26.4454
  30 296.291 1.45143 16.5752
  31 264.539 1.81873 15.7135
  32 243.632 2.96486 8.60876
  33 230.403 2.04254 3.95602
  34 224.437 1.14155 1.37569
  35 235.455 1.80133 2.34461
  36 246.787 7.27131 3.56663
  37 255.035 12.0717 3.39715
  38 267.088 16.1153 2.09508
  39 279.227 18.4101 0.880728
  40 293.987 17.7251 -0.246245
  41 310.376 14.7188 -0.708220
  42 334.672 9.66694 -1.91877
  43 352.072 5.98838 -0.110069
  44 365.830 3.56687 -1.06783
  45 379.900 0.00205165 -2.39322
  46 388.598 -0.862091 -2.97407
  47 391.079 1.05712 -5.39136
  48 404.626 0.275399 -7.14583
  49 424.271 -2.23646 -6.26780
  50 438.443 -2.33806 -6.87468
  51 447.080 -3.05392 -4.20386
  52 450.097 -4.58312 1.30135
  53 440.152 -5.40776 10.6213
  54 418.668 -1.90223 15.6189
  55 380.238 1.85061 17.6993
  56 343.087 7.22403 13.3036
  57 324.456 8.12209 6.19985
  58 320.927 8.89865 -7.39803
  59 346.825 5.13040 -12.9275
  60 379.279 1.12377 -14.6840
  61 419.182 -1.55781 -14.7099
  62 440.354 -5.23705 -10.3947
  63 450.069 -4.53899 -1.28920
  64 447.039 -3.05217 4.19680
  65 438.406 -2.33769 6.86881
  66 424.242 -2.23541 6.26445
  67 404.607 0.275177 7.14222
  68 391.065 1.05654 5.38862
  69 388.588 -0.862107 2.97251
  70 379.893 0.00187338 2.39221
  71 365.825 3.56546 1.06712
  72 352.069 5.98542 0.109460
  73 334.673 9.66220 1.91774
  74 310.381 14.7120 0.707646
  75 293.993 17.7170 0.245912
  76 279.234 18.4017 -0.880619
  77 267.092 16.1078 -2.09457
  78 255.036 12.0663 -3.39591
  79 246.785 7.26784 -3.56584
  80 235.450 1.79973 -2.34378
  81 45.4070 -189.150 3.78457
  82 152.931 -62.2554 51.3829
  83 305.016 28.5731 113.390
  84 457.296 64.5718 141.526
  85 600.359 56.8022 149.773
  86 741.743 20.6505 131.672
  87 801.724 -1.55321 63.3907
  88 803.745 -1.61371 -63.9487
  89 742.780 18.8743 -131.726
  90 599.816 57.1256 -149.329
  91 457.131 64.8194 -141.317
  92 304.842 28.6443 -113.418
  93 152.902 -62.2306 -51.4008
  94 45.3801 -189.240 -3.79482
  95 25.0917 -209.541 -16.5433
  96 115.149 -92.7186 28.6383
  97 250.403 -13.3727 69.6757
  98 431.328 35.7429 101.574
  99 611.116 39.4535 103.276
  100 765.523 14.2275 95.7744
  101 893.412 -2.44674 68.7691
  102 872.424 -4.95063 -60.8859
  103 767.458 19.2882 -93.6390
  104 611.535 38.9620 -103.266
  105 431.493 35.8111 -101.814
  106 250.674 -13.2002 -69.8474
  107 115.356 -92.5050 -28.7719
  108 25.2163 -209.269 16.4232
  109 244.749 35.3908 -9.72689
  110 244.767 35.3887 9.71915
  111 341.656 -27.3813 47.0211
  112 341.691 -27.4511 -47.0176
  113 170.732 40.3474 38.4722
  114 170.786 40.3410 -38.4827
  115 330.181 12.9845 16.3563
  116 330.179 12.9880 -16.3620
  117 249.107 19.8392 17.1240
  118 249.112 19.8314 -17.1175
  119 451.848 -15.5298 15.9529
  120 452.009 -15.2728 -16.2448
  121 187.395 0.708622 62.0436
  122 187.388 0.663362 -62.0883
  123 494.692 23.9640 -12.8057
  124 492.918 22.6654 13.8086
  125 278.612 23.6804 2.81758
  126 278.603 23.6886 -2.81886
  127 347.504 4.20604 -30.3262
  128 347.504 4.21310 30.3232
  129 234.340 -8.84498 88.3410
  130 234.407 -8.84038 -88.3261
  131 344.867 -58.7912 63.8428
  132 344.933 -58.8596 -63.9208
  133 248.147 23.9412 -38.9750
  134 248.144 23.9516 38.9894
  135 417.364 -20.9147 -0.423774
  136 417.385 -20.7866 0.500110
  137 291.663 13.1048 36.8188
  138 291.660 13.0893 -36.8273
  139 87.9662 6.93103 1.73246
  140 88.0343 6.96883 -1.78131
  141 215.487 41.5407 -21.0561
  142 215.461 41.5514 21.0548
  143 399.459 -10.0913 -18.6089
  144 399.462 -10.0770 18.6232
  145 361.561 3.91881 7.07460
  146 361.566 3.92070 -7.07798
  147 276.750 16.6083 -64.9155
  148 276.753 16.6197 64.9416
  149 244.996 7.38090 9.56882
  150 244.992 7.37770 -9.56478
  151 578.545 30.6255 1.44727
  152 291.822 20.1170 22.0168
  153 291.813 20.1171 -22.0238
  154 310.790 15.3730 6.78791
  155 310.786 15.3794 -6.79062
  156 262.068 19.1774 5.91599
  157 262.074 19.1694 -5.91378
  158 253.907 28.9766 -7.50172
  159 253.895 28.9859 7.50323
  160 369.691 4.33380 -15.8170
  161 369.684 4.33235 15.8109
  162 401.018 -27.0671 -49.8071
  163 401.011 -27.0945 49.8039
  164 201.886 35.1925 18.2873
  165 201.860 35.1818 -18.3094
  166 433.745 -20.9754 42.4660
  167 433.920 -20.9753 -42.7315
  168 204.520 -58.0221 89.4798
  169 204.535 -58.0718 -89.5286
  170 523.274 15.1161 21.9594
  171 524.592 17.2481 -23.0975
  172 252.429 10.8643 -22.0246
  173 252.437 10.8694 22.0342
  174 425.316 17.4255 8.16719
  175 431.398 4.39541 31.6684
  176 422.991 4.59222 -30.3399
  177 415.632 -43.2621 14.6639
  178 415.785 -43.4218 -14.6683
  179 269.446 -0.824998 54.4806
  180 269.456 -0.865772 -54.5002
  181 429.306 -12.7467 -20.5282
  182 429.330 -13.4971 20.6025
  183 273.529 -35.8023 76.0709
  184 273.558 -35.8734 -76.1067
  185 270.460 28.2310 -8.26391
  186 270.472 28.2246 8.25991
  187 621.548 34.9291 33.6845
  188 624.505 32.2188 -34.2948
  189 242.864 27.2788 -23.3494
  190 242.855 27.2891 23.3570
  191 297.500 20.8041 11.8780
  192 297.492 20.8099 -11.8824
  193 344.924 -3.23009 36.2314
  194 344.925 -3.25160 -36.2285
  195 406.512 11.5051 -17.7173
  196 327.584 12.1517 24.7276
  197 327.581 12.1508 -24.7338
  198 76.9902 -55.8400 -53.5234
  199 76.8616 -55.9230 53.4756
  200 487.156 -12.6345 -23.3398
  201 487.194 -12.5691 23.2877
  202 284.960 19.1838 -0.682858
  203 284.966 19.1754 0.682576
  204 70.3692 -51.5959 -43.2776
  205 70.4125 -51.5231 43.2212
  206 398.130 -1.99844 -17.6686
  207 398.120 -1.99747 17.6664
  208 147.293 34.2315 0.195659
  209 147.246 34.2195 -0.227236
  210 380.416 -7.54975 -57.3924
  211 380.472 -7.54904 57.4265
  212 289.048 7.89987 -40.0581
  213 289.073 7.90551 40.0777
  214 261.724 -44.3236 81.5387
  215 261.715 -44.3048 -81.6010
  216 254.251 13.0446 6.67910
  217 254.252 13.0386 -6.67591
  218 233.361 30.9601 -57.0380
  219 233.342 30.9753 57.0548
  220 246.003 25.2265 33.2610
  221 245.992 25.2123 -33.2773
  222 331.584 10.7617 6.19735
  223 331.582 10.7665 -6.19989
  224 161.004 26.8947 62.2963
  225 161.074 26.8903 -62.3029
  226 367.218 -41.8543 -41.2767
  227 367.157 -41.7469 41.2793
  228 162.947 -43.7635 70.6129
  229 163.080 -43.6927 -70.6473
  230 373.517 2.35526 -9.48647
  231 373.508 2.35417 9.48222
  232 431.985 -5.47522 3.83800
  233 431.985 -5.48290 -3.83052
  234 263.996 11.5515 -28.9965
  235 264.010 11.5576 29.0090
  236 431.347 15.7513 19.8164
  237 611.618 6.42014 38.1061
  238 611.899 6.64680 -38.0794
  239 497.216 27.1784 87.1447
  240 496.794 27.9321 -87.2699
  241 233.713 38.4559 -7.43872
  242 233.693 38.4643 7.43616
  243 394.942 -22.9586 -19.9519
  244 394.938 -22.8881 19.9986
  245 243.002 4.10390 -10.5251
  246 243.012 4.10572 10.5300
  247 691.229 14.5146 -23.7095
  248 395.054 1.52143 -13.0987
  249 395.040 1.52069 13.0939
  250 264.378 24.6636 -3.93316
  251 264.369 24.6725 3.93420
  252 190.207 44.3200 -14.1420
  253 190.170 44.3252 14.1298
  254 476.981 7.87692 17.0550
  255 474.465 7.93591 -17.2454
  256 688.143 14.1972 23.1416
  257 268.726 25.9807 24.7133
  258 268.715 25.9765 -24.7230
  259 318.700 9.44392 -33.5949
  260 318.704 9.45337 33.5894
  261 369.375 2.19193 3.16138
  262 369.381 2.19294 -3.16286
  263 700.736 -9.07481 33.8563
  264 697.638 2.18163 -29.5187
  265 472.516 25.6248 -8.75892
  266 225.207 15.5797 46.9230
  267 225.200 15.5497 -46.9504
  268 223.828 14.6747 -80.8908
  269 223.782 14.6843 80.9087
  270 350.929 7.31323 13.4154
  271 350.932 7.31591 -13.4208
  272 249.211 12.3312 -16.8200
  273 249.214 12.3366 16.8272
  274 234.926 2.05377 3.11696
  275 234.920 2.05260 -3.11531
  276 218.602 41.8442 0.150973
  277 218.577 41.8477 -0.160696
  278 432.333 -9.27356 -7.19417
  279 432.287 -9.39058 7.24424
  280 28.4511 -76.8987 7.40787
  281 28.5360 -76.8028 -7.46008
  282 302.050 17.1271 -2.50340
  283 302.055 17.1195 2.50239
  284 329.761 12.2174 11.0536
  285 329.759 12.2221 -11.0579
  286 379.119 9.32399 95.5942
  287 378.987 9.44182 -95.7223
  288 428.857 -25.3048 -10.1663
  289 428.957 -25.5556 10.1955
  290 271.497 18.8880 -1.41839
  291 271.491 18.8963 1.41901
  292 364.730 3.37364 -51.3266
  293 364.793 3.37910 51.3560
  294 425.874 -2.07697 9.57812
  295 425.894 -2.07785 -9.58099
  296 604.542 25.3683 -81.9663
  297 603.515 25.0352 81.3361
  298 252.846 -37.6047 -66.6414
  299 252.697 -37.7092 66.5727
  300 415.321 -2.92535 23.7531
  301 415.334 -1.48965 -23.5286
  302 249.637 20.8164 -31.0145
  303 249.637 20.8255 31.0267
  304 126.203 4.58354 42.0587
  305 126.167 4.54237 -42.1105
  306 253.946 18.0929 11.3724
  307 253.950 18.0852 -11.3679
  308 310.890 -5.79908 46.3303
  309 310.899 -5.83616 -46.3343
  310 491.950 31.1962 4.79483
  311 229.490 32.7615 -40.1364
  312 229.472 32.7740 40.1471
  313 468.366 -5.06834 -10.3735
  314 467.746 -5.40942 10.1115
  315 290.285 19.8897 -3.44616
  316 290.293 19.8817 3.44475
  317 739.802 -6.07695 -10.3252
  318 792.125 -13.2241 22.2482
  319 336.967 5.03937 -42.7283
  320 337.021 5.04344 42.7514
  321 507.163 11.6235 -66.5470
  322 507.057 11.8950 66.3370
  323 352.123 6.17088 3.20844
  324 352.126 6.17385 -3.21014
  325 275.000 21.1850 -0.916650
  326 274.992 21.1936 0.916901
  327 262.055 15.9785 -2.98137
  328 262.051 15.9857 2.98266
  329 370.936 -4.19032 -26.7509
  330 370.935 -4.17958 26.7540
  331 559.037 28.8590 1.75963
  332 318.551 13.2167 -3.26772
  333 318.555 13.2105 3.26635
  334 245.917 7.16311 4.43126
  335 245.914 7.15966 -4.42949
  336 247.874 27.6584 -14.8600
  337 247.864 27.6681 14.8644
  338 394.087 4.63590 -21.3090
  339 370.645 -5.53292 -70.1767
  340 370.518 -5.61027 70.0748
  341 390.113 2.08332 -8.85402
  342 390.099 2.08247 8.84999
  343 403.159 -48.0897 34.3677
  344 403.293 -48.2399 -34.4804
  345 361.062 5.52224 22.1755
  346 361.066 5.52272 -22.1819
  347 347.865 8.84686 19.5472
  348 347.866 8.84880 -19.5538
  349 399.556 -39.4429 19.6900
  350 399.627 -39.5747 -19.6532
  351 105.263 -85.3116 59.5324
  352 105.256 -85.3518 -59.5656
  353 266.114 27.1733 1.35315
  354 266.102 27.1814 -1.35460
  355 379.359 0.469501 4.45941
  356 379.367 0.470010 -4.46165
  357 205.862 41.2183 -41.4208
  358 205.828 41.2322 41.4242
  359 309.035 -28.7722 -76.3937
  360 308.996 -28.7943 76.4139
  361 308.698 17.8097 17.7333
  362 308.692 17.8131 -17.7390
  363 439.515 -8.58446 28.7165
  364 438.854 -7.47780 -29.2590
  365 252.693 32.0391 1.26188
  366 252.677 32.0462 -1.26462
  367 217.951 -33.9061 -81.4985
  368 217.936 -33.8451 81.4529
  369 363.274 -15.3032 -33.5490
  370 363.264 -15.2617 33.5647
  371 563.377 30.2859 -4.87252
  372 439.915 -27.8143 6.32261
  373 440.183 -27.9834 -6.36577
  374 125.821 29.9190 32.6269
  375 125.894 29.9284 -32.6548
  376 298.624 -20.2689 60.7714
  377 298.651 -20.3284 -60.7889
  378 503.628 -15.3450 18.9067
  379 503.490 -15.3558 -18.8959
  380 393.634 5.60851 22.7364
  381 371.574 11.2127 -1.65253
  382 274.783 -53.9997 79.3904
  383 274.819 -54.0621 -79.4399
  384 255.323 23.5357 10.6059
  385 255.331 23.5267 -10.6022
  386 446.203 12.5612 -22.5321
  387 301.221 15.8355 28.9730
  388 301.215 15.8304 -28.9804
  389 375.368 -47.6547 59.0222
  390 375.421 -47.6475 -59.1766
  391 251.762 3.14901 -13.9367
  392 251.778 3.15072 13.9432
  393 541.267 29.1189 14.0061
  394 544.532 30.0281 -14.5859
  395 448.652 -15.5908 38.0216
  396 448.554 -15.5843 -37.9964
  397 330.273 -46.2521 61.5813
  398 330.329 -46.3365 -61.6104
  399 299.539 0.983672 -76.9800
  400 299.532 0.988399 77.0111
  401 207.750 34.1072 -63.5598
  402 207.709 34.1239 63.5716
  403 173.661 23.2572 35.3946
  404 173.636 23.2304 -35.4321
  405 370.589 7.93009 11.0598
  406 267.460 28.3432 -14.2322
  407 267.473 28.3401 14.2259
  408 266.692 10.4528 47.2030
  409 266.690 10.4241 -47.2187
  410 241.826 -11.8215 -67.4975
  411 241.816 -11.7679 67.4648
  412 233.835 2.80707 5.36629
  413 233.827 2.80599 -5.36366
  414 285.203 24.1234 -14.0379
  415 285.213 24.1190 14.0326
  416 282.925 25.1732 7.84268
  417 282.916 25.1803 -7.84589
  418 59.6761 -112.770 24.3533
  419 59.8281 -112.591 -24.4475
  420 446.221 7.36954 27.5016
  421 312.066 16.3766 11.8798
  422 312.061 16.3821 -11.8843
  423 251.071 13.1111 13.0246
  424 251.071 13.1052 -13.0191
  425 232.584 35.9594 23.1353
  426 232.601 35.9480 -23.1310
  427 248.052 17.8284 -23.8112
  428 248.051 17.8361 23.8210
  429 375.881 0.856249 -23.2532
  430 375.876 0.857428 23.2488
  431 257.272 22.2916 -49.0919
  432 257.272 22.3023 49.1104
  433 146.092 -31.6434 -73.0770
  434 146.099 -31.5828 73.0246
  435 558.570 -3.05538 7.22185
  436 558.631 -3.22455 -7.18588
  437 704.929 9.10876 77.9113
  438 707.411 7.69088 -77.9325
  439 232.461 33.4267 17.1674
  440 232.442 33.4220 -17.1807
  441 16.9389 -155.329 -22.7284
  442 16.9822 -155.219 22.6976
  443 415.035 -15.6495 7.93969
  444 415.007 -15.6831 -7.89959
  445 429.421 -3.98480 16.3820
  446 429.374 -3.77836 -16.0441
  447 22.1561 -158.705 8.22470
  448 22.2648 -158.526 -8.30064
  449 382.669 -50.5480 -37.6970
  450 382.571 -50.4268 37.6633
  451 420.103 -0.565363 -8.58456
  452 420.080 -0.565218 8.58075
  453 385.795 3.08933 -22.0392
  454 426.513 -17.6633 -13.1485
  455 426.395 -17.9387 13.2906
  456 323.131 4.66343 -36.5986
  457 323.131 4.67888 36.5958
  458 289.516 3.71004 -21.4978
  459 289.552 3.71173 21.5086
  460 97.4438 2.26965 46.0487
  461 97.5380 2.29873 -46.0844
  462 374.517 -30.6174 33.0399
  463 374.557 -30.7012 -33.0146
  464 345.061 9.22692 8.22847
  465 345.062 9.23080 -8.23210
  466 242.079 32.9396 -12.8607
  467 242.064 32.9496 12.8629
  468 375.659 1.41573 1.25336
  469 375.665 1.41619 -1.25390
  470 295.247 20.6342 -7.74161
  471 295.255 20.6271 7.73861
  472 225.508 0.193232 0.858074
  473 225.502 0.192808 -0.857501
  474 239.102 28.5462 -33.0200
  475 239.092 28.5568 33.0304
  476 160.220 -7.29867 -76.2176
  477 160.123 -7.31933 76.2058
  478 356.440 2.51843 -11.6840
  479 14.9497 -36.5354 0.235786
  480 9.56454 -22.0052 -1.05594
  481 9.28743 -19.0689 1.52658
  482 11.3372 -33.4856 1.47941
  483 9.85184 -35.3665 -4.68677
  484 10.5851 -32.6788 -2.04558
  485 9.71673 -32.0238 5.55090
  486 9.72386 -21.2911 3.40988
  487 7.88542 -17.1140 -4.96003
  488 9.45030 -36.9767 -0.143483
  489 6.80057 -43.0839 0.461457
  490 6.26629 -7.41172 -0.940490
  491 9.07167 -19.0929 -3.24931
  492 7.01415 -14.4789 4.80518
  493 13.6949 -33.1221 -0.805858
  494 6.08032 -6.39641 0.887985
  495 12.8525 -30.3950 0.764077
  496 7.03230 -9.17810 0.755862
  497 6.88661 -7.35959 -0.487830
  498 13.8083 -36.3835 0.0518435
  499 14.0595 -38.6159 -0.441437
  500 6.57794 -7.62114 -2.46868
  501 8.39470 -29.3287 3.63338
  502 6.73284 -27.1750 -8.00095
  503 6.60752 -36.0424 -1.72599
  504 3.94938 -40.4985 4.22772
  505 8.03670 -36.9732 0.804552
  506 5.12972 -42.5370 -2.42226
  507 8.91311 -24.9935 -3.84006
  508 7.14075 -20.9623 7.11619
  509 11.6743 -27.7875 0.882291
  510 10.5375 -26.6977 -4.00390
  511 6.32563 -6.11338 2.01511
  512 10.7079 -26.6300 3.27074
  513 13.5630 -34.2214 2.52981
  514 13.8011 -34.2109 -0.0325350
  515 11.1857 -23.6589 -0.690572
  516 7.74910 -15.1487 -2.54349
  517 8.11889 -11.1571 2.99480
  518 5.98545 -3.53090 0.0393437
  519 12.0040 -39.3116 1.70149
  520 8.83007 -16.8429 1.36341
  521 8.84690 -20.4431 4.69487
  522 6.98929 -15.9233 -6.32570
  523 13.4073 -35.2896 -2.20562
  524 7.03675 -12.8808 2.24478
  525 5.63486 -3.87390 -0.771095
  526 6.73076 -37.7320 -0.629178
  527 0.708968 -45.5072 1.22931
  528 5.91650 -3.28626 0.0178835
  529 7.13082 -8.60060 -1.58714
  530 8.21285 -14.2032 -1.08747
  531 7.18934 -8.51938 -4.00480
  532 11.9174 -36.0633 -0.473284
  533 13.7239 -35.0655 0.231502
  534 7.28377 -6.66027 3.18693
  535 10.2122 -27.0172 3.47736
  536 8.07216 -25.6465 -6.95682
  537 12.2769 -36.1715 0.268842
  538 11.6808 -40.2920 -1.24480
  539 8.36241 -14.0122 -3.93452
  540 7.20982 -13.6204 -0.625416
  541 5.47021 -2.82686 -0.474315
  542 8.55621 -23.2918 5.83010
  543 5.67163 -3.17332 0.645972
  544 14.7706 -36.3685 -0.451385
  545 12.7242 -29.5239 -1.75834
  546 10.6940 -26.8660 -2.61662
  547 6.62491 -37.8290 0.568912
  548 0.473975 -45.4942 -1.13085
  549 3.10391 -35.3464 3.52267
  550 0.915865 -37.8605 -7.02627
  551 6.98042 -5.03964 1.01425
  552 5.21016 -31.9541 -3.91117
  553 4.54089 -31.1650 8.28007
  554 6.97213 -11.8352 0.600830
  555 6.83482 -11.4510 5.47695
  556 11.2706 -25.3784 1.22294
  557 14.6775 -35.1929 1.03176
  558 12.3232 -30.2508 -0.832199
  559 5.41994 -2.38224 0.396966
  560 6.20391 -3.85214 -0.431167
  561 9.00270 -18.4792 3.77840
  562 14.3924 -37.7817 0.883505
  563 5.52819 -1.15744 0.0615504
  564 5.50004 -38.5792 0.0810349
  565 5.56043 -1.62111 -0.100585
  566 -3.69175 -46.6779 -0.211206
  567 5.87079 -1.62535 0.213136
  568 6.70330 -2.16019 0.0929830
  569 8.21903 -4.61847 -1.43625
  570 8.77994 -10.8209 -4.49449
  571 4.32714 -25.5050 -5.54739
  572 0.528936 -35.3594 -4.70187
  573 2.97579 -37.9301 -2.15208
  574 2.39900 -37.0494 2.11028
  575 -3.62004 -36.1243 4.74664
  576 5.20443 -27.4117 4.68136
  577 8.40453 -12.1267 4.48524
  578 8.12649 -4.83753 0.746259
  579 6.79639 -2.85706 -0.0936260
  580 5.82292 -1.48059 -0.355699
  581 5.66677 -1.55313 -0.162863
  582 6.29945 -2.46710 -0.510702
  583 7.23564 -4.84565 -1.96221
  584 7.98164 -7.92768 -3.96269
  585 5.14549 -22.9513 -7.59052
  586 -6.80347 -39.0070 -7.38661
  587 -4.30667 -43.2608 -3.64356
  588 -4.58866 -44.9907 3.60513
  589 -1.25424 -37.8279 8.03183
  590 4.43849 -20.1583 8.28441
  591 8.04595 -6.71280 3.84125
  592 7.54104 -4.04440 1.43081
  593 6.29229 -2.14352 0.306109
  594 5.61961 -1.20449 0.110074
</Section>

newXOutput 13

<Section columns = "stress_xx | stress_yy | stress_xy">
  1 238.447 1.94536 -2.01247
  2 238.455 1.94585 2.01297
  3 411.997 0.303704 -0.215135
  4 411.990 0.303272 0.214695
  5 6.97241 -261.551 11.0097
  6 862.262 3.69228 -0.485960
  7 6.88999 -261.774 -11.0672
  8 1000.19 -7.86527 -7.40613
  9 242.350 1.23723 -1.47463
  10 248.811 2.22297 -4.26625
  11 263.119 3.22436 -9.32335
  12 285.805 1.98239 -17.0302
  13 320.144 1.60067 -17.9656
  14 357.517 4.97591 -28.7037
  15 421.668 0.937631 -36.2777
  16 488.510 -2.05209 -36.3654
  17 579.045 -12.7953 -18.1697
  18 602.872 -11.4802 -4.38609
  19 616.072 -2.18518 10.2387
  20 633.181 8.34334 5.28993
  21 651.259 13.9580 -2.52590
  22 682.469 -5.08048 -3.79283
  23 632.075 4.96461 -7.61702
  24 616.438 -2.11131 -9.91837
  25 603.093 -11.3999 4.44680
  26 579.263 -12.8001 18.1923
  27 488.648 -2.05053 36.3923
  28 421.772 0.939646 36.3008
  29 357.582 4.97861 28.7190
  30 320.195 1.60023 17.9750
  31 285.834 1.98284 17.0389
  32 263.138 3.22567 9.32798
  33 248.822 2.22372 4.26902
  34 242.359 1.23782 1.47587
  35 254.465 1.92894 2.54808
  36 266.911 7.87345 3.88940
  37 276.014 13.0767 3.68853
  38 289.281 17.4472 2.28258
  39 302.569 19.9413 0.963641
  40 318.666 19.2033 -0.258216
  41 336.499 15.9499 -0.758402
  42 362.873 10.4690 -2.07316
  43 381.750 6.48582 -0.0999440
  44 396.677 3.87401 -1.15115
  45 411.936 -0.00560966 -2.59795
  46 421.358 -0.948806 -3.21928
  47 424.050 1.15039 -5.84362
  48 438.767 0.301552 -7.76821
  49 460.120 -2.44159 -6.82778
  50 475.585 -2.55140 -7.51201
  51 485.113 -3.32746 -4.64059
  52 488.552 -5.00982 1.32013
  53 477.941 -5.92741 11.4851
  54 454.675 -2.10265 16.9445
  55 412.943 2.02410 19.2626
  56 372.527 7.92436 14.5019
  57 352.240 8.91960 6.78130
  58 348.403 9.74958 -8.06944
  59 376.595 5.61285 -14.0721
  60 411.907 1.21798 -15.9696
  61 455.229 -1.72710 -15.9572
  62 478.156 -5.74114 -11.2396
  63 488.520 -4.96215 -1.30754
  64 485.066 -3.32560 4.63261
  65 475.543 -2.55098 7.50541
  66 460.087 -2.44041 6.82396
  67 438.746 0.301297 7.76410
  68 424.035 1.14972 5.84053
  69 421.346 -0.948832 3.21752
  70 411.928 -0.00581136 2.59682
  71 396.672 3.87244 1.15035
  72 381.747 6.48249 0.0992532
  73 362.873 10.4637 2.07200
  74 336.504 15.9423 0.757756
  75 318.673 19.1943 0.257847
  76 302.576 19.9319 -0.963511
  77 289.286 17.4388 -2.28200
  78 276.015 13.0706 -3.68714
  79 266.907 7.86957 -3.88852
  80 254.459 1.92714 -2.54716
  81 48.0901 -206.582 3.89652
  82 164.779 -68.0178 55.7015
  83 329.815 31.1396 123.237
  84 495.039 70.5172 154.033
  85 650.291 61.7704 163.247
  86 803.490 21.9744 143.562
  87 869.116 -2.40402 69.2000
  88 871.302 -2.41178 -69.7986
  89 804.596 19.9723 -143.622
  90 649.688 62.1421 -162.769
  91 494.859 70.7866 -153.800
  92 329.623 31.2081 -123.266
  93 164.743 -68.0000 -55.7203
  94 48.0587 -206.687 -3.90831
  95 26.1350 -228.646 -18.0734
  96 123.844 -101.074 31.1424
  97 270.579 -14.5342 75.8031
  98 466.889 39.1579 110.655
  99 662.129 43.2398 112.824
  100 829.914 15.2899 104.851
  101 968.702 -3.30506 75.2119
  102 946.200 -5.99153 -66.6565
  103 832.003 20.8515 -102.549
  104 662.582 42.6797 -112.816
  105 467.066 39.2328 -110.917
  106 270.874 -14.3455 -75.9900
  107 124.070 -100.841 -31.2885
  108 26.2714 -228.348 17.9412
  109 265.163 38.6282 -10.5093
  110 265.183 38.6255 10.5010
  111 370.255 -29.6292 51.2943
  112 370.292 -29.7062 -51.2908
  113 184.635 44.1422 41.9638
  114 184.694 44.1355 -41.9745
  115 357.998 14.1507 17.7551
  116 357.995 14.1549 -17.7616
  117 269.621 21.5499 18.5820
  118 269.626 21.5412 -18.5747
  119 490.332 -16.9603 17.0780
  120 490.506 -16.6759 -17.3948
  121 202.663 1.08938 67.3989
  122 202.653 1.03907 -67.4475
  123 537.451 25.9838 -13.6982
  124 535.518 24.5742 14.7940
  125 301.952 25.7271 3.04447
  126 301.942 25.7364 -3.04583
  127 376.770 4.70604 -33.0261
  128 376.770 4.71349 33.0222
  129 253.582 -9.33349 96.3089
  130 253.655 -9.32838 -96.2924
  131 373.591 -63.9914 69.6323
  132 373.663 -64.0713 -69.7172
  133 268.472 26.0669 -42.3419
  134 268.469 26.0782 42.3580
  135 452.796 -22.7509 -0.678155
  136 452.818 -22.6114 0.761898
  137 316.075 14.4601 40.0168
  138 316.070 14.4435 -40.0263
  139 94.6754 7.90898 2.03982
  140 94.7505 7.95110 -2.09263
  141 233.285 45.3028 -22.9511
  142 233.255 45.3146 22.9503
  143 433.285 -10.9164 -20.4001
  144 433.288 -10.9008 20.4151
  145 392.046 4.25146 7.67027
  146 392.051 4.25360 -7.67410
  147 299.496 18.1580 -70.6409
  148 299.500 18.1703 70.6696
  149 264.907 8.00517 10.3741
  150 264.902 8.00161 -10.3696
  151 628.631 33.1002 1.57789
  152 316.321 21.9862 23.8982
  153 316.311 21.9867 -23.9060
  154 336.948 16.6836 7.35798
  155 336.943 16.6907 -7.36102
  156 283.825 20.7986 6.42051
  157 283.832 20.7896 -6.41800
  158 275.037 31.5128 -8.16389
  159 275.024 31.5232 8.16575
  160 400.878 4.74267 -17.1914
  161 400.870 4.74097 17.1844
  162 434.700 -29.3039 -54.5082
  163 434.695 -29.3344 54.5050
  164 218.555 38.5410 19.7702
  165 218.526 38.5295 -19.7940
  166 470.164 -22.7546 46.4957
  167 470.358 -22.7583 -46.7821
  168 221.068 -63.0959 97.3789
  169 221.082 -63.1540 -97.4327
  170 567.825 16.4246 24.4200
  171 569.254 18.7611 -25.6648
  172 272.953 11.8004 -23.8931
  173 272.962 11.8060 23.9038
  174 462.131 18.9456 8.87978
  175 468.456 4.73652 34.3296
  176 459.346 4.96635 -32.9117
  177 450.693 -47.1470 16.2177
  178 450.859 -47.3256 -16.2205
  179 291.824 -0.619417 59.2362
  180 291.833 -0.664138 -59.2578
  181 466.014 -13.9440 -22.1858
  182 466.037 -14.7635 22.2672
  183 296.136 -38.7690 82.8122
  184 296.166 -38.8485 -82.8516
  185 293.112 30.7470 -8.94215
  186 293.126 30.7396 8.93782
  187 674.933 37.7073 37.0928
  188 678.132 34.7266 -37.7589
  189 262.881 29.6741 -25.3607
  190 262.870 29.6855 25.3693
  191 322.507 22.6401 12.8764
  192 322.498 22.6468 -12.8813
  193 373.930 -3.34456 39.4899
  194 373.931 -3.36788 -39.4873
  195 441.604 12.5211 -19.2643
  196 355.158 13.3125 26.8803
  197 355.155 13.3120 -26.8874
  198 82.6117 -60.4971 -58.4393
  199 82.4716 -60.5881 58.3871
  200 528.439 -13.6094 -25.7711
  201 528.483 -13.5367 25.7133
  202 308.834 20.7908 -0.737544
  203 308.842 20.7812 0.737244
  204 75.4310 -55.9291 -47.0042
  205 75.4799 -55.8475 46.9427
  206 431.811 -2.12451 -19.2985
  207 431.800 -2.12351 19.2955
  208 159.208 37.5465 0.0653905
  209 159.155 37.5331 -0.0992168
  210 412.154 -8.10624 -62.5693
  211 412.216 -8.10560 62.6065
  212 312.656 8.59218 -43.5175
  213 312.685 8.59828 43.5390
  214 283.105 -48.2361 88.7565
  215 283.092 -48.2221 -88.8244
  216 275.165 14.1329 7.23041
  217 275.166 14.1262 -7.22683
  218 252.505 33.7807 -62.0540
  219 252.484 33.7971 62.0729
  220 266.479 27.6807 36.0904
  221 266.466 27.6654 -36.1080
  222 359.527 11.6733 6.72016
  223 359.525 11.6787 -6.72303
  224 173.994 29.5568 67.9090
  225 174.071 29.5523 -67.9156
  226 398.017 -45.4753 -45.1117
  227 397.951 -45.3564 45.1149
  228 175.962 -47.3770 77.0376
  229 176.107 -47.2999 -77.0750
  230 405.014 2.56666 -10.2959
  231 405.005 2.56541 10.2911
  232 468.758 -5.92936 4.29468
  233 468.760 -5.93757 -4.28691
  234 285.474 12.5631 -31.4853
  235 285.490 12.5698 31.4991
  236 468.607 17.1244 21.4894
  237 664.013 7.06099 42.1010
  238 664.324 7.30162 -42.0679
  239 538.954 29.7628 95.2100
  240 538.495 30.6007 -95.3421
  241 253.129 41.9160 -8.13443
  242 253.107 41.9254 8.13200
  243 428.322 -24.9209 -21.9138
  244 428.317 -24.8437 21.9643
  245 262.606 4.45278 -11.4049
  246 262.617 4.45479 11.4104
  247 750.466 15.3421 -25.9982
  248 428.422 1.68654 -14.2611
  249 428.405 1.68566 14.2556
  250 286.422 26.7913 -4.27957
  251 286.412 26.8012 4.28083
  252 205.850 48.4182 -15.4833
  253 205.809 48.4239 15.4706
  254 517.881 8.51594 18.2501
  255 515.147 8.58001 -18.4589
  256 747.134 14.9609 25.3752
  257 291.205 28.4223 26.8111
  258 291.192 28.4180 -26.8217
  259 345.479 10.4375 -36.5450
  260 345.483 10.4474 36.5385
  261 400.520 2.37640 3.42797
  262 400.526 2.37752 -3.42964
  263 761.396 -10.1912 37.3827
  264 758.055 2.10364 -32.6749
  265 513.467 27.8423 -9.47699
  266 243.815 17.2495 50.9460
  267 243.806 17.2166 -50.9758
  268 242.158 16.1923 -88.1291
  269 242.108 16.2026 88.1490
  270 380.517 7.95680 14.5623
  271 380.520 7.95989 -14.5684
  272 269.541 13.3865 -18.2367
  273 269.545 13.3925 18.2448
  274 253.863 2.21678 3.36871
  275 253.857 2.21547 -3.36686
  276 236.735 45.6807 0.0787431
  277 236.708 45.6848 -0.0889223
  278 469.257 -10.1007 -7.68393
  279 469.208 -10.2276 7.73822
  280 29.8883 -83.4585 8.19776
  281 29.9814 -83.3523 -8.25509
  282 327.443 18.5632 -2.71207
  283 327.450 18.5546 2.71094
  284 357.550 13.2760 11.9893
  285 357.548 13.2813 -11.9942
  286 410.529 10.3474 104.142
  287 410.386 10.4702 -104.281
  288 465.305 -27.5987 -10.8314
  289 465.412 -27.8743 10.8655
  290 294.123 20.4674 -1.53814
  291 294.117 20.4768 1.53884
  292 394.905 3.73192 -55.8622
  293 394.974 3.73779 55.8943
  294 462.009 -2.22852 10.4980
  295 462.031 -2.22943 -10.5015
  296 655.708 27.3577 -89.7257
  297 654.602 27.0107 89.0334
  298 273.569 -40.8011 -72.6986
  299 273.407 -40.9152 72.6242
  300 450.988 -3.22244 25.7723
  301 451.005 -1.65104 -25.5349
  302 270.065 22.6391 -33.6715
  303 270.066 22.6491 33.6850
  304 136.204 5.32116 45.6273
  305 136.163 5.27521 -45.6834
  306 274.899 19.6302 12.3340
  307 274.903 19.6217 -12.3289
  308 336.890 -6.08712 50.4440
  309 336.899 -6.12762 -50.4488
  310 534.604 33.9140 5.11656
  311 248.351 35.7036 -43.6497
  312 248.332 35.7173 43.6619
  313 508.107 -5.48421 -11.6862
  314 507.435 -5.85792 11.4017
  315 314.651 21.5820 -3.73047
  316 314.659 21.5730 3.72891
  317 804.326 -6.96962 -11.4036
  318 860.534 -14.8673 24.4421
  319 364.615 5.50146 -46.4461
  320 364.676 5.50583 46.4715
  321 549.938 12.8980 -72.8775
  322 549.827 13.2049 72.6457
  323 381.806 6.68808 3.47124
  324 381.809 6.69143 -3.47317
  325 297.985 22.9811 -1.00071
  326 297.977 22.9907 1.00104
  327 283.760 17.3092 -3.23073
  328 283.756 17.3173 3.23219
  329 402.236 -4.45006 -29.1992
  330 402.234 -4.43849 29.2019
  331 607.405 31.1653 2.14464
  332 345.376 14.3205 -3.54096
  333 345.380 14.3135 3.53942
  334 265.956 7.75542 4.80714
  335 265.953 7.75156 -4.80516
  336 268.399 30.0752 -16.1442
  337 268.388 30.0860 16.1493
  338 428.012 5.01557 -23.1573
  339 401.521 -5.82100 -76.6440
  340 401.384 -5.90636 76.5337
  341 423.022 2.28206 -9.61533
  342 423.006 2.28108 9.61074
  343 437.000 -52.3812 37.6315
  344 437.148 -52.5504 -37.7525
  345 391.515 6.07581 24.1296
  346 391.519 6.07654 -24.1370
  347 377.193 9.67121 21.2434
  348 377.194 9.67356 -21.2510
  349 433.276 -42.9412 21.6656
  350 433.353 -43.0870 -21.6246
  351 113.187 -92.9264 64.7248
  352 113.178 -92.9756 -64.7615
  353 288.365 29.5561 1.44510
  354 288.351 29.5652 -1.44658
  355 411.342 0.500912 4.83142
  356 411.352 0.501492 -4.83395
  357 222.765 44.9896 -45.1085
  358 222.728 45.0047 45.1128
  359 334.714 -31.1126 -83.3541
  360 334.672 -31.1369 83.3764
  361 334.667 19.4204 19.2481
  362 334.660 19.4245 -19.2546
  363 477.092 -9.41776 31.0679
  364 476.385 -8.20421 -31.6612
  365 273.782 34.8987 1.33349
  366 273.765 34.9068 -1.33629
  367 235.733 -36.6904 -88.6638
  368 235.719 -36.6218 88.6138
  369 393.849 -16.5081 -36.6388
  370 393.839 -16.4627 36.6554
  371 612.102 32.7359 -5.56790
  372 477.122 -30.2893 7.16883
  373 477.413 -30.4790 -7.21348
  374 135.840 32.8827 35.6493
  375 135.919 32.8934 -35.6791
  376 323.470 -21.8234 66.1607
  377 323.497 -21.8892 -66.1800
  378 546.192 -16.5968 20.8304
  379 546.040 -16.6084 -20.8190
  380 427.492 6.09152 24.7041
  381 403.588 12.2266 -1.79000
  382 297.417 -58.6722 86.4608
  383 297.454 -58.7439 -86.5152
  384 276.491 25.5622 11.5127
  385 276.500 25.5521 -11.5085
  386 484.719 13.6214 -24.3898
  387 326.501 17.3689 31.4761
  388 326.494 17.3638 -31.4845
  389 406.651 -51.8611 64.3974
  390 406.711 -51.8596 -64.5653
  391 272.062 3.41214 -15.1104
  392 272.080 3.41401 15.1177
  393 587.824 31.5944 15.7072
  394 591.370 32.5699 -16.3525
  395 486.325 -16.8674 41.5498
  396 486.216 -16.8600 -41.5225
  397 357.782 -50.2390 67.1315
  398 357.842 -50.3336 -67.1632
  399 324.333 1.25340 -83.8730
  400 324.326 1.25841 83.9072
  401 224.745 37.2876 -69.2110
  402 224.701 37.3056 69.2244
  403 187.833 25.6291 38.3652
  404 187.805 25.5995 -38.4056
  405 402.485 8.63901 12.0277
  406 289.857 30.9183 -15.4193
  407 289.872 30.9145 15.4124
  408 288.902 11.6372 51.2994
  409 288.899 11.6060 -51.3166
  410 261.766 -12.5860 -73.4021
  411 261.756 -12.5267 73.3663
  412 252.616 3.04847 5.80898
  413 252.607 3.04727 -5.80605
  414 309.144 26.2958 -15.2200
  415 309.155 26.2906 15.2141
  416 306.660 27.3881 8.49290
  417 306.649 27.3962 -8.49643
  418 63.7156 -122.749 26.5886
  419 63.8815 -122.553 -26.6919
  420 484.666 7.92390 29.7949
  421 338.333 17.8120 12.8829
  422 338.327 17.8183 -12.8879
  423 271.669 14.2173 14.1216
  424 271.669 14.2108 -14.1155
  425 251.797 39.1697 25.1667
  426 251.816 39.1572 -25.1615
  427 268.374 19.3693 -25.8338
  428 268.373 19.3778 25.8447
  429 407.616 1.00807 -25.3449
  430 407.610 1.00921 25.3396
  431 278.341 24.2920 -53.3676
  432 278.342 24.3037 53.3882
  433 157.685 -34.1910 -79.4460
  434 157.694 -34.1227 79.3887
  435 606.331 -3.23546 8.30168
  436 606.399 -3.42517 -8.26216
  437 764.566 9.33736 85.1842
  438 767.252 7.77858 -85.1873
  439 251.803 36.5516 18.5760
  440 251.782 36.5468 -18.5903
  441 17.2563 -169.317 -24.6481
  442 17.3051 -169.193 24.6135
  443 450.293 -17.0069 8.83519
  444 450.263 -17.0434 -8.79191
  445 466.271 -4.35379 17.7441
  446 466.219 -4.12816 -17.3769
  447 23.0107 -172.854 9.03894
  448 23.1295 -172.657 -9.12273
  449 414.761 -55.0136 -41.2234
  450 414.654 -54.8779 41.1878
  451 455.655 -0.596575 -9.36700
  452 455.628 -0.596431 9.36260
  453 418.965 3.35872 -23.9718
  454 462.855 -19.2710 -14.1119
  455 462.727 -19.5702 14.2678
  456 350.246 5.25679 -39.8340
  457 350.246 5.27339 39.8305
  458 312.966 4.04468 -23.3311
  459 313.006 4.04649 23.3429
  460 104.942 2.84407 50.2663
  461 105.045 2.87637 -50.3048
  462 406.026 -33.2153 36.1429
  463 406.069 -33.3076 -36.1153
  464 374.151 10.0182 8.92028
  465 374.153 10.0226 -8.92439
  466 262.167 35.8550 -13.9940
  467 262.150 35.8661 13.9967
  468 407.340 1.53980 1.36026
  469 407.347 1.54031 -1.36086
  470 320.055 22.4245 -8.38731
  471 320.064 22.4163 8.38396
  472 243.562 0.198889 0.924867
  473 243.555 0.198417 -0.924228
  474 258.757 31.0808 -35.8820
  475 258.745 31.0925 35.8937
  476 173.091 -7.62845 -83.1058
  477 172.986 -7.65128 83.0933
  478 387.084 2.70657 -12.7299
  479 15.0226 -40.6598 0.246976
  480 9.06996 -24.1381 -1.10519
  481 8.79150 -20.8162 1.62147
  482 10.6975 -37.1155 1.60580
  483 9.17001 -39.1005 -5.09553
  484 9.90360 -36.1774 -2.24113
  485 9.08510 -35.3257 6.04631
  486 9.16556 -23.2485 3.71289
  487 7.22858 -18.5498 -5.29177
  488 8.28639 -41.2217 -0.162965
  489 5.45730 -47.8720 0.506490
  490 5.58149 -7.67026 -0.954556
  491 8.46212 -20.7713 -3.52991
  492 6.27133 -15.5860 5.09293
  493 13.6290 -36.7601 -0.854263
  494 5.39707 -6.52996 0.882041
  495 12.6800 -33.6515 0.797944
  496 6.36771 -9.62529 0.791069
  497 6.24614 -7.59496 -0.520650
  498 13.6472 -40.5211 0.0659171
  499 14.0149 -42.9335 -0.485760
  500 5.90461 -7.91086 -2.49106
  501 7.43676 -32.2815 3.86832
  502 5.74925 -29.7813 -8.62396
  503 5.05979 -39.9610 -1.76688
  504 2.33721 -44.7734 4.50357
  505 6.62140 -41.0667 0.783779
  506 3.58259 -47.1110 -2.55024
  507 8.09052 -27.3728 -4.09402
  508 6.27803 -22.8088 7.62054
  509 11.3277 -30.6836 1.01345
  510 10.1086 -29.4101 -4.36328
  511 5.64642 -6.21796 1.97635
  512 10.3244 -29.3354 3.54666
  513 13.4640 -37.9533 2.77048
  514 13.6656 -38.0199 -0.0630765
  515 10.8370 -25.9925 -0.788828
  516 7.11157 -16.3897 -2.69687
  517 7.48740 -11.8259 3.14520
  518 5.33691 -3.28137 -0.0221071
  519 11.6261 -43.6571 1.85759
  520 8.25481 -18.2695 1.50361
  521 8.14967 -22.2344 4.99780
  522 6.19198 -17.1670 -6.68033
  523 13.2859 -39.1631 -2.41660
  524 6.35792 -13.8253 2.34622
  525 4.96774 -3.69069 -0.667859
  526 4.53100 -41.9100 -0.604503
  527 -1.89020 -50.3726 1.25318
  528 5.28807 -3.01595 0.0283635
  529 6.47099 -8.94906 -1.61435
  530 7.61881 -15.2987 -1.20490
  531 6.53399 -8.89860 -4.07861
  532 11.3811 -40.1232 -0.527919
  533 13.5830 -38.9926 0.292401
  534 6.66877 -6.82068 3.15623
  535 9.54419 -29.7610 3.81115
  536 7.28225 -28.1638 -7.56280
  537 11.7703 -40.2514 0.304224
  538 11.2345 -44.7393 -1.36410
  539 7.69527 -14.9971 -4.11119
  540 6.51186 -14.6524 -0.640859
  541 4.80746 -2.52101 -0.445114
  542 7.90097 -25.5196 6.31758
  543 5.02564 -2.90711 0.521704
  544 14.8280 -40.4525 -0.489866
  545 12.5672 -32.6550 -1.90099
  546 10.1640 -29.5923 -2.88126
  547 4.39613 -42.0494 0.590540
  548 -2.18513 -50.4029 -1.19663
  549 1.23396 -39.0612 3.67416
  550 -0.950941 -41.7136 -7.49476
  551 6.33947 -4.95651 0.938673
  552 3.75011 -35.2146 -4.10660
  553 3.23887 -34.2195 8.88569
  554 6.29273 -12.6419 0.603091
  555 6.08043 -12.1495 5.69593
  556 10.9628 -27.9376 1.29734
  557 14.7319 -39.1163 1.11198
  558 12.0409 -33.4735 -0.949364
  559 4.76209 -2.02362 0.342249
  560 5.55264 -3.62537 -0.369761
  561 8.45343 -20.1364 4.06292
  562 14.4155 -42.0136 0.967141
  563 4.91708 -0.631619 0.0285807
  564 2.58879 -42.7665 0.145995
  565 4.93171 -1.15196 -0.0887965
  566 -7.28895 -51.5652 -0.280548
  567 5.26707 -1.10975 0.330543
  568 6.10371 -1.69062 0.308545
  569 7.69355 -4.45391 -1.30249
  570 8.23412 -11.4000 -4.62961
  571 2.95917 -27.8949 -5.84742
  572 -1.60020 -39.0022 -4.87498
  573 0.187040 -42.0554 -2.13006
  574 -0.274728 -41.0920 2.12707
  575 -6.35754 -39.9000 4.88528
  576 3.92958 -30.0128 4.88259
  577 7.79690 -12.8431 4.67257
  578 7.63726 -4.67519 0.531849
  579 6.26954 -2.47155 -0.305595
  580 5.21926 -0.955918 -0.494611
  581 5.06468 -1.08137 -0.0178048
  582 5.70954 -2.11886 -0.283829
  583 6.71685 -4.77302 -1.78880
  584 7.43999 -8.19831 -3.93777
  585 4.05113 -24.9536 -8.01524
  586 -9.57425 -42.9459 -7.74973
  587 -7.42017 -47.8339 -3.78887
  588 -7.88342 -49.7168 3.71338
  589 -3.27332 -41.5971 8.50302
  590 3.31025 -21.8525 8.78229
  591 7.52976 -6.87028 3.81003
  592 7.07628 -3.88567 1.19854
  593 5.71532 -1.76043 0.0548562
  594 5.01913 -0.692524 -0.0447360
</Section>

newXOutput 14

<Section columns = "stress_xx | stress_yy | stress_xy">
  1 255.777 2.10639 -2.17916
  2 255.785 2.10694 2.17972
  3 443.670 0.318515 -0.222164
  4 443.661 0.318033 0.221673
  5 6.45639 -283.361 11.8236
  6 928.751 3.45030 -0.537211
  7 6.36639 -283.607 -11.8871
  8 1076.78 -9.23700 -7.94410
  9 259.987 1.33193 -1.57057
  10 266.935 2.40258 -4.57073
  11 282.308 3.48259 -10.0295
  12 306.755 2.14549 -18.3334
  13 343.651 1.75115 -19.3421
  14 384.024 5.38979 -30.9455
  15 453.222 1.02357 -39.1452
  16 525.543 -2.18743 -39.3334
  17 623.381 -13.8010 -19.7739
  18 649.584 -12.3699 -5.07022
  19 664.590 -2.31224 10.5689
  20 684.017 8.97306 5.20605
  21 704.421 14.9950 -2.98183
  22 737.885 -5.62372 -3.92879
  23 682.861 5.35548 -7.67833
  24 664.987 -2.22675 -10.2157
  25 649.822 -12.2814 5.13570
  26 623.617 -13.8064 19.7979
  27 525.693 -2.18586 39.3624
  28 453.334 1.02568 39.1702
  29 384.095 5.39267 30.9620
  30 343.706 1.75065 19.3524
  31 306.787 2.14596 18.3429
  32 282.329 3.48402 10.0346
  33 266.948 2.40341 4.57378
  34 259.996 1.33259 1.57194
  35 273.196 2.05062 2.74917
  36 286.761 8.46402 4.21044
  37 296.731 14.0630 3.97588
  38 311.221 18.7528 2.46865
  39 325.658 21.4436 1.04651
  40 343.084 20.6542 -0.268602
  41 362.344 17.1588 -0.806210
  42 390.765 11.2554 -2.22372
  43 411.095 6.97361 -0.0867450
  44 427.174 4.17701 -1.23194
  45 443.600 -0.0144569 -2.79972
  46 453.733 -1.03641 -3.45942
  47 456.632 1.24271 -6.28775
  48 472.505 0.327598 -8.38318
  49 495.543 -2.64629 -7.38316
  50 512.296 -2.76426 -8.14755
  51 522.725 -3.59973 -5.08268
  52 526.606 -5.43686 1.32480
  53 515.362 -6.44970 12.3310
  54 490.347 -2.30659 18.2509
  55 445.353 2.19867 20.8125
  56 401.702 8.62963 15.6929
  57 379.774 9.72370 7.36302
  58 375.633 10.6035 -8.73726
  59 406.097 6.09641 -15.2070
  60 444.242 1.31092 -17.2429
  61 490.940 -1.90020 -17.1866
  62 515.589 -6.24792 -12.0668
  63 526.568 -5.38573 -1.31192
  64 522.672 -3.59776 5.07374
  65 512.249 -2.76378 8.14021
  66 495.507 -2.64499 7.37885
  67 472.481 0.327309 8.37859
  68 456.616 1.24196 6.28429
  69 453.720 -1.03645 3.45747
  70 443.591 -0.0146821 2.79847
  71 427.168 4.17526 1.23105
  72 411.092 6.96990 0.0859713
  73 390.765 11.2495 2.22243
  74 362.350 17.1503 0.805493
  75 343.091 20.6441 0.268196
  76 325.666 21.4332 -1.04636
  77 311.227 18.7434 -2.46801
  78 296.732 14.0563 -3.97433
  79 286.758 8.45974 -4.20947
  80 273.190 2.04864 -2.74816
  81 50.7182 -223.999 3.98267
  82 176.460 -73.7958 59.9519
  83 354.260 33.6506 132.955
  84 532.228 76.3962 166.381
  85 699.464 66.6733 176.549
  86 864.191 23.2346 155.291
  87 935.360 -3.31237 74.9270
  88 937.706 -3.26508 -75.5663
  89 865.363 21.0041 -155.357
  90 698.801 67.0944 -176.037
  91 532.034 76.6873 -166.124
  92 354.049 33.7162 -132.984
  93 176.418 -73.7854 -59.9714
  94 50.6821 -224.119 -3.99598
  95 27.1540 -247.707 -19.6032
  96 132.416 -109.410 33.6101
  97 290.461 -15.7177 81.8430
  98 501.911 42.5352 119.616
  99 712.362 47.0103 122.268
  100 893.284 16.3225 113.849
  101 1042.68 -4.23441 81.5876
  102 1018.74 -7.09214 -72.3722
  103 895.521 22.3840 -111.385
  104 712.850 46.3795 -122.262
  105 502.099 42.6167 -119.901
  106 290.781 -15.5131 -82.0451
  107 132.660 -109.157 -33.7686
  108 27.3022 -247.383 19.4588
  109 285.369 41.8514 -11.2735
  110 285.391 41.8481 11.2648
  111 398.513 -31.8356 55.5423
  112 398.552 -31.9197 -55.5386
  113 198.394 47.9334 45.4353
  114 198.458 47.9264 -45.4462
  115 385.511 15.3087 19.1335
  116 385.508 15.3135 -19.1408
  117 289.884 23.2384 20.0178
  118 289.890 23.2287 -20.0097
  119 528.390 -18.3893 18.1655
  120 528.575 -18.0770 -18.5073
  121 217.762 1.50663 72.6870
  122 217.750 1.45122 -72.7395
  123 579.788 27.9793 -14.5552
  124 577.699 26.4597 15.7431
  125 325.046 27.7475 3.26623
  126 325.035 27.7580 -3.26768
  127 405.707 5.22036 -35.7028
  128 405.708 5.22814 35.6980
  129 272.592 -9.78174 104.224
  130 272.670 -9.77614 -104.206
  131 401.957 -69.1632 75.3806
  132 402.035 -69.2549 -75.4723
  133 288.533 28.1742 -45.6657
  134 288.530 28.1866 45.6834
  135 487.836 -24.5704 -0.957898
  136 487.860 -24.4196 1.04900
  137 340.219 15.8312 43.1762
  138 340.213 15.8135 -43.1867
  139 101.325 8.92577 2.36470
  140 101.407 8.97222 -2.42139
  141 250.894 49.0430 -24.8327
  142 250.862 49.0558 24.8323
  143 466.733 -11.7245 -22.1952
  144 466.735 -11.7076 22.2109
  145 422.185 4.57877 8.25573
  146 422.191 4.58117 -8.25999
  147 321.939 19.7037 -76.3105
  148 321.944 19.7170 76.3419
  149 284.539 8.61958 11.1658
  150 284.533 8.61566 -11.1608
  151 678.180 35.5219 1.70867
  152 340.562 23.8513 25.7524
  153 340.551 23.8523 -25.7611
  154 362.828 17.9743 7.91826
  155 362.822 17.9823 -7.92163
  156 305.334 22.3935 6.91729
  157 305.342 22.3835 -6.91447
  158 295.939 34.0215 -8.81915
  159 295.925 34.0331 8.82137
  160 431.711 5.15159 -18.5490
  161 431.702 5.14963 18.5410
  162 467.967 -31.5089 -59.1940
  163 467.964 -31.5424 59.1908
  164 235.058 41.8920 21.2207
  165 235.026 41.8796 -21.2459
  166 506.126 -24.5251 50.5061
  167 506.337 -24.5330 -50.8130
  168 237.407 -68.1364 105.204
  169 237.421 -68.2032 -105.263
  170 611.844 17.7218 26.8995
  171 613.382 20.2641 -28.2504
  172 293.186 12.7243 -25.7327
  173 293.196 12.7304 25.7445
  174 498.620 20.4484 9.58532
  175 505.150 5.06982 36.9525
  176 495.350 5.33464 -35.4489
  177 485.338 -51.0154 17.7837
  178 485.516 -51.2131 -17.7848
  179 313.944 -0.377726 63.9382
  180 313.953 -0.426352 -63.9616
  181 502.346 -15.1427 -23.8098
  182 502.368 -16.0312 23.8982
  183 318.467 -41.6896 89.4919
  184 318.498 -41.7775 -89.5347
  185 315.530 33.2424 -9.60670
  186 315.546 33.2340 9.60207
  187 727.671 40.4353 40.5000
  188 731.106 37.1820 -41.2230
  189 282.659 32.0449 -27.3449
  190 282.648 32.0574 27.3546
  191 347.252 24.4582 13.8579
  192 347.242 24.4659 -13.8633
  193 402.606 -3.43342 42.7253
  194 402.607 -3.45847 -42.7231
  195 476.380 13.5285 -20.7949
  196 382.431 14.4754 29.0075
  197 382.427 14.4751 -29.0156
  198 88.1667 -65.0860 -63.3385
  199 88.0152 -65.1849 63.2819
  200 569.223 -14.5628 -28.2116
  201 569.274 -14.4825 28.1483
  202 332.454 22.3691 -0.790990
  203 332.463 22.3585 0.790672
  204 80.4374 -60.2030 -50.6882
  205 80.4918 -60.1125 50.6215
  206 465.111 -2.24188 -20.9228
  207 465.099 -2.24087 20.9190
  208 171.010 40.8705 -0.0838407
  209 170.952 40.8557 0.0478476
  210 443.481 -8.64467 -67.7097
  211 443.549 -8.64410 67.7498
  212 335.923 9.27674 -46.9328
  213 335.954 9.28329 46.9563
  214 304.207 -52.1400 95.9038
  215 304.193 -52.1312 -95.9774
  216 295.818 15.2014 7.77063
  217 295.819 15.1940 -7.76666
  218 271.413 36.5866 -67.0192
  219 271.392 36.6043 67.0401
  220 286.740 30.1442 38.8772
  221 286.725 30.1280 -38.8962
  222 387.166 12.5702 7.23421
  223 387.165 12.5763 -7.23741
  224 186.842 32.2324 73.4845
  225 186.925 32.2278 -73.4911
  226 428.445 -49.0587 -48.9333
  227 428.375 -48.9282 48.9372
  228 188.820 -50.9374 83.4255
  229 188.976 -50.8540 -83.4659
  230 436.150 2.77656 -11.0931
  231 436.140 2.77515 11.0877
  232 505.134 -6.37500 4.76371
  233 505.137 -6.38367 -4.75572
  234 306.641 13.5640 -33.9401
  235 306.659 13.5712 33.9553
  236 505.523 18.4848 23.1371
  237 715.768 7.70337 46.1011
  238 716.108 7.95578 -46.0614
  239 580.140 32.3302 103.207
  240 579.645 33.2529 -103.346
  241 272.344 45.3528 -8.82849
  242 272.319 45.3632 8.82623
  243 461.321 -26.8575 -23.8838
  244 461.316 -26.7738 23.9381
  245 281.916 4.79641 -12.2691
  246 281.928 4.79861 12.2751
  247 808.903 16.1183 -28.2716
  248 461.405 1.85483 -15.4129
  249 461.386 1.85381 15.4066
  250 308.227 28.8911 -4.62214
  251 308.215 28.9022 4.62362
  252 221.337 52.5040 -16.8245
  253 221.292 52.5101 16.8114
  254 558.346 9.14518 19.4032
  255 555.398 9.21391 -19.6304
  256 805.333 15.6715 27.5942
  257 313.448 30.8621 28.8766
  258 313.434 30.8580 -28.8881
  259 371.962 11.4451 -39.4642
  260 371.967 11.4555 39.4567
  261 431.308 2.55768 3.69008
  262 431.315 2.55893 -3.69194
  263 821.321 -11.3260 40.9126
  264 817.747 2.00193 -35.8404
  265 554.037 30.0347 -10.1809
  266 262.222 18.9440 54.9136
  267 262.211 18.9083 -54.9457
  268 260.265 17.7238 -95.3123
  269 260.212 17.7348 95.3343
  270 409.776 8.59363 15.6923
  271 409.779 8.59715 -15.6992
  272 289.596 14.4270 -19.6298
  273 289.600 14.4336 19.6387
  274 272.519 2.37554 3.61456
  275 272.511 2.37410 -3.61252
  276 254.686 49.5014 -0.00459927
  277 254.656 49.5061 -0.00598694
  278 505.798 -10.9219 -8.14971
  279 505.746 -11.0585 8.20810
  280 31.3080 -89.9379 8.99848
  281 31.4093 -89.8214 -9.06091
  282 352.568 19.9738 -2.91695
  283 352.575 19.9642 2.91570
  284 385.038 14.3211 12.9098
  285 385.035 14.3271 -12.9153
  286 441.517 11.3556 112.605
  287 441.364 11.4831 -112.753
  288 501.349 -29.8845 -11.4651
  289 501.462 -30.1851 11.5042
  290 316.499 22.0186 -1.65576
  291 316.491 22.0290 1.65656
  292 424.657 4.09420 -60.3539
  293 424.733 4.10045 60.3886
  294 497.737 -2.37386 11.4197
  295 497.763 -2.37480 -11.4239
  296 706.185 29.3102 -97.4267
  297 705.001 28.9503 96.6731
  298 294.033 -43.9746 -78.7084
  299 293.859 -44.0981 78.6282
  300 486.311 -3.52281 27.7644
  301 486.334 -1.81542 -27.5153
  302 290.225 24.4425 -36.2910
  303 290.225 24.4534 36.3060
  304 146.105 6.09377 49.1442
  305 146.059 6.04301 -49.2047
  306 295.600 21.1441 13.2798
  307 295.604 21.1346 -13.2741
  308 362.592 -6.34121 54.5210
  309 362.600 -6.38506 -54.5266
  310 576.856 36.6049 5.42177
  311 266.988 38.6249 -47.1246
  312 266.968 38.6398 47.1383
  313 547.384 -5.89677 -13.0193
  314 546.661 -6.30303 12.7123
  315 338.760 23.2484 -4.00925
  316 338.769 23.2383 4.00755
  317 868.078 -7.88880 -12.4811
  318 928.007 -16.5476 26.6265
  319 391.856 5.96099 -50.1204
  320 391.922 5.96564 50.1478
  321 592.158 14.1711 -79.1660
  322 592.042 14.5142 78.9126
  323 411.157 7.19600 3.72833
  324 411.160 7.19973 -3.73048
  325 320.724 24.7487 -1.08417
  326 320.714 24.7595 1.08457
  327 305.210 18.6152 -3.47551
  328 305.205 18.6242 3.47714
  329 433.182 -4.69123 -31.6362
  330 433.180 -4.67886 31.6385
  331 655.266 33.4234 2.55113
  332 371.914 15.4038 -3.80928
  333 371.918 15.3961 3.80757
  334 285.723 8.33619 5.17717
  335 285.720 8.33193 -5.17499
  336 288.692 32.4654 -17.4114
  337 288.679 32.4774 17.4173
  338 461.627 5.38766 -24.9845
  339 431.998 -6.10721 -83.0596
  340 431.852 -6.20045 82.9412
  341 455.547 2.48126 -10.3660
  342 455.530 2.48015 10.3608
  343 470.425 -56.6547 40.8842
  344 470.586 -56.8432 -41.0133
  345 421.625 6.63409 26.0639
  346 421.630 6.63508 -26.0724
  347 406.196 10.4941 22.9186
  348 406.198 10.4969 -22.9272
  349 466.603 -46.4165 23.6511
  350 466.685 -46.5763 -23.6058
  351 121.007 -100.508 69.8653
  352 120.994 -100.566 -69.9056
  353 310.383 31.9136 1.53256
  354 310.368 31.9239 -1.53406
  355 442.954 0.530384 5.19646
  356 442.965 0.531037 -5.19927
  357 239.482 48.7438 -48.7649
  358 239.441 48.7601 48.7702
  359 360.077 -33.4110 -90.2733
  360 360.034 -33.4374 90.2976
  361 360.360 21.0214 20.7408
  362 360.352 21.0262 -20.7480
  363 514.276 -10.2549 33.3787
  364 513.524 -8.93370 -34.0227
  365 294.653 37.7355 1.39913
  366 294.634 37.7447 -1.40197
  367 253.298 -39.4303 -95.7578
  368 253.285 -39.3540 95.7033
  369 424.071 -17.6817 -39.7162
  370 424.060 -17.6325 39.7337
  371 660.310 35.1400 -6.28653
  372 513.889 -32.7540 8.03241
  373 514.203 -32.9647 -8.07852
  374 145.763 35.8625 38.6630
  375 145.849 35.8745 -38.6946
  376 348.019 -23.3344 71.5006
  377 348.047 -23.4066 -71.5217
  378 588.223 -17.8238 22.7635
  379 588.058 -17.8362 -22.7516
  380 461.037 6.56961 26.6496
  381 435.318 13.2349 -1.92497
  382 319.766 -63.3034 93.4706
  383 319.805 -63.3847 -93.5298
  384 297.418 27.5617 12.4061
  385 297.427 27.5506 -12.4013
  386 522.870 14.6671 -26.2142
  387 351.509 18.9077 33.9471
  388 351.500 18.9025 -33.9564
  389 437.536 -56.0511 69.7324
  390 437.601 -56.0556 -69.9136
  391 292.050 3.67054 -16.2648
  392 292.069 3.67258 16.2728
  393 633.869 34.0485 17.4369
  394 637.691 35.0880 -18.1487
  395 523.515 -18.1207 45.0632
  396 523.396 -18.1124 -45.0338
  397 384.950 -54.1851 72.6412
  398 385.014 -54.2900 -72.6754
  399 348.811 1.54383 -90.7123
  400 348.805 1.54911 90.7494
  401 241.542 40.4612 -74.8139
  402 241.495 40.4805 74.8289
  403 201.863 28.0217 41.2864
  404 201.831 27.9894 -41.3297
  405 434.096 9.34287 12.9855
  406 312.023 33.4796 -16.5851
  407 312.040 33.4751 16.5777
  408 310.866 12.8474 55.3460
  409 310.862 12.8137 -55.3648
  410 281.473 -13.3082 -79.2424
  411 281.464 -13.2431 79.2036
  412 271.109 3.28670 6.24292
  413 271.099 3.28538 -6.23969
  414 332.836 28.4538 -16.3824
  415 332.849 28.4477 16.3760
  416 330.147 29.5805 9.13093
  417 330.135 29.5897 -9.13476
  418 67.7009 -132.664 28.8148
  419 67.8807 -132.452 -28.9272
  420 522.737 8.46110 32.0524
  421 364.320 19.2320 13.8695
  422 364.313 19.2391 -13.8751
  423 292.003 15.3055 15.2001
  424 292.003 15.2984 -15.1934
  425 270.796 42.3549 27.1763
  426 270.816 42.3411 -27.1702
  427 288.434 20.8908 -27.8251
  428 288.433 20.9001 27.8373
  429 438.991 1.16991 -27.4219
  430 438.984 1.17099 27.4156
  431 299.131 26.2780 -57.5939
  432 299.132 26.2906 57.6165
  433 169.143 -36.6913 -85.7463
  434 169.155 -36.6152 85.6840
  435 653.532 -3.41064 9.40987
  436 653.607 -3.62122 -9.36674
  437 823.321 9.51927 92.3807
  438 826.203 7.81861 -92.3664
  439 270.951 39.6719 19.9560
  440 270.927 39.6670 -19.9713
  441 17.5532 -183.245 -26.5447
  442 17.6075 -183.107 26.5063
  443 485.166 -18.3493 9.74917
  444 485.135 -18.3885 -9.70284
  445 502.764 -4.72227 19.0830
  446 502.706 -4.47743 -18.6869
  447 23.8500 -186.921 9.85876
  448 23.9789 -186.707 -9.95041
  449 446.460 -59.4486 -44.7370
  450 446.345 -59.2982 44.6996
  451 490.795 -0.624608 -10.1452
  452 490.765 -0.624471 10.1402
  453 451.830 3.62640 -25.8865
  454 498.810 -20.8728 -15.0421
  455 498.671 -21.1956 15.2118
  456 377.054 5.87113 -43.0384
  457 377.055 5.88880 43.0341
  458 336.047 4.37724 -25.1377
  459 336.092 4.37918 25.1505
  460 112.366 3.46168 54.4661
  461 112.477 3.49720 -54.5073
  462 437.164 -35.7781 39.2403
  463 437.210 -35.8787 -39.2105
  464 402.921 10.7981 9.60004
  465 402.923 10.8030 -9.60464
  466 282.036 38.7438 -15.1155
  467 282.018 38.7561 15.1187
  468 438.656 1.66257 1.46556
  469 438.664 1.66313 -1.46623
  470 344.603 24.1927 -9.02131
  471 344.613 24.1835 9.01763
  472 261.336 0.202792 0.989713
  473 261.329 0.202273 -0.989007
  474 278.172 33.5936 -38.7084
  475 278.160 33.6064 38.7215
  476 185.814 -7.91764 -89.9518
  477 185.701 -7.94263 89.9386
  478 417.454 2.88654 -13.7686
  479 15.0957 -44.7759 0.258103
  480 8.57256 -26.2596 -1.15372
  481 8.29295 -22.5522 1.71531
  482 10.0565 -40.7361 1.73516
  483 8.48970 -42.8243 -5.50820
  484 9.22033 -39.6662 -2.44010
  485 8.45410 -38.6150 6.54553
  486 8.60436 -25.1930 4.01659
  487 6.57053 -19.9704 -5.62200
  488 7.12179 -45.4613 -0.182788
  489 4.11736 -52.6568 0.552057
  490 4.89501 -7.91996 -0.966579
  491 7.84851 -22.4383 -3.81127
  492 5.52655 -16.6787 5.37810
  493 13.5623 -40.3881 -0.902460
  494 4.71216 -6.65504 0.873835
  495 12.5058 -36.8972 0.831391
  496 5.70079 -10.0638 0.827528
  497 5.60336 -7.82201 -0.555194
  498 13.4858 -44.6512 0.0799250
  499 13.9721 -47.2436 -0.530347
  500 5.23022 -8.19141 -2.51089
  501 6.47767 -35.2198 4.10827
  502 4.76817 -32.3686 -9.25295
  503 3.51089 -43.8735 -1.81028
  504 0.728089 -49.0418 4.78277
  505 5.20498 -45.1551 0.764501
  506 2.03804 -51.6811 -2.68041
  507 7.26545 -29.7367 -4.35117
  508 5.41603 -24.6335 8.12749
  509 10.9787 -33.5686 1.14595
  510 9.67800 -32.1102 -4.72356
  511 4.96634 -6.31383 1.93483
  512 9.93879 -32.0285 3.82308
  513 13.3654 -41.6751 3.01245
  514 13.5295 -41.8196 -0.0946793
  515 10.4854 -28.3147 -0.888209
  516 6.47207 -17.6189 -2.84883
  517 6.85297 -12.4861 3.29571
  518 4.68637 -3.02464 -0.0814202
  519 11.2507 -47.9957 2.01537
  520 7.67656 -19.6852 1.64447
  521 7.44955 -24.0103 5.30127
  522 5.39465 -18.3897 -7.03350
  523 13.1650 -43.0273 -2.62877
  524 5.67725 -14.7588 2.44560
  525 4.29955 -3.49962 -0.562513
  526 2.32744 -46.0845 -0.580345
  527 -4.49028 -55.2367 1.27759
  528 4.65769 -2.73828 0.0366011
  529 5.80870 -9.28934 -1.64284
  530 7.02193 -16.3841 -1.32345
  531 5.87784 -9.26679 -4.14862
  532 10.8444 -44.1760 -0.584395
  533 13.4415 -42.9111 0.354360
  534 6.05365 -6.97132 3.12133
  535 8.87297 -32.4920 4.14764
  536 6.49077 -30.6652 -8.17158
  537 11.2635 -44.3243 0.340912
  538 10.7912 -49.1808 -1.48475
  539 7.02475 -15.9699 -4.28761
  540 5.81166 -15.6737 -0.655046
  541 4.14322 -2.20778 -0.413727
  542 7.24386 -27.7320 6.80581
  543 4.37864 -2.63329 0.395161
  544 14.8859 -44.5279 -0.528360
  545 12.4088 -35.7748 -2.04360
  546 9.63109 -32.3060 -3.14815
  547 2.16369 -46.2662 0.612300
  548 -4.84565 -55.3107 -1.26293
  549 -0.635453 -42.7679 3.82969
  550 -2.81234 -45.5568 -7.96841
  551 5.69607 -4.86657 0.864830
  552 2.29116 -38.4635 -4.30709
  553 1.94379 -37.2572 9.49737
  554 5.61120 -13.4387 0.603623
  555 5.32676 -12.8277 5.91007
  556 10.6525 -30.4850 1.37118
  557 14.7863 -43.0303 1.19239
  558 11.7564 -36.6852 -1.06839
  559 4.10278 -1.65772 0.285199
  560 4.89928 -3.39152 -0.310527
  561 7.90171 -21.7804 4.34641
  562 14.4393 -46.2375 1.05136
  563 4.30422 -0.0989488 -0.00671501
  564 -0.328797 -46.9504 0.210911
  565 4.30126 -0.675785 -0.0747686
  566 -10.8912 -56.4517 -0.350163
  567 4.66123 -0.587684 0.445412
  568 5.50171 -1.21559 0.521548
  569 7.16495 -4.28486 -1.17000
  570 7.68491 -11.9702 -4.76279
  571 1.59235 -30.2671 -6.15007
  572 -3.72851 -42.6373 -5.05180
  573 -2.60692 -46.1770 -2.10932
  574 -2.95237 -45.1305 2.14514
  575 -9.09421 -43.6685 5.02690
  576 2.65667 -32.5968 5.08687
  577 7.18628 -13.5489 4.85839
  578 7.14498 -4.50726 0.319414
  579 5.74010 -2.07974 -0.515033
  580 4.61347 -0.424610 -0.631028
  581 4.46129 -0.602503 0.129275
  582 5.11863 -1.76342 -0.0550635
  583 6.19752 -4.69250 -1.61293
  584 6.89810 -8.45398 -3.90757
  585 2.96451 -26.9318 -8.44249
  586 -12.3386 -46.8750 -8.11627
  587 -10.5353 -52.4043 -3.93622
  588 -11.1802 -54.4404 3.82334
  589 -5.28463 -45.3557 8.97849
  590 2.18977 -23.5208 9.28156
  591 7.01460 -7.01593 3.77289
  592 6.61104 -3.71991 0.963883
  593 5.13747 -1.37038 -0.198376
  594 4.41743 -0.173630 -0.201716
</Section>

newXOutput 15

<Section columns = "stress_xx | stress_yy | stress_xy">
  1 272.831 2.26668 -2.34509
  2 272.840 2.26728 2.34571
  3 474.978 0.331752 -0.227592
  4 474.969 0.331220 0.227049
  5 5.92552 -305.113 12.6239
  6 994.167 3.15558 -0.587302
  7 5.82792 -305.381 -12.6934
  8 1152.01 -10.6896 -8.46804
  9 277.343 1.42516 -1.66249
  10 284.771 2.58074 -4.86713
  11 301.186 3.73840 -10.7232
  12 327.371 2.30764 -19.6154
  13 366.770 1.90321 -20.6967
  14 410.115 5.80159 -33.1571
  15 484.296 1.10959 -41.9784
  16 562.057 -2.31875 -42.2774
  17 667.125 -14.7965 -21.3775
  18 695.729 -13.2512 -5.78342
  19 712.599 -2.43191 10.8439
  20 734.408 9.59657 5.06705
  21 757.201 16.0148 -3.46436
  22 792.854 -6.17539 -4.04430
  23 733.207 5.74857 -7.67572
  24 713.028 -2.33385 -10.4573
  25 695.985 -13.1544 5.85361
  26 667.379 -14.8025 21.4028
  27 562.219 -2.31719 42.3084
  28 484.418 1.11178 42.0052
  29 410.192 5.80465 33.1750
  30 366.831 1.90266 20.7078
  31 327.405 2.30813 19.6258
  32 301.209 3.73996 10.7287
  33 284.784 2.58164 4.87046
  34 277.353 1.42588 1.66398
  35 291.653 2.16649 2.94792
  36 306.343 9.04323 4.52979
  37 317.189 15.0311 4.25925
  38 332.912 20.0323 2.65333
  39 348.497 22.9174 1.12934
  40 367.243 22.0781 -0.277434
  41 387.917 18.3456 -0.851678
  42 418.353 12.0263 -2.37050
  43 440.114 7.45186 -0.0705013
  44 457.325 4.47591 -1.31022
  45 474.900 -0.0244731 -2.99857
  46 485.729 -1.12490 -3.69455
  47 488.833 1.33408 -6.72381
  48 505.845 0.353517 -8.99078
  49 530.548 -2.85057 -7.93390
  50 548.582 -2.97664 -8.78121
  51 559.922 -3.87074 -5.52991
  52 564.263 -5.86423 1.31565
  53 552.420 -6.97464 13.1590
  54 525.687 -2.51404 19.5385
  55 477.471 2.37436 22.3494
  56 430.618 9.33988 16.8769
  57 407.060 10.5345 7.94501
  58 402.618 11.4605 -9.40149
  59 435.336 6.58109 -16.3320
  60 476.287 1.40258 -18.5039
  61 526.318 -2.07710 -18.3981
  62 552.660 -6.75737 -12.8766
  63 564.219 -5.80975 -1.30259
  64 559.864 -3.86869 5.51997
  65 548.530 -2.97610 8.77310
  66 530.508 -2.84915 7.92910
  67 505.819 0.353192 8.98570
  68 488.815 1.33324 6.71999
  69 485.715 -1.12495 3.69240
  70 474.890 -0.0247219 2.99720
  71 457.318 4.47399 1.30924
  72 440.110 7.44778 0.0696438
  73 418.353 12.0197 2.36907
  74 387.923 18.3362 0.850889
  75 367.251 22.0669 0.276992
  76 348.505 22.9059 -1.12916
  77 332.918 20.0220 -2.65261
  78 317.190 15.0237 -4.25755
  79 306.339 9.03854 -4.52872
  80 291.647 2.16432 -2.94681
  81 53.2921 -241.399 4.04375
  82 187.975 -79.5896 64.1352
  83 378.356 36.1054 142.546
  84 568.874 82.2084 178.570
  85 747.893 71.5122 189.683
  86 923.868 24.4326 166.862
  87 1000.48 -4.27679 80.5735
  88 1002.98 -4.17216 -81.2533
  89 925.103 21.9714 -166.935
  90 747.169 71.9837 -189.135
  91 568.665 82.5214 -178.290
  92 378.126 36.1677 -142.575
  93 187.928 -79.5869 -64.1554
  94 53.2514 -241.536 -4.05859
  95 28.1496 -266.721 -21.1314
  96 140.867 -117.724 36.0431
  97 310.057 -16.9225 87.7979
  98 536.405 45.8753 128.462
  99 761.832 50.7656 131.608
  100 955.651 17.3261 122.768
  101 1115.36 -5.23394 87.8968
  102 1090.08 -8.25178 -78.0336
  103 958.032 23.8860 -120.148
  104 762.353 50.0619 -131.607
  105 536.604 45.9630 -128.769
  106 310.401 -16.7020 -88.0148
  107 141.130 -117.452 -36.2139
  108 28.3096 -266.371 20.9749
  109 305.370 45.0601 -12.0201
  110 305.395 45.0561 12.0109
  111 426.435 -34.0007 59.7650
  112 426.476 -34.0919 -59.7611
  113 212.013 51.7205 48.8868
  114 212.081 51.7132 -48.8979
  115 412.728 16.4583 20.4917
  116 412.724 16.4638 -20.4998
  117 309.901 24.9049 21.4316
  118 309.907 24.8944 -21.4227
  119 566.026 -19.8170 19.2163
  120 566.223 -19.4760 -19.5830
  121 232.697 1.96010 77.9088
  122 232.681 1.89958 -77.9650
  123 621.711 29.9509 -15.3775
  124 619.468 28.3223 16.6565
  125 347.898 29.7419 3.48305
  126 347.886 29.7536 -3.48457
  127 434.321 5.74864 -38.3566
  128 434.322 5.75671 38.3508
  129 291.374 -10.1903 112.086
  130 291.456 -10.1843 -112.066
  131 429.970 -74.3068 81.0886
  132 430.053 -74.4106 -81.1868
  133 308.333 30.2634 -48.9468
  134 308.331 30.2767 48.9662
  135 522.490 -26.3733 -1.26254
  136 522.515 -26.2113 1.36094
  137 364.099 17.2176 46.2974
  138 364.091 17.1990 -46.3090
  139 107.916 9.98102 2.70705
  140 108.005 10.0318 -2.76753
  141 268.317 52.7610 -26.7007
  142 268.283 52.7749 26.7008
  143 499.809 -12.5157 -23.9939
  144 499.810 -12.4977 24.0101
  145 451.986 4.90078 8.83105
  146 451.992 4.90344 -8.83576
  147 344.084 21.2453 -81.9249
  148 344.091 21.2594 81.9589
  149 303.896 9.22431 11.9441
  150 303.890 9.22002 -11.9387
  151 727.199 37.8913 1.83962
  152 364.548 25.7121 27.5799
  153 364.536 25.7137 -27.5894
  154 388.434 19.2454 8.46889
  155 388.428 19.2543 -8.47260
  156 326.599 23.9626 7.40638
  157 326.607 23.9516 -7.40324
  158 316.617 36.5030 -9.46745
  159 316.601 36.5158 9.47005
  160 462.196 5.56046 -19.8898
  161 462.186 5.55823 19.8809
  162 500.827 -33.6823 -63.8644
  163 500.826 -33.7188 63.8614
  164 251.398 45.2450 22.6392
  165 251.362 45.2318 -22.6659
  166 541.638 -26.2874 54.4971
  167 541.867 -26.3000 -54.8244
  168 253.542 -73.1431 112.957
  169 253.555 -73.2188 -113.021
  170 655.338 19.0080 29.3969
  171 656.983 21.7573 -30.8532
  172 313.132 13.6362 -27.5438
  173 313.143 13.6428 27.5567
  174 534.788 21.9338 10.2839
  175 541.484 5.39539 39.5375
  176 531.007 5.69721 -37.9521
  177 519.572 -54.8673 19.3616
  178 519.762 -55.0845 -19.3609
  179 335.812 -0.100350 68.5870
  180 335.820 -0.152835 -68.6123
  181 538.307 -16.3426 -25.4007
  182 538.327 -17.3001 25.4960
  183 340.526 -44.5639 96.1105
  184 340.557 -44.6604 -96.1567
  185 337.718 35.7172 -10.2579
  186 337.735 35.7078 10.2530
  187 779.771 43.1138 43.9055
  188 783.435 39.5858 -44.6865
  189 302.203 34.3914 -29.3023
  190 302.191 34.4050 29.3131
  191 371.737 26.2585 14.8227
  192 371.727 26.2671 -14.8286
  193 430.958 -3.49704 45.9376
  194 430.959 -3.52376 -45.9359
  195 510.845 14.5272 -22.3093
  196 409.406 15.6399 31.1096
  197 409.402 15.6400 -31.1187
  198 93.6567 -69.6064 -68.2211
  199 93.4940 -69.7132 68.1603
  200 609.516 -15.4946 -30.6612
  201 609.573 -15.4068 30.5924
  202 355.823 23.9193 -0.843244
  203 355.832 23.9076 0.842907
  204 85.3892 -64.4172 -54.3295
  205 85.4492 -64.3177 54.2577
  206 498.036 -2.35071 -22.5413
  207 498.022 -2.34971 22.5367
  208 182.702 44.2030 -0.251739
  209 182.639 44.1868 0.213660
  210 474.403 -9.16541 -72.8135
  211 474.477 -9.16493 72.8567
  212 358.852 9.95355 -50.3046
  213 358.886 9.96054 50.3301
  214 325.037 -56.0357 102.982
  215 325.020 -56.0323 -103.061
  216 316.212 16.2506 8.29990
  217 316.213 16.2424 -8.29553
  218 290.090 39.3776 -71.9338
  219 290.067 39.3965 71.9568
  220 306.790 32.6166 41.6222
  221 306.772 32.5995 -41.6425
  222 414.507 13.4525 7.73962
  223 414.505 13.4592 -7.74315
  224 199.549 34.9208 79.0232
  225 199.638 34.9162 -79.0297
  226 458.508 -52.6046 -52.7417
  227 458.433 -52.4626 52.7463
  228 201.523 -54.4443 89.7773
  229 201.690 -54.3547 -89.8206
  230 466.930 2.98495 -11.8781
  231 466.919 2.98338 11.8722
  232 541.118 -6.81216 5.24473
  233 541.123 -6.82125 -5.23661
  234 327.503 14.5542 -36.3613
  235 327.522 14.5620 36.3778
  236 542.100 19.8325 24.7600
  237 766.891 8.34745 50.1059
  238 767.260 8.60948 -50.0597
  239 620.785 34.8803 111.136
  240 620.254 35.8887 -111.281
  241 291.359 48.7662 -9.52071
  242 291.332 48.7777 9.51865
  243 493.945 -28.7687 -25.8616
  244 493.939 -28.6784 25.9195
  245 300.935 5.13486 -13.1180
  246 300.949 5.13726 13.1246
  247 866.551 16.8442 -30.5299
  248 494.009 2.02621 -16.5541
  249 493.989 2.02504 16.5470
  250 329.796 30.9636 -4.96080
  251 329.784 30.9758 4.96252
  252 236.670 56.5770 -18.1655
  253 236.621 56.5837 18.1520
  254 598.384 9.76481 20.5152
  255 595.224 9.83777 -20.7606
  256 862.752 16.3300 29.7987
  257 335.460 33.3000 30.9104
  258 335.443 33.2960 -30.9228
  259 398.156 12.4662 -42.3527
  260 398.161 12.4770 42.3442
  261 461.745 2.73581 3.94775
  262 461.753 2.73718 -3.94980
  263 880.522 -12.4788 44.4459
  264 876.724 1.87652 -39.0149
  265 594.234 32.2020 -10.8708
  266 280.432 20.6629 58.8265
  267 280.419 20.6244 -58.8608
  268 278.151 19.2688 -102.441
  269 278.095 19.2804 102.465
  270 438.711 9.22371 16.8056
  271 438.714 9.22766 -16.8132
  272 309.379 15.4530 -20.9995
  273 309.383 15.4602 21.0093
  274 290.897 2.53014 3.85461
  275 290.889 2.52857 -3.85238
  276 272.458 53.3061 -0.0986790
  277 272.425 53.3115 0.0877330
  278 541.962 -11.7372 -8.59191
  279 541.907 -11.8834 8.65426
  280 32.7107 -96.3363 9.81017
  281 32.8203 -96.2095 -9.87766
  282 377.428 21.3592 -3.11812
  283 377.435 21.3486 3.11675
  284 412.229 15.3529 13.8154
  285 412.227 15.3597 -13.8215
  286 472.090 12.3477 120.982
  287 471.927 12.4796 -121.141
  288 536.996 -32.1622 -12.0677
  289 537.115 -32.4881 12.1120
  290 338.626 23.5418 -1.77127
  291 338.618 23.5533 1.77217
  292 453.994 4.46021 -64.8019
  293 454.077 4.46684 64.8392
  294 533.066 -2.51307 12.3431
  295 533.095 -2.51401 -12.3480
  296 755.983 31.2265 -105.070
  297 754.726 30.8548 104.255
  298 314.243 -47.1245 -84.6719
  299 314.057 -47.2574 84.5862
  300 521.297 -3.82643 29.7296
  301 521.326 -1.98275 -29.4701
  302 310.119 26.2268 -38.8736
  303 310.120 26.2386 38.8901
  304 155.907 6.90111 52.6100
  305 155.857 6.84551 -52.6746
  306 316.051 22.6348 14.2101
  307 316.057 22.6245 -14.2038
  308 387.999 -6.56175 58.5616
  309 388.007 -6.60890 -58.5679
  310 618.712 39.2692 5.71073
  311 285.405 41.5254 -50.5616
  312 285.383 41.5415 50.5768
  313 586.204 -6.30626 -14.3721
  314 585.431 -6.74500 14.0424
  315 362.615 24.8891 -4.28264
  316 362.625 24.8780 4.28079
  317 931.070 -8.83418 -13.5575
  318 994.556 -18.2644 28.8014
  319 418.696 6.41789 -53.7515
  320 418.767 6.42282 53.7811
  321 633.829 15.4428 -85.4131
  322 633.708 15.8229 85.1382
  323 440.181 7.69472 3.97976
  324 440.185 7.69883 -3.98213
  325 343.218 26.4884 -1.16696
  326 343.208 26.5002 1.16745
  327 326.409 19.8970 -3.71578
  328 326.404 19.9069 3.71759
  329 463.779 -4.91408 -34.0619
  330 463.777 -4.90097 34.0637
  331 702.625 35.6339 2.97855
  332 398.168 16.4671 -4.07274
  333 398.173 16.4585 4.07086
  334 305.221 8.90564 5.54147
  335 305.218 8.90097 -5.53907
  336 308.754 34.8293 -18.6620
  337 308.741 34.8424 18.6685
  338 494.933 5.75221 -26.7910
  339 462.084 -6.39151 -89.4247
  340 461.929 -6.49252 89.2982
  341 487.694 2.68087 -11.1060
  342 487.676 2.67963 11.1003
  343 503.441 -60.9105 44.1260
  344 503.614 -61.1188 -44.2630
  345 451.399 7.19687 27.9787
  346 451.404 7.19814 -27.9883
  347 434.879 11.3154 24.5730
  348 434.881 11.3187 -24.5826
  349 499.543 -49.8687 25.6462
  350 499.630 -50.0426 -25.5966
  351 128.723 -108.055 74.9545
  352 128.707 -108.124 -74.9984
  353 332.172 34.2461 1.61572
  354 332.156 34.2575 -1.61722
  355 474.201 0.557926 5.55460
  356 474.213 0.558652 -5.55771
  357 256.014 52.4808 -52.3903
  358 255.970 52.4982 52.3966
  359 385.130 -35.6676 -97.1517
  360 385.084 -35.6961 97.1780
  361 385.781 22.6124 22.2117
  362 385.773 22.6180 -22.2197
  363 551.071 -11.0958 35.6494
  364 550.277 -9.66618 -36.3442
  365 315.309 40.5497 1.45907
  366 315.288 40.5600 -1.46193
  367 270.649 -42.1259 -102.781
  368 270.637 -42.0417 102.722
  369 453.945 -18.8243 -42.7813
  370 453.934 -18.7714 42.7995
  371 708.009 37.4987 -7.02783
  372 550.224 -35.2085 8.91288
  373 550.560 -35.4410 -8.96042
  374 155.592 38.8579 41.6681
  375 155.685 38.8712 -41.7014
  376 372.276 -24.8022 76.7914
  377 372.305 -24.8806 -76.8142
  378 629.729 -19.0262 24.7056
  379 629.550 -19.0394 -24.6933
  380 494.272 7.04284 28.5732
  381 466.769 14.2379 -2.05746
  382 341.835 -67.8932 100.420
  383 341.875 -67.9842 -100.484
  384 318.107 29.5346 13.2860
  385 318.117 29.5224 -13.2807
  386 560.663 15.6985 -28.0057
  387 376.247 20.4514 36.3862
  388 376.237 20.4462 -36.3966
  389 468.027 -60.2251 75.0277
  390 468.098 -60.2361 -75.2221
  391 311.730 3.92430 -17.4002
  392 311.751 3.92650 17.4089
  393 679.409 36.4815 19.1943
  394 683.502 37.5829 -19.9736
  395 560.227 -19.3508 48.5617
  396 560.098 -19.3416 -48.5302
  397 411.784 -58.0905 78.1110
  398 411.851 -58.2059 -78.1476
  399 372.977 1.85443 -97.4981
  400 372.972 1.85997 97.5381
  401 258.143 43.6273 -80.3688
  402 258.093 43.6479 80.3855
  403 215.753 30.4349 44.1590
  404 215.718 30.3997 -44.2051
  405 465.424 10.0417 13.9331
  406 333.963 36.0269 -17.7300
  407 333.982 36.0216 17.7221
  408 332.590 14.0827 59.3435
  409 332.583 14.0467 -59.3638
  410 300.951 -13.9884 -85.0192
  411 300.944 -13.9176 84.9774
  412 289.318 3.52183 6.66829
  413 289.307 3.52038 -6.66476
  414 356.282 30.5972 -17.5256
  415 356.297 30.5903 17.5187
  416 353.390 31.7506 9.75703
  417 353.377 31.7609 -9.76115
  418 71.6335 -142.516 31.0328
  419 71.8270 -142.287 -31.1542
  420 560.441 8.98128 34.2745
  421 390.031 20.6365 14.8399
  422 390.024 20.6445 -14.8460
  423 312.077 16.3759 16.2605
  424 312.077 16.3681 -16.2531
  425 289.582 45.5150 29.1642
  426 289.604 45.5000 -29.1573
  427 308.234 22.3932 -29.7858
  428 308.233 22.4033 29.7991
  429 470.013 1.34156 -29.4842
  430 470.005 1.34254 29.4769
  431 319.643 28.2495 -61.7714
  432 319.645 28.2629 61.7960
  433 180.469 -39.1440 -91.9782
  434 180.484 -39.0601 91.9111
  435 700.179 -3.58097 10.5458
  436 700.260 -3.81272 -10.4990
  437 881.210 9.65572 99.5018
  438 884.282 7.81221 -99.4709
  439 289.906 42.7873 21.3080
  440 289.879 42.7825 -21.3241
  441 17.8301 -197.112 -28.4183
  442 17.8899 -196.959 28.3762
  443 519.660 -19.6767 10.6812
  444 519.627 -19.7186 -10.6319
  445 538.902 -5.09020 20.3988
  446 538.839 -4.82613 -19.9741
  447 24.6749 -200.904 10.6847
  448 24.8138 -200.672 -10.7842
  449 477.773 -63.8531 -48.2377
  450 477.650 -63.6879 48.1987
  451 525.531 -0.649512 -10.9191
  452 525.497 -0.649386 10.9134
  453 484.394 3.89242 -27.7833
  454 534.382 -22.4688 -15.9397
  455 534.234 -22.8149 16.1231
  456 403.561 6.50600 -46.2121
  457 403.563 6.52469 46.2071
  458 358.766 4.70774 -26.9180
  459 358.814 4.70980 26.9319
  460 119.717 4.12198 58.6483
  461 119.837 4.16070 -58.6921
  462 467.938 -38.3059 42.3319
  463 467.986 -38.4149 -42.2998
  464 431.374 11.5668 10.2679
  465 431.376 11.5722 -10.2730
  466 301.691 41.6062 -16.2252
  467 301.671 41.6197 16.2290
  468 469.614 1.78408 1.56928
  469 469.622 1.78468 -1.57001
  470 368.894 25.9390 -9.64384
  471 368.904 25.9288 9.63982
  472 278.834 0.204980 1.05265
  473 278.826 0.204413 -1.05188
  474 297.352 36.0847 -41.4996
  475 297.339 36.0986 41.5141
  476 198.391 -8.16669 -96.7557
  477 198.270 -8.19383 96.7420
  478 447.554 3.05831 -14.8000
  479 15.1688 -48.8833 0.269161
  480 8.07194 -28.3699 -1.20178
  481 7.79137 -24.2771 1.80837
  482 9.41475 -44.3473 1.86753
  483 7.81025 -46.5379 -5.92487
  484 8.53561 -43.1448 -2.64255
  485 7.82306 -41.8916 7.04864
  486 8.04027 -27.1243 4.32061
  487 5.91069 -21.3763 -5.95084
  488 5.95713 -49.6953 -0.202959
  489 2.78007 -57.4382 0.598157
  490 4.20665 -8.16196 -0.976968
  491 7.23085 -24.0937 -4.09292
  492 4.77923 -17.7577 5.66086
  493 13.4945 -44.0060 -0.950520
  494 4.02537 -6.77288 0.863808
  495 12.3296 -40.1320 0.864511
  496 5.03149 -10.4946 0.864677
  497 4.95819 -8.04183 -0.590878
  498 13.3242 -48.7736 0.0938512
  499 13.9306 -51.5459 -0.575219
  500 4.55431 -8.46392 -2.52837
  501 5.51799 -38.1429 4.35329
  502 3.78895 -34.9370 -9.88803
  503 1.96160 -47.7798 -1.85625
  504 -0.878641 -53.3034 5.06536
  505 3.78810 -49.2381 0.746768
  506 0.495445 -56.2473 -2.81281
  507 6.43830 -32.0845 -4.61141
  508 4.55407 -26.4367 8.63716
  509 10.6274 -36.4422 1.27965
  510 9.24513 -34.7982 -5.08490
  511 4.28494 -6.40221 1.89082
  512 9.55066 -34.7092 4.10013
  513 13.2665 -45.3867 3.25578
  514 13.3927 -45.6097 -0.127352
  515 10.1308 -30.6254 -0.988483
  516 5.83017 -18.8368 -2.99963
  517 6.21576 -13.1382 3.44569
  518 4.03385 -2.76224 -0.139176
  519 10.8771 -52.3272 2.17485
  520 7.09517 -21.0903 1.78558
  521 6.74692 -25.7702 5.60489
  522 4.59664 -19.5916 -7.38529
  523 13.0442 -46.8822 -2.84219
  524 4.99434 -15.6819 2.54323
  525 3.63004 -3.30223 -0.455443
  526 0.120972 -50.2553 -0.556698
  527 -7.09190 -60.0994 1.30259
  528 4.02534 -2.45484 0.0431812
  529 5.14405 -9.62221 -1.67193
  530 6.42206 -17.4600 -1.44265
  531 5.22028 -9.62483 -4.21491
  532 10.3074 -48.2215 -0.642769
  533 13.2991 -46.8206 0.417351
  534 5.43779 -7.11318 3.08234
  535 8.19866 -35.2098 4.48673
  536 5.69709 -33.1508 -8.78323
  537 10.7568 -48.3900 0.378938
  538 10.3502 -53.6165 -1.60676
  539 6.35128 -16.9305 -4.46315
  540 5.10900 -16.6848 -0.668350
  541 3.47738 -1.88883 -0.380630
  542 6.58428 -29.9292 7.29492
  543 3.73036 -2.35347 0.266755
  544 14.9438 -48.5945 -0.566894
  545 12.2486 -38.8833 -2.18631
  546 9.09540 -35.0067 -3.41714
  547 -0.0715875 -50.4792 0.634198
  548 -7.50816 -60.2174 -1.32974
  549 -2.50332 -46.4661 3.98933
  550 -4.66892 -49.3899 -8.44729
  551 5.05035 -4.77101 0.792033
  552 0.834302 -41.7002 -4.51272
  553 0.654979 -40.2785 10.1152
  554 4.92732 -14.2263 0.602857
  555 4.57312 -13.4863 6.11945
  556 10.3395 -33.0206 1.44465
  557 14.8402 -46.9348 1.27303
  558 11.4695 -39.8858 -1.18923
  559 3.44190 -1.28625 0.226319
  560 4.24392 -3.15203 -0.252801
  561 7.34698 -23.4116 4.62908
  562 14.4634 -50.4531 1.13617
  563 3.68961 0.438714 -0.0437712
  564 -3.25179 -51.1307 0.275796
  565 3.66906 -0.194412 -0.0590511
  566 -14.4991 -61.3372 -0.420020
  567 4.05337 -0.0608773 0.558344
  568 4.89745 -0.736536 0.732644
  569 6.63354 -4.11202 -1.03810
  570 7.13304 -12.5313 -4.89326
  571 0.227816 -32.6208 -6.45511
  572 -5.85472 -46.2644 -5.23229
  573 -5.40509 -50.2948 -2.08985
  574 -5.63297 -49.1646 2.16450
  575 -11.8287 -47.4294 5.17146
  576 1.38674 -35.1628 5.29405
  577 6.57316 -14.2440 5.04197
  578 6.64985 -4.33466 0.108252
  579 5.20822 -1.68311 -0.722587
  580 4.00567 0.111513 -0.765512
  581 3.85641 -0.118357 0.277903
  582 4.52634 -1.40242 0.175247
  583 5.67712 -4.60531 -1.43473
  584 6.35535 -8.69549 -3.87214
  585 1.88501 -28.8862 -8.87234
  586 -15.0970 -50.7943 -8.48630
  587 -13.6526 -56.9718 -4.08565
  588 -14.4797 -59.1615 3.93507
  589 -7.28878 -49.1036 9.45830
  590 1.07639 -25.1637 9.78229
  591 6.49979 -7.15066 3.72989
  592 6.14477 -3.54842 0.727024
  593 4.55837 -0.975069 -0.453211
  594 3.81430 0.350355 -0.360371
</Section>

newXOutput 16

<Section columns = "stress_xx | stress_yy | stress_xy">
  1 289.613 2.42624 -2.51028
  2 289.622 2.42689 2.51095
  3 505.927 0.343432 -0.231433
  4 505.918 0.342850 0.230839
  5 5.38034 -326.805 13.4104
  6 1058.53 2.80909 -0.636225
  7 5.27515 -327.095 -13.4860
  8 1225.91 -12.2224 -8.97795
  9 294.423 1.51695 -1.75045
  10 302.322 2.75747 -5.15563
  11 319.759 3.99185 -11.4047
  12 347.656 2.46887 -20.8767
  13 389.510 2.05683 -22.0297
  14 435.796 6.21132 -35.3392
  15 514.899 1.19566 -44.7776
  16 598.059 -2.44626 -45.1972
  17 710.284 -15.7816 -22.9802
  18 741.314 -14.1240 -6.52493
  19 760.106 -2.54395 11.0647
  20 784.358 10.2140 4.87350
  21 809.601 17.0172 -3.97303
  22 847.379 -6.73517 -4.13947
  23 783.118 6.14401 -7.60990
  24 760.565 -2.43241 -10.6443
  25 741.587 -14.0190 6.59973
  26 710.555 -15.7883 23.0068
  27 598.234 -2.44471 45.2302
  28 515.029 1.19793 44.8061
  29 435.880 6.21455 35.3583
  30 389.575 2.05622 22.0415
  31 347.693 2.46937 20.8879
  32 319.784 3.99352 11.4107
  33 302.337 2.75844 5.15924
  34 294.434 1.51772 1.75207
  35 309.841 2.27665 3.14438
  36 325.660 9.61129 4.84747
  37 337.391 15.9811 4.53871
  38 354.356 21.2862 2.83661
  39 371.089 24.3631 1.21210
  40 391.147 23.4753 -0.284743
  41 413.220 19.5107 -0.894841
  42 445.642 12.7818 -2.51355
  43 468.810 7.92069 -0.0512429
  44 487.136 4.77078 -1.38603
  45 505.841 -0.0356416 -3.19454
  46 517.354 -1.21428 -3.92473
  47 520.659 1.42448 -7.15188
  48 538.794 0.379288 -9.59104
  49 565.141 -3.05444 -8.47997
  50 584.449 -3.18857 -9.41285
  51 596.711 -4.14053 -5.98206
  52 601.528 -6.29198 1.29295
  53 589.121 -7.50222 13.9695
  54 560.700 -2.72499 20.8072
  55 509.302 2.55120 23.8732
  56 459.276 10.0551 18.0537
  57 434.103 11.3519 8.52726
  58 429.364 12.3205 -10.0621
  59 464.315 7.06691 -17.4473
  60 508.047 1.49297 -19.7528
  61 561.368 -2.25780 -19.5919
  62 589.372 -7.26950 -13.6692
  63 601.479 -6.23423 -1.27984
  64 596.647 -4.13842 5.97109
  65 584.393 -3.18797 9.40396
  66 565.097 -3.05290 8.47466
  67 538.766 0.378926 9.58546
  68 520.639 1.42356 7.14770
  69 517.338 -1.21435 3.92238
  70 505.830 -0.0359139 3.19304
  71 487.129 4.76868 1.38495
  72 468.806 7.91624 0.0503009
  73 445.642 12.7747 2.51198
  74 413.226 19.5004 0.893980
  75 391.156 23.4631 0.284266
  76 371.098 24.3505 -1.21191
  77 354.363 21.2750 -2.83582
  78 337.392 15.9731 -4.53686
  79 325.656 9.60619 -4.84630
  80 309.833 2.27430 -3.14316
  81 55.8126 -258.783 4.08035
  82 199.328 -85.3994 68.2525
  83 402.109 38.5035 152.010
  84 604.986 87.9540 190.604
  85 795.591 76.2884 202.649
  86 982.543 25.5701 178.278
  87 1064.50 -5.29586 86.1411
  88 1067.15 -5.13163 -86.8615
  89 983.837 22.8757 -178.357
  90 794.807 76.8114 -202.066
  91 604.762 88.2889 -190.300
  92 401.860 38.5623 -152.040
  93 199.275 -85.4048 -68.2734
  94 55.7673 -258.936 -4.09672
  95 29.1227 -285.685 -22.6572
  96 149.201 -126.016 38.4426
  97 329.372 -18.1474 93.6697
  98 570.380 49.1786 137.193
  99 810.553 54.5061 140.847
  100 1017.04 18.3012 131.611
  101 1186.79 -6.30282 94.1398
  102 1160.22 -9.46977 -83.6410
  103 1019.56 25.3581 -128.840
  104 811.106 53.7275 -140.851
  105 570.590 49.2723 -137.521
  106 329.739 -17.9114 -93.9014
  107 149.482 -125.724 -38.6257
  108 29.2943 -285.309 22.4884
  109 325.170 48.2543 -12.7494
  110 325.197 48.2496 12.7398
  111 454.027 -36.1247 63.9625
  112 454.069 -36.2230 -63.9586
  113 225.491 55.5032 52.3184
  114 225.564 55.4956 -52.3295
  115 439.651 17.5995 21.8300
  116 439.647 17.6057 -21.8389
  117 329.674 26.5498 22.8238
  118 329.681 26.5384 -22.8140
  119 603.249 -21.2433 20.2310
  120 603.456 -20.8730 -20.6226
  121 247.468 2.44941 83.0648
  122 247.450 2.38377 -83.1247
  123 663.223 31.8989 -16.1655
  124 660.829 30.1623 17.5349
  125 370.511 31.7107 3.69507
  126 370.497 31.7234 -3.69667
  127 462.617 6.29054 -40.9873
  128 462.618 6.29885 40.9806
  129 309.930 -10.5600 119.896
  130 310.016 -10.5535 -119.874
  131 457.635 -79.4224 86.7565
  132 457.724 -79.5387 -86.8612
  133 327.877 32.3345 -52.1858
  134 327.874 32.3488 52.2069
  135 556.764 -28.1593 -1.59161
  136 556.790 -27.9864 1.69724
  137 387.719 18.6190 49.3810
  138 387.711 18.5994 -49.3936
  139 114.449 11.0742 3.06677
  140 114.545 11.1293 -3.13098
  141 285.557 56.4569 -28.5550
  142 285.520 56.4719 28.5556
  143 532.517 -13.2902 -25.7959
  144 532.518 -13.2712 25.8124
  145 481.452 5.21752 9.39634
  146 481.459 5.22044 -9.40151
  147 365.935 22.7823 -87.4845
  148 365.943 22.7972 87.5211
  149 322.983 9.81952 12.7094
  150 322.976 9.81487 -12.7035
  151 775.695 40.2092 1.97077
  152 388.284 27.5685 29.3810
  153 388.270 27.5706 -29.3914
  154 413.771 20.4971 9.01003
  155 413.763 20.5069 -9.01408
  156 347.622 25.5062 7.88785
  157 347.631 25.4942 -7.88439
  158 337.071 38.9577 -10.1088
  159 337.054 38.9716 10.1117
  160 492.337 5.96921 -21.2139
  161 492.327 5.96670 21.2041
  162 533.284 -35.8241 -68.5197
  163 533.285 -35.8636 68.5168
  164 267.576 48.5997 24.0263
  165 267.537 48.5857 -24.0544
  166 576.708 -28.0423 58.4687
  167 576.954 -28.0598 -58.8162
  168 269.476 -78.1159 120.637
  169 269.488 -78.2006 -120.706
  170 698.317 20.2832 31.9113
  171 700.067 23.2407 -33.4724
  172 332.795 14.5363 -29.3269
  173 332.807 14.5434 29.3409
  174 570.639 23.4019 10.9756
  175 577.463 5.71335 42.0849
  176 566.321 6.05414 -40.4214
  177 553.402 -58.7027 20.9511
  178 553.604 -58.9398 -20.9485
  179 357.431 0.212227 73.1832
  180 357.438 0.155935 -73.2104
  181 573.902 -17.5438 -26.9589
  182 573.920 -18.5702 27.0611
  183 362.317 -47.3922 102.669
  184 362.349 -47.4973 -102.718
  185 359.677 38.1715 -10.8961
  186 359.696 38.1611 10.8909
  187 831.242 45.7435 47.3088
  188 835.128 41.9387 -48.1488
  189 321.515 36.7138 -31.2333
  190 321.502 36.7285 31.2451
  191 395.968 28.0411 15.7712
  192 395.956 28.0506 -15.7777
  193 458.990 -3.53584 49.1269
  194 458.990 -3.56417 -49.1257
  195 545.002 15.5173 -23.8075
  196 436.090 16.8059 33.1868
  197 436.085 16.8063 -33.1969
  198 99.0829 -74.0583 -73.0876
  199 98.9092 -74.1730 73.0225
  200 649.324 -16.4051 -33.1195
  201 649.388 -16.3096 33.0452
  202 378.944 25.4416 -0.894351
  203 378.953 25.4289 0.893998
  204 90.2873 -68.5719 -57.9284
  205 90.3530 -68.4633 57.8515
  206 530.591 -2.45115 -24.1538
  207 530.575 -2.45018 24.1484
  208 194.285 47.5436 -0.437979
  209 194.217 47.5260 0.397894
  210 504.924 -9.66888 -77.8808
  211 505.004 -9.66850 77.9269
  212 381.449 10.6226 -53.6334
  213 381.486 10.6301 53.6608
  214 345.598 -59.9234 109.991
  215 345.578 -59.9257 -110.076
  216 336.352 17.2806 8.81839
  217 336.354 17.2717 -8.81363
  218 308.537 42.1536 -76.7984
  219 308.513 42.1737 76.8235
  220 326.631 35.0976 44.3259
  221 326.611 35.0795 -44.3476
  222 441.553 14.3204 8.23650
  223 441.551 14.3277 -8.24036
  224 212.116 37.6214 84.5254
  225 212.211 37.6167 -84.5317
  226 488.212 -56.1130 -56.5368
  227 488.133 -55.9595 56.5421
  228 214.075 -57.8978 96.0934
  229 214.252 -57.8021 -96.1395
  230 497.360 3.19180 -12.6511
  231 497.347 3.19006 12.6446
  232 576.716 -7.24088 5.73740
  233 576.723 -7.25033 -5.72923
  234 348.063 15.5338 -38.7495
  235 348.084 15.5422 38.7674
  236 578.344 21.1678 26.3582
  237 817.390 8.99342 54.1153
  238 817.790 9.26291 -54.0625
  239 660.897 37.4132 118.997
  240 660.329 38.5080 -119.149
  241 310.177 52.1563 -10.2109
  242 310.148 52.1689 10.2091
  243 526.200 -30.6544 -27.8468
  244 526.194 -30.5577 27.9082
  245 319.669 5.46824 -13.9520
  246 319.684 5.47082 13.9591
  247 923.423 17.5207 -32.7731
  248 526.240 2.20058 -17.6846
  249 526.218 2.19925 17.6767
  250 351.133 33.0089 -5.29553
  251 351.120 33.0222 5.29749
  252 251.850 60.6370 -19.5060
  253 251.797 60.6442 19.4922
  254 638.000 10.3750 21.5867
  255 634.631 10.4517 -21.8505
  256 919.402 16.9372 31.9887
  257 357.243 35.7357 32.9130
  258 357.224 35.7318 -32.9262
  259 424.064 13.5006 -45.2107
  260 424.070 13.5117 45.2012
  261 491.838 2.91084 4.20104
  262 491.847 2.91234 -4.20327
  263 939.007 -13.6493 47.9823
  264 934.994 1.72749 -42.1983
  265 634.061 34.3446 -11.5469
  266 298.447 22.4057 62.6853
  267 298.431 22.3645 -62.7219
  268 295.820 20.8264 -109.515
  269 295.761 20.8386 109.541
  270 467.326 9.84704 17.9022
  271 467.330 9.85143 -17.9106
  272 328.893 16.4647 -22.3463
  273 328.898 16.4724 22.3570
  274 309.003 2.68067 4.08897
  275 308.994 2.67896 -4.08655
  276 290.053 57.0947 -0.203114
  277 290.016 57.1007 0.191854
  278 577.753 -12.5466 -9.01089
  279 577.696 -12.7021 9.07707
  280 34.0971 -102.654 10.6329
  281 34.2147 -102.517 -10.7054
  282 402.026 22.7197 -3.31565
  283 402.034 22.7081 3.31415
  284 439.129 16.3715 14.7062
  285 439.126 16.3789 -14.7129
  286 502.255 13.3230 129.275
  287 502.081 13.4591 -129.445
  288 572.251 -34.4319 -12.6399
  289 572.375 -34.7832 12.6895
  290 360.509 25.0375 -1.88467
  291 360.501 25.0501 1.88567
  292 482.921 4.82968 -69.2065
  293 483.010 4.83668 69.2463
  294 568.002 -2.64623 13.2679
  295 568.034 -2.64716 -13.2735
  296 805.114 33.1077 -112.654
  297 803.786 32.7251 111.780
  298 334.202 -50.2505 -90.5901
  299 334.005 -50.3926 90.4989
  300 555.950 -4.13321 31.6682
  301 555.987 -2.15296 -31.3994
  302 329.752 27.9921 -41.4198
  303 329.753 28.0047 41.4377
  304 165.612 7.74279 56.0250
  305 165.557 7.68233 -56.0938
  306 336.257 24.1028 15.1250
  307 336.263 24.0915 -15.1181
  308 413.117 -6.74922 62.5661
  309 413.125 -6.79957 -62.5732
  310 660.176 41.9072 5.98366
  311 303.604 44.4052 -53.9608
  312 303.581 44.4223 53.9775
  313 624.574 -6.71286 -15.7436
  314 623.751 -7.18399 15.3914
  315 386.221 26.5044 -4.55077
  316 386.231 26.4922 4.54878
  317 993.311 -9.80547 -14.6328
  318 1060.20 -20.0171 30.9664
  319 445.139 6.87210 -57.3400
  320 445.216 6.87730 57.3716
  321 674.962 16.7132 -91.6192
  322 674.837 17.1311 91.3231
  323 468.883 8.18434 4.22559
  324 468.887 8.18884 -4.22819
  325 365.472 28.2003 -1.24904
  326 365.460 28.2133 1.24961
  327 347.360 21.1550 -3.95159
  328 347.355 21.1657 3.95356
  329 494.034 -5.11891 -36.4761
  330 494.031 -5.10511 36.4773
  331 749.489 37.7973 3.42640
  332 424.144 17.5104 -4.33143
  333 424.149 17.5010 4.32937
  334 324.454 9.46396 5.90012
  335 324.450 9.45888 -5.89752
  336 328.590 37.1672 -19.8958
  337 328.576 37.1815 19.9031
  338 527.937 6.10926 -28.5769
  339 491.784 -6.67375 -95.7401
  340 491.621 -6.78243 95.6058
  341 519.470 2.88085 -11.8355
  342 519.450 2.87947 11.8292
  343 536.055 -65.1488 47.3570
  344 536.240 -65.3773 -47.5017
  345 480.841 7.76395 29.8740
  346 480.847 7.76553 -29.8846
  347 463.248 12.1350 26.2068
  348 463.250 12.1387 -26.2173
  349 532.102 -53.2979 27.6505
  350 532.194 -53.4860 -27.5966
  351 136.336 -115.569 79.9931
  352 136.317 -115.647 -80.0406
  353 353.734 36.5537 1.69478
  354 353.716 36.5663 -1.69628
  355 505.089 0.583548 5.90594
  356 505.102 0.584349 -5.90934
  357 272.364 56.2002 -55.9848
  358 272.317 56.2188 55.9921
  359 409.876 -37.8828 -103.989
  360 409.829 -37.9134 104.017
  361 410.934 24.1935 23.6611
  362 410.925 24.1998 -23.6699
  363 587.483 -11.9404 37.8805
  364 586.649 -10.4016 -38.6261
  365 335.752 43.3414 1.51356
  366 335.729 43.3527 -1.51642
  367 287.791 -44.7772 -109.734
  368 287.779 -44.6850 109.671
  369 483.477 -19.9362 -45.8338
  370 483.466 -19.8796 45.8527
  371 755.204 39.8127 -7.79127
  372 586.133 -37.6532 9.80974
  373 586.491 -37.9079 -9.85870
  374 165.329 41.8681 44.6644
  375 165.428 41.8828 -44.6994
  376 396.246 -26.2270 82.0338
  377 396.276 -26.3116 -82.0582
  378 670.716 -20.2041 26.6564
  379 670.524 -20.2181 -26.6436
  380 527.202 7.51128 30.4748
  381 497.945 15.2354 -2.18748
  382 363.629 -72.4418 107.311
  383 363.670 -72.5426 -107.380
  384 338.560 31.4812 14.1527
  385 338.572 31.4679 -14.1468
  386 598.101 16.7158 -29.7647
  387 400.721 21.9997 38.7940
  388 400.710 21.9946 -38.8054
  389 498.131 -64.3837 80.2840
  390 498.209 -64.4016 -80.4915
  391 331.107 4.17347 -18.5169
  392 331.130 4.17583 18.5263
  393 724.450 38.8941 20.9785
  394 728.811 40.0549 -21.8263
  395 596.469 -20.5581 52.0449
  396 596.330 -20.5481 -52.0114
  397 438.288 -61.9554 83.5411
  398 438.359 -62.0813 -83.5801
  399 396.836 2.18463 -104.230
  400 396.832 2.19042 104.273
  401 274.550 46.7856 -85.8760
  402 274.497 46.8074 85.8945
  403 229.505 32.8679 46.9835
  404 229.466 32.8300 -47.0324
  405 496.475 10.7356 14.8706
  406 355.679 38.5601 -18.8545
  407 355.699 38.5539 18.8461
  408 354.075 15.3428 63.2925
  409 354.067 15.3045 -63.3143
  410 320.205 -14.6270 -90.7330
  411 320.199 -14.5503 90.6884
  412 307.247 3.75391 7.08525
  413 307.235 3.75234 -7.08141
  414 379.487 32.7260 -18.6500
  415 379.503 32.7182 18.6424
  416 376.392 33.8986 10.3715
  417 376.377 33.9099 -10.3759
  418 75.5146 -152.301 33.2431
  419 75.7216 -152.056 -33.3736
  420 597.782 9.48461 36.4616
  421 415.472 22.0257 15.7943
  422 415.464 22.0346 -15.8010
  423 331.894 17.4288 17.3030
  424 331.895 17.4203 -17.2949
  425 308.158 48.6502 31.1307
  426 308.182 48.6340 -31.1228
  427 327.779 23.8767 -31.7161
  428 327.778 23.8876 31.7306
  429 500.687 1.52277 -31.5317
  430 500.679 1.52364 31.5233
  431 339.884 30.2065 -65.9004
  432 339.886 30.2208 65.9271
  433 191.665 -41.5493 -98.1425
  434 191.683 -41.4574 98.0706
  435 746.279 -3.74645 11.7086
  436 746.367 -3.99967 -11.6582
  437 938.247 9.74786 106.548
  438 941.502 7.76054 -106.502
  439 308.671 45.8977 22.6325
  440 308.642 45.8929 -22.6495
  441 18.0874 -210.916 -30.2693
  442 18.1528 -210.748 30.2234
  443 553.780 -20.9891 11.6308
  444 553.746 -21.0337 -11.5787
  445 574.692 -5.45751 21.6919
  446 574.624 -5.17418 -21.2391
  447 25.4858 -214.801 11.5171
  448 25.6347 -214.552 -11.6245
  449 508.706 -68.2272 -51.7257
  450 508.575 -68.0470 51.6852
  451 559.868 -0.671335 -11.6885
  452 559.831 -0.671226 11.6822
  453 516.661 4.15684 -29.6624
  454 569.578 -24.0590 -16.8051
  455 569.420 -24.4280 17.0022
  456 429.772 7.16097 -49.3553
  457 429.774 7.18061 49.3494
  458 381.128 5.03620 -28.6726
  459 381.180 5.03838 28.6875
  460 126.996 4.82428 62.8129
  461 127.123 4.86618 -62.8594
  462 498.353 -40.7989 45.4175
  463 498.404 -40.9161 -45.3833
  464 459.516 12.3242 10.9240
  465 459.518 12.3302 -10.9295
  466 321.133 44.4424 -17.3230
  467 321.111 44.4571 17.3274
  468 500.220 1.90434 1.67144
  469 500.228 1.90499 -1.67224
  470 392.931 27.6637 -10.2551
  471 392.943 27.6525 10.2508
  472 296.060 0.205490 1.11371
  473 296.052 0.204877 -1.11287
  474 316.299 38.5543 -44.2561
  475 316.285 38.5692 44.2719
  476 210.825 -8.37617 -103.518
  477 210.696 -8.40544 103.504
  478 477.388 3.22187 -15.8242
  479 15.2415 -52.9817 0.280142
  480 7.56784 -30.4692 -1.24958
  481 7.28648 -25.9913 1.90089
  482 8.77236 -47.9486 2.00295
  483 7.13114 -50.2412 -6.34559
  484 7.84968 -46.6128 -2.84849
  485 7.19146 -45.1557 7.55568
  486 7.47333 -29.0424 4.62465
  487 5.24862 -22.7677 -6.27844
  488 4.79289 -53.9236 -0.223484
  489 1.44491 -62.2161 0.644788
  490 3.51624 -8.39704 -0.986049
  491 6.60918 -25.7375 -4.37453
  492 4.02891 -18.8234 5.94134
  493 13.4251 -47.6134 -0.998502
  494 3.33656 -6.88435 0.852317
  495 12.1511 -43.3557 0.897377
  496 4.35977 -10.9181 0.902086
  497 4.31059 -8.25514 -0.627246
  498 13.1623 -52.8881 0.107682
  499 13.8899 -55.8404 -0.620391
  500 3.87652 -8.72918 -2.54371
  501 4.55815 -41.0504 4.60342
  502 2.81107 -37.4865 -10.5292
  503 0.412546 -51.6795 -1.90483
  504 -2.48353 -57.5584 5.35138
  505 2.37131 -53.3157 0.730618
  506 -1.04572 -60.8093 -2.94747
  507 5.60944 -34.4157 -4.87466
  508 3.69162 -28.2185 9.14962
  509 10.2734 -39.3043 1.41440
  510 8.80956 -37.4740 -5.44740
  511 3.60187 -6.48398 1.84454
  512 9.15957 -37.3777 4.37795
  513 13.1670 -49.0879 3.50050
  514 13.2552 -49.3901 -0.161102
  515 9.77295 -32.9245 -1.08947
  516 5.18556 -20.0439 -3.14946
  517 5.57589 -13.7824 3.59465
  518 3.37939 -2.49523 -0.195823
  519 10.5047 -56.6514 2.33602
  520 6.51055 -22.4850 1.92660
  521 6.04211 -27.5137 5.90837
  522 3.79746 -20.7731 -7.73576
  523 12.9229 -50.7274 -3.05691
  524 4.30889 -16.5952 2.63936
  525 2.95900 -3.09959 -0.346964
  526 -2.08772 -54.4222 -0.533557
  527 -9.69556 -64.9606 1.32819
  528 3.39101 -2.16672 0.0485616
  529 4.47715 -9.94821 -1.70109
  530 5.81909 -18.5267 -1.56213
  531 4.56084 -9.97335 -4.27758
  532 9.77050 -52.2595 -0.703086
  533 13.1560 -50.7208 0.481348
  534 4.82071 -7.24697 3.03939
  535 7.52142 -37.9140 4.82833
  536 4.90071 -35.6207 -9.39783
  537 10.2503 -52.4482 0.418325
  538 9.91091 -58.0460 -1.73016
  539 5.67521 -17.8786 -4.63737
  540 4.40369 -17.6861 -0.681069
  541 2.80988 -1.56532 -0.346201
  542 5.92176 -32.1113 7.78502
  543 3.08060 -2.06875 0.136823
  544 15.0014 -52.6519 -0.605491
  545 12.0861 -41.9803 -2.32922
  546 8.55694 -37.6943 -3.68811
  547 -2.30903 -54.6884 0.656242
  548 -10.1731 -65.1229 -1.39706
  549 -4.36885 -50.1555 4.15311
  550 -6.52115 -53.2131 -8.93145
  551 4.40245 -4.67067 0.719763
  552 -0.619669 -44.9241 -4.72356
  553 -0.628125 -43.2834 10.7392
  554 4.24093 -15.0053 0.601134
  555 3.81898 -14.1259 6.32417
  556 10.0235 -35.5444 1.51788
  557 14.8934 -50.8294 1.35390
  558 11.1804 -43.0751 -1.31182
  559 2.77936 -0.910381 0.166009
  560 3.58663 -2.90791 -0.196070
  561 6.78885 -25.0303 4.91109
  562 14.4872 -54.6603 1.22155
  563 3.07321 0.980075 -0.0821433
  564 -6.17947 -55.3073 0.340662
  565 3.03512 0.290889 -0.0420734
  566 -18.1130 -66.2217 -0.490090
  567 3.44358 0.469463 0.669808
  568 4.29107 -0.254474 0.942333
  569 6.09958 -3.93590 -0.906245
  570 6.57908 -13.0833 -5.02041
  571 -1.13356 -34.9551 -6.76234
  572 -7.97785 -49.8831 -5.41646
  573 -8.20668 -54.4085 -2.07166
  574 -8.31577 -53.1942 2.18516
  575 -14.5600 -51.1824 5.31891
  576 0.120607 -37.7101 5.50403
  577 5.95796 -14.9282 5.22274
  578 6.15207 -4.15803 -0.102161
  579 4.67404 -1.28271 -0.928754
  580 3.39595 0.651184 -0.898501
  581 3.24989 0.369802 0.427704
  582 3.93238 -1.03702 0.406818
  583 5.15523 -4.51228 -1.25434
  584 5.81123 -8.92339 -3.83156
  585 0.812139 -30.8170 -9.30483
  586 -17.8498 -54.7039 -8.85985
  587 -16.7725 -61.5364 -4.23717
  588 -17.7823 -63.8798 4.04859
  589 -9.28635 -52.8411 9.94250
  590 -0.0304202 -26.7813 10.2845
  591 5.98483 -7.27508 3.68115
  592 5.67705 -3.37206 0.488132
  593 3.97770 -0.575634 -0.709342
  594 3.20959 0.878151 -0.520309
</Section>

newXOutput 17

<Section columns = "stress_xx | stress_yy | stress_xy">
  1 306.126 2.58508 -2.67474
  2 306.136 2.58579 2.67547
  3 536.524 0.353571 -0.233702
  4 536.514 0.352939 0.233056
  5 4.82130 -348.435 14.1829
  6 1121.87 2.41175 -0.683978
  7 4.70852 -348.748 -14.2646
  8 1298.50 -13.8344 -9.47383
  9 311.231 1.60732 -1.83454
  10 319.593 2.93280 -5.43638
  11 338.031 4.24296 -12.0743
  12 367.616 2.62922 -22.1177
  13 411.876 2.21198 -23.3414
  14 461.075 6.61897 -37.4921
  15 545.037 1.28174 -47.5431
  16 633.557 -2.57018 -48.0929
  17 752.865 -16.7565 -24.5816
  18 786.345 -14.9886 -7.29392
  19 807.115 -2.64815 11.2321
  20 833.872 10.8255 4.62601
  21 861.624 18.0019 -4.50738
  22 901.463 -7.30272 -4.21445
  23 832.598 6.54193 -7.48158
  24 807.604 -2.52227 -10.7775
  25 786.635 -14.8752 7.37323
  26 753.153 -16.7639 24.6093
  27 633.743 -2.56865 48.1277
  28 545.176 1.28407 47.5733
  29 461.164 6.62237 37.5124
  30 411.945 2.21131 23.3541
  31 367.656 2.62974 22.1297
  32 338.057 4.24475 12.0807
  33 319.609 2.93384 5.44027
  34 311.243 1.60816 1.83629
  35 327.762 2.38122 3.33858
  36 344.716 10.1684 5.16354
  37 357.342 16.9136 4.81433
  38 375.558 22.5150 3.01851
  39 393.438 25.7811 1.29480
  40 414.800 24.8462 -0.290560
  41 438.257 20.6543 -0.935732
  42 472.636 13.5223 -2.65290
  43 497.190 8.38022 -0.0290001
  44 516.614 5.06166 -1.45938
  45 536.429 -0.0479454 -3.38768
  46 548.612 -1.30455 -4.15004
  47 552.115 1.51391 -7.57205
  48 571.359 0.404890 -10.1840
  49 599.328 -3.25791 -9.02131
  50 619.905 -3.40005 -10.0424
  51 633.096 -4.40914 -6.43890
  52 638.408 -6.72011 1.25698
  53 625.469 -8.03242 14.7627
  54 595.392 -2.93941 22.0574
  55 540.850 2.72922 25.3840
  56 487.683 10.7754 19.2233
  57 460.906 12.1760 9.10977
  58 455.874 13.1835 -10.7192
  59 493.039 7.55387 -18.5530
  60 539.526 1.58210 -20.9896
  61 596.095 -2.44226 -20.7682
  62 625.730 -7.78428 -14.4448
  63 638.353 -6.65920 -1.24394
  64 633.026 -4.40699 6.42686
  65 619.844 -3.39941 10.0327
  66 599.281 -3.25625 9.01549
  67 571.329 0.404490 10.1779
  68 552.094 1.51290 7.56750
  69 548.595 -1.30462 4.14749
  70 536.418 -0.0482410 3.38606
  71 516.606 5.05940 1.45821
  72 497.186 8.37540 0.0279733
  73 472.637 13.5145 2.65120
  74 438.264 20.6432 0.934799
  75 414.810 24.8330 0.290047
  76 393.448 25.7676 -1.29458
  77 375.565 22.5029 -3.01765
  78 357.343 16.9049 -4.81232
  79 344.712 10.1629 -5.16227
  80 327.754 2.37869 -3.33727
  81 58.2805 -276.148 4.09289
  82 210.521 -91.2251 72.3048
  83 425.524 40.8445 161.350
  84 640.574 93.6331 202.483
  85 842.574 81.0032 215.450
  86 1040.24 26.6485 189.541
  87 1127.44 -6.36822 91.6316
  88 1130.23 -6.14217 -92.3925
  89 1041.59 23.7186 -189.628
  90 841.730 81.5786 -214.832
  91 640.335 93.9899 -202.157
  92 425.257 40.8997 -161.380
  93 210.461 -91.2389 -72.3265
  94 58.2305 -276.317 -4.11081
  95 30.0738 -304.598 -24.1796
  96 157.419 -134.283 40.8100
  97 348.411 -19.3916 99.4604
  98 603.849 52.4457 145.811
  99 858.540 58.2326 149.986
  100 1077.45 19.2485 140.377
  101 1256.97 -7.44017 100.317
  102 1229.20 -10.7454 -89.1951
  103 1080.11 26.8008 -137.460
  104 859.124 57.3771 -149.997
  105 604.070 52.5454 -146.161
  106 348.801 -19.1401 -99.7066
  107 157.718 -133.971 -41.0053
  108 30.2570 -304.195 23.9986
  109 344.770 51.4337 -13.4619
  110 344.799 51.4284 13.4520
  111 481.294 -38.2080 68.1350
  112 481.338 -38.3133 -68.1309
  113 238.831 59.2809 55.7300
  114 238.909 59.2729 -55.7411
  115 466.285 18.7323 23.1486
  116 466.281 18.7391 -23.1583
  117 349.207 28.1733 24.1947
  118 349.214 28.1610 -24.1840
  119 640.063 -22.6681 21.2103
  120 640.280 -22.2681 -21.6268
  121 262.079 2.97415 88.1558
  122 262.058 2.90337 -88.2194
  123 704.331 33.8237 -16.9197
  124 701.788 31.9800 18.3787
  125 392.888 33.6539 3.90246
  126 392.873 33.6678 -3.90413
  127 490.600 6.84571 -43.5952
  128 490.601 6.85421 43.5875
  129 328.263 -10.8916 127.653
  130 328.354 -10.8846 -127.630
  131 484.960 -84.5102 92.3849
  132 485.054 -84.6391 -92.4960
  133 347.167 34.3876 -55.3833
  134 347.164 34.4028 55.4060
  135 590.663 -29.9286 -1.94459
  136 590.691 -29.7449 2.05741
  137 411.084 20.0348 52.4273
  138 411.074 20.0143 -52.4409
  139 120.925 12.2047 3.44375
  140 121.027 12.2642 -3.51160
  141 302.616 60.1306 -30.3956
  142 302.576 60.1467 30.3969
  143 564.864 -14.0483 -27.6006
  144 564.864 -14.0282 27.6175
  145 510.589 5.52902 9.95170
  146 510.597 5.53221 -9.95733
  147 387.496 24.3146 -92.9896
  148 387.505 24.3303 93.0288
  149 341.803 10.4054 13.4618
  150 341.796 10.4004 -13.4554
  151 823.674 42.4763 2.10213
  152 411.772 29.4201 31.1561
  153 411.757 29.4228 -31.1674
  154 438.841 21.7296 9.54183
  155 438.833 21.7403 -9.54622
  156 368.408 27.0246 8.36177
  157 368.417 27.0117 -8.35800
  158 357.307 41.3856 -10.7431
  159 357.288 41.4008 10.7464
  160 522.141 6.37774 -22.5214
  161 522.130 6.37494 22.5107
  162 565.345 -37.9347 -73.1597
  163 565.347 -37.9771 73.1569
  164 283.596 51.9558 25.3826
  165 283.553 51.9410 -25.4121
  166 611.341 -29.7901 62.4208
  167 611.605 -29.8129 -62.7883
  168 285.210 -83.0545 128.246
  169 285.221 -83.1484 -128.320
  170 740.786 21.5477 34.4416
  171 742.640 24.7147 -36.1069
  172 352.180 15.4247 -31.0824
  173 352.193 15.4323 31.0975
  174 606.177 24.8528 11.6604
  175 613.093 6.02381 44.5951
  176 601.298 6.40555 -42.8572
  177 586.835 -62.5218 22.5518
  178 587.048 -62.7790 -22.5472
  179 378.805 0.559491 77.7276
  180 378.812 0.499446 -77.7565
  181 609.136 -18.7461 -28.4848
  182 609.151 -19.8415 28.5938
  183 383.845 -50.1746 109.167
  184 383.877 -50.2884 -109.220
  185 381.412 40.6053 -11.5216
  186 381.432 40.5938 11.5161
  187 882.092 48.3252 50.7094
  188 886.194 44.2414 -51.6094
  189 340.599 39.0124 -33.1381
  190 340.585 39.0282 33.1510
  191 419.947 29.8059 16.7037
  192 419.934 29.8164 -16.7106
  193 486.708 -3.55024 52.2931
  194 486.708 -3.58010 -52.2924
  195 578.858 16.4990 -25.2896
  196 462.485 17.9731 35.2393
  197 462.480 17.9739 -35.2504
  198 104.446 -78.4420 -77.9380
  199 104.262 -78.5645 77.8688
  200 688.653 -17.2942 -35.5862
  201 688.725 -17.1910 35.5064
  202 401.819 26.9365 -0.944358
  203 401.830 26.9227 0.943989
  204 95.1326 -72.6669 -61.4851
  205 95.2039 -72.5491 61.4031
  206 562.781 -2.54335 -25.7601
  207 562.764 -2.54243 25.7538
  208 205.760 50.8917 -0.642217
  209 205.687 50.8727 0.600204
  210 535.051 -10.1555 -82.9115
  211 535.137 -10.1552 82.9604
  212 403.718 11.2840 -56.9199
  213 403.759 11.2918 56.9491
  214 365.893 -63.8033 116.933
  215 365.872 -63.8116 -117.024
  216 356.242 18.2918 9.32627
  217 356.243 18.2822 -9.32111
  218 326.758 44.9143 -81.6134
  219 326.733 44.9356 81.6406
  220 346.266 37.5866 46.9891
  221 346.244 37.5677 -47.0120
  222 468.309 15.1740 8.72496
  223 468.307 15.1820 -8.72915
  224 224.547 40.3334 89.9911
  225 224.647 40.3287 -89.9972
  226 517.562 -59.5840 -60.3185
  227 517.479 -59.4190 60.3246
  228 226.476 -61.2979 102.374
  229 226.664 -61.1962 -102.423
  230 527.445 3.39711 -13.4122
  231 527.432 3.39521 13.4050
  232 611.934 -7.66119 6.24137
  233 611.943 -7.67095 -6.23323
  234 368.327 16.5030 -41.1052
  235 368.350 16.5119 41.1244
  236 614.257 22.4908 27.9320
  237 867.275 9.64144 58.1288
  238 867.705 9.91631 -58.0693
  239 700.484 39.9289 126.791
  240 699.881 41.1107 -126.949
  241 328.801 55.5231 -10.8989
  242 328.770 55.5368 10.8973
  243 558.091 -32.5148 -29.8390
  244 558.086 -32.4118 29.9039
  245 338.122 5.79663 -14.7712
  246 338.138 5.79940 14.7788
  247 979.532 18.1487 -35.0013
  248 558.104 2.37785 -18.8044
  249 558.080 2.37635 18.7957
  250 372.240 35.0274 -5.62627
  251 372.226 35.0419 5.62848
  252 266.880 64.6838 -20.8458
  253 266.823 64.6914 20.8317
  254 677.199 10.9759 22.6186
  255 673.626 11.0560 -22.9005
  256 975.297 17.4941 34.1645
  257 378.800 38.1688 34.8849
  258 378.780 38.1651 -34.8990
  259 449.690 14.5477 -48.0387
  260 449.698 14.5591 48.0281
  261 521.592 3.08281 4.45000
  262 521.601 3.08444 -4.45242
  263 996.786 -14.8370 51.5215
  264 992.567 1.55489 -45.3902
  265 673.522 36.4628 -12.2093
  266 316.269 24.1719 66.4910
  267 316.252 24.1279 -66.5297
  268 313.274 22.3961 -116.534
  269 313.212 22.4089 116.563
  270 495.627 10.4636 18.9824
  271 495.631 10.4684 -18.9916
  272 348.143 17.4622 -23.6705
  273 348.149 17.4705 23.6821
  274 326.839 2.82720 4.31776
  275 326.830 2.82536 -4.31514
  276 307.472 60.8670 -0.317522
  277 307.433 60.8736 0.305990
  278 613.177 -13.3499 -9.40707
  279 613.118 -13.5145 9.47693
  280 35.4673 -108.890 11.4668
  281 35.5931 -108.743 -11.5443
  282 426.366 24.0558 -3.50960
  283 426.375 24.0432 3.50799
  284 465.741 17.3770 15.5824
  285 465.738 17.3851 -15.5897
  286 532.019 14.2811 137.485
  287 531.835 14.4210 -137.665
  288 607.120 -36.6936 -13.1822
  289 607.250 -37.0703 13.2371
  290 382.151 26.5062 -1.99597
  291 382.142 26.5198 1.99706
  292 511.444 5.20235 -73.5679
  293 511.540 5.20970 73.6102
  294 602.550 -2.77342 14.1938
  295 602.585 -2.77431 -14.2002
  296 853.589 34.9545 -120.181
  297 852.192 34.5621 119.248
  298 353.916 -53.3523 -96.4638
  299 353.706 -53.5034 96.3671
  300 590.275 -4.44311 33.5806
  301 590.319 -2.32602 -33.3035
  302 349.128 29.7387 -43.9301
  303 349.129 29.7522 43.9494
  304 175.221 8.61833 59.3898
  305 175.161 8.55301 -59.4627
  306 356.221 25.5483 16.0248
  307 356.227 25.5361 -16.0173
  308 437.950 -6.90407 66.5348
  309 437.957 -6.95756 -66.5427
  310 701.253 44.5193 6.24081
  311 321.588 47.2641 -57.3227
  312 321.563 47.2824 57.3410
  313 662.500 -7.11670 -17.1333
  314 661.630 -7.62013 16.7583
  315 409.580 28.0947 -4.81376
  316 409.591 28.0815 4.81163
  317 1054.81 -10.8023 -15.7070
  318 1124.94 -21.8051 33.1215
  319 471.192 7.32354 -60.8862
  320 471.275 7.32899 60.9199
  321 715.566 17.9824 -97.7848
  322 715.436 18.4388 97.4675
  323 497.268 8.66498 4.46590
  324 497.272 8.66987 -4.46872
  325 387.487 29.8850 -1.33036
  326 387.475 29.8991 1.33101
  327 368.067 22.3895 -4.18299
  328 368.061 22.4011 4.18513
  329 523.951 -5.30602 -38.8786
  330 523.948 -5.29158 38.8792
  331 795.864 39.9142 3.89419
  332 449.844 18.5341 -4.58541
  333 449.849 18.5239 4.58318
  334 343.426 10.0114 6.25323
  335 343.422 10.0059 -6.25042
  336 348.202 39.4794 -21.1132
  337 348.186 39.4948 21.1212
  338 560.643 6.45884 -30.3423
  339 521.106 -6.95376 -102.007
  340 520.935 -7.07004 101.865
  341 550.880 3.08116 -12.5545
  342 550.858 3.07964 12.5477
  343 568.272 -69.3698 50.5770
  344 568.470 -69.6189 -50.7293
  345 509.957 8.33513 31.7497
  346 509.963 8.33703 -31.7615
  347 491.306 12.9527 27.8200
  348 491.308 12.9569 -27.8316
  349 564.285 -56.7041 29.6638
  350 564.382 -56.9064 -29.6055
  351 143.848 -123.048 84.9816
  352 143.826 -123.136 -85.0326
  353 375.072 38.8367 1.76994
  354 375.053 38.8504 -1.77143
  355 535.624 0.607261 6.25054
  356 535.638 0.608137 -6.25423
  357 288.534 59.9019 -59.5486
  358 288.485 59.9217 59.5569
  359 434.320 -40.0571 -110.786
  360 434.272 -40.0897 110.816
  361 435.823 25.7645 25.0894
  362 435.813 25.7716 -25.0990
  363 623.518 -12.7885 40.0725
  364 622.646 -11.1397 -40.8690
  365 355.986 46.1105 1.56286
  366 355.961 46.1230 -1.56571
  367 304.725 -47.3843 -116.618
  368 304.714 -47.2840 116.551
  369 512.673 -21.0176 -48.8737
  370 512.662 -20.9576 48.8932
  371 801.902 42.0825 -8.57630
  372 621.622 -40.0881 10.7225
  373 622.001 -40.3657 -10.7729
  374 174.974 44.8926 47.6521
  375 175.080 44.9086 -47.6886
  376 419.934 -27.6091 87.2280
  377 419.964 -27.7000 -87.2540
  378 711.190 -21.3577 28.6151
  379 710.984 -21.3724 -28.6020
  380 559.831 7.97500 32.3548
  381 528.850 16.2276 -2.31505
  382 385.150 -76.9490 114.143
  383 385.193 -77.0599 -114.217
  384 358.783 33.4019 15.0063
  385 358.794 33.3876 -14.9998
  386 635.189 17.7189 -31.4915
  387 424.934 23.5522 41.1708
  388 424.922 23.5473 -41.1832
  389 527.856 -68.5273 85.5016
  390 527.939 -68.5525 -85.7222
  391 350.185 4.41814 -19.6152
  392 350.210 4.42066 19.6253
  393 769.000 41.2867 22.7886
  394 773.623 42.5046 -23.7059
  395 632.247 -21.7428 55.5126
  396 632.098 -21.7319 -55.4772
  397 464.467 -65.7798 88.9320
  398 464.542 -65.9163 -88.9733
  399 420.393 2.53383 -110.910
  400 420.389 2.53985 110.956
  401 290.766 49.9355 -91.3360
  402 290.710 49.9587 91.3562
  403 243.121 35.3204 49.7606
  404 243.079 35.2798 -49.8122
  405 527.252 11.4245 15.7981
  406 377.174 41.0791 -19.9591
  407 377.196 41.0721 19.9501
  408 375.327 16.6271 67.1936
  409 375.317 16.5865 -67.2169
  410 339.238 -15.2243 -96.3847
  411 339.232 -15.1419 96.3372
  412 324.901 3.98300 7.49396
  413 324.888 3.98131 -7.48982
  414 402.453 34.8403 -19.7558
  415 402.470 34.8316 19.7477
  416 399.156 36.0244 10.9745
  417 399.141 36.0369 -10.9792
  418 79.3452 -162.020 35.4464
  419 79.5657 -161.759 -35.5859
  420 634.764 9.97122 38.6143
  421 440.645 23.3997 16.7329
  422 440.636 23.4094 -16.7402
  423 351.459 18.4645 18.3279
  424 351.459 18.4553 -18.3191
  425 326.528 51.7605 33.0757
  426 326.553 51.7431 -33.0669
  427 347.073 25.3416 -33.6166
  428 347.071 25.3533 33.6322
  429 531.019 1.71332 -33.5642
  430 531.009 1.71404 33.5547
  431 359.855 32.1490 -69.9817
  432 359.858 32.1642 70.0103
  433 202.732 -43.9072 -104.240
  434 202.754 -43.8072 104.163
  435 791.839 -3.90708 12.8977
  436 791.933 -4.18204 -12.8437
  437 994.448 9.79682 113.521
  438 997.881 7.66470 -113.460
  439 327.250 49.0026 23.9301
  440 327.218 48.9979 -23.9479
  441 18.3255 -224.657 -32.0976
  442 18.3965 -224.474 32.0478
  443 587.532 -22.2867 12.5976
  444 587.497 -22.3338 -12.5428
  445 610.139 -5.82414 22.9625
  446 610.065 -5.52153 -22.4819
  447 26.2833 -228.612 12.3565
  448 26.4421 -228.346 -12.4717
  449 539.265 -72.5710 -55.2010
  450 539.127 -72.3756 55.1592
  451 593.812 -0.690128 -12.4533
  452 593.772 -0.690041 12.4464
  453 548.636 4.41970 -31.5240
  454 604.404 -25.6431 -17.6388
  455 604.235 -26.0348 17.8496
  456 455.691 7.83558 -52.4682
  457 455.694 7.85610 52.4615
  458 403.138 5.36265 -30.4017
  459 403.194 5.36495 30.4177
  460 134.203 5.56781 66.9603
  461 134.339 5.61289 -67.0092
  462 528.416 -43.2573 48.4970
  463 528.468 -43.3827 -48.4605
  464 487.351 13.0706 11.5684
  465 487.353 13.0772 -11.5744
  466 340.365 47.2526 -18.4091
  467 340.342 47.2685 18.4141
  468 530.478 2.02338 1.77206
  469 530.488 2.02409 -1.77293
  470 416.719 29.3668 -10.8554
  471 416.731 29.3546 10.8507
  472 313.019 0.204359 1.17294
  473 313.009 0.203700 -1.17204
  474 335.016 41.0025 -46.9781
  475 335.001 41.0185 46.9953
  476 223.117 -8.54677 -110.239
  477 222.981 -8.57815 110.224
  478 506.961 3.37719 -16.8412
  479 15.3137 -57.0710 0.291038
  480 7.06005 -32.5575 -1.29727
  481 6.77806 -27.6948 1.99306
  482 8.12957 -51.5399 2.14145
  483 6.45196 -53.9342 -6.77037
  484 7.16276 -50.0699 -3.05795
  485 6.55889 -48.4071 8.06668
  486 6.90358 -30.9470 4.92850
  487 4.58398 -24.1451 -6.60490
  488 3.62947 -58.1458 -0.244369
  489 0.111422 -66.9903 0.691946
  490 2.82367 -8.62579 -0.994088
  491 5.98354 -27.3696 -4.65581
  492 3.27523 -19.8762 6.21968
  493 13.3541 -51.2104 -1.04645
  494 2.64562 -6.99005 0.839653
  495 11.9702 -46.5682 0.930045
  496 3.68565 -11.3347 0.939411
  497 3.66053 -8.46246 -0.663937
  498 13.0002 -56.9944 0.121406
  499 13.8496 -60.1268 -0.665875
  500 3.19659 -8.98775 -2.55707
  501 3.59854 -43.9417 4.85871
  502 1.83411 -40.0173 -11.1766
  503 -1.13576 -55.5724 -1.95603
  504 -4.08701 -61.8065 5.64083
  505 0.955062 -57.3875 0.716080
  506 -2.58586 -65.3672 -3.08441
  507 4.77914 -36.7299 -5.14085
  508 2.82823 -29.9793 9.66493
  509 9.91668 -42.1548 1.55013
  510 8.37097 -40.1376 -5.81114
  511 2.91684 -6.55974 1.79618
  512 8.76522 -40.0339 4.65662
  513 13.0665 -52.7787 3.74664
  514 13.1170 -53.1604 -0.195935
  515 9.41172 -35.2121 -1.19101
  516 4.53799 -21.2403 -3.29851
  517 4.93350 -14.4189 3.74221
  518 2.72303 -2.22438 -0.251717
  519 10.1333 -60.9682 2.49890
  520 5.92263 -23.8693 2.06729
  521 5.33537 -29.2406 6.21150
  522 2.99670 -21.9346 -8.08500
  523 12.8010 -54.5631 -3.27296
  524 3.62068 -17.4989 2.73422
  525 2.28630 -2.89248 -0.237334
  526 -4.29808 -58.5851 -0.510917
  527 -12.3017 -69.8202 1.35440
  528 2.75470 -1.87471 0.0531080
  529 3.80809 -10.2677 -1.72992
  530 5.21296 -19.5843 -1.68159
  531 3.89915 -10.3128 -4.33673
  532 9.23383 -56.2897 -0.765383
  533 13.0120 -54.6116 0.546332
  534 4.20201 -7.37321 2.99263
  535 6.84134 -40.6044 5.17237
  536 4.10126 -38.0751 -10.0154
  537 9.74432 -56.4988 0.459089
  538 9.47299 -62.4692 -1.85496
  539 4.99682 -18.8143 -4.80990
  540 3.69563 -18.6779 -0.693444
  541 2.14064 -1.23807 -0.310743
  542 5.25594 -34.2786 8.27619
  543 2.42919 -1.77993 0.00564350
  544 15.0585 -56.7001 -0.644169
  545 11.9212 -45.0657 -2.47241
  546 8.01579 -40.3683 -3.96096
  547 -4.54809 -58.8935 0.678435
  548 -12.8409 -70.0270 -1.46486
  549 -6.23139 -53.8358 4.32107
  550 -8.36944 -57.0263 -9.42089
  551 3.75246 -4.56612 0.647617
  552 -2.07010 -48.1350 -4.93965
  553 -1.90600 -46.2720 11.3693
  554 3.55192 -15.7760 0.598732
  555 3.06391 -14.7466 6.52433
  556 9.70413 -38.0562 1.59101
  557 14.9455 -54.7140 1.43502
  558 10.8888 -46.2527 -1.43614
  559 2.11510 -0.530972 0.104593
  560 2.92749 -2.65988 -0.139931
  561 6.22700 -26.6367 5.19258
  562 14.5106 -58.8588 1.30752
  563 2.45502 1.52421 -0.121475
  564 -9.11123 -59.4801 0.405519
  565 2.39943 0.779204 -0.0241775
  566 -21.7333 -71.1049 -0.560346
  567 2.83193 1.00247 0.780177
  568 3.68269 0.229882 1.15101
  569 5.56328 -3.75683 -0.774044
  570 6.02349 -13.6259 -5.14377
  571 -2.49108 -37.2697 -7.07163
  572 -10.0971 -53.4930 -5.60429
  573 -11.0110 -58.5181 -2.05474
  574 -11.0002 -57.2192 2.20713
  575 -17.2871 -54.9272 5.46923
  576 -1.14107 -40.2382 5.71670
  577 5.34101 -15.6014 5.40028
  578 5.65179 -3.97782 -0.312230
  579 4.13768 -0.879263 -1.13392
  580 2.78439 1.19349 -1.03034
  581 2.64161 0.861063 0.578376
  582 3.33651 -0.668027 0.639413
  583 4.63152 -4.41403 -1.07190
  584 5.26534 -9.13814 -3.78591
  585 -0.254553 -32.7244 -9.73999
  586 -20.5975 -58.6037 -9.23695
  587 -19.8953 -66.0979 -4.39078
  588 -21.0885 -68.5955 4.16392
  589 -11.2778 -56.5679 10.4311
  590 -1.13115 -28.3740 10.7883
  591 5.46928 -7.38968 3.62677
  592 5.20752 -3.19148 0.247362
  593 3.39523 -0.172908 -0.966513
  594 2.60319 1.40884 -0.681211
</Section>

newXOutput 18

<Section columns = "stress_xx | stress_yy | stress_xy">
  1 322.376 2.74324 -2.83850
  2 322.387 2.74399 2.83928
  3 566.775 0.362185 -0.234414
  4 566.764 0.361503 0.233716
  5 4.24878 -370.001 14.9413
  6 1184.19 1.96446 -0.730559
  7 4.12843 -370.337 -15.0290
  8 1369.83 -15.5250 -9.95570
  9 327.772 1.69633 -1.91485
  10 336.588 3.10676 -5.70955
  11 356.006 4.49180 -12.7322
  12 387.256 2.78873 -23.3388
  13 433.873 2.36863 -24.6324
  14 485.957 7.02455 -39.6162
  15 574.718 1.36779 -50.2753
  16 668.558 -2.69070 -50.9643
  17 794.877 -17.7212 -26.1811
  18 830.829 -15.8450 -8.08955
  19 853.631 -2.74426 11.3473
  20 882.951 11.4312 4.32520
  21 913.271 18.9689 -5.06696
  22 955.109 -7.87771 -4.26936
  23 881.649 6.94247 -7.29151
  24 854.150 -2.60322 -10.8581
  25 831.135 -15.7232 8.17325
  26 795.182 -17.7293 26.2099
  27 668.755 -2.68921 51.0010
  28 574.866 1.37019 50.3072
  29 486.052 7.02810 39.6378
  30 433.947 2.36791 24.6459
  31 387.299 2.78925 23.3515
  32 356.034 4.49371 12.7391
  33 336.605 3.10788 5.71371
  34 327.784 1.69723 1.91672
  35 345.421 2.48030 3.53058
  36 363.515 10.7148 5.47802
  37 377.044 17.8287 5.08617
  38 396.519 23.7190 3.19905
  39 415.547 27.1720 1.37742
  40 438.205 26.1912 -0.294915
  41 463.032 21.7769 -0.974387
  42 499.339 14.2478 -2.78861
  43 525.257 8.83058 -0.00380394
  44 545.762 5.34862 -1.53031
  45 566.670 -0.0613677 -3.57802
  46 579.510 -1.39569 -4.37054
  47 583.207 1.60236 -7.98440
  48 603.546 0.430302 -10.7696
  49 633.117 -3.46099 -9.55791
  50 654.954 -3.61112 -10.6696
  51 669.085 -4.67660 -6.90023
  52 674.907 -7.14864 1.20801
  53 661.468 -8.56524 15.5388
  54 629.764 -3.15729 23.2891
  55 572.118 2.90844 26.8819
  56 515.840 11.5006 20.3858
  57 487.473 13.0070 9.69251
  58 482.151 14.0494 -11.3727
  59 521.510 8.04199 -19.6490
  60 570.727 1.66997 -22.2145
  61 630.502 -2.63049 -21.9271
  62 661.739 -8.30172 -15.2036
  63 674.846 -7.08467 -1.19518
  64 669.008 -4.67442 6.88709
  65 654.888 -3.61043 10.6592
  66 633.066 -3.45921 9.55158
  67 603.513 0.429863 10.7631
  68 583.185 1.60125 7.97948
  69 579.493 -1.39578 4.36779
  70 566.658 -0.0616865 3.57628
  71 545.754 5.34619 1.52905
  72 525.253 8.82539 0.00269192
  73 499.340 14.2394 2.78678
  74 463.040 21.7649 0.973382
  75 438.215 26.1770 0.294367
  76 415.557 27.1574 -1.37718
  77 396.527 23.7061 -3.19813
  78 377.045 17.8194 -5.08401
  79 363.511 10.7089 -5.47666
  80 345.413 2.47758 -3.52917
  81 60.6964 -293.493 4.08172
  82 221.556 -97.0668 76.2929
  83 448.608 43.1284 170.567
  84 675.649 99.2461 214.211
  85 888.854 85.6578 228.088
  86 1096.97 27.6694 200.654
  87 1189.33 -7.49257 97.0464
  88 1192.26 -7.20249 -97.8478
  89 1098.37 24.5014 -200.749
  90 887.949 86.2866 -227.435
  91 675.393 99.6247 -213.862
  92 448.322 43.1798 -170.598
  93 221.490 -97.0892 -76.3154
  94 60.6418 -293.680 -4.10122
  95 31.0036 -323.456 -25.6980
  96 165.524 -142.524 43.1463
  97 367.180 -20.6540 105.172
  98 636.821 55.6774 154.320
  99 905.806 61.9456 159.026
  100 1136.93 20.1687 149.068
  101 1325.95 -8.64509 106.429
  102 1297.04 -12.0780 -94.6962
  103 1139.71 28.2146 -146.010
  104 906.420 61.0112 -159.045
  105 637.052 55.7827 -154.691
  106 367.593 -20.3873 -105.432
  107 165.841 -142.193 -43.3537
  108 31.1983 -323.028 25.5048
  109 364.173 54.5984 -14.1581
  110 364.204 54.5923 14.1478
  111 508.241 -40.2510 72.2825
  112 508.286 -40.3631 -72.2782
  113 252.035 63.0531 59.1217
  114 252.117 63.0448 -59.1328
  115 492.634 19.8566 24.4476
  116 492.630 19.8641 -24.4583
  117 368.503 29.7758 25.5444
  118 368.511 29.7627 -25.5329
  119 676.474 -24.0915 22.1549
  120 676.701 -23.6610 -22.5962
  121 276.532 3.53383 93.1826
  122 276.509 3.45791 -93.2497
  123 745.039 35.7255 -17.6409
  124 742.349 33.7757 19.1886
  125 415.031 35.5720 4.10537
  126 415.016 35.5870 -4.10711
  127 518.275 7.41379 -46.1802
  128 518.276 7.42244 46.1715
  129 346.377 -11.1859 135.358
  130 346.472 -11.1785 -135.333
  131 511.948 -89.5702 97.9743
  132 512.048 -89.7122 -98.0915
  133 366.207 36.4228 -58.5397
  134 366.204 36.4389 58.5641
  135 624.193 -31.6811 -2.32101
  136 624.223 -31.4868 2.44093
  137 434.198 21.4646 55.4369
  138 434.186 21.4433 -55.4516
  139 127.344 13.3719 3.83784
  140 127.453 13.4357 -3.90925
  141 319.496 63.7821 -32.2226
  142 319.453 63.7993 32.2244
  143 596.855 -14.7899 -29.4079
  144 596.855 -14.7689 29.4251
  145 539.403 5.83535 10.4972
  146 539.411 5.83880 -10.5033
  147 408.770 25.8419 -98.4409
  148 408.780 25.8584 98.4827
  149 360.361 10.9821 14.2015
  150 360.353 10.9768 -14.1946
  151 871.143 44.6932 2.23371
  152 435.017 31.2669 32.9057
  153 435.001 31.2702 -32.9178
  154 463.649 22.9432 10.0645
  155 463.640 22.9547 -10.0692
  156 388.958 28.5184 8.82821
  157 388.967 28.5045 -8.82412
  158 377.325 43.7872 -11.3703
  159 377.305 43.8036 11.3741
  160 551.613 6.78597 -23.8125
  161 551.600 6.78288 23.8008
  162 597.015 -40.0141 -77.7842
  163 597.019 -40.0596 77.7815
  164 299.458 55.3127 26.7089
  165 299.412 55.2972 -26.7396
  166 645.547 -31.5313 66.3533
  167 645.828 -31.5596 -66.7408
  168 300.749 -87.9589 135.785
  169 300.759 -88.0622 -135.864
  170 782.755 22.8017 36.9871
  171 784.710 26.1793 -38.7559
  172 371.290 16.3016 -32.8109
  173 371.304 16.3097 32.8270
  174 641.406 26.2865 12.3386
  175 648.378 6.32687 47.0687
  176 635.942 6.75155 -45.2600
  177 619.877 -66.3244 24.1634
  178 620.100 -66.6022 -24.1567
  179 399.938 0.940906 82.2206
  180 399.944 0.877164 -82.2512
  181 644.015 -19.9495 -29.9789
  182 644.027 -21.1138 30.0945
  183 405.114 -52.9114 115.606
  184 405.147 -53.0339 -115.662
  185 402.925 43.0188 -12.1347
  186 402.946 43.0063 12.1290
  187 932.329 50.8594 54.1066
  188 936.641 46.4944 -55.0679
  189 359.456 41.2875 -35.0169
  190 359.442 41.3044 35.0310
  191 443.678 31.5531 17.6203
  192 443.665 31.5646 -17.6278
  193 514.117 -3.54068 55.4363
  194 514.116 -3.57200 -55.4362
  195 612.414 17.4724 -26.7558
  196 488.598 19.1413 37.2673
  197 488.592 19.1425 -37.2795
  198 109.748 -82.7578 -82.7726
  199 109.553 -82.8881 82.6994
  200 727.511 -18.1620 -38.0607
  201 727.590 -18.0510 37.9755
  202 424.453 28.4044 -0.993310
  203 424.464 28.3895 0.992926
  204 99.9257 -76.7026 -64.9997
  205 100.003 -76.5756 64.9127
  206 594.613 -2.62746 -27.3600
  207 594.594 -2.62661 27.3528
  208 217.128 54.2468 -0.864097
  209 217.050 54.2264 0.820233
  210 564.788 -10.6257 -87.9055
  211 564.881 -10.6256 87.9572
  212 425.665 11.9377 -60.1644
  213 425.708 11.9459 60.1955
  214 385.928 -67.6756 123.809
  215 385.905 -67.6901 -123.904
  216 375.884 19.2845 9.82370
  217 375.885 19.2743 -9.81815
  218 344.756 47.6596 -86.3793
  219 344.729 47.6821 86.4086
  220 365.699 40.0832 49.6125
  221 365.675 40.0636 -49.6366
  222 494.779 16.0135 9.20511
  223 494.777 16.0222 -9.20964
  224 236.841 43.0561 95.4207
  225 236.946 43.0513 -95.4266
  226 546.564 -63.0178 -64.0868
  227 546.478 -62.8414 64.0937
  228 238.730 -64.6450 108.620
  229 238.928 -64.5373 -108.672
  230 557.191 3.60086 -14.1614
  231 557.177 3.59879 14.1536
  232 646.776 -8.07314 6.75629
  233 646.788 -8.08315 -6.74825
  234 388.298 17.4618 -43.4288
  235 388.323 17.4713 43.4493
  236 649.845 23.8016 29.4816
  237 916.553 10.2917 62.1461
  238 917.013 10.5699 -62.0798
  239 739.556 42.4275 134.517
  240 738.918 43.6969 -134.681
  241 347.233 58.8668 -11.5844
  242 347.200 58.8816 11.5831
  243 589.625 -34.3500 -31.8379
  244 589.620 -34.2408 31.9062
  245 356.298 6.12011 -15.5759
  246 356.315 6.12307 15.5841
  247 1034.89 18.7292 -37.2147
  248 589.607 2.55792 -19.9136
  249 589.581 2.55624 19.9040
  250 393.121 37.0195 -5.95300
  251 393.106 37.0351 5.95546
  252 281.761 68.7169 -22.1846
  253 281.701 68.7251 22.1703
  254 715.988 11.5678 23.6116
  255 712.213 11.6507 -23.9116
  256 1030.45 18.0015 36.3260
  257 400.136 40.5990 36.8267
  258 400.114 40.5956 -36.8416
  259 475.040 15.6071 -50.8367
  260 475.048 15.6188 50.8251
  261 551.012 3.25177 4.69469
  262 551.022 3.25352 -4.69730
  263 1053.87 -16.0416 55.0633
  264 1049.45 1.35878 -48.5904
  265 712.623 38.5567 -12.8581
  266 333.904 25.9608 70.2442
  267 333.883 25.9141 -70.2849
  268 330.517 23.9771 -123.500
  269 330.452 23.9905 123.531
  270 523.618 11.0734 20.0464
  271 523.623 11.0787 -20.0563
  272 367.133 18.4459 -24.9725
  273 367.139 18.4548 24.9849
  274 344.411 2.96983 4.54106
  275 344.401 2.96786 -4.53825
  276 324.719 64.6228 -0.441520
  277 324.677 64.6301 0.429760
  278 648.240 -14.1472 -9.78081
  279 648.178 -14.3208 9.85423
  280 36.8218 -115.046 12.3119
  281 36.9556 -114.888 -12.3944
  282 450.452 25.3676 -3.70006
  283 450.461 25.3541 3.69834
  284 492.070 18.3694 16.4442
  285 492.067 18.3782 -16.4521
  286 561.388 15.2215 145.613
  287 561.193 15.3651 -145.804
  288 641.609 -38.9471 -13.6950
  289 641.744 -39.3496 13.7555
  290 403.555 27.9483 -2.10516
  291 403.545 27.9629 2.10635
  292 539.569 5.57794 -77.8864
  293 539.671 5.58562 77.9312
  294 636.715 -2.89471 15.1207
  295 636.754 -2.89556 -15.1280
  296 901.417 36.7678 -127.651
  297 899.954 36.3666 126.659
  298 373.387 -56.4295 -102.294
  299 373.166 -56.5896 102.192
  300 624.276 -4.75605 35.4669
  301 624.328 -2.50186 -35.1828
  302 368.249 31.4667 -46.4049
  303 368.250 31.4811 46.4257
  304 184.735 9.52724 62.7049
  305 184.671 9.45704 -62.7818
  306 375.945 26.9717 16.9097
  307 375.951 26.9586 -16.9016
  308 462.502 -7.02680 70.4679
  309 462.509 -7.08335 -70.4766
  310 741.948 47.1058 6.48242
  311 339.359 50.1023 -60.6476
  312 339.332 50.1217 60.6675
  313 699.989 -7.51786 -18.5403
  314 699.073 -8.05352 18.1426
  315 432.695 29.6602 -5.07174
  316 432.708 29.6459 5.06947
  317 1115.58 -11.8244 -16.7798
  318 1188.80 -23.6278 35.2665
  319 496.862 7.77215 -64.3908
  320 496.950 7.77785 64.4265
  321 755.647 19.2505 -103.910
  322 755.514 19.7462 103.572
  323 525.341 9.13674 4.70074
  324 525.346 9.14201 -4.70379
  325 409.268 31.5428 -1.41086
  326 409.255 31.5580 1.41160
  327 388.532 23.6011 -4.41003
  328 388.526 23.6135 4.41235
  329 553.536 -5.47569 -41.2693
  330 553.533 -5.46068 41.2692
  331 841.754 41.9850 4.38143
  332 475.273 19.5384 -4.83476
  333 475.279 19.5275 4.83236
  334 362.141 10.5481 6.60090
  335 362.136 10.5422 -6.59787
  336 367.592 41.7661 -22.3141
  337 367.576 41.7826 22.3229
  338 593.054 6.80100 -32.0874
  339 550.056 -7.23138 -108.225
  340 549.876 -7.35516 108.075
  341 581.930 3.28177 -13.2631
  342 581.907 3.28011 13.2557
  343 600.099 -73.5737 53.7861
  344 600.309 -73.8436 -53.9459
  345 538.751 8.91021 33.6061
  346 538.757 8.91246 -33.6190
  347 519.059 13.7684 29.4128
  348 519.061 13.7731 -29.4254
  349 596.099 -60.0874 31.6857
  350 596.200 -60.3039 -31.6229
  351 151.260 -130.492 89.9204
  352 151.235 -130.591 -89.9750
  353 396.189 41.0952 1.84138
  354 396.169 41.1101 -1.84286
  355 565.812 0.629076 6.58849
  356 565.826 0.630027 -6.59247
  357 304.526 63.5856 -63.0818
  358 304.474 63.6066 63.0912
  359 458.466 -42.1908 -117.542
  360 458.416 -42.2255 117.574
  361 460.452 27.3254 26.4969
  362 460.440 27.3333 -26.5072
  363 659.182 -13.6400 42.2260
  364 658.273 -11.8805 -43.0734
  365 376.012 48.8573 1.60723
  366 375.986 48.8708 -1.61005
  367 321.456 -49.9474 -123.434
  368 321.446 -49.8390 123.362
  369 541.539 -22.0690 -51.9007
  370 541.527 -22.0055 51.9209
  371 848.108 44.3086 -9.38242
  372 656.698 -42.5134 11.6507
  373 657.098 -42.8144 -11.7025
  374 184.528 47.9307 50.6311
  375 184.640 47.9479 -50.6691
  376 443.344 -28.9491 92.3746
  377 443.375 -29.0462 -92.4021
  378 751.157 -22.4872 30.5814
  379 750.939 -22.5026 -30.5679
  380 592.163 8.43407 34.2132
  381 559.487 17.2144 -2.44018
  382 406.405 -81.4150 120.918
  383 406.449 -81.5362 -120.995
  384 378.776 35.2970 15.8468
  385 378.788 35.2816 -15.8397
  386 671.933 18.7082 -33.1864
  387 448.890 25.1088 43.5171
  388 448.876 25.1040 -43.5304
  389 557.206 -72.6561 90.6811
  390 557.295 -72.6890 -90.9146
  391 368.971 4.65838 -20.6955
  392 368.997 4.66105 20.7063
  393 813.064 43.6597 24.6240
  394 817.945 44.9323 -25.6116
  395 667.566 -22.9054 58.9644
  396 667.407 -22.8936 -58.9271
  397 490.328 -69.5639 94.2841
  398 490.405 -69.7111 -94.3275
  399 443.650 2.90141 -117.536
  400 443.647 2.90766 117.585
  401 306.793 53.0767 -96.7491
  402 306.734 53.1011 96.7709
  403 256.603 37.7918 52.4911
  404 256.557 37.7485 -52.5453
  405 557.760 12.1084 16.7155
  406 398.451 43.5838 -21.0440
  407 398.475 43.5760 21.0345
  408 396.348 17.9350 71.0475
  409 396.337 17.8922 -71.0723
  410 358.052 -15.7808 -101.975
  411 358.048 -15.6926 101.925
  412 342.283 4.20916 7.89459
  413 342.269 4.20736 -7.89016
  414 425.184 36.9399 -20.8434
  415 425.202 36.9302 20.8348
  416 421.686 38.1284 11.5664
  417 421.669 38.1420 -11.5714
  418 83.1264 -171.672 37.6432
  419 83.3601 -171.395 -37.7916
  420 671.393 10.4412 40.7328
  421 465.554 24.7585 17.6560
  422 465.545 24.7691 -17.6639
  423 370.775 19.4832 19.3354
  424 370.775 19.4734 -19.3259
  425 344.692 54.8461 34.9995
  426 344.720 54.8275 -34.9898
  427 366.117 26.7881 -35.4876
  428 366.116 26.8006 35.5044
  429 561.013 1.91297 -35.5817
  430 561.002 1.91352 35.5711
  431 379.560 34.0770 -74.0157
  432 379.564 34.0931 74.0464
  433 213.673 -46.2179 -110.270
  434 213.698 -46.1098 110.189
  435 836.864 -4.06284 14.1124
  436 836.965 -4.35979 -14.0546
  437 1049.83 9.80366 120.422
  438 1053.43 7.52576 -120.346
  439 345.643 52.1019 25.2014
  440 345.609 52.0972 -25.2200
  441 18.5447 -238.335 -33.9033
  442 18.6213 -238.137 33.8496
  443 620.921 -23.5695 13.5810
  444 620.885 -23.6189 -13.5237
  445 645.246 -6.19004 24.2109
  446 645.166 -5.86813 -23.7028
  447 27.0677 -242.336 13.2029
  448 27.2363 -242.052 -13.3260
  449 569.456 -76.8845 -58.6634
  450 569.311 -76.6737 58.6204
  451 627.370 -0.705942 -13.2135
  452 627.327 -0.705882 13.2059
  453 580.322 4.68105 -33.3681
  454 638.863 -27.2213 -18.4414
  455 638.685 -27.6354 18.6658
  456 481.323 8.52937 -55.5510
  457 481.327 8.55071 55.5434
  458 424.802 5.68711 -32.1059
  459 424.861 5.68952 32.1230
  460 141.340 6.35176 71.0906
  461 141.483 6.39996 -71.1419
  462 558.131 -45.6813 51.5700
  463 558.185 -45.8148 -51.5314
  464 514.883 13.8060 12.2013
  465 514.885 13.8131 -12.2078
  466 359.389 50.0370 -19.4834
  467 359.365 50.0541 19.4890
  468 560.396 2.14124 1.87118
  469 560.406 2.14200 -1.87211
  470 440.260 31.0487 -11.4448
  471 440.273 31.0354 11.4398
  472 329.713 0.201625 1.23037
  473 329.703 0.200920 -1.22940
  474 353.506 43.4294 -49.6661
  475 353.490 43.4464 49.6847
  476 235.269 -8.67924 -116.919
  477 235.126 -8.71271 116.904
  478 536.275 3.52424 -17.8511
  479 15.3853 -61.1510 0.301843
  480 6.54844 -34.6348 -1.34501
  481 6.26596 -29.3876 2.08504
  482 7.48656 -55.1209 2.28305
  483 5.77240 -57.6168 -7.19925
  484 6.47502 -53.5160 -3.27095
  485 5.92501 -51.6460 8.58166
  486 6.33107 -32.8379 5.23197
  487 3.91650 -25.5084 -6.93031
  488 2.46722 -62.3618 -0.265620
  489 -1.22075 -71.7605 0.739627
  490 2.12887 -8.84860 -1.00131
  491 5.35397 -28.9897 -4.93654
  492 2.51792 -20.9163 6.49599
  493 13.2813 -54.7966 -1.09441
  494 1.95246 -7.09044 0.826056
  495 11.7868 -49.7695 0.962559
  496 3.00912 -11.7449 0.976378
  497 3.00801 -8.66417 -0.700659
  498 12.8380 -61.0924 0.135012
  499 13.8094 -64.4048 -0.711681
  500 2.51428 -9.24005 -2.56859
  501 2.63945 -46.8166 5.11917
  502 0.857728 -42.5295 -11.8301
  503 -2.68288 -59.4583 -2.00990
  504 -5.68946 -66.0478 5.93372
  505 -0.460279 -61.4535 0.703178
  506 -4.12533 -69.9207 -3.22362
  507 3.94766 -39.0267 -5.40994
  508 1.96357 -31.7193 10.1831
  509 9.55729 -44.9936 1.68674
  510 7.92910 -42.7892 -6.17619
  511 2.22964 -6.62996 1.74591
  512 8.36739 -42.6779 4.93623
  513 12.9648 -56.4590 3.99421
  514 12.9780 -56.9205 -0.231859
  515 9.04704 -37.4879 -1.29299
  516 3.88729 -22.4264 -3.44692
  517 4.28869 -15.0477 3.88807
  518 2.06479 -1.95025 -0.307146
  519 9.76232 -65.2775 2.66348
  520 5.33138 -25.2433 2.20745
  521 4.62692 -30.9503 6.51409
  522 2.19403 -23.0763 -8.43307
  523 12.6780 -58.3889 -3.49038
  524 2.92954 -18.3935 2.82798
  525 1.61180 -2.68146 -0.126766
  526 -6.50963 -62.7439 -0.488776
  527 -14.9106 -74.6779 1.38125
  528 2.11642 -1.57938 0.0571175
  529 3.13696 -10.5809 -1.75810
  530 4.60362 -20.6329 -1.80078
  531 3.23490 -10.6436 -4.39246
  532 8.69761 -60.3119 -0.829692
  533 12.8671 -58.4928 0.612285
  534 3.58138 -7.49227 2.94217
  535 6.15853 -43.2808 5.51880
  536 3.29843 -40.5140 -10.6360
  537 9.23900 -60.5415 0.501246
  538 9.03605 -66.8860 -1.98117
  539 4.31633 -19.7372 -4.98044
  540 2.98472 -19.6603 -0.705669
  541 1.46961 -0.907697 -0.274508
  542 4.58653 -36.4311 8.76850
  543 1.77601 -1.48759 -0.126553
  544 15.1150 -60.7388 -0.682943
  545 11.7537 -48.1395 -2.61596
  546 7.47199 -43.0286 -4.23562
  547 -6.78833 -63.0944 0.700783
  548 -15.5118 -74.9296 -1.53315
  549 -8.09041 -57.5067 4.49324
  550 -10.2141 -60.8294 -9.91561
  551 3.10047 -4.45778 0.575274
  552 -3.51646 -51.3323 -5.16105
  553 -3.17904 -49.2443 12.0057
  554 2.86020 -16.5387 0.595880
  555 2.30756 -15.3490 6.72002
  556 9.38138 -40.5561 1.66412
  557 14.9965 -58.5884 1.51639
  558 10.5948 -49.4185 -1.56214
  559 1.44905 -0.148647 0.0423394
  560 2.26656 -2.40846 -0.0840590
  561 5.66120 -28.2310 5.47368
  562 14.5333 -63.0485 1.39405
  563 1.83502 2.07042 -0.161476
  564 -12.0466 -63.6488 0.470375
  565 1.76199 1.26986 -0.00564027
  566 -25.3602 -75.9868 -0.630766
  567 2.21846 1.53751 0.889750
  568 3.07240 0.716004 1.35898
  569 5.02482 -3.57507 -0.641170
  570 5.46663 -14.1590 -5.26295
  571 -3.84414 -39.5639 -7.38287
  572 -12.2118 -57.0939 -5.79578
  573 -13.8176 -62.6233 -2.03910
  574 -13.6856 -61.2393 2.23041
  575 -20.0095 -58.6635 5.62240
  576 -2.39775 -42.7466 5.93199
  577 4.72257 -16.2636 5.57424
  578 5.14914 -3.79435 -0.522272
  579 3.59922 -0.473323 -1.33839
  580 2.17105 1.73776 -1.16131
  581 2.03148 1.35476 0.729670
  582 2.73854 -0.296049 0.872833
  583 4.10573 -4.31099 -0.887521
  584 4.71735 -9.34006 -3.73529
  585 -1.31544 -34.6085 -10.1779
  586 -23.3403 -62.4937 -9.61761
  587 -23.0212 -70.6562 -4.54648
  588 -24.3985 -73.3082 4.28108
  589 -13.2635 -60.2843 10.9241
  590 -2.22620 -29.9419 11.2937
  591 4.95278 -7.49481 3.56688
  592 4.73590 -3.00714 0.00485611
  593 2.81077 0.232500 -1.22451
  594 1.99498 1.94175 -0.842815
</Section>

newXOutput 19

<Section columns = "stress_xx | stress_yy | stress_xy">
  1 338.366 2.90072 -3.00158
  2 338.378 2.90153 3.00241
  3 596.685 0.369292 -0.233584
  4 596.674 0.368559 0.232833
  5 3.66313 -391.502 15.6853
  6 1245.52 1.46808 -0.775966
  7 3.53523 -391.861 -15.7791
  8 1439.90 -17.2933 -10.4236
  9 344.049 1.78400 -1.99144
  10 353.311 3.27939 -5.97530
  11 373.690 4.73840 -13.3787
  12 406.581 2.94743 -24.5402
  13 455.509 2.52675 -25.9030
  14 510.449 7.42805 -41.7121
  15 603.948 1.45379 -52.9745
  16 703.068 -2.80805 -53.8115
  17 836.326 -18.6759 -27.7783
  18 874.772 -16.6933 -8.91096
  19 899.657 -2.83206 11.4110
  20 931.600 12.0313 3.97169
  21 964.543 19.9178 -5.65127
  22 1008.32 -8.45980 -4.30436
  23 930.275 7.34576 -7.04044
  24 900.206 -2.67508 -10.8871
  25 875.093 -16.5631 8.99893
  26 836.647 -18.6847 27.8082
  27 703.277 -2.80661 53.8500
  28 604.106 1.45624 53.0081
  29 510.550 7.43175 41.7348
  30 455.588 2.52597 25.9172
  31 406.627 2.94796 24.5537
  32 373.720 4.74042 13.3860
  33 353.329 3.28058 5.97973
  34 344.062 1.78495 1.99344
  35 362.822 2.57399 3.72041
  36 382.061 11.2507 5.79097
  37 396.502 18.7268 5.35429
  38 417.244 24.8988 3.37825
  39 437.418 28.5360 1.45996
  40 461.364 27.5108 -0.297838
  41 487.549 22.8787 -1.01084
  42 525.757 14.9586 -2.92073
  43 553.017 9.27189 0.0243146
  44 574.587 5.63171 -1.59885
  45 596.570 -0.0758917 -3.76562
  46 610.055 -1.48771 -4.58629
  47 613.942 1.68981 -8.38900
  48 635.360 0.455505 -11.3481
  49 666.513 -3.66369 -10.0897
  50 689.603 -3.82179 -11.2946
  51 704.681 -4.94295 -7.36583
  52 711.030 -7.57761 1.14633
  53 697.124 -9.10066 16.2979
  54 663.823 -3.37861 24.5026
  55 603.111 3.08891 28.3670
  56 543.752 12.2310 21.5413
  57 513.808 13.8447 10.2755
  58 508.199 14.9184 -12.0226
  59 549.733 8.53127 -20.7354
  60 601.654 1.75660 -23.4275
  61 664.594 -2.82246 -23.0689
  62 697.404 -8.82179 -15.9459
  63 710.963 -7.51067 -1.13381
  64 704.599 -4.94075 7.35156
  65 689.532 -3.82106 11.2833
  66 666.458 -3.66180 10.0829
  67 635.325 0.455025 11.3410
  68 613.918 1.68862 8.38372
  69 610.036 -1.48781 4.58335
  70 596.557 -0.0762336 3.76376
  71 574.579 5.62911 1.59749
  72 553.013 9.26633 -0.0255119
  73 525.757 14.9496 2.91876
  74 487.557 22.8658 1.00976
  75 461.375 27.4955 0.297255
  76 437.429 28.5204 -1.45970
  77 417.252 24.8849 -3.37725
  78 396.503 18.7168 -5.35198
  79 382.056 11.2444 -5.78951
  80 362.814 2.57110 -3.71891
  81 63.0611 -310.819 4.04715
  82 232.435 -102.925 80.2179
  83 471.365 45.3553 179.664
  84 710.218 104.793 225.788
  85 934.444 90.2534 240.565
  86 1152.76 28.6339 211.620
  87 1250.18 -8.66765 102.387
  88 1253.24 -8.31135 -103.229
  89 1154.21 25.2257 -211.722
  90 933.479 90.9364 -239.877
  91 709.946 105.194 -225.418
  92 471.060 45.4028 -179.696
  93 232.364 -102.956 -80.2411
  94 63.0019 -311.023 -4.06823
  95 31.9126 -342.259 -27.2118
  96 173.517 -150.738 45.4525
  97 385.684 -21.9337 110.805
  98 669.306 58.8744 162.720
  99 952.366 65.6459 167.970
  100 1195.47 21.0625 157.685
  101 1393.73 -9.91669 112.477
  102 1363.76 -13.4668 -100.145
  103 1198.38 29.6000 -154.490
  104 953.009 64.6305 -167.996
  105 669.547 58.9852 -163.111
  106 386.120 -21.6519 -111.080
  107 173.852 -150.389 -45.6720
  108 32.1187 -341.804 27.0063
  109 383.382 57.7481 -14.8384
  110 383.416 57.7413 14.8278
  111 534.874 -42.2538 76.4051
  112 534.921 -42.3728 -76.4006
  113 265.103 66.8193 62.4936
  114 265.190 66.8108 -62.5046
  115 518.703 20.9724 25.7275
  116 518.699 20.9806 -25.7389
  117 387.565 31.3576 26.8734
  118 387.573 31.3436 -26.8610
  119 712.490 -25.5135 23.0653
  120 712.726 -25.0518 -23.5316
  121 290.830 4.12796 98.1459
  122 290.803 4.04691 -98.2165
  123 785.352 37.6047 -18.3294
  124 782.517 35.5498 19.9649
  125 436.945 37.4652 4.30397
  126 436.928 37.4814 -4.30576
  127 545.646 7.99444 -48.7425
  128 545.647 8.00319 48.7327
  129 364.275 -11.4439 143.012
  130 364.373 -11.4359 -142.985
  131 538.605 -94.6027 103.525
  132 538.710 -94.7579 -103.648
  133 384.999 38.4403 -61.6556
  134 384.997 38.4573 61.6817
  135 657.359 -33.4168 -2.72036
  136 657.391 -33.2120 2.84732
  137 457.064 22.9079 58.4103
  138 457.051 22.8859 -58.4260
  139 133.707 14.5750 4.24889
  140 133.823 14.6431 -4.32379
  141 336.198 67.4113 -34.0357
  142 336.153 67.4296 34.0382
  143 628.495 -15.5155 -31.2174
  144 628.495 -15.4935 31.2347
  145 567.898 6.13652 11.0331
  146 567.906 6.14025 -11.0396
  147 429.761 27.3638 -103.839
  148 429.773 27.3811 103.883
  149 378.660 11.5499 14.9288
  150 378.651 11.5441 -14.9214
  151 918.108 46.8606 2.36554
  152 458.022 33.1086 34.6302
  153 458.004 33.1125 -34.6431
  154 488.198 24.1380 10.5781
  155 488.189 24.1504 -10.5832
  156 409.276 29.9879 9.28726
  157 409.286 29.9730 -9.28284
  158 397.129 46.1627 -11.9905
  159 397.108 46.1802 11.9947
  160 580.757 7.19382 -25.0872
  161 580.743 7.19043 25.0746
  162 628.299 -42.0629 -82.3931
  163 628.305 -42.1114 82.3906
  164 315.165 58.6701 28.0055
  165 315.116 58.6539 -28.0375
  166 679.330 -33.2662 70.2663
  167 679.628 -33.3004 -70.6734
  168 316.096 -92.8289 143.254
  169 316.105 -92.9418 -143.337
  170 824.229 24.0452 39.5468
  171 826.283 27.6348 -41.4185
  172 390.130 17.1673 -34.5126
  173 390.145 17.1758 34.5298
  174 676.330 27.7031 13.0100
  175 683.323 6.62263 49.5059
  176 670.257 7.09224 -47.6299
  177 652.533 -70.1107 25.7856
  178 652.768 -70.4092 -25.7766
  179 420.834 1.35592 86.6630
  180 420.839 1.28854 -86.6953
  181 678.543 -21.1540 -31.4415
  182 678.552 -22.3871 31.5638
  183 426.128 -55.6027 121.987
  184 426.161 -55.7340 -122.046
  185 424.219 45.4120 -12.7358
  186 424.242 45.3984 12.7298
  187 981.962 53.3467 57.5001
  188 986.477 48.6985 -58.5237
  189 378.091 43.5392 -36.8702
  190 378.076 43.5572 36.8853
  191 467.165 33.2828 18.5215
  192 467.150 33.2953 -18.5295
  193 541.220 -3.50758 58.5566
  194 541.219 -3.54029 -58.5572
  195 645.677 18.4374 -28.2061
  196 514.431 20.3101 39.2711
  197 514.424 20.3118 -39.2843
  198 114.990 -87.0062 -87.5916
  199 114.784 -87.1442 87.5144
  200 765.903 -19.0086 -40.5426
  201 765.989 -18.8898 40.4521
  202 446.849 29.8457 -1.04125
  203 446.861 29.8298 1.04085
  204 104.667 -80.6793 -68.4725
  205 104.750 -80.5431 68.3805
  206 626.092 -2.70365 -28.9534
  207 626.071 -2.70288 28.9452
  208 228.391 57.6084 -1.10326
  209 228.308 57.5866 1.05762
  210 594.140 -11.0801 -92.8628
  211 594.239 -11.0800 92.9173
  212 447.293 12.5837 -63.3676
  213 447.340 12.5923 63.4006
  214 405.707 -71.5404 130.618
  215 405.681 -71.5613 -130.719
  216 395.282 20.2591 10.3108
  217 395.284 20.2482 -10.3049
  218 362.532 50.3894 -91.0964
  219 362.505 50.4130 91.1278
  220 384.933 42.5870 52.1966
  221 384.906 42.5666 -52.2219
  222 520.967 16.8391 9.67709
  223 520.965 16.8484 -9.68194
  224 249.001 45.7887 100.814
  225 249.112 45.7839 -100.820
  226 575.225 -66.4145 -67.8415
  227 575.135 -66.2267 67.8494
  228 250.839 -67.9394 114.832
  229 251.047 -67.8258 -114.886
  230 586.603 3.80305 -14.8989
  231 586.588 3.80081 14.8905
  232 681.249 -8.47678 7.28183
  233 681.263 -8.48698 -7.27397
  234 407.981 18.4104 -45.7209
  235 408.007 18.4204 45.7427
  236 685.111 25.1005 31.0072
  237 965.233 10.9443 66.1669
  238 965.724 11.2238 -66.0937
  239 778.121 44.9091 142.176
  240 777.448 46.2666 -142.346
  241 365.476 62.1872 -12.2674
  242 365.441 62.2032 12.2664
  243 620.807 -36.1603 -33.8431
  244 620.802 -36.0449 33.9146
  245 374.201 6.43878 -16.3664
  246 374.218 6.44192 16.3752
  247 1089.51 19.2628 -39.4134
  248 620.754 2.74070 -21.0120
  249 620.725 2.73883 21.0016
  250 413.778 38.9854 -6.27569
  251 413.762 39.0022 6.27840
  252 296.495 72.7362 -23.5222
  253 296.431 72.7449 23.5077
  254 754.372 12.1507 24.5663
  255 750.398 12.2360 -24.8844
  256 1084.87 18.4603 38.4735
  257 421.253 43.0261 38.7390
  258 421.229 43.0230 -38.7547
  259 500.117 16.6785 -53.6052
  260 500.126 16.6903 53.5925
  261 580.104 3.41776 4.93517
  262 580.114 3.41963 -4.93797
  263 1110.26 -17.2628 58.6074
  264 1105.66 1.13923 -51.7986
  265 751.367 40.6266 -13.4936
  266 351.351 27.7720 73.9456
  267 351.329 27.7227 -73.9883
  268 347.550 25.5687 -130.413
  269 347.483 25.5827 130.445
  270 551.305 11.6764 21.0942
  271 551.309 11.6821 -21.1049
  272 385.866 19.4159 -26.2527
  273 385.873 19.4254 26.2659
  274 361.722 3.10863 4.75899
  275 361.712 3.10653 -4.75599
  276 341.795 68.3620 -0.574733
  277 341.750 68.3700 0.562784
  278 682.946 -14.9384 -10.1325
  279 682.881 -15.1208 10.2094
  280 38.1608 -121.122 13.1683
  281 38.3025 -120.954 -13.2557
  282 474.286 26.6556 -3.88710
  283 474.296 26.6411 3.88525
  284 518.120 19.3489 17.2918
  285 518.116 19.3584 -17.3002
  286 590.368 16.1440 153.660
  287 590.163 16.2909 -153.861
  288 675.724 -41.1925 -14.1789
  289 675.863 -41.6209 14.2450
  290 424.724 29.3642 -2.21226
  291 424.713 29.3798 2.21354
  292 567.300 5.95617 -82.1624
  293 567.409 5.96418 82.2095
  294 670.505 -3.01020 16.0483
  295 670.547 -3.01098 -16.0564
  296 948.610 38.5481 -135.063
  297 947.083 38.1392 134.013
  298 392.619 -59.4819 -108.081
  299 392.388 -59.6510 107.973
  300 657.957 -5.07196 37.3274
  301 658.018 -2.68042 -37.0374
  302 387.119 33.1763 -48.8449
  303 387.120 33.1916 48.8671
  304 194.156 10.4690 65.9709
  305 194.087 10.3939 -66.0517
  306 395.433 28.3733 17.7798
  307 395.440 28.3594 -17.7711
  308 486.779 -7.11790 74.3659
  309 486.785 -7.17743 -74.3754
  310 782.266 49.6671 6.70870
  311 356.920 52.9197 -63.9360
  312 356.892 52.9402 63.9573
  313 737.049 -7.91644 -19.9640
  314 736.086 -8.48423 19.5435
  315 455.571 31.2014 -5.32484
  316 455.584 31.1860 5.32243
  317 1175.62 -12.8715 -17.8513
  318 1251.79 -25.4846 37.4011
  319 522.153 8.21787 -67.8541
  320 522.247 8.22380 67.8918
  321 795.215 20.5178 -109.995
  322 795.078 21.0534 109.637
  323 553.107 9.59972 4.93018
  324 553.112 9.60537 -4.93346
  325 430.818 33.1741 -1.49050
  326 430.804 33.1903 1.49133
  327 408.760 24.7899 -4.63278
  328 408.753 24.8032 4.63526
  329 582.794 -5.62824 -43.6480
  330 582.790 -5.61269 43.6472
  331 887.167 44.0102 4.88766
  332 500.435 20.5236 -5.07956
  333 500.441 20.5119 5.07698
  334 380.602 11.0743 6.94322
  335 380.597 11.0680 -6.93999
  336 386.764 44.0277 -23.4989
  337 386.747 44.0453 23.5083
  338 625.174 7.13577 -33.8123
  339 578.638 -7.50638 -114.396
  340 578.452 -7.63760 114.239
  341 612.626 3.48265 -13.9614
  342 612.601 3.48085 13.9533
  343 631.543 -77.7605 56.9842
  344 631.765 -78.0517 -57.1512
  345 567.228 9.48900 35.4431
  346 567.235 9.49161 -35.4573
  347 546.511 14.5820 30.9855
  348 546.513 14.5872 -30.9991
  349 627.550 -63.4478 33.7159
  350 627.655 -63.6785 -33.6487
  351 158.574 -137.902 94.8101
  352 158.546 -138.011 -94.8682
  353 417.087 43.3296 1.90930
  354 417.066 43.3456 -1.91074
  355 595.657 0.649004 6.91988
  356 595.673 0.650031 -6.92414
  357 320.343 67.2512 -66.5846
  358 320.288 67.2733 66.5952
  359 482.319 -44.2846 -124.257
  360 482.267 -44.3214 124.291
  361 484.824 28.8760 27.8838
  362 484.811 28.8848 -27.8949
  363 694.479 -14.4949 44.3414
  364 693.535 -12.6238 -45.2398
  365 395.834 51.5819 1.64691
  366 395.806 51.5965 -1.64969
  367 337.986 -52.4668 -130.181
  368 337.977 -52.3502 130.106
  369 570.078 -23.0906 -54.9148
  370 570.066 -23.0238 54.9355
  371 893.829 46.4916 -10.2091
  372 691.367 -44.9291 12.5938
  373 691.788 -45.2541 -12.6470
  374 193.992 50.9816 53.6013
  375 194.111 51.0001 -53.6407
  376 466.481 -30.2474 97.4740
  377 466.512 -30.3506 -97.5030
  378 790.625 -23.5929 32.5545
  379 790.393 -23.6088 -32.5407
  380 624.202 8.88856 36.0503
  381 589.860 18.1960 -2.56289
  382 427.397 -85.8400 127.634
  383 427.441 -85.9715 -127.717
  384 398.543 37.1669 16.6744
  385 398.557 37.1504 -16.6667
  386 708.335 19.6836 -34.8499
  387 472.593 26.6689 45.8332
  388 472.578 26.6643 -45.8475
  389 586.188 -76.7705 95.8227
  390 586.283 -76.8114 -96.0691
  391 387.466 4.89425 -21.7582
  392 387.494 4.89708 21.7697
  393 856.649 46.0135 26.4838
  394 861.784 47.3385 -27.5426
  395 702.433 -24.0460 62.4002
  396 702.265 -24.0333 -62.3610
  397 515.875 -73.3079 99.5975
  398 515.956 -73.4657 -99.6430
  399 466.612 3.28675 -124.110
  400 466.610 3.29321 124.161
  401 322.633 56.2087 -102.115
  402 322.572 56.2342 102.139
  403 269.953 40.2815 55.1756
  404 269.903 40.2355 -55.2323
  405 588.001 12.7874 17.6229
  406 419.514 46.0742 -22.1098
  407 419.539 46.0656 22.0999
  408 417.142 19.2660 74.8549
  409 417.130 19.2211 -74.8810
  410 376.653 -16.2969 -107.504
  411 376.650 -16.2030 107.451
  412 359.398 4.43246 8.28730
  413 359.384 4.43054 -8.28258
  414 447.683 39.0249 -21.9133
  415 447.703 39.0142 21.9041
  416 443.985 40.2106 12.1475
  417 443.966 40.2254 -12.1528
  418 86.8592 -181.256 39.8339
  419 87.1060 -180.963 -39.9911
  420 707.673 10.8948 42.8175
  421 490.204 26.1022 18.5639
  422 490.194 26.1137 -18.5723
  423 389.844 20.4853 20.3259
  424 389.845 20.4749 -20.3158
  425 362.655 57.9072 36.9021
  426 362.684 57.8874 -36.8915
  427 384.917 28.2164 -37.3297
  428 384.916 28.2297 37.3477
  429 590.674 2.12149 -37.5842
  430 590.663 2.12185 37.5724
  431 399.004 35.9906 -78.0031
  432 399.009 36.0075 78.0358
  433 224.490 -48.4817 -116.235
  434 224.518 -48.3654 116.149
  435 881.362 -4.21371 15.3517
  436 881.469 -4.53289 -15.2903
  437 1104.40 9.76941 127.251
  438 1108.17 7.34475 -127.161
  439 363.855 55.1952 26.4470
  440 363.817 55.1906 -26.4664
  441 18.7453 -251.948 -35.6864
  442 18.8275 -251.735 35.6289
  443 653.953 -24.8374 14.5806
  444 653.916 -24.8891 -14.5209
  445 680.018 -6.55516 25.4373
  446 679.932 -6.21390 -24.9022
  447 27.8396 -255.973 14.0568
  448 28.0178 -255.671 -14.1877
  449 599.286 -81.1678 -62.1131
  450 599.133 -80.9416 62.0691
  451 660.547 -0.718826 -13.9690
  452 660.500 -0.718798 13.9607
  453 611.724 4.94094 -35.1949
  454 672.963 -28.7934 -19.2133
  455 672.775 -29.2296 19.4512
  456 506.673 9.24187 -58.6041
  457 506.678 9.26398 58.5955
  458 446.125 6.00960 -33.7857
  459 446.188 6.01211 33.8037
  460 148.407 7.17523 75.2038
  461 148.558 7.22654 -75.2574
  462 587.504 -48.0712 54.6365
  463 587.560 -48.2126 -54.5958
  464 542.118 14.5306 12.8228
  465 542.120 14.5382 -12.8298
  466 378.209 52.7958 -20.5460
  467 378.183 52.8141 20.5522
  468 589.979 2.25795 1.96880
  469 589.989 2.25875 -1.96980
  470 463.557 32.7095 -12.0237
  471 463.571 32.6951 12.0183
  472 346.148 0.197324 1.28604
  473 346.138 0.196574 -1.28501
  474 371.772 45.8353 -52.3205
  475 371.755 45.8533 52.3405
  476 247.283 -8.77436 -123.558
  477 247.133 -8.80990 123.542
  478 565.335 3.66301 -18.8539
  479 15.4562 -65.2215 0.312546
  480 6.03289 -36.7012 -1.39288
  481 5.75005 -31.0700 2.17695
  482 6.84347 -58.6915 2.42776
  483 5.09217 -61.2889 -7.63221
  484 5.78664 -56.9507 -3.48751
  485 5.28956 -54.8723 9.10062
  486 5.75585 -34.7150 5.53490
  487 3.24596 -26.8580 -7.25474
  488 1.30642 -66.5716 -0.287242
  489 -2.55191 -76.5268 0.787826
  490 1.43176 -9.06579 -1.00789
  491 4.72051 -30.5979 -5.21653
  492 1.75674 -21.9438 6.77038
  493 13.2066 -58.3721 -1.14239
  494 1.25700 -7.18583 0.811729
  495 11.6006 -52.9593 0.994952
  496 2.33019 -12.1487 1.01276
  497 2.35300 -8.86055 -0.737171
  498 12.6756 -65.1819 0.148490
  499 13.7690 -68.6745 -0.757818
  500 1.82943 -9.48638 -2.57841
  501 1.68114 -49.6746 5.38484
  502 -0.118375 -45.0231 -12.4898
  503 -4.22846 -63.3370 -2.06646
  504 -7.29120 -70.2821 6.23005
  505 -1.87440 -65.5135 0.691933
  506 -5.66440 -74.4697 -3.36511
  507 3.11521 -41.3057 -5.68188
  508 1.09734 -33.4385 10.7043
  509 9.19515 -47.8204 1.82418
  510 7.48376 -45.4287 -6.54261
  511 1.54007 -6.69498 1.69388
  512 7.96590 -45.3096 5.21682
  513 12.8617 -60.1286 4.24321
  514 12.8382 -60.6702 -0.268883
  515 8.67887 -39.7519 -1.39531
  516 3.23331 -23.6023 -3.59482
  517 3.64155 -15.6690 4.03197
  518 1.40470 -1.67324 -0.362342
  519 9.39161 -69.5790 2.82975
  520 4.73677 -26.6070 2.34689
  521 3.91695 -32.6427 6.81598
  522 1.38918 -24.1983 -8.78000
  523 12.5539 -62.2047 -3.70918
  524 2.23531 -19.2790 2.92079
  525 0.935407 -2.46696 -0.0154435
  526 -8.72198 -66.8983 -0.467131
  527 -17.5226 -79.5337 1.40873
  528 1.47617 -1.28116 0.0608353
  529 2.46383 -10.8880 -1.78536
  530 3.99104 -21.6727 -1.91950
  531 2.56786 -10.9659 -4.44486
  532 8.16198 -64.3261 -0.896042
  533 12.7214 -62.3642 0.679194
  534 2.95855 -7.60445 2.88813
  535 5.47310 -45.9429 5.86757
  536 2.49199 -42.9374 -11.2597
  537 8.73450 -64.5763 0.544806
  538 8.59981 -71.2963 -2.10878
  539 3.63396 -20.6472 -5.14876
  540 2.27091 -20.6336 -0.717909
  541 0.796740 -0.574664 -0.237702
  542 3.91331 -38.5689 9.26200
  543 1.12094 -1.19218 -0.259569
  544 15.1707 -64.7679 -0.721825
  545 11.5834 -51.2016 -2.75990
  546 6.92561 -45.6750 -4.51201
  547 -9.02937 -67.2911 0.723286
  548 -18.1861 -79.8304 -1.60191
  549 -9.94548 -61.1680 4.66965
  550 -12.0555 -64.6223 -10.4156
  551 2.44658 -4.34597 0.502475
  552 -4.95829 -54.5159 -5.38779
  553 -4.44762 -52.2005 12.6482
  554 2.16572 -17.2935 0.592767
  555 1.54961 -15.9333 6.91135
  556 9.05506 -43.0441 1.73731
  557 15.0462 -62.4526 1.59801
  558 10.2984 -52.5723 -1.68982
  559 0.781167 0.236125 -0.0205300
  560 1.60390 -2.15404 -0.0281903
  561 5.09127 -29.8133 5.75448
  562 14.5550 -67.2293 1.48115
  563 1.21320 2.61821 -0.201907
  564 -14.9852 -67.8134 0.535237
  565 1.12280 1.76235 0.0133108
  566 -28.9939 -80.8671 -0.701330
  567 1.60325 2.07409 0.998776
  568 2.46029 1.20349 1.56650
  569 4.48435 -3.39079 -0.507361
  570 4.90881 -14.6825 -5.37764
  571 -5.19227 -41.8373 -7.69595
  572 -14.3214 -60.6856 -5.99094
  573 -16.6261 -66.7240 -2.02473
  574 -16.3718 -65.2544 2.25502
  575 -22.7266 -62.3911 5.77842
  576 -3.64898 -45.2349 6.14985
  577 4.10287 -16.9145 5.74433
  578 4.64425 -3.60788 -0.732543
  579 3.05875 -0.0652973 -1.54241
  580 1.55598 2.28349 -1.29164
  581 1.41942 1.85038 0.881382
  582 2.13833 0.0784623 1.10691
  583 3.57763 -4.20350 -0.701316
  584 4.16699 -9.52944 -3.67980
  585 -2.37085 -36.4695 -10.6185
  586 -26.0784 -66.3738 -10.0018
  587 -26.1506 -75.2113 -4.70427
  588 -27.7126 -78.0180 4.40007
  589 -15.2439 -63.9901 11.4215
  590 -3.31592 -31.4854 11.8007
  591 4.43504 -7.59077 3.50157
  592 4.26196 -2.81939 -0.239258
  593 2.22414 0.640136 -1.48314
  594 1.38489 2.47637 -1.00490
</Section>

newXOutput 20

<Section columns = "stress_xx | stress_yy | stress_xy">
  1 354.100 3.05754 -3.16398
  2 354.112 3.05840 3.16487
  3 626.260 0.374907 -0.231226
  4 626.248 0.374125 0.230424
  5 3.06465 -412.937 16.4147
  6 1305.88 0.923430 -0.820202
  7 2.92923 -413.319 -16.5148
  8 1508.75 -19.1384 -10.8775
  9 360.067 1.87035 -2.06440
  10 369.767 3.45071 -6.23380
  11 391.086 4.98281 -14.0140
  12 425.597 3.10536 -25.7223
  13 476.788 2.68632 -27.1535
  14 534.557 7.82947 -43.7802
  15 632.736 1.53969 -55.6412
  16 737.095 -2.92241 -56.6344
  17 877.220 -19.6206 -29.3727
  18 918.179 -17.5335 -9.75728
  19 945.199 -2.91132 11.4243
  20 979.822 12.6259 3.56614
  21 1015.44 20.8486 -6.25986
  22 1061.10 -9.04864 -4.31958
  23 978.479 7.75190 -6.72914
  24 945.777 -2.73768 -10.8655
  25 918.516 -17.3949 9.84939
  26 877.557 -19.6302 29.4035
  27 737.315 -2.92104 56.6747
  28 632.902 1.54218 55.6764
  29 534.663 7.83331 43.8041
  30 476.871 2.68548 27.1685
  31 425.645 3.10590 25.7366
  32 391.118 4.98495 14.0217
  33 369.786 3.45197 6.23849
  34 360.081 1.87137 2.06652
  35 379.969 2.66240 3.90814
  36 400.356 11.7762 6.10241
  37 415.717 19.6082 5.61877
  38 437.735 26.0546 3.55612
  39 459.055 29.8738 1.54241
  40 484.282 28.8052 -0.299357
  41 511.811 23.9599 -1.04512
  42 551.892 15.6549 -3.04929
  43 580.475 9.70428 0.0553243
  44 603.093 5.91099 -1.66502
  45 626.134 -0.0915009 -3.95051
  46 640.251 -1.58061 -4.79737
  47 644.326 1.77627 -8.78594
  48 666.808 0.480477 -11.9193
  49 699.521 -3.86604 -10.6168
  50 723.858 -4.03209 -11.9171
  51 739.891 -5.20821 -7.83550
  52 746.782 -8.00703 1.07220
  53 732.440 -9.63868 17.0405
  54 697.572 -3.60336 25.6980
  55 633.832 3.27066 29.8394
  56 571.422 12.9663 22.6896
  57 539.914 14.6892 10.8587
  58 534.021 15.7904 -12.6689
  59 577.711 9.02172 -21.8122
  60 632.311 1.84199 -24.6287
  61 698.375 -3.01815 -24.1937
  62 732.728 -9.34450 -16.6719
  63 746.709 -7.93721 -1.06011
  64 739.803 -5.20603 7.82006
  65 723.783 -4.03131 11.9050
  66 699.463 -3.86403 10.6094
  67 666.770 0.479957 11.9117
  68 644.300 1.77499 8.78030
  69 640.232 -1.58073 4.79423
  70 626.121 -0.0918655 3.94854
  71 603.085 5.90823 1.66357
  72 580.470 9.69835 -0.0566068
  73 551.893 15.6453 3.04719
  74 511.819 23.9463 1.04397
  75 484.293 28.7890 0.298739
  76 459.066 29.8571 -1.54212
  77 437.743 26.0399 -3.55505
  78 415.719 19.5976 -5.61631
  79 400.351 11.7695 -6.10086
  80 379.960 2.65933 -3.90653
  81 65.3753 -328.123 3.98942
  82 243.161 -108.798 84.0803
  83 493.801 47.5253 188.641
  84 744.291 110.275 237.218
  85 979.358 94.7912 252.884
  86 1207.63 29.5436 222.440
  87 1310.03 -9.89222 107.656
  88 1313.21 -9.46752 -108.538
  89 1209.13 25.8926 -222.551
  90 978.333 95.5294 -252.160
  91 744.003 110.698 -236.826
  92 493.479 47.5687 -188.673
  93 243.084 -108.839 -84.1044
  94 65.3115 -328.345 -4.01209
  95 32.8014 -361.005 -28.7203
  96 181.402 -158.925 47.7295
  97 403.929 -23.2297 116.363
  98 701.313 62.0373 171.013
  99 998.233 69.3339 176.817
  100 1253.10 21.9303 166.227
  101 1460.35 -11.2540 118.460
  102 1429.39 -14.9111 -105.542
  103 1256.13 30.9575 -162.901
  104 998.903 68.2357 -176.853
  105 701.565 62.1534 -171.425
  106 404.387 -22.9330 -116.651
  107 181.754 -158.557 -47.9609
  108 33.0188 -360.523 28.5026
  109 402.399 60.8828 -15.5032
  110 402.435 60.8752 15.4923
  111 561.198 -44.2169 80.5028
  112 561.245 -44.3426 -80.4981
  113 278.037 70.5791 65.8457
  114 278.129 70.5703 -65.8566
  115 544.496 22.0797 26.9883
  116 544.491 22.0885 -27.0005
  117 406.397 32.9189 28.1818
  118 406.405 32.9040 -28.1686
  119 748.114 -26.9339 23.9423
  120 748.359 -26.4405 -24.4335
  121 304.974 4.75601 103.047
  122 304.945 4.66984 -103.120
  123 825.275 39.4616 -18.9857
  124 822.297 37.3025 20.7083
  125 458.631 39.3338 4.49839
  126 458.613 39.3511 -4.50024
  127 572.718 8.58730 -51.2822
  128 572.720 8.59611 51.2713
  129 381.958 -11.6663 150.613
  130 382.061 -11.6579 -150.585
  131 564.937 -99.6078 109.037
  132 565.047 -99.7764 -109.166
  133 403.549 40.4402 -64.7315
  134 403.546 40.4581 64.7593
  135 690.167 -35.1356 -3.14216
  136 690.201 -34.9206 3.27608
  137 479.686 24.3642 61.3480
  138 479.671 24.3415 -61.3646
  139 140.015 15.8134 4.67673
  140 140.137 15.8857 -4.75503
  141 352.725 71.0182 -35.8351
  142 352.678 71.0377 35.8382
  143 659.790 -16.2250 -33.0287
  144 659.789 -16.2021 33.0461
  145 596.079 6.43260 11.5593
  146 596.088 6.43659 -11.5663
  147 450.474 28.8802 -109.184
  148 450.487 28.8982 109.230
  149 396.703 12.1088 15.6439
  150 396.695 12.1027 -15.6361
  151 964.574 48.9792 2.49764
  152 480.791 34.9449 36.3300
  153 480.772 34.9495 -36.3437
  154 512.492 25.3142 11.0829
  155 512.482 25.3275 -11.0882
  156 429.365 31.4334 9.73897
  157 429.376 31.4176 -9.73424
  158 416.722 48.5123 -12.6035
  159 416.700 48.5311 12.6081
  160 609.579 7.60121 -26.3456
  161 609.564 7.59751 26.3320
  162 659.202 -44.0811 -86.9861
  163 659.211 -44.1326 86.9837
  164 330.719 62.0276 29.2732
  165 330.667 62.0106 -29.3064
  166 712.699 -34.9950 74.1595
  167 713.014 -35.0355 -74.5863
  168 331.252 -97.6646 150.654
  169 331.261 -97.7872 -150.742
  170 865.216 25.2787 42.1201
  171 867.368 29.0814 -44.0940
  172 408.704 18.0217 -36.1881
  173 408.720 18.0308 36.2064
  174 710.953 29.1025 13.6749
  175 717.932 6.91122 51.9071
  176 704.248 7.42773 -49.9673
  177 684.811 -73.8805 27.4178
  178 685.055 -74.2002 -27.4066
  179 441.497 1.80398 91.0552
  180 441.501 1.73303 -91.0892
  181 712.726 -22.3595 -32.8731
  182 712.731 -23.6613 33.0019
  183 446.892 -58.2490 128.309
  184 446.925 -58.3890 -128.371
  185 445.296 47.7850 -13.3252
  186 445.321 47.7702 13.3189
  187 1031.00 55.7878 60.8893
  188 1035.71 50.8542 -61.9763
  189 396.506 45.7679 -38.6981
  190 396.490 45.7869 38.7143
  191 490.410 34.9950 19.4075
  192 490.394 35.0085 -19.4160
  193 568.025 -3.45139 61.6541
  194 568.023 -3.48541 -61.6553
  195 678.648 19.3942 -29.6408
  196 539.989 21.4795 41.2510
  197 539.982 21.4817 -41.2653
  198 120.171 -91.1878 -92.3952
  199 119.955 -91.3335 92.3141
  200 803.836 -19.8340 -43.0315
  201 803.929 -19.7075 42.9356
  202 469.009 31.2609 -1.08822
  203 469.021 31.2438 1.08781
  204 109.358 -84.5973 -71.9037
  205 109.446 -84.4518 71.8067
  206 657.222 -2.77205 -30.5400
  207 657.199 -2.77140 30.5309
  208 239.550 60.9758 -1.35933
  209 239.462 60.9527 1.31199
  210 623.113 -11.5189 -97.7834
  211 623.219 -11.5190 97.8405
  212 468.608 13.2221 -66.5301
  213 468.657 13.2311 66.5650
  214 425.233 -75.3978 137.362
  215 425.204 -75.4253 -137.469
  216 414.440 21.2159 10.7879
  217 414.441 21.2043 -10.7815
  218 380.091 53.1035 -95.7654
  219 380.062 53.1282 95.7988
  220 403.969 45.0975 54.7421
  221 403.940 45.0764 -54.7686
  222 546.878 17.6510 10.1410
  223 546.875 17.6609 -10.1462
  224 261.028 48.5305 106.172
  225 261.144 48.5257 -106.178
  226 603.548 -69.7743 -71.5827
  227 603.456 -69.5751 71.5916
  228 262.804 -71.1815 121.009
  229 263.022 -71.0620 -121.065
  230 615.687 4.00366 -15.6247
  231 615.671 4.00125 15.6158
  232 715.357 -8.87213 7.81763
  233 715.373 -8.88248 -7.81003
  234 427.380 19.3489 -47.9819
  235 427.408 19.3593 48.0050
  236 720.061 26.3874 32.5090
  237 1013.32 11.5995 70.1908
  238 1013.84 11.8783 -70.1105
  239 816.187 47.3738 149.769
  240 815.479 48.8200 -149.945
  241 383.531 65.4846 -12.9476
  242 383.494 65.5016 12.9470
  243 651.642 -37.9456 -35.8543
  244 651.637 -37.8243 35.9289
  245 391.835 6.75272 -17.1430
  246 391.853 6.75605 17.1524
  247 1143.40 19.7506 -41.5974
  248 651.550 2.92609 -22.0997
  249 651.520 2.92403 22.0885
  250 434.214 40.9255 -6.59430
  251 434.197 40.9435 6.59728
  252 311.083 76.7414 -24.8584
  253 311.015 76.7506 24.8438
  254 792.357 12.7249 25.4834
  255 788.187 12.8122 -25.8194
  256 1138.56 18.8712 40.6070
  257 442.154 45.4498 40.6222
  258 442.128 45.4470 -40.6387
  259 524.926 17.7613 -56.3444
  260 524.936 17.7733 56.3306
  261 608.872 3.58083 5.17150
  262 608.883 3.58282 -5.17448
  263 1165.98 -18.5001 62.1534
  264 1161.19 0.896337 -55.0145
  265 789.760 42.6728 -14.1157
  266 368.616 29.6049 77.5960
  267 368.591 29.5530 -77.6407
  268 364.377 27.1702 -137.272
  269 364.307 27.1847 137.306
  270 578.691 12.2726 22.1261
  271 578.696 12.2788 -22.1375
  272 404.346 20.3725 -27.5114
  273 404.353 20.3825 27.5254
  274 378.776 3.24369 4.97164
  275 378.765 3.24147 -4.96846
  276 358.702 72.0845 -0.716788
  277 358.654 72.0931 0.704690
  278 717.299 -15.7235 -10.4626
  279 717.233 -15.9145 10.5427
  280 39.4843 -127.118 14.0360
  281 39.6340 -126.939 -14.1283
  282 497.873 27.9201 -4.07078
  283 497.883 27.9046 4.06881
  284 543.894 20.3155 18.1253
  285 543.890 20.3257 -18.1344
  286 618.966 17.0483 161.626
  287 618.752 17.1984 -161.838
  288 709.470 -43.4297 -14.6344
  289 709.613 -43.8841 14.7063
  290 445.660 30.7544 -2.31727
  291 445.650 30.7710 2.31865
  292 594.645 6.33680 -86.3961
  293 594.759 6.34512 86.4455
  294 703.923 -3.11995 16.9764
  295 703.968 -3.12065 -16.9853
  296 995.177 40.2963 -142.418
  297 993.590 39.8808 141.311
  298 411.617 -62.5095 -113.825
  299 411.375 -62.6873 113.712
  300 691.323 -5.39078 39.1624
  301 691.394 -2.86165 -38.8676
  302 405.741 34.8679 -51.2505
  303 405.743 34.8840 51.2741
  304 203.485 11.4429 69.1881
  305 203.411 11.3630 -69.2728
  306 414.689 29.7536 18.6355
  307 414.696 29.7388 -18.6262
  308 510.785 -7.17788 78.2289
  309 510.790 -7.24030 -78.2392
  310 822.210 52.2033 6.91988
  311 374.273 55.7166 -67.1880
  312 374.244 55.7381 67.2109
  313 773.684 -8.31249 -21.4037
  314 772.677 -8.91235 20.9603
  315 478.209 32.7184 -5.57318
  316 478.223 32.7019 5.57063
  317 1234.96 -13.9431 -18.9214
  318 1313.93 -27.3748 39.5252
  319 547.071 8.66064 -71.2767
  320 547.170 8.66679 71.3163
  321 834.277 21.7844 -116.041
  322 834.137 22.3606 115.662
  323 580.571 10.0540 5.15430
  324 580.576 10.0601 -5.15779
  325 452.138 34.7792 -1.56924
  326 452.124 34.7966 1.57016
  327 428.752 25.9566 -4.85128
  328 428.746 25.9708 4.85394
  329 611.729 -5.76396 -46.0146
  330 611.725 -5.74794 46.0130
  331 932.108 45.9904 5.41243
  332 525.333 21.4900 -5.31987
  333 525.339 21.4774 5.31713
  334 398.812 11.5901 7.28030
  335 398.807 11.5835 -7.27686
  336 405.721 46.2645 -24.6675
  337 405.702 46.2832 24.6777
  338 657.009 7.46318 -35.5172
  339 606.860 -7.77860 -120.519
  340 606.667 -7.91717 120.355
  341 642.974 3.68375 -14.6494
  342 642.947 3.68180 14.6408
  343 662.610 -81.9304 60.1713
  344 662.843 -82.2432 -60.3454
  345 595.394 10.0713 37.2610
  346 595.402 10.0743 -37.2763
  347 573.667 15.3933 32.5381
  348 573.669 15.3990 -32.5528
  349 658.643 -66.7854 35.7540
  350 658.751 -67.0303 -35.6822
  351 165.791 -145.278 99.6509
  352 165.760 -145.397 -99.7127
  353 437.771 45.5399 1.97386
  354 437.748 45.5571 -1.97527
  355 625.167 0.667057 7.24478
  356 625.183 0.668160 -7.24933
  357 335.985 70.8984 -70.0573
  358 335.928 70.9216 70.0690
  359 505.881 -46.3390 -130.931
  360 505.829 -46.3778 130.967
  361 508.943 30.4164 29.2505
  362 508.930 30.4260 -29.2623
  363 729.414 -15.3529 46.4193
  364 728.438 -13.3696 -47.3687
  365 415.454 54.2842 1.68214
  366 415.424 54.3000 -1.68486
  367 354.319 -54.9427 -136.861
  368 354.312 -54.8179 136.782
  369 598.296 -24.0828 -57.9158
  370 598.285 -24.0128 57.9370
  371 939.071 48.6320 -11.0559
  372 725.637 -47.3354 13.5514
  373 726.077 -47.6850 -13.6060
  374 203.367 54.0446 56.5628
  375 203.492 54.0643 -56.6035
  376 489.349 -31.5042 102.527
  377 489.380 -31.6136 -102.557
  378 829.599 -24.6749 34.5339
  379 829.354 -24.6913 -34.5200
  380 655.953 9.33854 37.8661
  381 619.973 19.1723 -2.68319
  382 448.129 -90.2241 134.295
  383 448.175 -90.3660 -134.381
  384 418.087 39.0118 17.4892
  385 418.102 38.9943 -17.4810
  386 744.402 20.6453 -36.4822
  387 496.047 28.2322 48.1196
  388 496.031 28.2279 -48.1349
  389 614.808 -80.8707 100.927
  390 614.909 -80.9200 -101.186
  391 405.677 5.12585 -22.8034
  392 405.707 5.12882 22.8156
  393 899.760 48.3486 28.3673
  394 905.145 49.7233 -29.4981
  395 736.854 -25.1651 65.8194
  396 736.676 -25.1515 -65.7785
  397 541.114 -77.0118 104.873
  398 541.197 -77.1804 -104.920
  399 489.283 3.68922 -130.631
  400 489.282 3.69587 130.685
  401 338.289 59.3310 -107.436
  402 338.224 59.3577 107.461
  403 283.171 42.7890 57.8147
  404 283.117 42.7403 -57.8739
  405 617.981 13.4615 18.5205
  406 440.364 48.5502 -23.1569
  407 440.391 48.5407 23.1465
  408 437.714 20.6196 78.6162
  409 437.699 20.5726 -78.6437
  410 395.042 -16.7732 -112.973
  411 395.040 -16.6736 112.918
  412 376.250 4.65295 8.67226
  413 376.235 4.65091 -8.66724
  414 469.953 41.0952 -22.9656
  415 469.974 41.0836 22.9559
  416 466.055 42.2713 12.7180
  417 466.035 42.2871 -12.7235
  418 90.5444 -190.772 42.0187
  419 90.8041 -190.463 -42.1847
  420 743.608 11.3321 44.8689
  421 514.597 27.4310 19.4568
  422 514.587 27.4433 -19.4657
  423 408.671 21.4710 21.2995
  424 408.672 21.4600 -21.2888
  425 380.418 60.9438 38.7838
  426 380.448 60.9228 -38.7721
  427 403.474 29.6269 -39.1432
  428 403.473 29.6409 39.1624
  429 620.009 2.33866 -39.5716
  430 619.997 2.33880 39.5586
  431 418.189 37.8898 -81.9443
  432 418.195 37.9075 81.9790
  433 235.184 -50.6989 -122.135
  434 235.215 -50.5744 122.044
  435 925.339 -4.35968 16.6150
  436 925.452 -4.70130 -16.5500
  437 1158.18 9.69509 134.009
  438 1162.11 7.12267 -133.906
  439 381.886 58.2822 27.6674
  440 381.846 58.2779 -27.6874
  441 18.9275 -265.498 -37.4470
  442 19.0154 -265.269 37.3856
  443 686.632 -26.0907 15.5960
  444 686.594 -26.1446 -15.5339
  445 714.460 -6.91942 26.6421
  446 714.368 -6.55880 -26.0803
  447 28.5990 -269.521 14.9183
  448 28.7869 -269.202 -15.0570
  449 628.759 -85.4209 -65.5499
  450 628.600 -85.1792 65.5050
  451 693.349 -0.728832 -14.7196
  452 693.299 -0.728841 14.7106
  453 642.845 5.19941 -37.0046
  454 706.707 -30.3595 -19.9550
  455 706.510 -30.8174 20.2064
  456 531.745 9.97264 -61.6275
  457 531.750 9.99545 61.6181
  458 467.113 6.33014 -35.4413
  459 467.180 6.33276 35.4603
  460 155.405 8.03733 79.3002
  461 155.564 8.09171 -79.3560
  462 616.541 -50.4270 57.6962
  463 616.599 -50.5763 -57.6533
  464 569.059 15.2443 13.4331
  465 569.062 15.2524 -13.4406
  466 396.827 55.5292 -21.5968
  467 396.799 55.5488 21.6036
  468 619.231 2.37353 2.06496
  469 619.243 2.37438 -2.06602
  470 486.615 34.3493 -12.5922
  471 486.630 34.3339 12.5865
  472 362.327 0.191491 1.33999
  473 362.316 0.190696 -1.33889
  474 389.817 48.2203 -54.9416
  475 389.800 48.2393 54.9631
  476 259.161 -8.83295 -130.156
  477 259.004 -8.87054 130.140
  478 594.144 3.79347 -19.8497
  479 15.5263 -69.2823 0.323140
  480 5.51330 -38.7565 -1.44100
  481 5.23023 -32.7418 2.26889
  482 6.20046 -62.2514 2.57560
  483 4.41104 -64.9503 -8.06925
  484 5.09773 -60.3740 -3.70764
  485 4.65231 -58.0859 9.62355
  486 5.17796 -36.5782 5.83717
  487 2.57218 -28.1938 -7.57828
  488 0.147320 -70.7749 -0.309241
  489 -3.88232 -81.2888 0.836538
  490 0.732285 -9.27757 -1.01399
  491 4.08320 -32.1940 -5.49563
  492 0.991526 -22.9590 7.04293
  493 13.1298 -61.9365 -1.19043
  494 0.559192 -7.27649 0.796843
  495 11.4117 -56.1375 1.02725
  496 1.64887 -12.5463 1.04838
  497 1.69552 -9.05180 -0.773271
  498 12.5131 -69.2628 0.161832
  499 13.7283 -72.9356 -0.804290
  500 1.14188 -9.72697 -2.58662
  501 0.723839 -52.5156 5.65574
  502 -1.09444 -47.4981 -13.1556
  503 -5.77220 -67.2085 -2.12573
  504 -8.89248 -74.5093 6.52980
  505 -3.28702 -69.5674 0.682363
  506 -7.20333 -79.0141 -3.50887
  507 2.28195 -43.5666 -5.95664
  508 0.229299 -35.1371 11.2283
  509 8.83022 -50.6353 1.96238
  510 7.03477 -48.0560 -6.91042
  511 0.847981 -6.75506 1.64022
  512 7.56059 -47.9290 5.49845
  513 12.7569 -63.7874 4.49364
  514 12.6976 -64.4094 -0.307015
  515 8.30714 -42.0039 -1.49789
  516 2.57593 -24.7680 -3.74229
  517 2.99218 -16.2828 4.17372
  518 0.742773 -1.39369 -0.417501
  519 9.02090 -73.8728 2.99771
  520 4.13878 -27.9604 2.48548
  521 3.20563 -34.3174 7.11705
  522 0.581933 -25.3009 -9.12587
  523 12.4284 -66.0105 -3.92936
  524 1.53789 -20.1556 3.01280
  525 0.257036 -2.24930 0.0964809
  526 -10.9348 -71.0484 -0.445981
  527 -20.1379 -84.3873 1.43687
  528 0.833937 -0.980392 0.0644662
  529 1.78878 -11.1892 -1.81148
  530 3.37521 -22.7036 -2.03760
  531 1.89781 -11.2800 -4.49400
  532 7.62709 -68.3319 -0.964458
  533 12.5748 -66.2257 0.747051
  534 2.33331 -7.70998 2.83062
  535 4.78511 -48.5905 6.21866
  536 1.68173 -45.3454 -11.8864
  537 8.23097 -68.6030 0.589778
  538 8.16400 -75.6998 -2.23780
  539 2.94987 -21.5442 -5.31465
  540 1.55413 -21.5977 -0.730300
  541 0.122007 -0.239320 -0.200498
  542 3.23609 -40.6921 9.75673
  543 0.463896 -0.894038 -0.393239
  544 15.2255 -68.7872 -0.760826
  545 11.4102 -54.2518 -2.90429
  546 6.37669 -48.3071 -4.79009
  547 -11.2709 -71.4835 0.745949
  548 -20.8640 -84.7294 -1.67113
  549 -11.7962 -64.8196 4.85032
  550 -13.8938 -68.4051 -10.9208
  551 1.79085 -4.23093 0.429009
  552 -6.39520 -57.6855 -5.61990
  553 -5.71201 -55.1405 13.2969
  554 1.46842 -18.0406 0.589553
  555 0.789833 -16.4996 7.09840
  556 8.72510 -45.5199 1.81062
  557 15.0944 -66.3063 1.67988
  558 9.99956 -55.7140 -1.81914
  559 0.111410 0.622983 -0.0838269
  560 0.939548 -1.89693 0.0278944
  561 4.51704 -31.3836 6.03506
  562 14.5757 -71.4009 1.56881
  563 0.589558 3.16717 -0.242566
  564 -17.9266 -71.9738 0.600111
  565 0.481858 2.25629 0.0324862
  566 -32.6347 -85.7457 -0.772017
  567 0.986310 2.61184 1.10746
  568 1.84643 1.69204 1.77378
  569 3.94201 -3.20415 -0.372403
  570 4.35029 -15.1962 -5.48757
  571 -6.53504 -44.0895 -8.01081
  572 -16.4254 -64.2678 -6.18976
  573 -19.4359 -70.8201 -2.01165
  574 -19.0583 -69.2645 2.28096
  575 -25.4378 -66.1097 5.93725
  576 -4.89437 -47.7026 6.37023
  577 3.48210 -17.5542 5.91032
  578 4.13721 -3.41857 -0.943249
  579 2.51633 0.344499 -1.74618
  580 0.939220 2.83028 -1.42152
  581 0.805372 2.34754 1.03334
  582 1.53575 0.455160 1.34150
  583 3.04703 -4.09183 -0.513382
  584 3.61403 -9.70650 -3.61951
  585 -3.42106 -38.3076 -11.0618
  586 -28.8122 -70.2440 -10.3896
  587 -29.2834 -79.7628 -4.86414
  588 -31.0310 -82.7245 4.52090
  589 -17.2192 -67.6854 11.9234
  590 -4.40064 -33.0045 12.3093
  591 3.91580 -7.67778 3.43096
  592 3.78549 -2.62849 -0.484867
  593 1.63522 1.04965 -1.74226
  594 0.772843 3.01230 -1.16729
</Section>

newXOutput 21

<Section columns = "stress_xx | stress_yy | stress_xy">
  1 369.582 3.21373 -3.32574
  2 369.594 3.21465 3.32668
  3 655.505 0.379047 -0.227357
  4 655.493 0.378215 0.226503
  5 2.45362 -434.305 17.1296
  6 1365.29 0.331318 -0.863266
  7 2.31073 -434.711 -17.2357
  8 1576.39 -21.0596 -11.3176
  9 375.829 1.95543 -2.13380
  10 385.959 3.62074 -6.48518
  11 408.200 5.22508 -14.6382
  12 444.307 3.26255 -26.8856
  13 497.717 2.84730 -28.3845
  14 558.287 8.22882 -45.8208
  15 661.087 1.62546 -58.2758
  16 770.645 -3.03401 -59.4330
  17 917.566 -20.5553 -30.9639
  18 961.057 -18.3658 -10.6277
  19 990.261 -2.98181 11.3883
  20 1027.62 13.2152 3.10918
  21 1065.97 21.7610 -6.89225
  22 1113.44 -9.64389 -4.31519
  23 1026.26 8.16102 -6.35840
  24 990.867 -2.79084 -10.7943
  25 961.409 -18.2187 10.7238
  26 917.918 -20.5657 30.9956
  27 770.876 -3.03271 59.4751
  28 661.261 1.62799 58.3125
  29 558.399 8.23280 45.8459
  30 497.805 2.84640 28.4003
  31 444.358 3.26309 26.9007
  32 408.233 5.22732 14.6464
  33 385.979 3.62207 6.49015
  34 375.843 1.95651 2.13604
  35 396.865 2.74564 4.09379
  36 418.406 12.2917 6.41239
  37 434.695 20.4732 5.87967
  38 457.995 27.1870 3.73267
  39 480.461 31.1856 1.62476
  40 506.962 30.0749 -0.299502
  41 535.821 25.0210 -1.07727
  42 577.749 16.3369 -3.17436
  43 607.634 10.1279 0.0891940
  44 631.286 6.18653 -1.72885
  45 655.368 -0.108179 -4.13275
  46 670.106 -1.67438 -5.00383
  47 674.363 1.86173 -9.17531
  48 697.895 0.505200 -12.4834
  49 732.149 -4.06803 -11.1390
  50 757.725 -4.24202 -12.5371
  51 774.720 -5.47244 -8.30902
  52 782.169 -8.43693 0.985893
  53 767.420 -10.1793 17.7666
  54 731.015 -3.83150 26.8755
  55 664.285 3.45371 31.2990
  56 598.853 13.7068 23.8308
  57 565.794 15.5406 11.4421
  58 559.621 16.6653 -13.3117
  59 605.447 9.51335 -22.8796
  60 662.702 1.92615 -25.8181
  61 731.849 -3.21755 -25.3016
  62 767.716 -9.86981 -17.3818
  63 782.089 -8.36432 -0.974362
  64 774.626 -5.47027 8.29238
  65 757.645 -4.24120 12.5241
  66 732.087 -4.06591 11.1310
  67 697.856 0.504638 12.4753
  68 674.336 1.86035 9.16931
  69 670.085 -1.67451 5.00051
  70 655.354 -0.108566 4.13066
  71 631.277 6.18360 1.72731
  72 607.629 10.1216 -0.0905614
  73 577.750 16.3267 3.17213
  74 535.829 25.0065 1.07605
  75 506.973 30.0577 0.298849
  76 480.473 31.1679 -1.62445
  77 458.004 27.1714 -3.73153
  78 434.696 20.4620 -5.87705
  79 418.400 12.2846 -6.41074
  80 396.855 2.74239 -4.09209
  81 67.6395 -345.407 3.90874
  82 253.736 -114.688 87.8810
  83 515.923 49.6384 197.500
  84 777.877 115.693 248.501
  85 1023.61 99.2722 265.047
  86 1261.60 30.3997 233.117
  87 1368.88 -11.1651 112.853
  88 1372.18 -10.6698 -113.776
  89 1263.14 26.5036 -233.238
  90 1022.52 100.066 -264.287
  91 777.572 116.137 -248.088
  92 515.582 49.6778 -197.534
  93 253.653 -114.737 -87.9060
  94 67.5712 -345.646 -3.93303
  95 33.6704 -379.693 -30.2231
  96 189.180 -167.083 49.9782
  97 421.920 -24.5411 121.845
  98 732.852 65.1669 179.202
  99 1043.42 73.0103 185.570
  100 1309.83 22.7730 174.696
  101 1525.82 -12.6562 124.379
  102 1493.93 -16.4102 -110.887
  103 1312.98 32.2878 -171.243
  104 1044.12 71.8274 -185.616
  105 733.114 65.2881 -179.634
  106 422.400 -24.2297 -122.148
  107 189.549 -166.696 -50.2214
  108 33.8990 -379.184 29.9933
  109 421.226 64.0024 -16.1530
  110 421.264 63.9940 16.1418
  111 587.217 -46.1406 84.5757
  112 587.266 -46.2730 -84.5708
  113 290.839 74.3320 69.1780
  114 290.935 74.3230 -69.1887
  115 570.017 23.1784 28.2303
  116 570.012 23.1880 -28.2434
  117 425.000 34.4601 29.4701
  118 425.008 34.4444 -29.4560
  119 783.354 -28.3527 24.7865
  120 783.607 -27.8270 -25.3027
  121 318.967 5.41745 107.885
  122 318.935 5.32617 -107.962
  123 864.813 41.2965 -19.6105
  124 861.694 39.0341 21.4192
  125 480.093 41.1781 4.68879
  126 480.075 41.1966 -4.69069
  127 599.496 9.19204 -53.7993
  128 599.498 9.20086 53.7872
  129 399.431 -11.8541 158.164
  130 399.537 -11.8453 -158.133
  131 590.949 -104.586 114.511
  132 591.064 -104.768 -114.646
  133 421.858 42.4226 -67.7680
  134 421.855 42.4414 67.7975
  135 722.623 -36.8376 -3.58592
  136 722.658 -36.6124 3.72672
  137 502.068 25.8332 64.2503
  138 502.052 25.8099 -64.2679
  139 146.267 17.0861 5.12119
  140 146.396 17.1627 -5.20281
  141 369.079 74.6029 -37.6207
  142 369.029 74.6234 37.6244
  143 690.745 -16.9187 -34.8415
  144 690.743 -16.8951 34.8589
  145 623.951 6.72362 12.0761
  146 623.961 6.72787 -12.0835
  147 470.912 30.3909 -114.476
  148 470.926 30.4095 114.525
  149 414.496 12.6591 16.3470
  150 414.487 12.6527 -16.3387
  151 1010.55 51.0495 2.63001
  152 503.326 36.7758 38.0054
  153 503.305 36.7811 -38.0199
  154 536.534 26.4722 11.5789
  155 536.524 26.4863 -11.5846
  156 449.228 32.8553 10.1834
  157 449.240 32.8386 -10.1784
  158 436.106 50.8364 -13.2095
  159 436.082 50.8563 13.2145
  160 638.083 8.00807 -27.5878
  161 638.068 8.00406 27.5733
  162 689.731 -46.0691 -91.5630
  163 689.742 -46.1237 91.5608
  164 346.122 65.3847 30.5126
  165 346.066 65.3671 -30.5468
  166 745.659 -36.7181 78.0330
  167 745.990 -36.7652 -78.4792
  168 346.222 -102.466 157.985
  169 346.230 -102.598 -158.077
  170 905.723 26.5021 44.7060
  171 907.971 30.5192 -46.7816
  172 427.015 18.8652 -37.8379
  173 427.031 18.8748 37.8572
  174 745.279 30.4850 14.3332
  175 752.210 7.19273 54.2728
  176 737.919 7.75812 -52.2726
  177 716.715 -77.6340 29.0599
  178 716.969 -77.9751 -29.0463
  179 461.930 2.28452 95.3980
  180 461.933 2.21006 -95.4335
  181 746.568 -23.5658 -34.2741
  182 746.568 -24.9364 34.4093
  183 467.409 -60.8505 134.574
  184 467.442 -60.9992 -134.639
  185 466.161 50.1379 -13.9032
  186 466.187 50.1220 13.8967
  187 1079.45 58.1832 64.2737
  188 1084.35 52.9622 -65.4254
  189 414.703 47.9738 -40.5011
  190 414.687 47.9939 40.5183
  191 513.417 36.6898 20.2786
  192 513.400 36.7043 -20.2875
  193 594.534 -3.37253 64.7287
  194 594.531 -3.40780 -64.7305
  195 711.333 20.3429 -31.0598
  196 565.276 22.6491 43.2072
  197 565.268 22.6518 -43.2225
  198 125.294 -95.3033 -97.1834
  199 125.067 -95.4565 97.0985
  200 841.315 -20.6384 -45.5268
  201 841.416 -20.5040 45.4255
  202 490.936 32.6502 -1.13427
  203 490.949 32.6321 1.13384
  204 113.999 -88.4570 -75.2935
  205 114.092 -88.3023 75.1916
  206 688.010 -2.83284 -32.1198
  207 687.986 -2.83231 32.1096
  208 250.604 64.3486 -1.63195
  209 250.512 64.3242 1.58298
  210 651.712 -11.9427 -102.667
  211 651.824 -11.9430 102.727
  212 489.614 13.8529 -69.6525
  213 489.666 13.8623 69.6891
  214 444.510 -79.2478 144.042
  215 444.479 -79.2821 -144.154
  216 433.360 22.1551 11.2549
  217 433.362 22.1428 -11.2482
  218 397.434 55.8018 -100.387
  219 397.404 55.8276 100.422
  220 422.812 47.6143 57.2498
  221 422.781 47.5926 -57.2774
  222 572.515 18.4492 10.5970
  223 572.512 18.4598 -10.6025
  224 272.923 51.2807 111.495
  225 273.044 51.2759 -111.500
  226 631.541 -73.0972 -75.3102
  227 631.445 -72.8867 75.3201
  228 274.629 -74.3717 127.152
  229 274.856 -74.2465 -127.211
  230 644.447 4.20269 -16.3391
  231 644.430 4.20011 16.3296
  232 749.106 -9.25926 8.36338
  233 749.125 -9.26969 -8.35609
  234 446.499 20.2773 -50.2124
  235 446.528 20.2882 50.2367
  236 754.697 27.6626 33.9872
  237 1060.83 12.2574 74.2173
  238 1061.38 12.5337 -74.1299
  239 853.761 49.8217 157.296
  240 853.019 51.3572 -157.477
  241 401.401 68.7589 -13.6249
  242 401.361 68.7771 13.6246
  243 682.136 -39.7062 -37.8710
  244 682.131 -39.5791 37.9487
  245 409.204 7.06203 -17.9060
  246 409.223 7.06553 17.9159
  247 1196.57 20.1932 -43.7669
  248 682.002 3.11400 -23.1768
  249 681.969 3.11175 23.1647
  250 454.432 42.8402 -6.90882
  251 454.414 42.8594 6.91206
  252 325.526 80.7322 -26.1929
  253 325.456 80.7419 26.1783
  254 829.947 13.2905 26.3636
  255 825.585 13.3792 -26.7175
  256 1191.55 19.2351 42.7266
  257 462.842 47.8699 42.4769
  258 462.814 47.8673 -42.4942
  259 549.470 18.8552 -59.0545
  260 549.481 18.8672 59.0397
  261 637.323 3.74101 5.40372
  262 637.334 3.74312 -5.40689
  263 1221.02 -19.7531 65.7012
  264 1216.06 0.630162 -58.2377
  265 827.805 44.6953 -14.7247
  266 385.700 31.4590 81.1961
  267 385.672 31.4045 -81.2427
  268 380.999 28.7810 -144.078
  269 380.927 28.7960 144.115
  270 605.781 12.8621 23.1421
  271 605.786 12.8688 -23.1544
  272 422.576 21.3159 -28.7489
  273 422.583 21.3265 28.7638
  274 395.576 3.37510 5.17913
  275 395.565 3.37275 -5.17577
  276 375.442 75.7901 -0.867321
  277 375.392 75.7994 0.855111
  278 751.306 -16.5025 -10.7714
  279 751.237 -16.7018 10.8546
  280 40.7927 -133.035 14.9151
  281 40.9502 -132.846 -15.0122
  282 521.215 29.1614 -4.25117
  283 521.226 29.1449 4.24909
  284 569.397 21.2694 18.9450
  285 569.393 21.2803 -18.9547
  286 647.188 17.9343 169.513
  287 646.964 18.0872 -169.736
  288 742.853 -45.6586 -15.0621
  289 742.999 -46.1392 15.1397
  290 466.368 32.1192 -2.42021
  291 466.357 32.1369 2.42169
  292 621.607 6.71955 -90.5878
  293 621.728 6.72817 90.6395
  294 736.975 -3.22407 17.9047
  295 737.024 -3.22467 -17.9146
  296 1041.13 42.0130 -149.717
  297 1039.48 41.5920 148.553
  298 430.383 -65.5119 -119.527
  299 430.131 -65.6984 119.409
  300 724.378 -5.71244 40.9720
  301 724.459 -3.04549 -40.6736
  302 424.120 36.5415 -53.6222
  303 424.122 36.5585 53.6471
  304 212.723 12.4485 72.3573
  305 212.644 12.3638 -72.4457
  306 433.714 31.1128 19.4768
  307 433.721 31.0972 -19.4669
  308 534.523 -7.20723 82.0574
  309 534.527 -7.27247 -82.0684
  310 861.786 54.7148 7.11619
  311 391.421 58.4928 -70.4042
  312 391.391 58.5154 70.4287
  313 809.901 -8.70608 -22.8589
  314 808.851 -9.33792 22.3925
  315 500.614 34.2116 -5.81688
  316 500.629 34.1941 5.81420
  317 1293.58 -15.0389 -19.9899
  318 1375.21 -29.2979 41.6386
  319 571.622 9.10039 -74.6590
  320 571.727 9.10676 74.7005
  321 872.841 23.0504 -122.048
  322 872.698 23.6679 121.648
  323 607.736 10.4998 5.37314
  324 607.742 10.5062 -5.37686
  325 473.233 36.3586 -1.64703
  326 473.218 36.3770 1.64805
  327 448.513 27.1014 -5.06560
  328 448.506 27.1164 5.06843
  329 640.348 -5.88315 -48.3690
  330 640.344 -5.86670 48.3666
  331 976.582 47.9260 5.95529
  332 549.971 22.4377 -5.55578
  333 549.977 22.4244 5.55286
  334 416.777 12.0959 7.61224
  335 416.771 12.0889 -7.60859
  336 424.464 48.4766 -25.8202
  337 424.445 48.4965 25.8311
  338 688.560 7.78326 -37.2023
  339 634.728 -8.04783 -126.596
  340 634.527 -8.19369 126.426
  341 672.978 3.88505 -15.3272
  342 672.949 3.88296 15.3180
  343 693.305 -86.0835 63.3472
  344 693.549 -86.4182 -63.5283
  345 623.253 10.6569 39.0597
  346 623.261 10.6603 -39.0762
  347 600.531 16.2022 34.0710
  348 600.533 16.2085 -34.0867
  349 689.383 -70.1001 37.7996
  350 689.496 -70.3592 -37.7234
  351 172.913 -152.618 104.443
  352 172.878 -152.748 -104.509
  353 458.242 47.7265 2.03525
  354 458.218 47.7448 -2.03662
  355 654.346 0.683248 7.56328
  356 654.363 0.684427 -7.56812
  357 351.456 74.5272 -73.4999
  358 351.396 74.5514 73.5129
  359 529.157 -48.3547 -137.564
  360 529.104 -48.3955 137.602
  361 532.812 31.9465 30.5973
  362 532.798 31.9569 -30.6099
  363 763.993 -16.2140 48.4602
  364 762.986 -14.1176 -49.4607
  365 434.874 56.9645 1.71316
  366 434.842 56.9814 -1.71581
  367 370.458 -57.3754 -143.475
  368 370.452 -57.2424 143.392
  369 626.199 -25.0460 -60.9037
  370 626.188 -24.9728 60.9253
  371 983.838 50.7303 -11.9223
  372 759.511 -49.7323 14.5229
  373 759.972 -50.1070 -14.5790
  374 212.654 57.1190 59.5155
  375 212.784 57.1400 -59.5575
  376 511.953 -32.7202 107.533
  377 511.984 -32.8356 -107.565
  378 868.085 -25.7334 36.5191
  379 867.828 -25.7503 -36.5049
  380 687.420 9.78407 39.6608
  381 649.831 20.1434 -2.80109
  382 468.608 -94.5674 140.898
  383 468.655 -94.7199 -140.989
  384 437.411 40.8322 18.2913
  385 437.426 40.8136 -18.2826
  386 780.137 21.5934 -38.0837
  387 519.255 29.7986 50.3766
  388 519.238 29.7945 -50.3929
  389 643.072 -84.9571 105.994
  390 643.178 -85.0150 -106.266
  391 423.607 5.35323 -23.8317
  392 423.639 5.35635 23.8445
  393 942.405 50.6652 30.2737
  394 948.035 52.0874 -31.4774
  395 770.835 -26.2630 69.2219
  396 770.647 -26.2485 -69.1792
  397 566.049 -80.6760 110.110
  398 566.134 -80.8553 -110.159
  399 511.666 4.10820 -137.100
  400 511.667 4.11504 137.157
  401 353.762 62.4431 -112.710
  402 353.695 62.4710 112.737
  403 296.260 45.3137 60.4093
  404 296.203 45.2623 -60.4708
  405 647.702 14.1306 19.4081
  406 461.005 51.0118 -24.1857
  407 461.034 51.0013 24.1748
  408 458.066 21.9951 82.3322
  409 458.049 21.9461 -82.3610
  410 413.224 -17.2101 -118.383
  411 413.224 -17.1049 118.325
  412 392.842 4.87069 9.04962
  413 392.826 4.86853 -9.04431
  414 491.998 43.1509 -24.0009
  415 492.020 43.1382 23.9906
  416 487.899 44.3105 13.2781
  417 487.879 44.3275 -13.2839
  418 94.1830 -200.220 44.1981
  419 94.4554 -199.894 -44.3728
  420 779.203 11.7532 46.8873
  421 538.738 28.7449 20.3348
  422 538.727 28.7581 -20.3444
  423 427.259 22.4407 22.2567
  424 427.260 22.4290 -22.2453
  425 397.983 63.9562 40.6445
  426 398.015 63.9340 -40.6319
  427 421.793 31.0197 -40.9287
  428 421.792 31.0345 40.9490
  429 649.021 2.56425 -41.5438
  430 649.008 2.56415 41.5296
  431 437.120 39.7746 -85.8401
  432 437.126 39.7931 85.8767
  433 245.757 -52.8697 -127.970
  434 245.791 -52.7370 127.875
  435 968.800 -4.50071 17.9014
  436 968.919 -4.86497 -17.8329
  437 1211.18 9.58167 140.697
  438 1215.26 6.86048 -140.582
  439 399.739 61.3627 28.8632
  440 399.697 61.3586 -28.8839
  441 19.0917 -278.983 -39.1851
  442 19.1850 -278.738 39.1198
  443 718.965 -27.3293 16.6266
  444 718.926 -27.3852 -16.5624
  445 748.575 -7.28278 27.8254
  446 748.478 -6.90277 -27.2373
  447 29.3465 -282.981 15.7877
  448 29.5438 -282.645 -15.9340
  449 657.882 -89.6439 -68.9739
  450 657.716 -89.3866 68.9281
  451 725.781 -0.736008 -15.4653
  452 725.728 -0.736058 15.4556
  453 673.690 5.45652 -38.7972
  454 740.102 -31.9193 -20.6671
  455 739.895 -32.3988 20.9319
  456 556.543 10.7212 -64.6216
  457 556.549 10.7447 64.6112
  458 487.771 6.64877 -37.0733
  459 487.842 6.65148 37.0932
  460 162.335 8.93714 83.3798
  461 162.501 8.99454 -83.4378
  462 645.247 -52.7491 60.7489
  463 645.307 -52.9061 -60.7039
  464 595.712 15.9473 14.0323
  465 595.715 15.9560 -14.0403
  466 415.244 58.2375 -22.6358
  467 415.215 58.2582 22.6433
  468 648.160 2.48801 2.15967
  469 648.171 2.48890 -2.16079
  470 509.436 35.9685 -13.1505
  471 509.451 35.9520 13.1444
  472 378.254 0.184160 1.39226
  473 378.242 0.183322 -1.39109
  474 407.643 50.5845 -57.5299
  475 407.625 50.6045 57.5528
  476 270.904 -8.85586 -136.714
  477 270.741 -8.89547 136.698
  478 622.706 3.91560 -20.8385
  479 15.5955 -73.3334 0.333614
  480 4.98962 -40.8008 -1.48942
  481 4.70643 -34.4030 2.36097
  482 5.55764 -65.8006 2.72660
  483 3.72883 -68.6012 -8.51036
  484 4.40843 -63.7855 -3.93136
  485 4.01306 -61.2869 10.1504
  486 4.59745 -38.4273 6.13869
  487 1.89501 -29.5160 -7.90097
  488 -1.00986 -74.9717 -0.331623
  489 -5.21221 -86.0464 0.885755
  490 0.0304093 -9.48413 -1.01974
  491 3.44208 -33.7778 -5.77371
  492 0.222113 -23.9619 7.31372
  493 13.0510 -65.4899 -1.23854
  494 -0.141011 -7.36262 0.781544
  495 11.2199 -59.3042 1.05947
  496 0.965169 -12.9379 1.08306
  497 1.03556 -9.23807 -0.808791
  498 12.3506 -73.3350 0.175029
  499 13.6871 -77.1879 -0.851103
  500 0.451507 -9.96201 -2.59333
  501 -0.232267 -55.3391 5.93190
  502 -2.07067 -49.9547 -13.8275
  503 -7.31382 -71.0725 -2.18774
  504 -10.4935 -78.7294 6.83295
  505 -4.69792 -73.6150 0.674483
  506 -8.74231 -83.5536 -3.65490
  507 1.44807 -45.8092 -6.23420
  508 -0.640761 -36.8153 11.7553
  509 8.46250 -53.4380 2.10130
  510 6.58202 -50.6712 -7.27966
  511 0.153254 -6.81039 1.58504
  512 7.15135 -50.5362 5.78115
  513 12.6504 -67.4352 4.74550
  514 12.5563 -68.1379 -0.346267
  515 7.93184 -44.2440 -1.60065
  516 1.91506 -25.9237 -3.88943
  517 2.34063 -16.8890 4.31314
  518 0.0790410 -1.11185 -0.472786
  519 8.64998 -78.1585 3.16732
  520 3.53742 -29.3035 2.62311
  521 2.49309 -35.9743 7.41719
  522 -0.227900 -26.3841 -9.47069
  523 12.3013 -69.8061 -4.15095
  524 0.837188 -21.0235 3.10410
  525 -0.423380 -2.02873 0.208874
  526 -13.1478 -75.1939 -0.425325
  527 -22.7567 -89.2385 1.46565
  528 0.189739 -0.677328 0.0681838
  529 1.11187 -11.4845 -1.83627
  530 2.75612 -23.7258 -2.15492
  531 1.22460 -11.5861 -4.53998
  532 7.09306 -72.3294 -1.03497
  533 12.4274 -70.0771 0.815846
  534 1.70546 -7.80903 2.76972
  535 4.09464 -51.2235 6.57202
  536 0.867504 -47.7380 -12.5161
  537 7.72850 -72.6215 0.636172
  538 7.72843 -80.0964 -2.36823
  539 2.26421 -22.4280 -5.47795
  540 0.834363 -22.5528 -0.742956
  541 -0.554621 0.0980594 -0.163046
  542 2.55471 -42.8007 10.2527
  543 -0.195209 -0.593417 -0.527416
  544 15.2793 -72.7967 -0.799953
  545 11.2340 -57.2900 -3.04916
  546 5.82530 -50.9250 -5.06982
  547 -13.5126 -75.6713 0.768773
  548 -23.5456 -89.6263 -1.74079
  549 -13.6423 -68.4611 5.03527
  550 -15.7293 -72.1776 -11.4313
  551 1.13334 -4.11285 0.354700
  552 -7.82686 -60.8407 -5.85743
  553 -6.97250 -58.0644 13.9517
  554 0.768276 -18.7800 0.586373
  555 0.0280052 -17.0482 7.28125
  556 8.39141 -47.9836 1.88412
  557 15.1411 -70.1494 1.76199
  558 9.69828 -58.8434 -1.95011
  559 -0.560254 1.01165 -0.147391
  560 0.273559 -1.63736 0.0843793
  561 3.93840 -32.9421 6.31548
  562 14.5953 -75.5632 1.65700
  563 -0.0359161 3.71700 -0.283283
  564 -20.8706 -76.1299 0.665002
  565 -0.160833 2.75138 0.0517260
  566 -36.2825 -90.6223 -0.842812
  567 0.367693 3.15048 1.21597
  568 1.23090 2.18140 1.98100
  569 3.39791 -3.01525 -0.236115
  570 3.79129 -15.7001 -5.59253
  571 -7.87209 -46.3202 -8.32738
  572 -18.5234 -67.8403 -6.39226
  573 -22.2468 -74.9114 -1.99985
  574 -21.7448 -73.2694 2.30824
  575 -28.1428 -69.8193 6.09891
  576 -6.13360 -50.1495 6.59310
  577 2.86043 -18.1824 6.07201
  578 3.62811 -3.22656 -1.15456
  579 1.97203 0.755821 -1.94988
  580 0.320812 3.37783 -1.55110
  581 0.189281 2.84594 1.18539
  582 0.930696 0.833774 1.57648
  583 2.51378 -3.97616 -0.323810
  584 3.05828 -9.87142 -3.55451
  585 -4.46632 -40.1229 -11.5078
  586 -31.5418 -74.1041 -10.7809
  587 -32.4199 -84.3108 -5.02607
  588 -34.3540 -87.4278 4.64355
  589 -19.1897 -71.3700 12.4296
  590 -5.48063 -34.4995 12.8196
  591 3.39483 -7.75602 3.35514
  592 3.30632 -2.43467 -0.731865
  593 1.04390 1.46077 -2.00173
  594 0.158778 3.54925 -1.32981
</Section>

newXOutput 22

<Section columns = "stress_xx | stress_yy | stress_xy">
  1 384.839 3.36919 -3.48676
  2 384.850 3.37001 3.48759
  3 684.427 0.381708 -0.221982
  4 684.416 0.380934 0.221188
  5 1.91849 -455.617 17.8208
  6 1423.76 -0.289045 -0.920728
  7 1.83047 -455.979 -17.9165
  8 1642.83 -23.0415 -11.7321
  9 391.362 2.03925 -2.19982
  10 401.914 3.78942 -6.72972
  11 425.059 5.46510 -15.2517
  12 462.739 3.41883 -28.0301
  13 518.324 3.00937 -29.5958
  14 581.666 8.62596 -47.8339
  15 689.029 1.71138 -60.8784
  16 803.743 -3.14254 -62.2082
  17 957.392 -21.4829 -32.5511
  18 1003.42 -19.1965 -11.5128
  19 1034.83 -3.04522 11.3215
  20 1074.95 13.8059 2.61673
  21 1116.08 22.6667 -7.54796
  22 1165.30 -10.2459 -4.30515
  23 1073.59 8.56979 -5.93947
  24 1035.46 -2.83835 -10.6774
  25 1003.76 -19.0371 11.6233
  26 957.723 -21.4902 32.5868
  27 803.952 -3.13990 62.2492
  28 689.185 1.71436 60.9122
  29 581.766 8.62967 47.8562
  30 518.403 3.00853 29.6098
  31 462.785 3.41925 28.0434
  32 425.089 5.46706 15.2589
  33 401.933 3.79059 6.73417
  34 391.376 2.04021 2.20184
  35 413.534 2.82349 4.27706
  36 436.231 12.7961 6.72043
  37 453.455 21.3203 6.13657
  38 478.044 28.2940 3.90767
  39 501.653 32.4694 1.70695
  40 529.418 31.3180 -0.298216
  41 559.593 26.0603 -1.10719
  42 603.339 17.0036 -3.29573
  43 634.505 10.5421 0.125889
  44 659.174 6.45795 -1.79025
  45 684.279 -0.125891 -4.31210
  46 699.624 -1.76888 -5.20546
  47 704.060 1.94612 -9.55670
  48 728.627 0.529739 -13.0398
  49 764.399 -4.26932 -11.6561
  50 791.207 -4.45119 -13.1545
  51 809.173 -5.73517 -8.78707
  52 817.196 -8.86714 0.886085
  53 802.074 -10.7230 18.4751
  54 764.163 -4.06436 28.0341
  55 694.480 3.63652 32.7470
  56 626.052 14.4512 24.9678
  57 591.446 16.3993 12.0295
  58 584.988 17.5446 -13.9489
  59 632.931 10.0077 -23.9383
  60 692.819 2.00952 -26.9985
  61 765.017 -3.42090 -26.3956
  62 802.373 -10.3984 -18.0777
  63 817.112 -8.79259 -0.877473
  64 809.078 -5.73384 8.76835
  65 791.128 -4.45082 13.1409
  66 764.340 -4.26740 11.6481
  67 728.589 0.529081 13.0319
  68 704.035 1.94477 9.55100
  69 699.605 -1.76900 5.20233
  70 684.266 -0.126251 4.31013
  71 659.165 6.45520 1.78883
  72 634.500 10.5362 -0.127142
  73 603.340 16.9942 3.29369
  74 559.601 26.0470 1.10611
  75 529.428 31.3022 0.297661
  76 501.664 32.4533 -1.70662
  77 478.052 28.2799 -3.90662
  78 453.457 21.3102 -6.13420
  79 436.226 12.7897 -6.71896
  80 413.525 2.82056 -4.27553
  81 69.8550 -362.707 3.77260
  82 264.148 -120.634 91.6014
  83 537.722 51.6691 206.228
  84 810.983 121.034 259.626
  85 1067.22 103.713 277.044
  86 1314.71 31.2265 243.649
  87 1426.80 -12.4613 117.971
  88 1430.12 -11.9086 -118.944
  89 1316.22 27.0628 -243.769
  90 1066.02 104.534 -276.240
  91 810.623 121.488 -259.183
  92 537.345 51.6987 -206.252
  93 264.055 -120.686 -91.6214
  94 69.7930 -362.928 -3.78753
  95 34.6297 -398.271 -31.7603
  96 196.840 -175.221 52.1582
  97 439.615 -25.9003 127.221
  98 763.866 68.2369 187.253
  99 1087.86 76.6601 194.199
  100 1365.61 23.5897 183.067
  101 1590.09 -14.1196 130.226
  102 1557.45 -17.9443 -116.172
  103 1368.96 33.6048 -179.505
  104 1088.66 75.4092 -194.262
  105 764.184 68.3643 -187.709
  106 440.130 -25.5831 -127.538
  107 197.218 -174.845 -52.4153
  108 34.8111 -397.804 31.5195
  109 439.886 67.1014 -16.7844
  110 439.920 67.0956 16.7755
  111 612.941 -48.0289 88.6222
  112 612.983 -48.1591 -88.6139
  113 303.549 78.0659 72.4834
  114 303.632 78.0610 -72.4971
  115 595.276 24.2686 29.4537
  116 595.271 24.2777 -29.4655
  117 443.397 35.9781 30.7359
  118 443.404 35.9643 -30.7233
  119 818.203 -29.7773 25.6003
  120 818.478 -29.2151 -26.1504
  121 332.822 6.10585 112.654
  122 332.797 6.01712 -112.721
  123 903.965 43.1248 -20.2100
  124 900.700 40.7394 22.1061
  125 501.346 42.9980 4.87501
  126 501.329 43.0147 -4.87639
  127 625.987 9.80940 -56.2908
  128 625.991 9.81689 56.2805
  129 416.704 -11.9990 165.640
  130 416.813 -11.9987 -165.619
  131 616.647 -109.550 119.944
  132 616.752 -109.735 -120.082
  133 439.949 44.3864 -70.7643
  134 439.947 44.4026 70.7900
  135 754.726 -38.5220 -4.05355
  136 754.771 -38.2911 4.19555
  137 524.221 27.3133 67.1162
  138 524.204 27.2906 -67.1297
  139 152.537 18.3802 5.59054
  140 152.639 18.4569 -5.66825
  141 385.279 78.1620 -39.3920
  142 385.236 78.1782 39.3950
  143 721.363 -17.5949 -36.6558
  144 721.366 -17.5734 36.6725
  145 651.525 7.00976 12.5836
  146 651.534 7.01380 -12.5905
  147 491.096 31.8951 -119.713
  148 491.107 31.9132 119.756
  149 432.059 13.1997 17.0368
  150 432.051 13.1940 -17.0294
  151 1056.03 53.0831 2.76883
  152 525.640 38.6007 39.6561
  153 525.621 38.6053 -39.6682
  154 560.336 27.6121 12.0663
  155 560.327 27.6252 -12.0714
  156 468.885 34.2512 10.6200
  157 468.895 34.2362 -10.6154
  158 455.298 53.1343 -13.8086
  159 455.277 53.1516 13.8134
  160 666.277 8.41421 -28.8125
  161 666.264 8.41009 28.7988
  162 719.889 -48.0401 -96.1158
  163 719.878 -48.0867 96.1177
  164 361.391 68.7366 31.7214
  165 361.344 68.7166 -31.7511
  166 778.223 -38.4486 81.8767
  167 778.545 -38.5027 -82.3451
  168 361.008 -107.244 165.241
  169 361.012 -107.369 -165.327
  170 945.762 27.7229 47.2894
  171 948.077 31.9373 -49.4713
  172 445.087 19.6976 -39.4618
  173 445.102 19.7059 39.4789
  174 779.303 31.8519 14.9934
  175 786.158 7.46210 56.6066
  176 771.269 8.08625 -54.5530
  177 748.257 -81.3806 30.7059
  178 748.505 -81.7368 -30.6954
  179 482.145 2.79455 99.6887
  180 482.146 2.72223 -99.7177
  181 780.074 -24.7753 -35.6505
  182 780.068 -26.2141 35.7846
  183 487.687 -63.4126 140.778
  184 487.716 -63.5571 -140.836
  185 486.830 52.4668 -14.4678
  186 486.854 52.4530 14.4627
  187 1127.32 60.5578 67.6443
  188 1132.38 55.0198 -68.8637
  189 432.704 50.1559 -42.2789
  190 432.689 50.1731 42.2943
  191 536.198 38.3672 21.1347
  192 536.182 38.3805 -21.1424
  193 620.757 -3.27220 67.7798
  194 620.751 -3.30530 -67.7793
  195 743.724 21.2882 -32.4625
  196 590.303 23.8187 45.1396
  197 590.294 23.8216 -45.1530
  198 130.391 -99.3648 -101.928
  199 130.194 -99.5052 101.829
  200 878.349 -21.4330 -48.0134
  201 878.426 -21.2847 47.9169
  202 512.648 34.0115 -1.17921
  203 512.660 33.9950 1.17891
  204 118.647 -92.2529 -78.6052
  205 118.719 -92.1085 78.5168
  206 718.460 -2.88523 -33.6919
  207 718.438 -2.88587 33.6814
  208 261.582 67.7175 -1.92218
  209 261.505 67.6900 1.87646
  210 679.954 -12.3513 -107.513
  211 680.050 -12.3472 107.570
  212 510.336 14.4761 -72.7340
  213 510.382 14.4847 72.7662
  214 463.537 -83.1106 150.649
  215 463.493 -83.1434 -150.760
  216 452.064 23.0751 11.7112
  217 452.065 23.0641 -11.7051
  218 414.583 58.4822 -104.957
  219 414.557 58.5050 104.987
  220 441.474 50.1348 59.7176
  221 441.446 50.1122 -59.7401
  222 597.889 19.2342 11.0451
  223 597.886 19.2440 -11.0501
  224 284.732 54.0303 116.764
  225 284.839 54.0269 -116.777
  226 659.201 -76.3794 -79.0216
  227 659.113 -76.1678 79.0329
  228 286.321 -77.4982 133.232
  229 286.549 -77.3876 -133.302
  230 672.891 4.39998 -17.0411
  231 672.876 4.39746 17.0321
  232 782.505 -9.63885 8.91821
  233 782.521 -9.64790 -8.91330
  234 465.362 21.1954 -52.4119
  235 465.389 21.2050 52.4332
  236 789.018 28.9234 35.4499
  237 1107.71 12.9132 78.2288
  238 1108.33 13.1936 -78.1306
  239 890.859 52.2530 164.743
  240 890.046 53.8625 -164.930
  241 419.103 72.0081 -14.2996
  242 419.068 72.0226 14.2997
  243 712.289 -41.4398 -39.8935
  244 712.293 -41.3124 39.9721
  245 426.334 7.36665 -18.6555
  246 426.352 7.36972 18.6643
  247 1249.01 20.5989 -45.9243
  248 712.113 3.30453 -24.2422
  249 712.083 3.30197 24.2304
  250 474.449 44.7294 -7.21942
  251 474.432 44.7464 7.22263
  252 339.847 84.7030 -27.5256
  253 339.786 84.7082 27.5115
  254 867.137 13.8397 27.2131
  255 862.597 13.9423 -27.5902
  256 1243.85 19.5765 44.8239
  257 483.331 50.2847 44.3020
  258 483.305 50.2810 -44.3159
  259 573.761 19.9606 -61.7313
  260 573.773 19.9716 61.7192
  261 665.464 3.89837 5.63194
  262 665.475 3.90036 -5.63490
  263 1275.35 -21.0203 69.2363
  264 1270.27 0.352545 -61.4557
  265 865.496 46.7044 -15.3169
  266 402.616 33.3302 84.7424
  267 402.593 33.2762 -84.7818
  268 397.437 30.3995 -150.823
  269 397.368 30.4168 150.850
  270 632.586 13.4450 24.1427
  271 632.590 13.4514 -24.1541
  272 440.580 22.2460 -29.9655
  273 440.586 22.2553 29.9788
  274 412.147 3.50258 5.38106
  275 412.137 3.50047 -5.37803
  276 392.033 79.4751 -1.02707
  277 391.989 79.4806 1.01669
  278 784.973 -17.2766 -11.0617
  279 784.900 -17.4825 11.1433
  280 42.2099 -138.871 15.8086
  281 42.3214 -138.694 -15.9039
  282 544.328 30.3776 -4.42792
  283 544.338 30.3625 4.42610
  284 594.640 22.2108 19.7511
  285 594.636 22.2210 -19.7599
  286 675.038 18.7854 177.310
  287 674.780 18.9386 -177.539
  288 775.881 -47.8848 -15.4690
  289 776.020 -48.3892 15.5444
  290 486.863 33.4591 -2.52114
  291 486.853 33.4751 2.52256
  292 648.210 7.10495 -94.7368
  293 648.317 7.11470 94.7844
  294 769.671 -3.32283 18.8332
  295 769.718 -3.32252 -18.8444
  296 1086.44 43.6930 -156.946
  297 1084.78 43.2944 155.728
  298 448.906 -68.5153 -125.169
  299 448.634 -68.6952 125.046
  300 757.128 -6.03867 42.7570
  301 757.213 -3.23204 -42.4608
  302 442.277 38.1966 -55.9597
  303 442.279 38.2113 55.9817
  304 221.893 13.4760 75.4690
  305 221.831 13.3931 -75.5470
  306 452.531 32.4484 20.3025
  307 452.537 32.4345 -20.2935
  308 558.004 -7.20803 85.8498
  309 558.005 -7.27095 -85.8565
  310 900.987 57.2024 7.30711
  311 408.386 61.2462 -73.5833
  312 408.359 61.2654 73.6042
  313 845.690 -9.10892 -24.3233
  314 844.619 -9.76404 23.8261
  315 522.800 35.6787 -6.05535
  316 522.814 35.6628 6.05310
  317 1351.49 -16.1451 -21.0524
  318 1435.60 -31.2490 43.7403
  319 595.830 9.53716 -78.0006
  320 595.923 9.54342 78.0378
  321 910.909 24.3050 -127.989
  322 910.719 24.9613 127.575
  323 634.614 10.9372 5.58692
  324 634.619 10.9432 -5.59036
  325 494.117 37.9125 -1.72399
  326 494.103 37.9291 1.72509
  327 468.062 28.2247 -5.27582
  328 468.055 28.2383 5.27842
  329 668.654 -5.98416 -50.7094
  330 668.654 -5.96975 50.7077
  331 1020.59 49.8387 6.51227
  332 574.361 23.3655 -5.78687
  333 574.367 23.3532 5.78424
  334 434.517 12.5907 7.93846
  335 434.512 12.5844 -7.93518
  336 443.013 50.6635 -26.9570
  337 442.996 50.6807 26.9670
  338 719.823 8.09856 -38.8699
  339 662.232 -8.33966 -132.606
  340 661.997 -8.48466 132.430
  341 702.645 4.08641 -15.9942
  342 702.618 4.08429 15.9853
  343 723.639 -90.2327 66.5060
  344 723.875 -90.5828 -66.6967
  345 650.815 11.2458 40.8395
  346 650.821 11.2497 -40.8549
  347 627.113 17.0087 35.5842
  348 627.115 17.0151 -35.5988
  349 719.781 -73.3986 39.8493
  350 719.885 -73.6641 -39.7722
  351 179.938 -159.945 109.171
  352 179.905 -160.065 -109.228
  353 478.515 49.8889 2.09323
  354 478.493 49.9051 -2.09395
  355 683.202 0.697722 7.87558
  356 683.218 0.698840 -7.88012
  357 366.776 78.1332 -76.9104
  358 366.723 78.1532 76.9199
  359 552.154 -50.3351 -144.151
  360 552.087 -50.3652 144.185
  361 556.444 33.4661 31.9242
  362 556.431 33.4757 -31.9351
  363 798.216 -17.0821 50.4652
  364 797.184 -14.8687 -51.5250
  365 454.110 59.6217 1.73957
  366 454.082 59.6359 -1.74125
  367 386.413 -59.7566 -150.003
  368 386.406 -59.6296 149.929
  369 653.790 -25.9768 -63.8759
  370 653.785 -25.9060 63.8993
  371 1028.12 52.7837 -12.8008
  372 793.003 -52.1292 15.4988
  373 793.464 -52.5278 -15.5636
  374 221.908 60.1897 62.4520
  375 222.018 60.2141 -62.4965
  376 534.301 -33.8992 112.491
  377 534.328 -34.0114 -112.517
  378 906.071 -26.7679 38.5117
  379 905.834 -26.7908 -38.4912
  380 718.605 10.2229 41.4382
  381 679.425 21.1118 -2.91231
  382 488.836 -98.8798 147.442
  383 488.876 -99.0287 -147.530
  384 456.536 42.6245 19.0798
  385 456.549 42.6082 -19.0717
  386 815.536 22.5348 -39.6587
  387 542.230 31.3671 52.6038
  388 542.213 31.3632 -52.6171
  389 670.987 -89.0468 111.018
  390 671.078 -89.1070 -111.301
  391 441.283 5.57640 -24.8429
  392 441.312 5.57912 24.8543
  393 984.589 52.9808 32.1924
  394 990.439 54.4234 -33.4711
  395 804.363 -27.3360 72.6070
  396 804.196 -27.3265 -72.5621
  397 590.688 -84.3075 115.307
  398 590.766 -84.4856 -115.354
  399 533.777 4.54389 -143.512
  400 533.770 4.55469 143.562
  401 369.074 65.5417 -117.933
  402 369.014 65.5668 117.954
  403 309.239 47.8489 62.9542
  404 309.193 47.7970 -63.0081
  405 677.164 14.7944 20.2914
  406 481.455 53.4552 -25.1930
  407 481.482 53.4465 25.1843
  408 478.209 23.3904 86.0006
  409 478.194 23.3425 -86.0236
  410 431.210 -17.6033 -123.718
  411 431.210 -17.5012 123.668
  412 409.200 5.08528 9.41867
  413 409.185 5.08337 -9.41391
  414 513.832 45.1890 -25.0166
  415 513.853 45.1778 25.0080
  416 509.533 46.3281 13.8277
  417 509.514 46.3432 -13.8324
  418 97.8283 -209.581 46.3209
  419 98.0781 -209.277 -46.5141
  420 814.456 12.1537 48.8791
  421 562.637 30.0441 21.1982
  422 562.627 30.0563 -21.2067
  423 445.630 23.3923 23.1957
  424 445.630 23.3820 -23.1855
  425 415.376 66.9375 42.4817
  426 415.404 66.9190 -42.4706
  427 439.896 32.3946 -42.6861
  428 439.895 32.4075 42.7041
  429 677.718 2.79895 -43.4993
  430 677.707 2.79768 43.4857
  431 455.818 41.6439 -89.6887
  432 455.823 41.6601 89.7204
  433 256.229 -54.9868 -133.712
  434 256.256 -54.8614 133.628
  435 1011.72 -4.64303 19.2040
  436 1011.88 -5.03180 -19.1195
  437 1263.44 9.45431 147.308
  438 1267.61 6.56545 -147.184
  439 417.431 64.4341 30.0330
  440 417.394 64.4278 -30.0501
  441 19.3167 -292.385 -40.8502
  442 19.3815 -292.163 40.7998
  443 750.959 -28.5553 17.6708
  444 750.913 -28.6097 -17.6078
  445 782.373 -7.64549 28.9860
  446 782.265 -7.24651 -28.3767
  447 30.2157 -296.311 16.6313
  448 30.3591 -296.007 -16.7865
  449 686.649 -93.8367 -72.3829
  450 686.492 -93.5733 72.3352
  451 757.848 -0.740115 -16.2059
  452 757.797 -0.740493 16.1958
  453 704.250 5.71370 -40.5765
  454 773.154 -33.4762 -21.3546
  455 772.932 -33.9749 21.6251
  456 581.076 11.4886 -67.5817
  457 581.085 11.5106 67.5744
  458 508.126 6.96529 -38.6814
  459 508.189 6.96769 38.6990
  460 169.267 9.86234 87.4246
  461 169.407 9.91924 -87.4894
  462 673.632 -55.0418 63.7927
  463 673.683 -55.1982 -63.7457
  464 622.086 16.6398 14.6206
  465 622.088 16.6480 -14.6280
  466 433.480 60.9194 -23.6633
  467 433.455 60.9369 23.6703
  468 676.772 2.60135 2.25295
  469 676.782 2.60219 -2.25400
  470 532.035 37.5646 -13.6974
  471 532.049 37.5496 13.6922
  472 393.954 0.175325 1.44273
  473 393.943 0.174563 -1.44168
  474 425.272 52.9266 -60.0848
  475 425.257 52.9436 60.1048
  476 282.533 -8.84879 -143.215
  477 282.381 -8.88190 143.187
  478 651.010 4.03048 -21.8194
  479 15.7121 -77.3662 0.340912
  480 4.54120 -42.8317 -1.54621
  481 4.23270 -36.0543 2.45642
  482 4.95788 -69.3215 2.86365
  483 3.10707 -72.2245 -8.94100
  484 3.74746 -67.1733 -4.16302
  485 3.41346 -64.4682 10.6829
  486 4.06196 -40.2538 6.41685
  487 1.29183 -30.8176 -8.19987
  488 -2.13332 -79.1465 -0.364545
  489 -6.49473 -90.7878 0.944043
  490 -0.549383 -9.68069 -1.03030
  491 2.82327 -35.3391 -6.04110
  492 -0.509082 -24.9466 7.57052
  493 13.0272 -69.0236 -1.29236
  494 -0.757795 -7.44261 0.767272
  495 11.0715 -62.4547 1.09197
  496 0.347482 -13.3167 1.08833
  497 0.424416 -9.41224 -0.823195
  498 12.2311 -77.3864 0.181812
  499 13.6987 -81.4218 -0.896986
  500 -0.151324 -10.1825 -2.56848
  501 -1.14797 -58.1319 6.19267
  502 -2.98379 -52.3770 -14.4823
  503 -8.83337 -74.9146 -2.26341
  504 -12.0620 -82.9335 7.14884
  505 -6.06647 -77.6319 0.652145
  506 -10.2211 -88.0645 -3.78779
  507 0.633896 -48.0128 -6.51409
  508 -1.47864 -38.4557 12.2821
  509 8.14875 -56.2200 2.22532
  510 6.19659 -53.2674 -7.64184
  511 -0.491387 -6.85527 1.50986
  512 6.78796 -53.1280 6.06413
  513 12.5912 -71.0675 4.99847
  514 12.4571 -71.8469 -0.389262
  515 7.59584 -46.4657 -1.69772
  516 1.34529 -27.0723 -4.02837
  517 1.72463 -17.4795 4.42945
  518 -0.491758 -0.803354 -0.562617
  519 8.32843 -82.4292 3.34100
  520 2.99970 -30.6300 2.73695
  521 1.81443 -37.6051 7.69764
  522 -0.979213 -27.4376 -9.78962
  523 12.2314 -73.5812 -4.37113
  524 0.196446 -21.8849 3.18923
  525 -0.956758 -1.77539 0.356085
  526 -15.3530 -79.3236 -0.423873
  527 -25.3603 -94.0820 1.51506
  528 -0.378002 -0.354234 0.0983159
  529 0.454218 -11.7648 -1.84668
  530 2.17916 -24.7343 -2.25803
  531 0.611998 -11.8729 -4.55507
  532 6.59572 -76.3071 -1.11353
  533 12.3276 -73.9054 0.875678
  534 1.10549 -7.89256 2.68985
  535 3.44483 -53.8304 6.90631
  536 0.116129 -50.1046 -13.1283
  537 7.26564 -76.6146 0.672611
  538 7.34532 -84.4724 -2.49362
  539 1.58879 -23.2826 -5.63195
  540 0.207026 -23.4967 -0.771452
  541 -1.05567 0.476054 -0.127512
  542 1.91444 -44.8881 10.7455
  543 -0.764789 -0.271280 -0.684538
  544 15.3843 -76.7868 -0.842341
  545 11.1212 -60.3088 -3.19820
  546 5.30215 -53.5169 -5.34848
  547 -15.7051 -79.8291 0.770583
  548 -26.1600 -94.4970 -1.78811
  549 -15.4413 -72.0730 5.20651
  550 -17.4944 -75.9183 -11.9266
  551 0.510950 -3.97667 0.256690
  552 -9.23583 -63.9612 -6.10824
  553 -8.19926 -60.9558 14.6182
  554 0.129756 -19.5130 0.592039
  555 -0.710677 -17.5631 7.44767
  556 8.10438 -50.4317 1.95999
  557 15.2349 -73.9756 1.84277
  558 9.43383 -61.9518 -2.08239
  559 -1.11810 1.42644 -0.216477
  560 -0.372147 -1.36357 0.160489
  561 3.40746 -34.4872 6.59078
  562 14.6644 -79.7091 1.74495
  563 -0.544337 4.31077 -0.311675
  564 -23.7896 -80.2631 0.698692
  565 -0.639755 3.31029 0.0460493
  566 -39.8947 -95.4820 -0.877738
  567 -0.219826 3.70829 1.35098
  568 0.624070 2.67569 2.19594
  569 2.85825 -2.81973 -0.0934058
  570 3.23454 -16.1832 -5.68819
  571 -9.19059 -48.5034 -8.64743
  572 -20.6046 -71.3837 -6.60855
  573 -25.0709 -78.9848 -2.00747
  574 -24.3681 -77.2425 2.31501
  575 -30.7950 -73.4997 6.24794
  576 -7.33615 -52.5666 6.80211
  577 2.25912 -18.7942 6.21663
  578 3.13388 -3.02519 -1.37759
  579 1.44132 1.18207 -2.16593
  580 -0.249674 3.96212 -1.71876
  581 -0.247892 3.40798 1.36956
  582 0.431868 1.24712 1.86250
  583 2.03261 -3.84411 -0.104987
  584 2.55152 -10.0144 -3.46289
  585 -5.44892 -41.9018 -11.9345
  586 -34.1925 -77.9308 -11.1562
  587 -35.4697 -88.8279 -5.16573
  588 -37.6879 -92.1208 4.78694
  589 -21.1339 -75.0289 12.9488
  590 -6.53226 -35.9477 13.3303
  591 2.89115 -7.81486 3.26235
  592 2.84750 -2.23004 -0.994708
  593 0.509633 1.89300 -2.29061
  594 -0.351080 4.12744 -1.51514
</Section>

newXOutput 23

<Section columns = "stress_xx | stress_yy | stress_xy">
  1 399.962 3.52317 -3.64624
  2 399.973 3.52389 3.64699
  3 713.040 0.383106 -0.215368
  4 713.029 0.382387 0.214632
  5 1.73928 -476.773 18.4598
  6 1481.26 -0.871074 -0.976129
  7 1.66658 -477.099 -18.5632
  8 1708.00 -25.0423 -12.1380
  9 406.757 2.12142 -2.26221
  10 417.722 3.95586 -6.96630
  11 441.746 5.70159 -15.8511
  12 480.970 3.57317 -29.1495
  13 538.674 3.17157 -30.7809
  14 604.742 9.01884 -49.8083
  15 716.586 1.79838 -63.4365
  16 836.388 -3.24339 -64.9518
  17 996.685 -22.4006 -34.1382
  18 1045.26 -20.0380 -12.4091
  19 1078.86 -3.11509 11.2524
  20 1121.68 14.3982 2.13474
  21 1165.54 23.5813 -8.19801
  22 1216.48 -10.8343 -4.30205
  23 1120.32 8.98650 -5.52479
  24 1079.51 -2.89181 -10.5583
  25 1045.59 -19.8664 12.5338
  26 996.996 -22.4047 34.1774
  27 836.578 -3.23967 64.9916
  28 716.726 1.80161 63.4677
  29 604.832 9.02228 49.8283
  30 538.745 3.17077 30.7932
  31 481.011 3.57351 29.1614
  32 441.774 5.70332 15.8575
  33 417.739 3.95688 6.97031
  34 406.770 2.12228 2.26404
  35 430.061 2.89625 4.45738
  36 453.910 13.2885 7.02533
  37 472.068 22.1476 6.38877
  38 497.941 29.3734 4.08054
  39 522.684 33.7228 1.78869
  40 551.696 32.5323 -0.295604
  41 583.165 27.0764 -1.13502
  42 628.692 17.6543 -3.41336
  43 661.110 10.9464 0.164828
  44 686.775 6.72458 -1.84933
  45 712.880 -0.144424 -4.48816
  46 728.817 -1.86351 -5.40213
  47 733.430 2.02954 -9.92995
  48 759.014 0.554219 -13.5884
  49 796.284 -4.46925 -12.1686
  50 824.315 -4.65915 -13.7699
  51 843.260 -5.99633 -9.27044
  52 851.875 -9.29852 0.772303
  53 836.413 -11.2720 19.1682
  54 797.020 -4.30429 29.1787
  55 724.405 3.81891 34.1907
  56 652.990 15.2024 26.1057
  57 616.836 17.2686 12.6208
  58 610.096 18.4302 -14.5864
  59 660.153 10.5041 -24.9968
  60 722.668 2.08970 -28.1754
  61 797.894 -3.63133 -27.4764
  62 836.716 -10.9324 -18.7585
  63 851.788 -9.22218 -0.766606
  64 843.166 -5.99587 9.24977
  65 824.239 -4.65922 13.7557
  66 796.227 -4.46755 12.1606
  67 758.978 0.553482 13.5807
  68 733.406 2.02823 9.92455
  69 728.799 -1.86361 5.39920
  70 712.867 -0.144758 4.48631
  71 686.766 6.72200 1.84801
  72 661.106 10.9409 -0.165974
  73 628.693 17.6456 3.41149
  74 583.172 27.0640 1.13405
  75 551.706 32.5179 0.295130
  76 522.694 33.7081 -1.78837
  77 497.949 29.3606 -4.07957
  78 472.069 22.1385 -6.38663
  79 453.905 13.2827 -7.02401
  80 430.053 2.89358 -4.45601
  81 72.1921 -380.021 3.49352
  82 274.345 -126.744 95.1350
  83 559.115 53.5052 214.742
  84 843.516 126.226 270.520
  85 1110.11 108.096 288.816
  86 1366.89 32.0586 253.998
  87 1483.71 -13.7243 123.000
  88 1487.06 -13.1106 -124.024
  89 1368.37 27.6239 -254.117
  90 1108.80 108.944 -287.968
  91 843.102 126.691 -270.049
  92 558.704 53.5256 -214.758
  93 274.246 -126.792 -95.1461
  94 72.1700 -380.209 -3.51072
  95 35.8983 -416.728 -33.3441
  96 204.476 -183.382 54.1595
  97 456.882 -27.4367 132.346
  98 794.221 71.1393 195.044
  99 1131.47 80.2611 202.602
  100 1420.37 24.4054 191.277
  101 1653.13 -15.5938 135.971
  102 1619.79 -19.4846 -121.366
  103 1423.92 34.9200 -187.609
  104 1132.37 78.9410 -202.682
  105 794.595 71.2748 -195.526
  106 457.432 -27.1153 -132.681
  107 204.836 -183.023 -54.4212
  108 36.0641 -416.289 33.1155
  109 458.437 70.1693 -17.3921
  110 458.467 70.1659 17.3848
  111 638.376 -49.8738 92.6278
  112 638.413 -50.0019 -92.6158
  113 316.265 81.7542 75.7495
  114 316.338 81.7516 -75.7657
  115 620.303 25.3477 30.6540
  116 620.298 25.3563 -30.6646
  117 461.659 37.4680 31.9764
  118 461.666 37.4559 -31.9651
  119 852.663 -31.2273 26.4093
  120 852.957 -30.6282 -26.9938
  121 346.614 6.81310 117.303
  122 346.598 6.72543 -117.363
  123 942.698 44.9517 -20.8116
  124 939.292 42.4441 22.7937
  125 522.442 44.7865 5.05507
  126 522.427 44.8015 -5.05606
  127 652.215 10.4395 -58.7521
  128 652.221 10.4458 58.7435
  129 433.849 -12.1025 172.987
  130 433.955 -12.1077 -172.974
  131 642.011 -114.519 125.316
  132 642.106 -114.706 -125.457
  133 457.898 46.3197 -73.7050
  134 457.897 46.3338 73.7275
  135 786.484 -40.1944 -4.54098
  136 786.539 -39.9582 4.68426
  137 546.182 28.8028 69.9293
  138 546.166 28.7804 -69.9392
  139 158.961 19.6564 6.08667
  140 159.045 19.7310 -6.16526
  141 401.412 81.6732 -41.1447
  142 401.374 81.6862 41.1466
  143 751.656 -18.2534 -38.4703
  144 751.664 -18.2341 38.4864
  145 678.818 7.29044 13.0804
  146 678.826 7.29426 -13.0869
  147 511.090 33.3851 -124.862
  148 511.098 33.4024 124.900
  149 449.474 13.7291 17.7116
  150 449.466 13.7240 -17.7049
  151 1100.97 55.1228 2.90872
  152 547.776 40.4148 41.2731
  153 547.758 40.4187 -41.2832
  154 583.938 28.7304 12.5429
  155 583.929 28.7424 -12.5475
  156 488.398 35.6176 11.0481
  157 488.407 35.6041 -11.0438
  158 474.365 55.3951 -14.3999
  159 474.346 55.4101 14.4045
  160 694.181 8.81946 -30.0183
  161 694.169 8.81529 30.0054
  162 749.628 -50.0026 -100.621
  163 749.599 -50.0394 100.626
  164 376.612 72.0635 32.8809
  165 376.573 72.0412 -32.9078
  166 810.357 -40.2343 85.6621
  167 810.671 -40.2952 -86.1532
  168 375.636 -111.995 172.357
  169 375.644 -112.110 -172.434
  170 985.290 28.9222 49.8299
  171 987.673 33.3349 -52.1176
  172 462.997 20.5141 -41.0519
  173 463.011 20.5214 41.0671
  174 812.995 33.2171 15.6551
  175 819.764 7.71795 58.9310
  176 804.288 8.40470 -56.8254
  177 779.422 -85.1372 32.3496
  178 779.665 -85.5078 -32.3423
  179 502.175 3.33611 103.899
  180 502.178 3.26524 -103.922
  181 813.247 -25.9951 -37.0041
  182 813.234 -27.5021 37.1369
  183 507.742 -65.9252 146.882
  184 507.770 -66.0662 -146.932
  185 507.354 54.7658 -15.0159
  186 507.376 54.7539 15.0118
  187 1174.57 62.9347 70.9723
  188 1179.77 57.0779 -72.2598
  189 450.583 52.3021 -44.0244
  190 450.570 52.3170 44.0380
  191 558.797 40.0219 21.9712
  192 558.782 40.0339 -21.9778
  193 646.713 -3.14614 70.7978
  194 646.703 -3.17732 -70.7949
  195 775.800 22.2338 -33.8652
  196 615.098 24.9869 47.0409
  197 615.089 24.9897 -47.0526
  198 135.677 -103.380 -106.564
  199 135.496 -103.509 106.464
  200 914.875 -22.2431 -50.4659
  201 914.930 -22.0811 50.3743
  202 534.193 35.3423 -1.22275
  203 534.204 35.3273 1.22255
  204 123.451 -96.0208 -81.8036
  205 123.498 -95.8834 81.7174
  206 748.586 -2.92845 -35.2558
  207 748.567 -2.93019 35.2452
  208 272.608 71.0511 -2.24225
  209 272.544 71.0217 2.19740
  210 707.847 -12.7329 -112.299
  211 707.931 -12.7252 112.353
  212 530.835 15.0883 -75.7573
  213 530.876 15.0962 75.7860
  214 482.277 -87.0318 157.131
  215 482.222 -87.0604 -157.240
  216 470.622 23.9737 12.1561
  217 470.623 23.9639 -12.1505
  218 431.623 61.1269 -109.452
  219 431.600 61.1474 109.477
  220 460.014 52.6494 62.1249
  221 459.990 52.6258 -62.1435
  222 623.031 20.0034 11.4836
  223 623.028 20.0125 -11.4882
  224 296.560 56.7529 121.952
  225 296.657 56.7495 -121.969
  226 686.534 -79.6262 -82.7069
  227 686.453 -79.4141 82.7202
  228 297.989 -80.5747 139.170
  229 298.204 -80.4742 -139.248
  230 701.037 4.59548 -17.7300
  231 701.023 4.59303 17.7216
  232 815.560 -10.0097 9.48460
  233 815.573 -10.0173 -9.48194
  234 484.043 22.0978 -54.5686
  235 484.067 22.1064 54.5875
  236 822.996 30.1840 36.9101
  237 1153.88 13.5647 82.1528
  238 1154.57 13.8475 -82.0443
  239 927.423 54.6281 172.061
  240 926.542 56.3110 -172.254
  241 436.712 75.2145 -14.9730
  242 436.681 75.2261 14.9732
  243 742.112 -43.1487 -41.9180
  244 742.123 -43.0215 41.9979
  245 443.306 7.66491 -19.3878
  246 443.322 7.66763 19.3956
  247 1300.70 21.0351 -48.0525
  248 741.900 3.49784 -25.2956
  249 741.872 3.49502 25.2842
  250 494.324 46.5847 -7.52598
  251 494.309 46.5997 7.52907
  252 354.144 88.6257 -28.8570
  253 354.091 88.6277 28.8427
  254 903.913 14.3714 28.0645
  255 899.198 14.4880 -28.4644
  256 1295.40 19.9452 46.8939
  257 503.671 52.6859 46.0843
  258 503.647 52.6810 -46.0954
  259 597.827 21.0765 -64.3674
  260 597.840 21.0867 64.3580
  261 693.313 4.05241 5.85541
  262 693.322 4.05428 -5.85816
  263 1328.83 -22.2709 72.7104
  264 1323.64 0.0882435 -64.6169
  265 902.803 48.7153 -15.9072
  266 419.428 35.2108 88.2026
  267 419.410 35.1566 -88.2364
  268 413.779 32.0170 -157.455
  269 413.713 32.0352 157.476
  270 659.128 14.0202 25.1247
  271 659.132 14.0263 -25.1352
  272 458.433 23.1579 -31.1554
  273 458.439 23.1661 31.1673
  274 428.575 3.62593 5.57707
  275 428.565 3.62403 -5.57433
  276 408.554 83.1183 -1.20269
  277 408.516 83.1207 1.19333
  278 818.306 -18.0469 -11.3312
  279 818.228 -18.2590 11.4112
  280 43.9048 -144.649 16.7082
  281 43.9988 -144.487 -16.8069
  282 567.252 31.5669 -4.60053
  283 567.261 31.5530 4.59893
  284 619.653 23.1369 20.5405
  285 619.649 23.1464 -20.5485
  286 702.455 19.5342 184.969
  287 702.166 19.6881 -185.203
  288 808.547 -50.1217 -15.8591
  289 808.680 -50.6498 15.9321
  290 507.206 34.7685 -2.61993
  291 507.196 34.7830 2.62127
  292 674.481 7.49487 -98.8214
  293 674.576 7.50522 98.8654
  294 802.017 -3.41513 19.7628
  295 802.062 -3.41394 -19.7751
  296 1131.10 45.3726 -164.064
  297 1129.43 44.9986 162.794
  298 467.138 -71.5539 -130.658
  299 466.853 -71.7235 130.525
  300 789.569 -6.37282 44.5288
  301 789.660 -3.42521 -44.2349
  302 460.288 39.8236 -58.2515
  303 460.290 39.8364 58.2710
  304 231.127 14.5055 78.4741
  305 231.081 14.4236 -78.5477
  306 471.207 33.7568 21.1108
  307 471.213 33.7444 -21.1027
  308 581.252 -7.17528 89.5885
  309 581.251 -7.23626 -89.5910
  310 939.781 59.6976 7.49760
  311 425.251 63.9595 -76.7098
  312 425.227 63.9761 76.7276
  313 881.046 -9.54546 -25.7611
  314 879.955 -10.2239 25.2324
  315 544.814 37.1171 -6.28769
  316 544.827 37.1025 6.28579
  317 1408.51 -17.2269 -22.0944
  318 1495.00 -33.1808 45.8124
  319 619.739 9.96905 -81.2828
  320 619.822 9.97507 81.3164
  321 948.357 25.4956 -133.785
  322 948.121 26.1903 133.356
  323 661.226 11.3649 5.79503
  324 661.230 11.3705 -5.79821
  325 514.848 39.4345 -1.80044
  326 514.835 39.4495 1.80158
  327 487.462 29.3216 -5.48120
  328 487.456 29.3338 5.48359
  329 696.666 -6.06594 -53.0329
  330 696.669 -6.05345 53.0320
  331 1064.09 51.7502 7.06145
  332 598.539 24.2721 -6.01265
  333 598.545 24.2607 6.01028
  334 452.111 13.0734 8.25807
  335 452.106 13.0676 -8.25511
  336 461.439 52.8139 -28.0743
  337 461.424 52.8288 28.0833
  338 750.784 8.40805 -40.5346
  339 689.263 -8.72895 -138.471
  340 688.997 -8.87343 138.291
  341 731.989 4.28763 -16.6499
  342 731.964 4.28551 16.6415
  343 753.589 -94.4062 69.6338
  344 753.819 -94.7704 -69.8342
  345 678.098 11.8380 42.5958
  346 678.103 11.8424 -42.6102
  347 653.437 17.8119 37.0733
  348 653.438 17.8182 -37.0867
  349 749.830 -76.6844 41.8997
  350 749.927 -76.9557 -41.8215
  351 186.952 -167.281 113.742
  352 186.939 -167.390 -113.791
  353 498.649 52.0180 2.14547
  354 498.629 52.0322 -2.14576
  355 711.750 0.710681 8.18083
  356 711.765 0.711737 -8.18508
  357 382.041 81.6913 -80.2724
  358 381.995 81.7082 80.2790
  359 574.874 -52.2597 -150.642
  360 574.799 -52.2803 150.672
  361 579.876 34.9714 33.2248
  362 579.863 34.9802 -33.2342
  363 832.080 -17.9656 52.4541
  364 831.025 -15.6341 -53.5733
  365 473.227 62.2434 1.75786
  366 473.202 62.2553 -1.75892
  367 402.227 -62.0943 -156.403
  368 402.216 -61.9719 156.337
  369 681.083 -26.8749 -66.8264
  370 681.083 -26.8064 66.8518
  371 1071.89 54.8407 -13.6720
  372 826.093 -54.5548 16.4643
  373 826.556 -54.9772 -16.5385
  374 231.249 63.2237 65.3591
  375 231.346 63.2483 -65.4058
  376 556.411 -35.0336 117.372
  377 556.436 -35.1431 -117.392
  378 943.565 -27.7816 40.5058
  379 943.345 -27.8112 -40.4793
  380 749.491 10.6580 43.2107
  381 708.727 22.0833 -3.02367
  382 508.810 -103.157 153.888
  383 508.846 -103.301 -153.970
  384 475.526 44.3837 19.8532
  385 475.538 44.3692 -19.8459
  386 850.577 23.4675 -41.2298
  387 565.006 32.9352 54.7896
  388 564.990 32.9311 -54.8002
  389 698.516 -93.1840 115.972
  390 698.594 -93.2451 -116.266
  391 458.784 5.79401 -25.8319
  392 458.810 5.79643 25.8421
  393 1026.27 55.2977 34.0884
  394 1032.34 56.7587 -35.4421
  395 837.454 -28.3797 75.9654
  396 837.304 -28.3753 -75.9192
  397 615.028 -87.9005 120.442
  398 615.100 -88.0765 -120.485
  399 555.657 5.00059 -149.824
  400 555.645 5.01384 149.869
  401 384.325 68.6043 -123.073
  402 384.271 68.6274 123.088
  403 322.205 50.3764 65.4152
  404 322.169 50.3234 -65.4645
  405 706.337 15.4580 21.1737
  406 501.764 55.8738 -26.1739
  407 501.788 55.8669 26.1669
  408 498.189 24.8039 89.5969
  409 498.175 24.7565 -89.6148
  410 449.043 -17.9591 -128.949
  411 449.039 -17.8592 128.906
  412 425.410 5.29603 9.77860
  413 425.397 5.29433 -9.77432
  414 535.501 47.2054 -26.0091
  415 535.520 47.1955 26.0019
  416 531.004 48.3164 14.3628
  417 530.986 48.3299 -14.3667
  418 101.681 -218.876 48.3410
  419 101.905 -218.590 -48.5268
  420 849.346 12.5407 50.8678
  421 586.334 31.3246 22.0430
  422 586.324 31.3360 -22.0505
  423 463.856 24.3234 24.1144
  424 463.856 24.3142 -24.1051
  425 432.670 69.8759 44.2915
  426 432.695 69.8603 -44.2819
  427 457.857 33.7439 -44.4072
  428 457.856 33.7552 44.4232
  429 706.116 3.04351 -45.4359
  430 706.107 3.04120 45.4230
  431 474.358 43.4859 -93.4688
  432 474.362 43.5004 93.4965
  433 266.680 -57.0731 -139.311
  434 266.694 -56.9518 139.235
  435 1054.08 -4.81548 20.4736
  436 1054.26 -5.22861 -20.3733
  437 1314.88 9.36153 153.818
  438 1319.14 6.30387 -153.684
  439 435.029 67.4824 31.1630
  440 434.997 67.4740 -31.1776
  441 19.8262 -305.707 -42.4270
  442 19.8537 -305.511 42.3700
  443 782.618 -29.7670 18.7306
  444 782.566 -29.8196 -18.6686
  445 815.858 -8.00967 30.1286
  446 815.741 -7.59168 -29.4985
  447 31.4001 -309.512 17.4422
  448 31.5319 -309.230 -17.5927
  449 715.062 -98.0160 -75.7663
  450 714.912 -97.7474 75.7170
  451 789.561 -0.740841 -16.9418
  452 789.513 -0.741521 16.9314
  453 734.526 5.96917 -42.3518
  454 805.863 -35.0368 -22.0160
  455 805.627 -35.5543 22.2922
  456 605.370 12.2741 -70.4999
  457 605.381 12.2949 70.4957
  458 528.243 7.27791 -40.2569
  459 528.299 7.28004 40.2726
  460 176.341 10.7788 91.4084
  461 176.466 10.8311 -91.4767
  462 701.694 -57.2993 66.8208
  463 701.739 -57.4546 -66.7715
  464 648.207 17.3198 15.1962
  465 648.209 17.3274 -15.2030
  466 451.606 63.5608 -24.6770
  467 451.583 63.5757 24.6833
  468 705.081 2.71305 2.34444
  469 705.091 2.71385 -2.34542
  470 554.455 39.1347 -14.2312
  471 554.468 39.1210 14.2268
  472 409.518 0.165198 1.49140
  473 409.508 0.164503 -1.49045
  474 442.783 55.2327 -62.5944
  475 442.770 55.2474 62.6119
  476 294.176 -8.82455 -149.591
  477 294.034 -8.85336 149.557
  478 679.037 4.13906 -22.8025
  479 16.0556 -81.3391 0.351151
  480 4.36635 -44.8241 -1.62167
  481 4.05288 -37.6758 2.57053
  482 4.52774 -72.7621 2.97989
  483 2.74198 -75.7805 -9.35378
  484 3.25379 -70.4831 -4.36812
  485 3.07283 -67.5856 11.1908
  486 3.70645 -42.0224 6.64033
  487 0.991361 -32.0704 -8.44501
  488 -3.10227 -83.2362 -0.395527
  489 -7.53101 -95.4617 0.999986
  490 -0.784133 -9.83843 -1.04789
  491 2.38362 -36.8477 -6.24592
  492 -0.936045 -25.8897 7.76100
  493 13.2390 -72.5043 -1.35599
  494 -0.991560 -7.48061 0.762026
  495 11.1648 -65.5558 1.13988
  496 -0.00339319 -13.6630 1.03909
  497 0.115711 -9.55261 -0.779368
  498 12.3115 -81.3654 0.189862
  499 13.9612 -85.5988 -0.943638
  500 -0.383386 -10.3583 -2.48253
  501 -1.92380 -60.8335 6.42582
  502 -3.64862 -54.7091 -15.0984
  503 -10.2074 -78.6614 -2.32628
  504 -13.3834 -87.0556 7.44823
  505 -7.28498 -81.5549 0.622283
  506 -11.4544 -92.4999 -3.91199
  507 -0.0377969 -50.1332 -6.75098
  508 -2.05799 -40.0120 12.7531
  509 8.05238 -58.9464 2.31934
  510 6.08471 -55.8198 -7.99380
  511 -0.753778 -6.85319 1.36282
  512 6.70282 -55.6770 6.34030
  513 12.7851 -74.6475 5.24893
  514 12.5670 -75.4919 -0.418049
  515 7.49601 -48.6371 -1.75270
  516 1.09445 -28.1908 -4.15927
  517 1.26247 -18.0330 4.48401
  518 -0.735511 -0.438361 -0.701807
  519 8.26083 -86.6384 3.50790
  520 2.70275 -31.9151 2.80042
  521 1.26245 -39.1617 7.93039
  522 -1.48610 -28.4159 -10.0377
  523 12.4140 -77.3027 -4.58965
  524 -0.0945316 -22.7210 3.26117
  525 -1.09230 -1.45574 0.523148
  526 -17.4202 -83.3555 -0.417583
  527 -27.7261 -98.8445 1.55776
  528 -0.580634 0.0319207 0.170557
  529 -0.0237981 -12.0044 -1.78336
  530 1.86142 -25.7098 -2.30343
  531 0.273780 -12.1230 -4.47321
  532 6.27274 -80.2038 -1.17862
  533 12.4357 -77.6674 0.923351
  534 0.778261 -7.93597 2.50833
  535 2.95295 -56.3674 7.20140
  536 -0.373035 -52.4095 -13.7024
  537 6.97861 -80.5285 0.700171
  538 7.21543 -88.7854 -2.61589
  539 1.02241 -24.0758 -5.73395
  540 -0.125909 -24.4113 -0.825322
  541 -1.19591 0.908439 -0.0954265
  542 1.56360 -46.9239 11.1987
  543 -0.883957 0.130973 -0.880857
  544 15.7233 -80.7181 -0.887289
  545 11.2647 -63.2803 -3.35714
  546 4.96348 -56.0419 -5.58248
  547 -17.7617 -83.8902 0.772301
  548 -28.5400 -99.2906 -1.83489
  549 -17.1073 -75.5898 5.36431
  550 -19.0177 -79.5690 -12.3978
  551 0.0644960 -3.81653 0.0855164
  552 -10.5140 -66.9859 -6.33833
  553 -9.18070 -63.7527 15.2508
  554 -0.182660 -20.2177 0.627372
  555 -1.21364 -18.0074 7.52662
  556 8.08590 -52.8364 2.05467
  557 15.5681 -77.7462 1.92923
  558 9.37932 -64.9955 -2.18477
  559 -1.25492 1.91638 -0.278541
  560 -0.737995 -1.03414 0.323692
  561 3.18104 -36.0053 6.84431
  562 14.9785 -83.7979 1.83251
  563 -0.649272 4.99790 -0.319464
  564 -26.5811 -84.2967 0.735455
  565 -0.770993 3.93203 0.0353507
  566 -43.2816 -100.260 -0.916670
  567 -0.460371 4.35016 1.55791
  568 0.202935 3.21882 2.50654
  569 2.40422 -2.59688 0.0944408
  570 2.73906 -16.6236 -5.75065
  571 -10.4005 -50.5902 -8.93672
  572 -22.5591 -74.8271 -6.81141
  573 -27.7643 -82.9584 -2.00646
  574 -26.8638 -81.1171 2.31709
  575 -33.3245 -77.0814 6.38681
  576 -8.42701 -54.8865 6.98487
  577 1.73948 -19.3585 6.31357
  578 2.75187 -2.79783 -1.64876
  579 1.15278 1.65751 -2.46467
  580 -0.429562 4.64569 -1.94512
  581 -0.281335 4.04550 1.57173
  582 0.379417 1.74647 2.21945
  583 1.89984 -3.66414 0.228187
  584 2.28102 -10.0975 -3.27769
  585 -6.19706 -43.5741 -12.3109
  586 -36.6062 -81.6568 -11.5054
  587 -38.2889 -93.2611 -5.29565
  588 -40.7896 -96.7269 4.91700
  589 -22.8340 -78.5882 13.4399
  590 -7.35531 -37.2941 13.7828
  591 2.61372 -7.81936 3.07553
  592 2.71980 -1.97209 -1.37013
  593 0.435118 2.42526 -2.67708
  594 -0.385360 4.81600 -1.73203
</Section>

newXOutput 24

<Section columns = "stress_xx | stress_yy | stress_xy">
  1 414.898 3.67611 -3.80467
  2 414.909 3.67685 3.80543
  3 741.343 0.383191 -0.207435
  4 741.332 0.382453 0.206678
  5 1.60297 -497.814 19.1115
  6 1537.84 -1.45949 -1.01651
  7 1.52979 -498.145 -19.2163
  8 1771.96 -27.0915 -12.5342
  9 421.961 2.20216 -2.32109
  10 433.330 4.12060 -7.19556
  11 458.213 5.93538 -16.4384
  12 498.954 3.72632 -30.2478
  13 558.728 3.33453 -31.9438
  14 627.488 9.40834 -51.7507
  15 743.742 1.88478 -65.9556
  16 868.576 -3.34041 -67.6636
  17 1035.43 -23.3047 -35.7204
  18 1086.56 -20.8762 -13.3285
  19 1122.39 -3.18567 11.1484
  20 1167.90 14.9831 1.62988
  21 1214.51 24.4864 -8.85244
  22 1267.11 -11.4162 -4.28669
  23 1166.54 9.41004 -5.08142
  24 1123.06 -2.94325 -10.4134
  25 1086.89 -20.6944 13.4600
  26 1035.75 -23.3079 35.7603
  27 868.765 -3.33660 67.7030
  28 743.883 1.88792 65.9865
  29 627.578 9.41169 51.7705
  30 558.799 3.33369 31.9562
  31 498.996 3.72662 30.2597
  32 458.241 5.93710 16.4449
  33 433.347 4.12164 7.19963
  34 421.973 2.20304 2.32296
  35 446.398 2.96427 4.63541
  36 471.397 13.7707 7.32815
  37 490.493 22.9582 6.63713
  38 517.652 30.4291 4.25178
  39 543.524 34.9498 1.87013
  40 573.771 33.7215 -0.291777
  41 606.517 28.0719 -1.16089
  42 653.794 18.2906 -3.52757
  43 687.443 11.3418 0.206202
  44 714.085 6.98712 -1.90619
  45 741.171 -0.163863 -4.66137
  46 757.689 -1.95862 -5.59422
  47 762.475 2.11194 -10.2956
  48 789.061 0.578438 -14.1294
  49 827.807 -4.66846 -12.6760
  50 857.054 -4.86644 -14.3824
  51 876.985 -6.25629 -9.75732
  52 886.205 -9.73053 0.646666
  53 870.432 -11.8245 19.8459
  54 829.584 -4.54894 30.3074
  55 754.067 4.00234 35.6252
  56 679.687 15.9600 27.2387
  57 641.993 18.1463 13.2119
  58 634.980 19.3194 -15.2234
  59 687.141 11.0008 -26.0503
  60 752.266 2.16700 -29.3429
  61 830.482 -3.84716 -28.5397
  62 870.739 -11.4697 -19.4221
  63 886.112 -9.65197 -0.642625
  64 876.886 -6.25619 9.73510
  65 856.974 -4.86665 14.3674
  66 827.748 -4.66675 12.6676
  67 789.024 0.577643 14.1215
  68 762.451 2.11056 10.2900
  69 757.671 -1.95874 5.59121
  70 741.159 -0.164207 4.65949
  71 714.077 6.98449 1.90483
  72 687.439 11.3362 -0.207379
  73 653.795 18.2816 3.52565
  74 606.525 28.0592 1.15991
  75 573.781 33.7067 0.291302
  76 543.534 34.9349 -1.86979
  77 517.660 30.4160 -4.25078
  78 490.494 22.9489 -6.63494
  79 471.393 13.7647 -7.32681
  80 446.389 2.96155 -4.63401
  81 74.6463 -397.260 3.20864
  82 284.447 -132.885 98.5538
  83 580.154 55.2163 223.079
  84 875.520 131.301 281.222
  85 1152.31 112.408 300.396
  86 1418.16 32.8590 264.182
  87 1539.62 -14.9995 127.957
  88 1543.07 -14.3124 -129.020
  89 1419.66 28.1601 -264.307
  90 1150.93 113.297 -299.514
  91 875.077 131.787 -280.733
  92 579.722 55.2354 -223.096
  93 284.343 -132.935 -98.5658
  94 74.6237 -397.452 -3.22645
  95 37.2030 -435.124 -34.8921
  96 212.140 -191.514 56.1297
  97 473.930 -29.0225 137.323
  98 824.043 73.9396 202.652
  99 1174.36 83.8290 210.849
  100 1474.22 25.2109 199.374
  101 1715.04 -17.1016 141.638
  102 1681.01 -21.0601 -126.487
  103 1477.92 36.2101 -195.598
  104 1175.31 82.4252 -210.949
  105 824.448 74.0849 -203.161
  106 474.487 -28.6947 -137.674
  107 212.493 -191.150 -56.3933
  108 37.3686 -434.680 34.6620
  109 476.839 73.2162 -17.9841
  110 476.870 73.2127 17.9771
  111 663.527 -51.6741 96.5974
  112 663.563 -51.8055 -96.5844
  113 328.902 85.4242 78.9901
  114 328.975 85.4223 -79.0060
  115 645.087 26.4161 31.8331
  116 645.081 26.4251 -31.8441
  117 479.744 38.9363 33.1958
  118 479.750 38.9240 -33.1842
  119 886.749 -32.6874 27.1989
  120 887.054 -32.0525 -27.8123
  121 360.318 7.54442 121.873
  122 360.301 7.45444 -121.933
  123 981.035 46.7579 -21.3978
  124 977.497 44.1422 23.4646
  125 543.354 46.5469 5.23066
  126 543.338 46.5622 -5.23156
  127 678.174 11.0800 -61.1877
  128 678.181 11.0859 61.1787
  129 450.844 -12.1838 180.264
  130 450.949 -12.1886 -180.252
  131 667.061 -119.460 130.633
  132 667.157 -119.655 -130.778
  133 475.661 48.2301 -76.5995
  134 475.660 48.2441 76.6222
  135 817.905 -41.8512 -5.04722
  136 817.964 -41.6071 5.19509
  137 567.937 30.3013 72.6994
  138 567.920 30.2788 -72.7090
  139 165.387 20.9532 6.59343
  140 165.471 21.0295 -6.67227
  141 417.426 85.1519 -42.8796
  142 417.389 85.1646 42.8819
  143 781.629 -18.8959 -40.2836
  144 781.637 -18.8769 40.2992
  145 705.826 7.56564 13.5670
  146 705.834 7.56959 -13.5736
  147 530.860 34.8632 -129.945
  148 530.869 34.8802 129.983
  149 466.694 14.2495 18.3740
  150 466.686 14.2444 -18.3672
  151 1145.41 57.1404 3.04607
  152 569.714 42.2193 42.8619
  153 569.695 42.2237 -42.8720
  154 607.320 29.8282 13.0098
  155 607.311 29.8406 -13.0145
  156 507.729 36.9596 11.4686
  157 507.739 36.9459 -11.4642
  158 493.268 57.6250 -14.9829
  159 493.249 57.6402 14.9878
  160 721.791 9.22367 -31.2070
  161 721.778 9.21924 31.1936
  162 778.993 -51.9269 -105.089
  163 778.960 -51.9613 105.093
  164 391.737 75.3785 34.0084
  165 391.697 75.3554 -34.0347
  166 842.075 -42.0426 89.4129
  167 842.397 -42.1098 -89.9260
  168 390.138 -116.707 179.363
  169 390.145 -116.826 -179.441
  170 1024.33 30.0966 52.3581
  171 1026.79 34.7183 -54.7483
  172 480.699 21.3177 -42.6128
  173 480.714 21.3251 42.6282
  174 846.380 34.5729 16.3097
  175 853.044 7.96505 61.2318
  176 836.991 8.71276 -59.0737
  177 810.219 -88.8807 33.9995
  178 810.466 -89.2705 -33.9922
  179 522.015 3.90784 108.045
  180 522.017 3.83551 -108.068
  181 846.090 -27.2186 -38.3267
  182 846.072 -28.7944 38.4630
  183 527.586 -68.3887 152.903
  184 527.613 -68.5342 -152.954
  185 527.703 57.0415 -15.5521
  186 527.726 57.0292 15.5482
  187 1221.20 65.2780 74.2777
  188 1226.57 59.1175 -75.6304
  189 468.296 54.4201 -45.7411
  190 468.283 54.4350 45.7551
  191 581.193 41.6556 22.7910
  192 581.178 41.6681 -22.7976
  193 672.397 -2.99665 73.7858
  194 672.387 -3.02781 -73.7829
  195 807.587 23.1729 -35.2614
  196 639.651 26.1529 48.9144
  197 639.642 26.1562 -48.9264
  198 140.987 -107.331 -111.187
  199 140.807 -107.462 111.086
  200 950.928 -23.0413 -52.9130
  201 950.978 -22.8686 52.8183
  202 555.543 36.6468 -1.26535
  203 555.554 36.6314 1.26517
  204 128.281 -99.7467 -84.9657
  205 128.329 -99.6068 84.8787
  206 778.390 -2.96406 -36.8112
  207 778.370 -2.96629 36.7997
  208 283.597 74.3761 -2.57713
  209 283.533 74.3456 2.53254
  210 735.395 -13.0976 -117.031
  211 735.478 -13.0896 117.085
  212 551.076 15.6911 -78.7332
  213 551.117 15.6988 78.7619
  214 500.784 -90.9607 163.508
  215 500.725 -90.9909 -163.622
  216 488.992 24.8545 12.5909
  217 488.994 24.8444 -12.5853
  218 448.504 63.7472 -113.887
  219 448.480 63.7673 113.912
  220 478.405 55.1626 64.4869
  221 478.379 55.1386 -64.5050
  222 647.927 20.7577 11.9134
  223 647.925 20.7670 -11.9181
  224 308.314 59.4713 127.096
  225 308.410 59.4687 -127.114
  226 713.558 -82.8363 -86.3702
  227 713.477 -82.6169 86.3844
  228 309.610 -83.6176 145.055
  229 309.823 -83.5151 -145.134
  230 728.883 4.78924 -18.4071
  231 728.868 4.78669 18.3984
  232 848.268 -10.3713 10.0612
  233 848.283 -10.3783 -10.0597
  234 502.498 22.9878 -56.6899
  235 502.522 22.9963 56.7089
  236 856.655 31.4407 38.3542
  237 1199.43 14.2153 86.0369
  238 1200.18 14.4912 -85.9212
  239 963.476 56.9572 179.283
  240 962.551 58.7225 -179.485
  241 454.184 78.3892 -15.6422
  242 454.153 78.4007 15.6429
  243 771.612 -44.8331 -43.9441
  244 771.626 -44.7023 44.0259
  245 460.073 7.95787 -20.1050
  246 460.089 7.96061 20.1130
  247 1351.69 21.4682 -50.1536
  248 771.363 3.69340 -26.3375
  249 771.334 3.69033 26.3255
  250 514.026 48.4105 -7.82789
  251 514.010 48.4259 7.83116
  252 368.355 92.5214 -30.1837
  253 368.303 92.5228 30.1699
  254 940.300 14.8920 28.8981
  255 935.405 15.0147 -29.3168
  256 1346.23 20.2969 48.9491
  257 523.838 55.0771 47.8332
  258 523.813 55.0724 -47.8440
  259 621.659 22.2011 -66.9710
  260 621.672 22.2109 66.9614
  261 720.865 4.20331 6.07439
  262 720.875 4.20523 -6.07722
  263 1381.59 -23.5176 76.1575
  264 1376.27 -0.185573 -67.7525
  265 939.752 50.7107 -16.4931
  266 436.109 37.1045 91.6009
  267 436.091 37.0490 -91.6342
  268 429.976 33.6334 -164.016
  269 429.911 33.6511 164.037
  270 685.399 14.5876 26.0892
  271 685.403 14.5940 -26.1000
  272 476.090 24.0546 -32.3218
  273 476.096 24.0628 32.3339
  274 444.810 3.74572 5.76797
  275 444.800 3.74379 -5.76518
  276 424.960 86.7337 -1.38685
  277 424.922 86.7359 1.37800
  278 851.306 -18.8104 -11.5781
  279 851.226 -19.0297 11.6592
  280 45.6336 -150.355 17.6108
  281 45.7278 -150.190 -17.7103
  282 589.965 32.7324 -4.76976
  283 589.974 32.7182 4.76814
  284 644.424 24.0485 21.3146
  285 644.420 24.0583 -21.3228
  286 729.475 20.2214 192.517
  287 729.169 20.3794 -192.762
  288 840.857 -52.3557 -16.2225
  289 840.990 -52.9093 16.2982
  290 527.362 36.0502 -2.71649
  291 527.352 36.0649 2.71788
  292 700.406 7.88501 -102.852
  293 700.501 7.89525 102.895
  294 834.012 -3.50127 20.6918
  295 834.059 -3.49967 -20.7053
  296 1175.15 47.0377 -171.100
  297 1173.44 46.6768 169.775
  298 485.196 -74.5616 -136.055
  299 484.915 -74.7313 135.917
  300 821.708 -6.71169 46.2809
  301 821.809 -3.62323 -45.9864
  302 478.109 41.4287 -60.5045
  303 478.111 41.4414 60.5242
  304 240.347 15.5538 81.4249
  305 240.300 15.4699 -81.4985
  306 489.702 35.0432 21.9043
  307 489.708 35.0307 -21.8960
  308 604.262 -7.11122 93.2820
  309 604.260 -7.17312 -93.2840
  310 978.196 62.1870 7.67677
  311 441.965 66.6443 -79.7930
  312 441.942 66.6606 79.8111
  313 915.996 -9.99688 -27.1944
  314 914.870 -10.7033 26.6382
  315 566.630 38.5306 -6.51527
  316 566.643 38.5157 6.51338
  317 1464.74 -18.3104 -23.1237
  318 1553.52 -35.1163 47.8651
  319 643.324 10.3961 -84.5162
  320 643.408 10.4020 84.5495
  321 985.251 26.6499 -139.500
  322 984.994 27.3854 139.049
  323 687.565 11.7834 5.99760
  324 687.570 11.7892 -6.00087
  325 535.393 40.9278 -1.87584
  326 535.380 40.9431 1.87706
  327 506.677 30.3947 -5.68205
  328 506.671 30.4071 5.68450
  329 724.383 -6.13148 -55.3410
  330 724.387 -6.11947 55.3396
  331 1107.11 53.6287 7.61552
  332 622.487 25.1599 -6.23392
  333 622.493 25.1482 6.23150
  334 469.513 13.5458 8.57226
  335 469.508 13.5400 -8.56925
  336 479.700 54.9345 -29.1733
  337 479.685 54.9495 29.1827
  338 781.465 8.70907 -42.1870
  339 715.908 -9.14667 -144.240
  340 715.627 -9.29531 144.048
  341 761.011 4.48874 -17.2951
  342 760.986 4.48651 17.2864
  343 783.169 -98.5707 72.7426
  344 783.403 -98.9543 -72.9515
  345 705.097 12.4326 44.3297
  346 705.102 12.4375 -44.3447
  347 679.495 18.6113 38.5396
  348 679.496 18.6179 -38.5534
  349 779.536 -79.9442 43.9537
  350 779.633 -80.2266 -43.8725
  351 193.993 -174.579 118.235
  352 193.979 -174.690 -118.286
  353 518.613 54.1185 2.19430
  354 518.592 54.1330 -2.19439
  355 739.987 0.721883 8.47922
  356 740.002 0.722977 -8.48359
  357 397.193 85.2196 -83.5960
  358 397.146 85.2360 83.6030
  359 597.349 -54.1392 -157.063
  360 597.275 -54.1590 157.092
  361 603.091 36.4631 34.5027
  362 603.077 36.4724 -34.5123
  363 865.598 -18.8571 54.4162
  364 864.517 -16.4082 -55.5894
  365 492.189 64.8366 1.77164
  366 492.163 64.8487 -1.77238
  367 417.896 -64.3971 -162.715
  368 417.886 -64.2712 162.650
  369 708.084 -27.7442 -69.7586
  370 708.085 -27.6746 69.7846
  371 1115.17 56.8852 -14.5488
  372 858.790 -56.9854 17.4370
  373 859.266 -57.4333 -17.5165
  374 240.559 66.2568 68.2519
  375 240.655 66.2825 -68.2986
  376 578.287 -36.1249 122.190
  377 578.310 -36.2372 -122.210
  378 980.585 -28.7686 42.4975
  379 980.367 -28.8014 -42.4703
  380 780.092 11.0900 44.9686
  381 737.769 23.0524 -3.13677
  382 528.559 -107.386 160.248
  383 528.594 -107.535 -160.332
  384 494.341 46.1165 20.6135
  385 494.353 46.1018 -20.6059
  386 885.283 24.3840 -42.7828
  387 587.571 34.5026 56.9406
  388 587.553 34.4989 -56.9512
  389 725.684 -97.3223 120.873
  390 725.762 -97.3888 -121.181
  391 476.063 6.00696 -26.8020
  392 476.090 6.00937 26.8122
  393 1067.47 57.5948 35.9856
  394 1073.77 59.0862 -37.4124
  395 870.132 -29.4005 79.2947
  396 869.983 -29.3970 -79.2487
  397 639.083 -91.4461 125.522
  398 639.156 -91.6285 -125.566
  399 577.295 5.46920 -156.063
  400 577.284 5.48221 156.108
  401 399.453 71.6457 -128.153
  402 399.399 71.6683 128.169
  403 335.104 52.9086 67.8241
  404 335.068 52.8541 -67.8730
  405 735.247 16.1198 22.0478
  406 521.901 58.2740 -27.1354
  407 521.926 58.2668 27.1286
  408 517.989 26.2351 93.1367
  409 517.974 26.1870 -93.1540
  410 466.711 -18.2821 -134.108
  411 466.708 -18.1796 134.066
  412 441.424 5.50380 10.1309
  413 441.410 5.50208 -10.1265
  414 556.979 49.2042 -26.9835
  415 556.998 49.1939 26.9764
  416 552.287 50.2789 14.8864
  417 552.269 50.2928 -14.8902
  418 105.584 -228.108 50.3787
  419 105.807 -227.818 -50.5654
  420 883.896 12.9151 52.8368
  421 609.809 32.5878 22.8713
  422 609.799 32.5995 -22.8789
  423 481.894 25.2377 25.0159
  424 481.894 25.2284 -25.0065
  425 449.815 72.7849 46.0784
  426 449.840 72.7694 -46.0683
  427 475.632 35.0725 -46.0967
  428 475.632 35.0839 46.1130
  429 734.214 3.29606 -47.3552
  430 734.206 3.29317 47.3416
  431 492.695 45.3080 -97.1941
  432 492.700 45.3222 97.2219
  433 277.081 -59.1300 -144.830
  434 277.095 -59.0056 144.754
  435 1095.90 -5.00057 21.7408
  436 1096.11 -5.43716 -21.6336
  437 1365.53 9.26034 160.243
  438 1369.91 6.04238 -160.097
  439 452.497 70.5153 32.2650
  440 452.464 70.5067 -32.2791
  441 20.4119 -318.962 -44.0037
  442 20.4396 -318.763 43.9457
  443 813.943 -30.9615 19.8054
  444 813.889 -31.0145 -19.7427
  445 849.031 -8.37373 31.2519
  446 848.906 -7.93634 -30.5982
  447 32.6101 -322.633 18.2739
  448 32.7420 -322.348 -18.4255
  449 743.141 -102.169 -79.1283
  450 742.990 -101.888 79.0777
  451 820.924 -0.738718 -17.6722
  452 820.874 -0.739537 17.6612
  453 764.534 6.22179 -44.1141
  454 838.233 -36.5933 -22.6461
  455 837.986 -37.1306 22.9327
  456 629.420 13.0750 -73.3845
  457 629.432 13.0957 73.3803
  458 548.083 7.58769 -41.8053
  459 548.140 7.58976 41.8209
  460 183.407 11.7215 95.3700
  461 183.531 11.7750 -95.4386
  462 729.441 -59.5174 69.8349
  463 729.485 -59.6771 -69.7839
  464 674.065 17.9878 15.7597
  465 674.067 17.9957 -15.7667
  466 469.581 66.1704 -25.6769
  467 469.558 66.1854 25.6836
  468 733.086 2.82340 2.43430
  469 733.096 2.82421 -2.43531
  470 576.672 40.6826 -14.7545
  471 576.686 40.6685 14.7500
  472 424.894 0.153788 1.53848
  473 424.883 0.153081 -1.53750
  474 460.129 57.5119 -65.0655
  475 460.116 57.5265 65.0833
  476 305.758 -8.77574 -155.911
  477 305.616 -8.80562 155.877
  478 706.818 4.23962 -23.7845
  479 16.5000 -85.2678 0.360071
  480 4.28016 -46.7796 -1.69415
  481 3.97698 -39.2583 2.68122
  482 4.17937 -76.1620 3.09835
  483 2.49705 -79.2956 -9.77357
  484 2.85768 -73.7451 -4.56319
  485 2.85887 -70.6606 11.6926
  486 3.44268 -43.7613 6.85984
  487 0.819262 -33.2862 -8.69895
  488 -3.98603 -87.2790 -0.420932
  489 -8.44260 -100.096 1.04942
  490 -0.955293 -9.98621 -1.05579
  491 2.06258 -38.3278 -6.43802
  492 -1.21835 -26.8013 7.95292
  493 13.5478 -75.9429 -1.42226
  494 -1.15970 -7.50594 0.747166
  495 11.3628 -68.6130 1.18801
  496 -0.244627 -13.9974 1.00758
  497 -0.0652609 -9.69008 -0.760035
  498 12.4861 -85.2990 0.198479
  499 14.3365 -89.7343 -0.995472
  500 -0.494522 -10.5238 -2.41683
  501 -2.62712 -63.4883 6.65873
  502 -4.18072 -56.9900 -15.7138
  503 -11.4879 -82.3550 -2.37660
  504 -14.5745 -91.1322 7.73708
  505 -8.42922 -85.4357 0.599298
  506 -12.5659 -96.8971 -4.04241
  507 -0.611016 -52.2121 -6.96832
  508 -2.49655 -41.5302 13.2087
  509 8.04644 -61.6348 2.41495
  510 6.07984 -58.3307 -8.35294
  511 -0.873376 -6.84115 1.23439
  512 6.72970 -58.1841 6.61645
  513 13.0911 -78.1844 5.49829
  514 12.7748 -79.0917 -0.445413
  515 7.50247 -50.7714 -1.80782
  516 0.933354 -29.2708 -4.29429
  517 0.904026 -18.5740 4.52601
  518 -0.881688 -0.0937445 -0.818329
  519 8.31326 -90.8056 3.67003
  520 2.49873 -33.1780 2.87134
  521 0.785733 -40.6814 8.14984
  522 -1.84382 -29.3542 -10.2697
  523 12.7046 -80.9826 -4.81453
  524 -0.283467 -23.5188 3.33720
  525 -1.18217 -1.17006 0.663076
  526 -19.3915 -87.3312 -0.395319
  527 -29.9615 -103.562 1.58928
  528 -0.681831 0.392560 0.205545
  529 -0.340054 -12.2315 -1.70311
  530 1.66057 -26.6649 -2.35789
  531 0.130309 -12.3495 -4.37749
  532 6.04148 -84.0514 -1.23844
  533 12.6362 -81.3875 0.970869
  534 0.654439 -7.96463 2.30839
  535 2.54104 -58.8680 7.49507
  536 -0.739202 -54.6760 -14.2827
  537 6.77943 -84.3993 0.729619
  538 7.20608 -93.0587 -2.74517
  539 0.560822 -24.8469 -5.80373
  540 -0.378797 -25.2998 -0.865512
  541 -1.31036 1.29555 -0.0561799
  542 1.34154 -48.9205 11.6501
  543 -0.958198 0.498628 -1.04219
  544 16.1642 -84.6061 -0.935221
  545 11.5053 -66.2106 -3.51877
  546 4.73225 -58.5255 -5.80689
  547 -19.7586 -87.9081 0.789236
  548 -30.8080 -104.047 -1.89135
  549 -18.7091 -79.0608 5.52666
  550 -20.4123 -83.1713 -12.8682
  551 -0.229983 -3.65179 -0.0960381
  552 -11.6974 -69.9593 -6.55282
  553 -10.0242 -66.5031 15.8662
  554 -0.400878 -20.8944 0.647755
  555 -1.55189 -18.4264 7.57822
  556 8.17071 -55.2007 2.14855
  557 16.0062 -81.4724 2.01500
  558 9.42765 -67.9952 -2.28392
  559 -1.36703 2.35740 -0.343338
  560 -0.912492 -0.709362 0.480586
  561 3.06934 -37.4855 7.10135
  562 15.4004 -87.8436 1.91753
  563 -0.713985 5.60160 -0.347239
  564 -29.3000 -88.2791 0.797906
  565 -0.860843 4.47975 0.0419240
  566 -46.5519 -104.996 -0.971197
  567 -0.511683 4.97646 1.74490
  568 -0.00397389 3.78466 2.85142
  569 2.10152 -2.35551 0.328621
  570 2.33826 -17.0418 -5.77647
  571 -11.5173 -52.6303 -9.20216
  572 -24.4153 -78.2167 -6.99830
  573 -30.3483 -86.8759 -1.98708
  574 -29.3158 -84.9493 2.33218
  575 -35.7990 -80.6146 6.52944
  576 -9.45258 -57.1529 7.16198
  577 1.28913 -19.8990 6.38528
  578 2.51307 -2.55496 -1.95896
  579 1.05377 2.13890 -2.78169
  580 -0.471512 5.28896 -2.14947
  581 -0.305040 4.59883 1.74543
  582 0.419310 2.19959 2.52455
  583 1.99067 -3.46882 0.567805
  584 2.20951 -10.1503 -3.04204
  585 -6.80225 -45.1841 -12.6694
  586 -38.8913 -85.3288 -11.8478
  587 -41.0001 -97.6550 -5.43120
  588 -43.7535 -101.286 5.03353
  589 -24.3939 -82.0970 13.9128
  590 -8.03059 -38.5962 14.2053
  591 2.53665 -7.80650 2.83902
  592 2.84227 -1.70405 -1.76267
  593 0.488758 2.91824 -3.00906
  594 -0.409471 5.40961 -1.91464
</Section>

newXOutput 25

<Section columns = "stress_xx | stress_yy | stress_xy">
  1 429.641 3.82813 -3.96216
  2 429.652 3.82891 3.96296
  3 769.344 0.381909 -0.198115
  4 769.332 0.381136 0.197323
  5 1.48123 -518.764 19.7582
  6 1593.50 -2.05958 -1.05512
  7 1.40447 -519.113 -19.8679
  8 1834.76 -29.1927 -12.9232
  9 436.967 2.28158 -2.37658
  10 448.732 4.28382 -7.41785
  11 474.455 6.16671 -17.0144
  12 516.688 3.87848 -31.3264
  13 578.488 3.49834 -33.0862
  14 649.907 9.79479 -53.6632
  15 770.508 1.97014 -68.4380
  16 900.319 -3.43513 -70.3435
  17 1073.65 -24.1954 -37.2946
  18 1127.33 -21.7080 -14.2697
  19 1165.43 -3.25514 11.0066
  20 1213.65 15.5610 1.09671
  21 1263.03 25.3799 -9.51526
  22 1317.23 -11.9933 -4.25953
  23 1212.29 9.83743 -4.60477
  24 1166.12 -2.99260 -10.2358
  25 1127.67 -21.5178 14.4048
  26 1073.97 -24.1993 37.3350
  27 900.516 -3.43137 70.3843
  28 770.654 1.97332 68.4700
  29 650.001 9.79824 53.6839
  30 578.562 3.49746 33.0991
  31 516.732 3.87877 31.3388
  32 474.484 6.16851 17.0212
  33 448.750 4.28491 7.42210
  34 436.980 2.28250 2.37854
  35 462.538 3.02746 4.81117
  36 488.689 14.2426 7.62898
  37 508.727 23.7521 6.88167
  38 537.175 31.4610 4.42140
  39 564.171 36.1505 1.95126
  40 595.642 34.8853 -0.286723
  41 629.651 29.0466 -1.18476
  42 678.649 18.9123 -3.63829
  43 713.507 11.7282 0.250135
  44 741.109 7.24560 -1.96075
  45 769.160 -0.184243 -4.83175
  46 786.245 -2.05433 -5.78164
  47 791.200 2.19321 -10.6534
  48 818.772 0.602319 -14.6627
  49 858.972 -4.86695 -13.1778
  50 889.425 -5.07303 -14.9912
  51 910.347 -6.51485 -10.2470
  52 920.186 -10.1627 0.509457
  53 904.130 -12.3796 20.5073
  54 861.856 -4.79803 31.4187
  55 783.471 4.18632 37.0486
  56 706.151 16.7228 28.3661
  57 666.928 19.0319 13.8035
  58 659.648 20.2121 -15.8584
  59 713.899 11.4981 -27.0974
  60 781.614 2.24176 -30.5003
  61 862.782 -4.06789 -29.5856
  62 904.443 -12.0097 -20.0689
  63 920.088 -10.0819 -0.506538
  64 910.243 -6.51494 10.2235
  65 889.342 -5.07325 14.9755
  66 858.911 -4.86517 13.1690
  67 818.734 0.601485 14.6544
  68 791.175 2.19176 10.6476
  69 786.226 -2.05445 5.77849
  70 769.147 -0.184601 4.82978
  71 741.101 7.24285 1.95933
  72 713.502 11.7224 -0.251371
  73 678.650 18.9029 3.63628
  74 629.659 29.0334 1.18372
  75 595.653 34.8698 0.286224
  76 564.181 36.1348 -1.95091
  77 537.183 31.4473 -4.42035
  78 508.728 23.7424 -6.87938
  79 488.684 14.2364 -7.62758
  80 462.530 3.02462 -4.80971
  81 77.1464 -414.428 2.96219
  82 294.536 -139.017 101.896
  83 600.855 56.8171 231.240
  84 907.013 136.264 291.740
  85 1193.85 116.647 311.792
  86 1468.55 33.6250 274.207
  87 1594.58 -16.2890 132.838
  88 1598.12 -15.5224 -133.940
  89 1470.08 28.6689 -274.342
  90 1192.40 117.589 -310.875
  91 906.550 136.772 -291.234
  92 600.406 56.8355 -231.259
  93 294.428 -139.070 -101.909
  94 77.1229 -414.631 -2.98077
  95 38.5176 -453.457 -36.4179
  96 219.812 -199.610 58.0964
  97 490.817 -30.6248 142.180
  98 853.353 76.6549 210.095
  99 1216.55 87.3593 218.957
  100 1527.18 25.9985 207.366
  101 1775.86 -18.6479 147.227
  102 1741.14 -22.6725 -131.541
  103 1530.99 37.4754 -203.480
  104 1217.53 85.8649 -219.073
  105 853.771 76.8067 -210.624
  106 491.397 -30.2813 -142.546
  107 220.180 -199.227 -58.3718
  108 38.6907 -452.989 36.1767
  109 495.093 76.2418 -18.5619
  110 495.125 76.2379 18.5548
  111 688.404 -53.4320 100.532
  112 688.440 -53.5688 -100.518
  113 341.452 89.0801 82.2041
  114 341.528 89.0784 -82.2203
  115 669.630 27.4739 32.9920
  116 669.624 27.4834 -33.0035
  117 497.646 40.3831 34.3938
  118 497.653 40.3702 -34.3817
  119 920.465 -34.1556 27.9648
  120 920.777 -33.4858 -28.6050
  121 373.930 8.29936 126.376
  122 373.912 8.20492 -126.438
  123 1018.98 48.5455 -21.9673
  124 1015.32 45.8276 24.1155
  125 564.079 48.2806 5.40230
  126 564.062 48.2967 -5.40323
  127 703.870 11.7302 -63.5965
  128 703.877 11.7359 63.5867
  129 467.682 -12.2424 187.482
  130 467.790 -12.2470 -187.469
  131 691.816 -124.365 135.892
  132 691.915 -124.571 -136.042
  133 493.233 50.1200 -79.4508
  134 493.231 50.1346 79.4747
  135 848.992 -43.4897 -5.57232
  136 849.054 -43.2370 5.72633
  137 589.490 31.8076 75.4296
  138 589.472 31.7846 -75.4396
  139 171.804 22.2800 7.10606
  140 171.891 22.3600 -7.18795
  141 433.313 88.6017 -44.5969
  142 433.274 88.6150 44.5996
  143 811.285 -19.5218 -42.0943
  144 811.293 -19.5026 42.1098
  145 732.552 7.83546 14.0435
  146 732.561 7.83960 -14.0505
  147 550.402 36.3306 -134.968
  148 550.411 36.3482 135.007
  149 483.714 14.7610 19.0239
  150 483.706 14.7556 -19.0168
  151 1189.36 59.1318 3.18182
  152 591.454 44.0143 44.4245
  153 591.434 44.0191 -44.4351
  154 630.483 30.9064 13.4677
  155 630.474 30.9194 -13.4725
  156 526.877 38.2771 11.8814
  157 526.887 38.2628 -11.8767
  158 512.005 59.8261 -15.5577
  159 511.985 59.8421 15.5629
  160 749.111 9.62644 -32.3780
  161 749.098 9.62175 32.3639
  162 808.006 -53.8109 -109.517
  163 807.974 -53.8484 109.520
  164 406.758 78.6840 35.1086
  165 406.716 78.6601 -35.1356
  166 873.393 -43.8683 93.1328
  167 873.729 -43.9418 -93.6663
  168 404.527 -121.391 186.273
  169 404.535 -121.517 -186.353
  170 1062.88 31.2463 54.8762
  171 1065.44 36.0849 -57.3666
  172 498.191 22.1095 -44.1464
  173 498.206 22.1172 44.1625
  174 879.466 35.9171 16.9588
  175 886.002 8.20214 63.5050
  176 869.384 9.01160 -61.2965
  177 840.657 -92.6064 35.6549
  178 840.911 -93.0171 -35.6458
  179 541.668 4.50726 112.133
  180 541.669 4.43203 -112.157
  181 878.607 -28.4447 -39.6187
  182 878.583 -30.0892 39.7602
  183 547.229 -70.8074 158.848
  184 547.256 -70.9601 -158.901
  185 547.877 59.2934 -16.0771
  186 547.900 59.2804 16.0731
  187 1267.24 67.5888 77.5590
  188 1272.78 61.1303 -78.9804
  189 485.838 56.5122 -47.4305
  190 485.825 56.5278 47.4452
  191 603.385 43.2693 23.5952
  192 603.369 43.2824 -23.6022
  193 697.817 -2.82560 76.7448
  194 697.805 -2.85754 -76.7423
  195 839.090 24.1059 -36.6485
  196 663.965 27.3164 50.7613
  197 663.955 27.3201 -50.7740
  198 146.289 -111.216 -115.801
  199 146.101 -111.354 115.696
  200 986.525 -23.8206 -55.3554
  201 986.579 -23.6403 55.2551
  202 576.698 37.9246 -1.30708
  203 576.709 37.9085 1.30689
  204 133.124 -103.418 -88.1068
  205 133.174 -103.271 88.0160
  206 807.874 -2.99230 -38.3566
  207 807.854 -2.99478 38.3442
  208 294.533 77.6977 -2.92347
  209 294.466 77.6658 2.87742
  210 762.606 -13.4498 -121.713
  211 762.694 -13.4418 121.769
  212 571.057 16.2850 -81.6652
  213 571.101 16.2931 81.6952
  214 519.094 -94.8890 169.782
  215 519.032 -94.9228 -169.900
  216 507.173 25.7174 13.0157
  217 507.175 25.7069 -13.0098
  218 465.216 66.3460 -118.268
  219 465.192 66.3668 118.295
  220 496.644 57.6747 66.8085
  221 496.617 57.6500 -66.8271
  222 672.580 21.4975 12.3348
  223 672.578 21.5073 -12.3397
  224 319.982 62.1911 132.199
  225 320.082 62.1885 -132.216
  226 740.277 -86.0056 -90.0088
  227 740.194 -85.7767 90.0246
  228 321.153 -86.6237 150.904
  229 321.374 -86.5160 -150.987
  230 756.432 4.98110 -19.0719
  231 756.417 4.97842 19.0628
  232 880.636 -10.7238 10.6466
  233 880.652 -10.7305 -10.6458
  234 520.725 23.8665 -58.7782
  235 520.750 23.8754 58.7981
  236 890.002 32.6901 39.7810
  237 1244.38 14.8609 89.8908
  238 1245.16 15.1261 -89.7686
  239 999.034 59.2412 186.414
  240 998.073 61.0947 -186.623
  241 471.515 81.5350 -16.3065
  242 471.482 81.5472 16.3074
  243 800.794 -46.4907 -45.9700
  244 800.808 -46.3552 46.0546
  245 476.629 8.24592 -20.8081
  246 476.646 8.24877 20.8165
  247 1401.97 21.8892 -52.2348
  248 800.506 3.89091 -27.3670
  249 800.476 3.88766 27.3543
  250 533.549 50.2085 -8.12508
  251 533.533 50.2246 8.12854
  252 382.470 96.3944 -31.5046
  253 382.415 96.3959 31.4905
  254 976.299 15.3996 29.7094
  255 971.226 15.5241 -30.1460
  256 1396.36 20.6311 50.9838
  257 543.831 57.4589 49.5517
  258 543.805 57.4542 -49.5629
  259 645.260 23.3330 -69.5415
  260 645.274 23.3427 69.5313
  261 748.127 4.35118 6.28904
  262 748.137 4.35318 -6.29200
  263 1433.65 -24.7646 79.5807
  264 1428.19 -0.470739 -70.8693
  265 976.349 52.6904 -17.0720
  266 452.658 39.0109 94.9446
  267 452.638 38.9531 -94.9789
  268 446.019 35.2498 -170.515
  269 445.952 35.2679 170.537
  270 711.403 15.1473 27.0365
  271 711.408 15.1540 -27.0479
  272 493.549 24.9371 -33.4660
  273 493.555 24.9458 33.4787
  274 460.847 3.86194 5.95375
  275 460.837 3.85993 -5.95083
  276 441.244 90.3248 -1.57740
  277 441.204 90.3271 1.56847
  278 883.975 -19.5667 -11.8037
  279 883.892 -19.7933 11.8870
  280 47.3778 -155.979 18.5164
  281 47.4762 -155.806 -18.6201
  282 612.467 33.8741 -4.93565
  283 612.477 33.8591 4.93395
  284 668.954 24.9460 22.0740
  285 668.950 24.9563 -22.0826
  286 756.112 20.8527 199.960
  287 755.795 21.0147 -200.218
  288 872.819 -54.5842 -16.5597
  289 872.953 -55.1639 16.6404
  290 547.329 37.3055 -2.81083
  291 547.319 37.3209 2.81229
  292 725.991 8.27411 -106.832
  293 726.091 8.28462 106.877
  294 865.662 -3.58155 21.6194
  295 865.711 -3.57973 -21.6337
  296 1218.60 48.6846 -178.055
  297 1216.84 48.3273 176.677
  298 503.136 -77.5308 -141.390
  299 502.844 -77.7091 141.246
  300 853.548 -7.05496 48.0105
  301 853.663 -3.82554 -47.7152
  302 495.734 43.0136 -62.7210
  303 495.737 43.0269 62.7416
  304 249.533 16.6234 84.3335
  305 249.485 16.5352 -84.4100
  306 508.012 36.3077 22.6829
  307 508.019 36.2945 -22.6742
  308 627.041 -7.01827 96.9330
  309 627.039 -7.08230 -96.9350
  310 1016.24 64.6646 7.84530
  311 458.522 69.3037 -82.8356
  312 458.498 69.3206 82.8547
  313 950.540 -10.4626 -28.6271
  314 949.377 -11.2003 28.0457
  315 588.248 39.9191 -6.73823
  316 588.261 39.9035 6.73625
  317 1520.22 -19.3987 -24.1442
  318 1611.18 -37.0589 49.8970
  319 666.589 10.8187 -87.7044
  320 666.676 10.8247 87.7391
  321 1021.62 27.7732 -145.141
  322 1021.35 28.5514 144.670
  323 713.635 12.1929 6.19478
  324 713.640 12.1989 -6.19821
  325 555.752 42.3937 -1.95004
  326 555.738 42.4098 1.95133
  327 525.704 31.4451 -5.87851
  328 525.698 31.4581 5.88108
  329 751.810 -6.18117 -57.6323
  330 751.814 -6.16909 57.6303
  331 1149.65 55.4768 8.17431
  332 646.208 26.0285 -6.45065
  333 646.214 26.0163 6.44811
  334 486.720 14.0081 8.88107
  335 486.715 14.0020 -8.87791
  336 497.793 57.0275 -30.2547
  337 497.777 57.0432 30.2646
  338 811.872 9.00220 -43.8253
  339 742.200 -9.57565 -149.910
  340 741.911 -9.73228 149.710
  341 789.717 4.68960 -17.9293
  342 789.690 4.68725 17.9202
  343 812.390 -102.719 75.8331
  344 812.633 -103.124 -76.0491
  345 731.818 13.0291 46.0416
  346 731.823 13.0343 -46.0574
  347 705.290 19.4065 39.9838
  348 705.291 19.4136 -39.9985
  349 808.909 -83.1763 46.0096
  350 809.008 -83.4715 -45.9241
  351 201.059 -181.826 122.691
  352 201.045 -181.944 -122.744
  353 538.403 56.1919 2.24039
  354 538.382 56.2072 -2.24044
  355 767.920 0.731304 8.77094
  356 767.936 0.732452 -8.77551
  357 412.219 88.7222 -86.8839
  358 412.171 88.7392 86.8915
  359 619.596 -55.9818 -163.423
  360 619.520 -56.0032 163.452
  361 626.089 37.9416 35.7591
  362 626.075 37.9515 -35.7692
  363 898.773 -19.7555 56.3472
  364 897.668 -17.1896 -57.5725
  365 510.992 67.4031 1.78197
  366 510.965 67.4159 -1.78263
  367 433.433 -66.6647 -168.947
  368 433.422 -66.5320 168.879
  369 734.797 -28.5841 -72.6707
  370 734.799 -28.5124 72.6974
  371 1157.98 58.9071 -15.4342
  372 891.105 -59.4171 18.4183
  373 891.598 -59.8911 -18.5008
  374 249.826 69.2952 71.1284
  375 249.926 69.3221 -71.1766
  376 599.937 -37.1764 126.950
  377 599.961 -37.2936 -126.970
  378 1017.14 -29.7278 44.4872
  379 1016.91 -29.7610 -44.4601
  380 810.416 11.5177 46.7098
  381 766.555 24.0186 -3.24969
  382 548.101 -111.570 166.527
  383 548.137 -111.728 -166.614
  384 512.979 47.8231 21.3602
  385 512.992 47.8078 -21.3522
  386 919.659 25.2857 -44.3154
  387 609.925 36.0690 59.0591
  388 609.907 36.0655 -59.0703
  389 752.504 -101.451 125.725
  390 752.586 -101.524 -126.045
  391 493.117 6.21555 -27.7542
  392 493.144 6.21806 27.7649
  393 1108.20 59.8728 37.8842
  394 1114.72 61.4003 -39.3857
  395 902.401 -30.3990 82.5961
  396 902.245 -30.3947 -82.5488
  397 662.867 -94.9466 130.547
  398 662.941 -95.1379 -130.592
  399 598.694 5.94691 -162.237
  400 598.683 5.96015 162.284
  401 414.446 74.6695 -133.180
  402 414.391 74.6928 133.196
  403 347.927 55.4473 70.1894
  404 347.889 55.3902 -70.2401
  405 763.901 16.7784 22.9139
  406 541.867 60.6551 -28.0785
  407 541.893 60.6473 28.0715
  408 537.610 27.6825 96.6248
  409 537.594 27.6326 -96.6428
  410 484.222 -18.5728 -139.198
  411 484.220 -18.4656 139.154
  412 457.235 5.70864 10.4755
  413 457.221 5.70684 -10.4710
  414 578.267 51.1848 -27.9404
  415 578.287 51.1738 27.9330
  416 573.382 52.2167 15.3994
  417 573.364 52.2314 -15.4033
  418 109.489 -237.272 52.4263
  419 109.722 -236.968 -52.6214
  420 918.109 13.2744 54.7828
  421 633.065 33.8341 23.6840
  422 633.054 33.8465 -23.6920
  423 499.741 26.1355 25.9004
  424 499.742 26.1257 -25.8905
  425 466.807 75.6655 47.8415
  426 466.833 75.6494 -47.8307
  427 493.218 36.3819 -47.7563
  428 493.218 36.3938 47.7734
  429 762.017 3.55601 -49.2560
  430 762.008 3.55280 49.2415
  431 510.826 47.1123 -100.869
  432 510.832 47.1270 100.898
  433 287.443 -61.1543 -150.284
  434 287.458 -61.0233 150.205
  435 1137.21 -5.19453 23.0148
  436 1137.43 -5.65418 -22.9047
  437 1415.41 9.14794 166.585
  438 1419.93 5.77536 -166.429
  439 469.831 73.5342 33.3423
  440 469.796 73.5255 -33.3568
  441 21.0203 -332.143 -45.5882
  442 21.0494 -331.932 45.5275
  443 844.941 -32.1390 20.8932
  444 844.885 -32.1931 -20.8290
  445 881.892 -8.73703 32.3542
  446 881.762 -8.28013 -31.6762
  447 33.8317 -335.666 19.1198
  448 33.9694 -335.366 -19.2783
  449 770.893 -106.286 -82.4666
  450 770.737 -105.992 82.4156
  451 851.941 -0.733862 -18.3964
  452 851.888 -0.734749 18.3848
  453 794.279 6.47193 -45.8624
  454 870.269 -38.1442 -23.2460
  455 870.011 -38.7014 23.5450
  456 653.230 13.8904 -76.2347
  457 653.243 13.9114 76.2300
  458 567.647 7.89496 -43.3284
  459 567.707 7.89710 43.3447
  460 190.445 12.6975 99.3095
  461 190.574 12.7537 -99.3805
  462 756.881 -61.6974 72.8342
  463 756.925 -61.8633 -72.7809
  464 699.663 18.6442 16.3116
  465 699.665 18.6524 -16.3189
  466 487.400 68.7506 -26.6631
  467 487.376 68.7664 26.6702
  468 760.793 2.93248 2.52261
  469 760.804 2.93332 -2.52366
  470 598.687 42.2079 -15.2674
  471 598.702 42.1931 15.2628
  472 440.075 0.141065 1.58394
  473 440.064 0.140327 -1.58292
  474 477.304 59.7668 -67.5004
  475 477.290 59.7820 67.5191
  476 317.259 -8.69973 -162.188
  477 317.112 -8.73130 162.153
  478 734.357 4.33225 -24.7633
  479 17.0260 -89.1519 0.372314
  480 4.25884 -48.6974 -1.75675
  481 3.96144 -40.8006 2.78448
  482 3.92071 -79.5212 3.22060
  483 2.34117 -82.7744 -10.1993
  484 2.55289 -76.9683 -4.75559
  485 2.74483 -73.6919 12.2006
  486 3.28663 -45.4706 7.08156
  487 0.734022 -34.4690 -8.97371
  488 -4.78149 -91.2809 -0.443098
  489 -9.25671 -104.694 1.09746
  490 -1.09874 -10.1353 -1.05766
  491 1.85395 -39.7834 -6.63397
  492 -1.39458 -27.6779 8.16863
  493 13.9352 -79.3377 -1.48421
  494 -1.30359 -7.54690 0.728599
  495 11.6388 -71.6244 1.23579
  496 -0.388938 -14.3192 1.00717
  497 -0.187723 -9.82524 -0.767817
  498 12.7452 -89.1904 0.210484
  499 14.7978 -93.8276 -1.04531
  500 -0.554274 -10.6929 -2.38505
  501 -3.23461 -66.0961 6.88782
  502 -4.61143 -59.2335 -16.3319
  503 -12.6795 -86.0072 -2.42202
  504 -15.6586 -95.1675 8.02261
  505 -9.48457 -89.2751 0.578336
  506 -13.5857 -101.261 -4.17708
  507 -1.08753 -54.2584 -7.17559
  508 -2.81448 -43.0150 13.6655
  509 8.12404 -64.2845 2.51994
  510 6.14985 -60.7995 -8.71701
  511 -0.937101 -6.84359 1.14361
  512 6.83093 -60.6444 6.89904
  513 13.4807 -81.6753 5.75354
  514 13.0656 -82.6490 -0.472056
  515 7.58881 -52.8716 -1.87443
  516 0.820657 -30.3148 -4.43213
  517 0.685730 -19.1032 4.55798
  518 -0.975023 0.207490 -0.903059
  519 8.45802 -94.9306 3.83585
  520 2.38032 -34.4204 2.96122
  521 0.414441 -42.1647 8.35161
  522 -2.07958 -30.2670 -10.4981
  523 13.0769 -84.6201 -5.04013
  524 -0.431674 -24.2875 3.41812
  525 -1.25760 -0.939811 0.784399
  526 -21.2764 -91.2645 -0.369175
  527 -32.0916 -108.239 1.61303
  528 -0.763197 0.703199 0.227854
  529 -0.490474 -12.4488 -1.63258
  530 1.54188 -27.5969 -2.43590
  531 0.158251 -12.5528 -4.29261
  532 5.89816 -87.8580 -1.29588
  533 12.9196 -85.0653 1.02402
  534 0.745233 -7.96959 2.12103
  535 2.22458 -61.3340 7.78999
  536 -1.01460 -56.9113 -14.8741
  537 6.66788 -88.2286 0.763523
  538 7.28835 -97.2937 -2.87603
  539 0.216014 -25.6078 -5.84674
  540 -0.573100 -26.1575 -0.886822
  541 -1.41073 1.62414 -0.0222397
  542 1.21050 -50.8745 12.1165
  543 -1.01547 0.796856 -1.18382
  544 16.6866 -88.4502 -0.979686
  545 11.8194 -69.0971 -3.67653
  546 4.59929 -60.9737 -6.03353
  547 -21.6712 -91.8848 0.808680
  548 -32.9923 -108.772 -1.95551
  549 -20.2165 -82.4860 5.68636
  550 -21.7116 -86.7350 -13.3390
  551 -0.308965 -3.46889 -0.275911
  552 -12.7883 -72.8917 -6.75859
  553 -10.7457 -69.2118 16.4741
  554 -0.571214 -21.5493 0.653814
  555 -1.72273 -18.8260 7.61884
  556 8.32278 -57.5224 2.23851
  557 16.5246 -85.1530 2.10394
  558 9.56185 -70.9559 -2.38719
  559 -1.46320 2.72695 -0.402020
  560 -1.00584 -0.416217 0.581097
  561 3.02466 -38.9181 7.37039
  562 15.9050 -91.8453 2.00673
  563 -0.769747 6.10416 -0.368926
  564 -31.9365 -92.2187 0.864196
  565 -0.933024 4.93526 0.0417924
  566 -49.7316 -109.695 -1.03961
  567 -0.547053 5.51890 1.89118
  568 -0.00152565 4.33985 3.15589
  569 2.01225 -2.09735 0.614585
  570 2.05943 -17.4424 -5.75973
  571 -12.5380 -54.6356 -9.44786
  572 -26.1796 -81.5630 -7.17627
  573 -32.8459 -90.7510 -1.96220
  574 -31.6826 -88.7392 2.34701
  575 -38.1783 -84.0991 6.66580
  576 -10.3791 -59.3656 7.32522
  577 0.951090 -20.4142 6.41996
  578 2.49912 -2.28759 -2.32934
  579 1.15653 2.61684 -3.08729
  580 -0.499542 5.82156 -2.31385
  581 -0.327964 5.05883 1.89048
  582 0.456589 2.57285 2.77588
  583 2.23617 -3.26883 0.874964
  584 2.31872 -10.1849 -2.77224
  585 -7.29725 -46.7505 -13.0158
  586 -41.0828 -88.9583 -12.1862
  587 -43.6338 -102.017 -5.57236
  588 -46.6016 -105.804 5.14048
  589 -25.8286 -85.5609 14.3734
  590 -8.56258 -39.8589 14.6055
  591 2.68240 -7.78184 2.56114
  592 3.14709 -1.44190 -2.12166
  593 0.539464 3.31177 -3.28231
  594 -0.428682 5.89792 -2.06925
</Section>

newXOutput 26

<Section columns = "stress_xx | stress_yy | stress_xy">
  1 444.178 3.97937 -4.11884
  2 444.190 3.98019 4.11968
  3 797.046 0.379223 -0.187364
  4 797.034 0.378408 0.186527
  5 1.36317 -539.621 20.3965
  6 1648.26 -2.68237 -1.08890
  7 1.28285 -539.989 -20.5093
  8 1896.42 -31.3508 -13.2933
  9 451.763 2.35974 -2.42875
  10 463.917 4.44566 -7.63335
  11 490.461 6.39581 -17.5795
  12 534.165 4.02988 -32.3863
  13 597.946 3.66324 -34.2093
  14 671.995 10.1788 -55.5483
  15 796.882 2.05488 -70.8871
  16 931.625 -3.52869 -72.9950
  17 1111.35 -25.0750 -38.8595
  18 1167.60 -22.5291 -15.2311
  19 1207.99 -3.32085 10.8208
  20 1258.96 16.1305 0.526949
  21 1311.13 26.2598 -10.1919
  22 1366.88 -12.5704 -4.21962
  23 1257.60 10.2648 -4.08219
  24 1208.70 -3.03696 -10.0136
  25 1167.94 -22.3296 15.3688
  26 1111.68 -25.0796 38.8994
  27 931.829 -3.52523 73.0362
  28 797.034 2.05794 70.9198
  29 672.093 10.1823 55.5696
  30 598.023 3.66229 34.2227
  31 534.210 4.03015 32.3993
  32 490.492 6.39769 17.5867
  33 463.935 4.44680 7.63782
  34 451.777 2.36070 2.43080
  35 478.472 3.08583 4.98479
  36 505.776 14.7046 7.92806
  37 526.761 24.5297 7.12253
  38 556.502 32.4696 4.58951
  39 584.619 37.3252 2.03214
  40 617.307 36.0243 -0.280434
  41 652.564 30.0009 -1.20660
  42 703.257 19.5195 -3.74554
  43 739.303 12.1057 0.296724
  44 767.851 7.50015 -2.01301
  45 796.849 -0.205590 -4.99938
  46 814.490 -2.15075 -5.96443
  47 819.610 2.27330 -11.0034
  48 848.152 0.625802 -15.1880
  49 889.784 -5.06485 -13.6738
  50 921.433 -5.27899 -15.5960
  51 943.349 -6.77203 -10.7388
  52 953.820 -10.5947 0.361241
  53 937.510 -12.9366 21.1518
  54 893.840 -5.05091 32.5111
  55 812.626 4.37073 38.4589
  56 732.396 17.4901 29.4868
  57 691.654 19.9243 14.3955
  58 684.110 21.1075 -16.4899
  59 740.433 11.9957 -28.1356
  60 810.713 2.31452 -31.6457
  61 894.790 -4.29251 -30.6137
  62 937.827 -12.5516 -20.6992
  63 953.714 -10.5116 -0.359682
  64 943.239 -6.77230 10.7139
  65 921.346 -5.27924 15.5793
  66 889.720 -5.06299 13.6644
  67 848.113 0.624916 15.1792
  68 819.583 2.27177 10.9972
  69 814.470 -2.15089 5.96112
  70 796.836 -0.205967 4.99732
  71 767.843 7.49726 2.01151
  72 739.298 12.0996 -0.298033
  73 703.258 19.5096 3.74341
  74 652.572 29.9869 1.20551
  75 617.318 36.0080 0.279909
  76 584.631 37.3086 -2.03176
  77 556.510 32.4552 -4.58840
  78 526.762 24.5195 -7.12011
  79 505.771 14.6981 -7.92658
  80 478.463 3.08285 -4.98324
  81 79.6423 -431.534 2.72676
  82 304.606 -145.125 105.229
  83 621.347 58.3625 239.261
  84 938.010 141.115 302.070
  85 1234.73 120.816 323.006
  86 1518.08 34.3557 284.077
  87 1648.59 -17.5999 137.647
  88 1652.25 -16.7526 -138.787
  89 1519.65 29.1380 -284.222
  90 1233.22 121.808 -322.057
  91 937.527 141.648 -301.551
  92 620.875 58.3800 -239.284
  93 304.486 -145.186 -105.239
  94 79.6150 -431.752 -2.74313
  95 39.8328 -471.707 -37.9222
  96 227.435 -207.657 60.0591
  97 507.588 -32.2172 146.998
  98 882.295 79.3354 217.412
  99 1258.05 90.8430 226.932
  100 1579.26 26.7606 215.258
  101 1835.58 -20.2445 152.741
  102 1800.25 -24.3233 -136.529
  103 1583.20 38.7088 -211.269
  104 1259.07 89.2577 -227.072
  105 882.718 79.4936 -217.967
  106 508.174 -31.8615 -147.375
  107 227.811 -207.259 -60.3432
  108 40.0111 -471.217 37.6728
  109 513.191 79.2479 -19.1266
  110 513.225 79.2434 19.1196
  111 713.016 -55.1501 104.433
  112 713.052 -55.2920 -104.419
  113 353.903 92.7256 85.3943
  114 353.981 92.7244 -85.4100
  115 693.931 28.5211 34.1311
  116 693.925 28.5313 -34.1434
  117 515.359 41.8092 35.5711
  118 515.366 41.7958 -35.5582
  119 953.814 -35.6269 28.7011
  120 954.133 -34.9209 -29.3681
  121 387.436 9.08241 130.823
  122 387.415 8.98385 -130.886
  123 1056.55 50.3125 -22.5139
  124 1052.76 47.4938 24.7437
  125 584.612 49.9884 5.57043
  126 584.595 50.0055 -5.57136
  127 729.303 12.3892 -65.9791
  128 729.310 12.3946 65.9683
  129 484.350 -12.2744 194.646
  130 484.459 -12.2774 -194.632
  131 716.299 -129.230 141.095
  132 716.400 -129.450 -141.252
  133 510.602 51.9914 -82.2614
  134 510.601 52.0064 82.2864
  135 879.750 -45.1079 -6.11619
  136 879.814 -44.8465 6.27591
  137 610.838 33.3212 78.1231
  138 610.819 33.2981 -78.1336
  139 178.194 23.6420 7.62973
  140 178.286 23.7262 -7.71298
  141 449.061 92.0261 -46.2968
  142 449.020 92.0399 46.3004
  143 840.627 -20.1315 -43.9015
  144 840.635 -20.1120 43.9165
  145 759.001 8.09991 14.5102
  146 759.010 8.10429 -14.5175
  147 569.708 37.7899 -139.935
  148 569.719 37.8074 139.976
  149 500.526 15.2639 19.6619
  150 500.518 15.2582 -19.6544
  151 1232.81 61.0892 3.31860
  152 612.994 45.7998 45.9624
  153 612.973 45.8054 -45.9736
  154 653.426 31.9654 13.9167
  155 653.416 31.9791 -13.9218
  156 545.834 39.5708 12.2866
  157 545.845 39.5557 -12.2816
  158 530.567 61.9998 -16.1241
  159 530.546 62.0167 16.1297
  160 776.144 10.0276 -33.5314
  161 776.130 10.0226 33.5164
  162 836.694 -55.6607 -113.917
  163 836.664 -55.7007 113.917
  164 421.664 81.9835 36.1848
  165 421.619 81.9589 -36.2120
  166 904.328 -45.6954 96.8223
  167 904.677 -45.7758 -97.3769
  168 418.796 -126.041 193.118
  169 418.801 -126.174 -193.201
  170 1100.98 32.3739 57.3893
  171 1103.62 37.4285 -59.9794
  172 515.462 22.8902 -45.6541
  173 515.478 22.8982 45.6710
  174 912.262 37.2464 17.6030
  175 918.644 8.42858 65.7455
  176 901.473 9.30265 -63.4889
  177 870.749 -96.3075 37.3140
  178 871.010 -96.7401 -37.3035
  179 561.135 5.13341 116.170
  180 561.134 5.05573 -116.194
  181 910.802 -29.6704 -40.8798
  182 910.773 -31.3837 41.0264
  183 566.677 -73.1832 164.731
  184 566.703 -73.3429 -164.785
  185 567.870 61.5224 -16.5917
  186 567.894 61.5084 16.5876
  187 1312.70 69.8634 80.8214
  188 1318.40 63.1051 -82.3102
  189 503.200 58.5802 -49.0935
  190 503.186 58.5965 49.1091
  191 625.371 44.8632 24.3846
  192 625.354 44.8773 -24.3919
  193 722.975 -2.63489 79.6758
  194 722.963 -2.66735 -79.6740
  195 870.316 25.0314 -38.0222
  196 688.040 28.4769 52.5825
  197 688.030 28.4813 -52.5961
  198 151.559 -115.031 -120.403
  199 151.366 -115.176 120.295
  200 1021.70 -24.5714 -57.7964
  201 1021.75 -24.3820 57.6887
  202 597.652 39.1765 -1.34801
  203 597.664 39.1595 1.34781
  204 137.951 -107.025 -91.2176
  205 138.005 -106.870 91.1249
  206 837.044 -3.01358 -39.8916
  207 837.022 -3.01638 39.8780
  208 305.399 81.0211 -3.27995
  209 305.329 80.9875 3.23351
  210 789.482 -13.7914 -126.353
  211 789.573 -13.7841 126.410
  212 590.772 16.8711 -84.5564
  213 590.818 16.8793 84.5874
  214 537.249 -98.7978 175.988
  215 537.180 -98.8365 -176.111
  216 525.155 26.5629 13.4305
  217 525.157 26.5519 -13.4243
  218 481.750 68.9267 -122.598
  219 481.726 68.9478 122.627
  220 514.727 60.1869 69.0936
  221 514.698 60.1619 -69.1126
  222 696.991 22.2231 12.7479
  223 696.988 22.2334 -12.7532
  224 331.553 64.9152 137.263
  225 331.655 64.9138 -137.280
  226 766.700 -89.1332 -93.6241
  227 766.617 -88.8947 93.6407
  228 332.601 -89.5794 156.726
  229 332.826 -89.4659 -156.811
  230 783.688 5.17101 -19.7247
  231 783.672 5.16817 19.7151
  232 912.665 -11.0674 11.2394
  233 912.684 -11.0737 -11.2395
  234 538.714 24.7349 -60.8355
  235 538.740 24.7440 60.8563
  236 923.044 33.9286 41.1885
  237 1288.75 15.4996 93.7284
  238 1289.58 15.7506 -93.6009
  239 1034.12 61.4855 193.457
  240 1033.12 63.4260 -193.675
  241 488.695 84.6544 -16.9652
  242 488.661 84.6674 16.9666
  243 829.662 -48.1209 -47.9955
  244 829.678 -47.9808 48.0822
  245 492.965 8.52932 -21.4977
  246 492.983 8.53230 21.5065
  247 1451.56 22.2866 -54.2947
  248 829.333 4.09017 -28.3840
  249 829.301 4.08668 28.3705
  250 552.889 51.9798 -8.41743
  251 552.872 51.9968 8.42114
  252 396.474 100.249 -32.8189
  253 396.417 100.251 32.8053
  254 1011.92 15.8921 30.4925
  255 1006.67 16.0187 -30.9461
  256 1445.80 20.9392 53.0019
  257 563.646 59.8317 51.2424
  258 563.619 59.8276 -51.2540
  259 668.629 24.4718 -72.0804
  260 668.644 24.4812 72.0692
  261 775.102 4.49609 6.49947
  262 775.112 4.49820 -6.50257
  263 1485.03 -26.0182 82.9892
  264 1479.45 -0.772206 -73.9747
  265 1012.60 54.6508 -17.6400
  266 469.067 40.9319 98.2402
  267 469.045 40.8722 -98.2752
  268 461.894 36.8707 -176.959
  269 461.827 36.8881 176.982
  270 737.142 15.6992 27.9672
  271 737.147 15.7063 -27.9792
  272 510.799 25.8063 -34.5889
  273 510.806 25.8154 34.6023
  274 476.675 3.97468 6.13450
  275 476.665 3.97256 -6.13144
  276 457.395 93.8945 -1.77280
  277 457.353 93.8972 1.76420
  278 916.316 -20.3151 -12.0091
  279 916.232 -20.5489 12.0943
  280 49.1273 -161.515 19.4306
  281 49.2296 -161.333 -19.5367
  282 634.756 34.9921 -5.09831
  283 634.766 34.9764 5.09651
  284 693.243 25.8297 22.8191
  285 693.239 25.8406 -22.8282
  286 782.408 21.4462 207.290
  287 782.079 21.6131 -207.562
  288 904.438 -56.8021 -16.8710
  289 904.574 -57.4083 16.9565
  290 567.103 38.5352 -2.90296
  291 567.092 38.5515 2.90451
  292 751.236 8.66300 -110.767
  293 751.340 8.67337 110.814
  294 896.969 -3.65638 22.5444
  295 897.021 -3.65431 -22.5598
  296 1261.45 50.3003 -184.934
  297 1259.64 49.9509 183.501
  298 520.908 -80.4717 -146.691
  299 520.612 -80.6584 146.542
  300 885.094 -7.40182 49.7146
  301 885.222 -4.03100 -49.4190
  302 513.156 44.5799 -64.9027
  303 513.159 44.5938 64.9244
  304 258.667 17.7220 87.2030
  305 258.615 17.6296 -87.2810
  306 526.131 37.5509 23.4469
  307 526.137 37.5371 -23.4377
  308 649.591 -6.89852 100.545
  309 649.588 -6.96434 -100.547
  310 1053.91 67.1238 8.00384
  311 474.910 71.9404 -85.8397
  312 474.885 71.9579 85.8601
  313 984.686 -10.9394 -30.0668
  314 983.485 -11.7072 29.4596
  315 609.663 41.2831 -6.95678
  316 609.677 41.2666 6.95470
  317 1574.99 -20.4963 -25.1560
  318 1667.99 -39.0196 51.9142
  319 689.530 11.2376 -90.8512
  320 689.622 11.2437 90.8869
  321 1057.51 28.8812 -150.721
  322 1057.23 29.7024 150.224
  323 739.438 12.5936 6.38664
  324 739.443 12.5999 -6.39025
  325 575.918 43.8332 -2.02293
  326 575.904 43.8502 2.02432
  327 544.536 32.4737 -6.07070
  328 544.530 32.4874 6.07341
  329 778.951 -6.21574 -59.9067
  330 778.955 -6.20375 59.9036
  331 1191.73 57.2895 8.74307
  332 669.698 26.8783 -6.66294
  333 669.705 26.8654 6.66026
  334 503.723 14.4605 9.18468
  335 503.717 14.4541 -9.18136
  336 515.709 59.0946 -31.3190
  337 515.692 59.1112 31.3294
  338 842.011 9.28739 -45.4455
  339 768.223 -9.98932 -155.530
  340 767.934 -10.1520 155.321
  341 818.109 4.89017 -18.5526
  342 818.081 4.88767 18.5430
  343 841.270 -106.843 78.9035
  344 841.521 -107.270 -79.1271
  345 758.261 13.6268 47.7315
  346 758.267 13.6325 -47.7486
  347 730.823 20.1972 41.4065
  348 730.824 20.2049 -41.4221
  349 837.959 -86.3785 48.0656
  350 838.060 -86.6868 -47.9763
  351 208.087 -189.026 127.121
  352 208.070 -189.152 -127.174
  353 558.013 58.2395 2.28433
  354 557.991 58.2558 -2.28426
  355 795.553 0.738878 9.05610
  356 795.570 0.740094 -9.06091
  357 427.109 92.2032 -90.1379
  358 427.059 92.2205 90.1465
  359 641.602 -57.7909 -169.737
  360 641.527 -57.8150 169.766
  361 648.871 39.4069 36.9951
  362 648.856 39.4177 -37.0058
  363 931.610 -20.6589 58.2422
  364 930.481 -17.9748 -59.5193
  365 529.629 69.9446 1.78972
  366 529.601 69.9583 -1.79017
  367 448.828 -68.8928 -175.113
  368 448.819 -68.7537 175.043
  369 761.227 -29.3955 -75.5635
  370 761.230 -29.3217 75.5903
  371 1200.32 60.8977 -16.3282
  372 923.049 -61.8393 19.4089
  373 923.558 -62.3405 -19.4949
  374 259.036 72.3426 73.9923
  375 259.139 72.3714 -74.0408
  376 621.367 -38.1902 131.657
  377 621.389 -38.3120 -131.677
  378 1053.23 -30.6609 46.4724
  379 1052.99 -30.6948 -46.4471
  380 840.471 11.9401 48.4314
  381 795.097 24.9806 -3.36060
  382 567.452 -115.712 172.741
  383 567.486 -115.879 -172.831
  384 531.433 49.5044 22.0936
  385 531.447 49.4883 -22.0851
  386 953.713 26.1723 -45.8220
  387 632.068 37.6339 61.1472
  388 632.048 37.6309 -61.1590
  389 779.007 -105.557 130.525
  390 779.091 -105.639 -130.859
  391 509.935 6.42003 -28.6894
  392 509.964 6.42264 28.7006
  393 1148.46 62.1312 39.7900
  394 1155.22 63.6912 -41.3653
  395 934.265 -31.3782 85.8713
  396 934.104 -31.3728 -85.8242
  397 686.393 -98.4039 135.523
  398 686.468 -98.6043 -135.569
  399 619.846 6.43621 -168.355
  400 619.837 6.44875 168.403
  401 429.293 77.6797 -138.157
  402 429.236 77.7031 138.175
  403 360.660 57.9972 72.5162
  404 360.619 57.9380 -72.5676
  405 792.310 17.4323 23.7715
  406 561.657 63.0181 -29.0043
  407 561.684 63.0094 28.9971
  408 557.051 29.1456 100.067
  409 557.033 29.0945 -100.085
  410 501.571 -18.8289 -144.227
  411 501.570 -18.7174 144.182
  412 472.833 5.91069 10.8128
  413 472.818 5.90879 -10.8080
  414 599.361 53.1477 -28.8805
  415 599.383 53.1358 28.8727
  416 594.285 54.1307 15.9026
  417 594.265 54.1464 -15.9067
  418 113.379 -246.356 54.4826
  419 113.618 -246.038 -54.6836
  420 951.993 13.6162 56.7012
  421 656.099 35.0638 24.4817
  422 656.088 35.0769 -24.4901
  423 517.389 27.0172 26.7682
  424 517.389 27.0070 -26.7579
  425 483.637 78.5196 49.5815
  426 483.664 78.5027 -49.5699
  427 510.604 37.6733 -49.3873
  428 510.604 37.6857 49.4053
  429 789.528 3.82281 -51.1382
  430 789.518 3.81915 51.1224
  431 528.742 48.9009 -104.496
  432 528.748 48.9160 104.527
  433 297.733 -63.1326 -155.682
  434 297.751 -62.9948 155.601
  435 1178.02 -5.38708 24.3075
  436 1178.25 -5.87019 -24.1950
  437 1464.55 9.01996 172.846
  438 1469.19 5.49045 -172.681
  439 487.023 76.5410 34.3978
  440 486.986 76.5326 -34.4124
  441 21.6332 -345.241 -47.1653
  442 21.6650 -345.017 47.1039
  443 875.615 -33.2993 21.9919
  444 875.558 -33.3545 -21.9266
  445 914.445 -9.09876 33.4342
  446 914.308 -8.62226 -32.7323
  447 35.0585 -348.598 19.9806
  448 35.2007 -348.284 -20.1440
  449 798.329 -110.364 -85.7818
  450 798.170 -110.055 85.7298
  451 882.614 -0.726423 -19.1139
  452 882.558 -0.727400 19.1016
  453 823.763 6.71983 -47.5935
  454 901.975 -39.6866 -23.8171
  455 901.708 -40.2636 24.1282
  456 676.801 14.7197 -79.0521
  457 676.815 14.7408 79.0467
  458 586.927 8.20015 -44.8280
  459 586.990 8.20232 44.8450
  460 197.444 13.7108 103.231
  461 197.577 13.7705 -103.303
  462 784.024 -63.8409 75.8183
  463 784.068 -64.0130 -75.7633
  464 725.003 19.2891 16.8519
  465 725.005 19.2978 -16.8597
  466 505.053 71.3035 -27.6358
  467 505.028 71.3201 27.6435
  468 788.207 3.04040 2.60942
  469 788.218 3.04127 -2.61052
  470 620.498 43.7110 -15.7704
  471 620.513 43.6953 15.7655
  472 455.050 0.127007 1.62779
  473 455.039 0.126233 -1.62672
  474 494.297 61.9994 -69.9005
  475 494.283 62.0152 69.9204
  476 328.660 -8.59034 -168.425
  477 328.511 -8.62473 168.390
  478 761.663 4.41663 -25.7362
  479 17.5990 -92.9925 0.380039
  480 4.26619 -50.5873 -1.81680
  481 3.97094 -42.3232 2.88636
  482 3.73678 -82.8483 3.34822
  483 2.23742 -86.2134 -10.6373
  484 2.33150 -80.1523 -4.95829
  485 2.67517 -76.6880 12.7197
  486 3.20855 -47.1526 7.31634
  487 0.673852 -35.6310 -9.26117
  488 -5.49116 -95.2496 -0.466985
  489 -10.0111 -109.258 1.14581
  490 -1.22586 -10.3133 -1.06587
  491 1.71582 -41.2130 -6.84344
  492 -1.55025 -28.5465 8.39869
  493 14.3651 -82.6890 -1.54581
  494 -1.43325 -7.62024 0.719890
  495 11.9553 -74.5959 1.27728
  496 -0.507991 -14.6557 1.00999
  497 -0.288222 -9.98304 -0.774289
  498 13.0650 -93.0431 0.218656
  499 15.3017 -97.8775 -1.09920
  500 -0.605827 -10.8945 -2.37083
  501 -3.75098 -68.6741 7.11978
  502 -4.96556 -61.4489 -16.9669
  503 -13.7746 -89.6255 -2.46847
  504 -16.6850 -99.1748 8.31531
  505 -10.4547 -93.0856 0.559143
  506 -14.5395 -105.591 -4.31636
  507 -1.45824 -56.2655 -7.38957
  508 -3.07711 -44.4727 14.1414
  509 8.25333 -66.9000 2.63355
  510 6.25095 -63.2307 -9.08705
  511 -0.996529 -6.88370 1.07288
  512 6.95936 -63.0717 7.18404
  513 13.9088 -85.1244 6.00921
  514 13.4124 -86.1646 -0.507633
  515 7.71825 -54.9409 -1.95167
  516 0.728854 -31.3508 -4.57370
  517 0.571488 -19.6268 4.59827
  518 -1.05507 0.452909 -0.980192
  519 8.64958 -99.0177 4.00369
  520 2.30430 -35.6405 3.06212
  521 0.149259 -43.6296 8.55056
  522 -2.22083 -31.1503 -10.7485
  523 13.4892 -88.2134 -5.27137
  524 -0.563076 -25.0588 3.50548
  525 -1.32692 -0.756611 0.888629
  526 -23.0661 -95.1654 -0.340799
  527 -34.1692 -112.892 1.64222
  528 -0.834067 0.960556 0.252750
  529 -0.583801 -12.6887 -1.58696
  530 1.45898 -28.5176 -2.51951
  531 0.194680 -12.7819 -4.24885
  532 5.83111 -91.6284 -1.36133
  533 13.2585 -88.7037 1.07913
  534 0.834424 -8.01546 1.97333
  535 1.98943 -63.7709 8.09304
  536 -1.23834 -59.1050 -15.4839
  537 6.62919 -92.0233 0.798998
  538 7.42051 -101.490 -3.01333
  539 0.0275793 -26.3453 -5.88061
  540 -0.742044 -27.0104 -0.908563
  541 -1.50254 1.90186 0.00439507
  542 1.10367 -52.8004 12.5945
  543 -1.06942 1.04755 -1.30628
  544 17.2535 -92.2505 -1.02702
  545 12.1670 -71.9424 -3.83339
  546 4.53412 -63.3857 -6.27436
  547 -23.4974 -95.8329 0.829900
  548 -35.1079 -113.467 -2.01591
  549 -21.6266 -85.8789 5.84448
  550 -22.9197 -90.2638 -13.8136
  551 -0.365235 -3.33902 -0.423327
  552 -13.7639 -75.7857 -6.96194
  553 -11.3937 -71.8917 17.0908
  554 -0.719048 -22.2074 0.662815
  555 -1.80493 -19.2132 7.68095
  556 8.50609 -59.8102 2.32371
  557 17.0848 -88.7895 2.18854
  558 9.75043 -73.8781 -2.50274
  559 -1.55241 3.04525 -0.450072
  560 -1.08110 -0.181965 0.671779
  561 3.00032 -40.3316 7.64438
  562 16.4506 -95.8039 2.09355
  563 -0.820078 6.54751 -0.385985
  564 -34.4828 -96.1271 0.935043
  565 -0.996556 5.33423 0.0405552
  566 -52.8509 -114.368 -1.09897
  567 -0.576465 5.98317 2.02281
  568 0.00722667 4.80397 3.41687
  569 2.07340 -1.86352 0.879789
  570 1.98487 -17.8227 -5.67982
  571 -13.4273 -56.6069 -9.67192
  572 -27.8254 -84.8705 -7.34566
  573 -35.2414 -94.5930 -1.93308
  574 -33.9612 -92.5020 2.36201
  575 -40.4509 -87.5490 6.79462
  576 -11.1858 -61.5428 7.47839
  577 0.801290 -20.9131 6.43284
  578 2.59512 -2.05412 -2.66280
  579 1.24750 3.01288 -3.35083
  580 -0.523794 6.28199 -2.46120
  581 -0.349095 5.46308 2.01978
  582 0.489579 2.88891 2.99809
  583 2.45190 -3.13094 1.12832
  584 2.50905 -10.2338 -2.55137
  585 -7.65383 -48.2842 -13.3649
  586 -43.1611 -92.5523 -12.5182
  587 -46.1837 -106.350 -5.71101
  588 -49.3995 -110.298 5.25368
  589 -27.1863 -88.9970 14.8366
  590 -8.97273 -41.0974 15.0114
  591 2.90051 -7.79000 2.33028
  592 3.41658 -1.24432 -2.42695
  593 0.583470 3.65139 -3.52558
  594 -0.447832 6.33137 -2.20680
</Section>

newXOutput 27

<Section columns = "stress_xx | stress_yy | stress_xy">
  1 458.516 4.12983 -4.27472
  2 458.528 4.13070 4.27561
  3 824.451 0.375207 -0.175258
  4 824.439 0.374354 0.174381
  5 1.24816 -560.387 21.0191
  6 1702.14 -3.32947 -1.12534
  7 1.16381 -560.777 -21.1369
  8 1956.96 -33.5666 -13.6543
  9 466.358 2.43670 -2.47774
  10 478.891 4.60616 -7.84240
  11 506.239 6.62273 -18.1343
  12 551.391 4.18049 -33.4282
  13 617.112 3.82908 -35.3138
  14 693.762 10.5602 -57.4063
  15 822.877 2.13850 -73.3025
  16 962.504 -3.62192 -75.6158
  17 1148.53 -25.9434 -40.4119
  18 1207.35 -23.3373 -16.2103
  19 1250.08 -3.38217 10.5907
  20 1303.83 16.6912 -0.0802163
  21 1358.81 27.1235 -10.8814
  22 1416.05 -13.1452 -4.16552
  23 1302.47 10.6927 -3.51645
  24 1250.81 -3.07666 -9.74946
  25 1207.70 -23.1299 16.3500
  26 1148.87 -25.9490 40.4518
  27 962.716 -3.61863 75.6582
  28 823.035 2.14155 73.3364
  29 693.865 10.5637 57.4285
  30 617.193 3.82807 35.3278
  31 551.439 4.18075 33.4417
  32 506.271 6.62470 18.1419
  33 478.911 4.60735 7.84708
  34 466.372 2.43770 2.47989
  35 494.206 3.13960 5.15632
  36 522.664 15.1570 8.22540
  37 544.600 25.2917 7.35983
  38 575.636 33.4558 4.75614
  39 604.872 38.4749 2.11275
  40 638.767 37.1393 -0.272974
  41 675.257 30.9355 -1.22653
  42 727.619 20.1128 -3.84947
  43 764.834 12.4746 0.345815
  44 794.313 7.75087 -2.06307
  45 824.241 -0.227848 -5.16435
  46 842.426 -2.24778 -6.14277
  47 847.706 2.35229 -11.3458
  48 877.205 0.648908 -15.7058
  49 920.246 -5.26212 -14.1644
  50 953.082 -5.48437 -16.1970
  51 975.997 -7.02789 -11.2330
  52 987.111 -11.0266 0.202019
  53 970.576 -13.4957 21.7798
  54 925.541 -5.30756 33.5848
  55 841.537 4.55566 39.8561
  56 758.425 18.2617 30.6004
  57 716.176 20.8238 14.9879
  58 708.372 22.0056 -17.1179
  59 766.749 12.4940 -29.1653
  60 839.569 2.38524 -32.7796
  61 926.516 -4.52122 -31.6242
  62 970.898 -13.0956 -21.3132
  63 986.999 -10.9414 -0.201766
  64 975.882 -7.02836 11.2068
  65 952.991 -5.48463 16.1796
  66 920.179 -5.26018 14.1545
  67 877.163 0.647981 15.6966
  68 847.679 2.35067 11.3394
  69 842.405 -2.24793 6.13931
  70 824.227 -0.228242 5.16219
  71 794.303 7.74786 2.06150
  72 764.829 12.4682 -0.347190
  73 727.619 20.1025 3.84724
  74 675.266 30.9209 1.22538
  75 638.778 37.1222 0.272421
  76 604.884 38.4576 -2.11236
  77 575.645 33.4407 -4.75498
  78 544.601 25.2810 -7.35730
  79 522.659 15.1502 -8.22384
  80 494.196 3.13647 -5.15470
  81 82.1207 -448.591 2.48956
  82 314.618 -151.225 108.536
  83 641.608 59.8516 247.154
  84 968.532 145.871 312.233
  85 1274.99 124.912 334.054
  86 1566.78 35.0444 293.799
  87 1701.71 -18.9354 142.384
  88 1705.46 -18.0052 -143.565
  89 1568.38 29.5690 -293.955
  90 1273.41 125.959 -333.069
  91 968.028 146.426 -311.696
  92 641.119 59.8681 -247.177
  93 314.494 -151.292 -108.545
  94 82.0921 -448.824 -2.50599
  95 41.1509 -489.875 -39.4024
  96 235.018 -215.653 62.0216
  97 524.262 -33.7962 151.782
  98 910.889 81.9831 224.607
  99 1298.87 94.2785 234.775
  100 1630.48 27.4976 223.049
  101 1894.23 -21.8876 158.180
  102 1858.32 -26.0140 -141.455
  103 1634.52 39.9117 -218.959
  104 1299.92 92.5988 -234.934
  105 911.324 82.1478 -225.183
  106 524.868 -33.4238 -152.174
  107 235.409 -215.235 -62.3181
  108 41.3369 -489.359 39.1414
  109 531.134 82.2355 -19.6785
  110 531.170 82.2305 19.6713
  111 737.362 -56.8285 108.304
  112 737.398 -56.9758 -108.289
  113 366.257 96.3600 88.5627
  114 366.338 96.3591 -88.5784
  115 717.993 29.5586 35.2516
  116 717.986 29.5694 -35.2645
  117 532.885 43.2155 36.7284
  118 532.893 43.2014 -36.7149
  119 986.805 -37.1007 29.4078
  120 987.131 -36.3586 -30.1012
  121 400.830 9.89504 135.211
  122 400.807 9.79157 -135.276
  123 1093.75 52.0593 -23.0384
  124 1089.83 49.1407 25.3472
  125 604.956 51.6717 5.73508
  126 604.937 51.6897 -5.73604
  127 754.475 13.0574 -68.3370
  128 754.483 13.0626 68.3252
  129 500.856 -12.2823 201.758
  130 500.968 -12.2843 -201.744
  131 740.505 -134.061 146.251
  132 740.610 -134.293 -146.411
  133 527.776 53.8443 -85.0327
  134 527.775 53.8600 85.0590
  135 910.184 -46.7063 -6.67926
  136 910.250 -46.4366 6.84508
  137 631.983 34.8434 80.7812
  138 631.962 34.8198 -80.7924
  139 184.558 25.0375 8.16724
  140 184.653 25.1263 -8.25341
  141 464.672 95.4254 -47.9813
  142 464.629 95.4399 47.9853
  143 869.660 -20.7252 -45.7063
  144 869.667 -20.7055 45.7210
  145 785.173 8.35929 14.9675
  146 785.183 8.36388 -14.9752
  147 588.785 39.2395 -144.848
  148 588.797 39.2574 144.890
  149 517.135 15.7584 20.2882
  150 517.126 15.7525 -20.2804
  151 1275.78 63.0123 3.45509
  152 634.335 47.5771 47.4766
  153 634.313 47.5833 -47.4884
  154 676.149 33.0061 14.3573
  155 676.139 33.0205 -14.3628
  156 564.604 40.8416 12.6844
  157 564.615 40.8257 -12.6793
  158 548.957 64.1473 -16.6827
  159 548.935 64.1651 16.6887
  160 802.892 10.4274 -34.6678
  161 802.877 10.4221 34.6521
  162 865.069 -57.4749 -118.285
  163 865.040 -57.5190 118.284
  164 436.452 85.2782 37.2357
  165 436.405 85.2527 -37.2637
  166 934.886 -47.5241 100.486
  167 935.247 -47.6113 -101.060
  168 432.930 -130.656 199.899
  169 432.935 -130.798 -199.985
  170 1138.61 33.4789 59.9012
  171 1141.34 38.7528 -62.5893
  172 532.520 23.6601 -47.1367
  173 532.536 23.6684 47.1544
  174 944.774 38.5608 18.2419
  175 950.977 8.64502 67.9528
  176 933.263 9.58602 -65.6518
  177 900.499 -99.9869 38.9792
  178 900.767 -100.441 -38.9663
  179 580.412 5.78771 120.158
  180 580.410 5.70703 -120.182
  181 942.682 -30.8964 -42.1102
  182 942.646 -32.6782 42.2618
  183 585.924 -75.5152 170.552
  184 585.950 -75.6826 -170.608
  185 587.683 63.7295 -17.0961
  186 587.709 63.7147 17.0919
  187 1357.59 72.1000 84.0643
  188 1363.45 65.0413 -85.6249
  189 520.385 60.6250 -50.7314
  190 520.371 60.6421 50.7479
  191 647.151 46.4386 25.1598
  192 647.134 46.4535 -25.1675
  193 747.873 -2.42399 82.5811
  194 747.860 -2.45719 -82.5797
  195 901.274 25.9500 -39.3829
  196 711.878 29.6352 54.3795
  197 711.867 29.6401 -54.3940
  198 156.806 -118.777 -124.998
  199 156.605 -118.930 124.887
  200 1056.45 -25.2896 -60.2320
  201 1056.51 -25.0932 60.1173
  202 618.408 40.4033 -1.38817
  203 618.421 40.3855 1.38796
  204 142.758 -110.570 -94.2947
  205 142.815 -110.406 94.1984
  206 865.902 -3.02799 -41.4169
  207 865.878 -3.03104 41.4023
  208 316.195 84.3460 -3.65021
  209 316.122 84.3107 3.60243
  210 816.031 -14.1247 -130.948
  211 816.127 -14.1178 131.006
  212 610.229 17.4491 -87.4075
  213 610.277 17.4575 87.4399
  214 555.228 -102.692 182.129
  215 555.157 -102.735 -182.256
  216 542.942 27.3917 13.8359
  217 542.944 27.3802 -13.8294
  218 498.110 71.4882 -126.880
  219 498.085 71.5100 126.910
  220 532.652 62.7007 71.3427
  221 532.621 62.6750 -71.3623
  222 721.159 22.9353 13.1533
  223 721.157 22.9461 -13.1588
  224 343.028 67.6422 142.291
  225 343.135 67.6413 -142.308
  226 792.830 -92.2202 -97.2186
  227 792.746 -91.9722 97.2369
  228 343.958 -92.4869 162.522
  229 344.190 -92.3670 -162.610
  230 810.654 5.35910 -20.3658
  231 810.637 5.35612 20.3557
  232 944.362 -11.4022 11.8401
  233 944.383 -11.4082 -11.8409
  234 556.472 25.5930 -62.8627
  235 556.500 25.6024 62.8845
  236 955.788 35.1562 42.5759
  237 1332.54 16.1307 97.5479
  238 1333.40 16.3655 -97.4147
  239 1068.73 63.6926 200.422
  240 1067.70 65.7218 -200.647
  241 505.725 87.7485 -17.6193
  242 505.690 87.7623 17.6211
  243 858.222 -49.7243 -50.0219
  244 858.239 -49.5797 50.1111
  245 509.088 8.80822 -22.1743
  246 509.107 8.81134 22.1835
  247 1500.47 22.6583 -56.3387
  248 857.846 4.29123 -29.3891
  249 857.813 4.28754 29.3749
  250 572.047 53.7256 -8.70528
  251 572.029 53.7436 8.70920
  252 410.369 104.086 -34.1292
  253 410.309 104.087 34.1156
  254 1047.17 16.3711 31.2461
  255 1041.75 16.4984 -31.7171
  256 1494.57 21.2209 55.0002
  257 583.284 62.1972 52.9060
  258 583.255 62.1933 -52.9181
  259 691.770 25.6179 -74.5890
  260 691.785 25.6273 74.5771
  261 801.791 4.63817 6.70585
  262 801.802 4.64037 -6.70910
  263 1535.73 -27.2762 86.3806
  264 1530.04 -1.08933 -77.0691
  265 1048.52 56.5924 -18.1978
  266 485.333 42.8689 101.488
  267 485.309 42.8068 -101.524
  268 477.610 38.4927 -183.348
  269 477.541 38.5102 183.372
  270 762.618 16.2438 28.8820
  271 762.623 16.2513 -28.8946
  272 527.846 26.6627 -35.6915
  273 527.853 26.6722 35.7055
  274 492.301 4.08406 6.31044
  275 492.290 4.08185 -6.30723
  276 473.415 97.4439 -1.97426
  277 473.370 97.4469 1.96564
  278 948.335 -21.0561 -12.1941
  279 948.250 -21.2967 12.2813
  280 50.8810 -166.967 20.3566
  281 50.9879 -166.775 -20.4668
  282 656.834 36.0875 -5.25786
  283 656.844 36.0710 5.25597
  284 717.294 26.7002 23.5506
  285 717.289 26.7117 -23.5601
  286 808.364 22.0070 214.520
  287 808.025 22.1776 -214.803
  288 935.722 -59.0105 -17.1557
  289 935.859 -59.6429 17.2466
  290 586.683 39.7406 -2.99298
  291 586.672 39.7577 2.99461
  292 776.150 9.05036 -114.657
  293 776.258 9.06088 114.705
  294 927.939 -3.72578 23.4676
  295 927.995 -3.72347 -23.4840
  296 1303.71 51.8874 -191.741
  297 1301.86 51.5421 190.256
  298 538.536 -83.3828 -151.963
  299 538.231 -83.5794 151.808
  300 916.352 -7.75207 51.3934
  301 916.495 -4.23967 -51.0984
  302 530.378 46.1280 -67.0510
  303 530.381 46.1425 67.0738
  304 267.742 18.8500 90.0290
  305 267.687 18.7527 -90.1097
  306 544.060 38.7736 24.1969
  307 544.067 38.7591 -24.1872
  308 671.912 -6.75117 104.119
  309 671.907 -6.81912 -104.122
  310 1091.23 69.5639 8.15129
  311 491.133 74.5546 -88.8073
  312 491.108 74.5728 88.8288
  313 1018.44 -11.4247 -31.5144
  314 1017.20 -12.2238 30.8824
  315 630.878 42.6235 -7.17107
  316 630.893 42.6061 7.16889
  317 1629.03 -21.6044 -26.1620
  318 1723.97 -40.9948 53.9116
  319 712.158 11.6524 -93.9570
  320 712.253 11.6586 93.9941
  321 1092.92 29.9728 -156.230
  322 1092.65 30.8375 155.711
  323 764.975 12.9859 6.57344
  324 764.980 12.9925 -6.57723
  325 595.894 45.2475 -2.09461
  326 595.879 45.2653 2.09607
  327 563.176 33.4814 -6.25880
  328 563.169 33.4958 6.26164
  329 805.807 -6.23531 -62.1654
  330 805.811 -6.22329 62.1616
  331 1233.36 59.0678 9.32026
  332 692.961 27.7099 -6.87098
  333 692.968 27.6964 6.86817
  334 520.525 14.9033 9.48327
  335 520.520 14.8966 -9.47979
  336 533.450 61.1368 -32.3669
  337 533.433 61.1542 32.3780
  338 871.888 9.56483 -47.0483
  339 794.011 -10.3811 -161.097
  340 793.714 -10.5526 160.879
  341 846.191 5.09048 -19.1655
  342 846.162 5.08785 19.1554
  343 869.812 -110.945 81.9575
  344 870.072 -111.393 -82.1875
  345 784.431 14.2263 49.4011
  346 784.437 14.2323 -49.4191
  347 756.098 20.9840 42.8088
  348 756.099 20.9922 -42.8252
  349 866.689 -89.5528 50.1245
  350 866.791 -89.8741 -50.0307
  351 215.062 -196.184 131.517
  352 215.044 -196.319 -131.572
  353 577.446 60.2625 2.32597
  354 577.423 60.2797 -2.32585
  355 822.889 0.744732 9.33500
  356 822.906 0.746008 -9.34004
  357 441.864 95.6621 -93.3604
  358 441.813 95.6800 93.3698
  359 663.381 -59.5699 -176.003
  360 663.305 -59.5965 176.033
  361 671.436 40.8601 38.2115
  362 671.420 40.8716 -38.2228
  363 964.115 -21.5667 60.1014
  364 962.965 -18.7642 -61.4303
  365 548.102 72.4623 1.79455
  366 548.072 72.4768 -1.79490
  367 464.075 -71.0811 -181.214
  368 464.067 -70.9345 181.142
  369 787.378 -30.1785 -78.4386
  370 787.381 -30.1026 78.4659
  371 1242.19 62.8549 -17.2340
  372 954.628 -64.2536 20.4105
  373 955.152 -64.7819 -20.4992
  374 268.189 75.3979 76.8461
  375 268.296 75.4284 -76.8959
  376 642.574 -39.1655 136.315
  377 642.596 -39.2924 -136.336
  378 1088.86 -31.5684 48.4512
  379 1088.62 -31.6021 -48.4269
  380 870.263 12.3572 50.1332
  381 823.401 25.9383 -3.46970
  382 586.601 -119.812 178.893
  383 586.637 -119.988 -178.985
  384 549.706 51.1614 22.8143
  385 549.720 51.1444 -22.8053
  386 987.452 27.0443 -47.3034
  387 654.000 39.1984 63.2061
  388 653.979 39.1957 -63.2186
  389 805.193 -109.645 135.280
  390 805.280 -109.735 -135.626
  391 526.525 6.62050 -29.6083
  392 526.555 6.62322 29.6201
  393 1188.28 64.3682 41.7038
  394 1195.25 65.9605 -43.3546
  395 965.737 -32.3390 89.1191
  396 965.569 -32.3324 -89.0712
  397 709.658 -101.819 140.454
  398 709.734 -102.029 -140.500
  399 640.761 6.93398 -174.416
  400 640.752 6.94640 174.465
  401 443.997 80.6745 -143.087
  402 443.938 80.6986 143.106
  403 373.298 60.5598 74.8021
  404 373.254 60.4977 -74.8551
  405 820.480 18.0817 24.6202
  406 581.271 65.3640 -29.9132
  407 581.300 65.3546 29.9057
  408 576.310 30.6259 103.464
  409 576.290 30.5731 -103.483
  410 518.755 -19.0500 -149.197
  411 518.755 -18.9334 149.151
  412 488.223 6.11003 11.1428
  413 488.207 6.10804 -11.1378
  414 620.264 55.0938 -29.8045
  415 620.286 55.0811 29.7963
  416 614.995 56.0223 16.3962
  417 614.974 56.0388 -16.4005
  418 117.258 -255.359 56.5500
  419 117.506 -255.025 -56.7597
  420 985.556 13.9408 58.5913
  421 678.913 36.2778 25.2651
  422 678.901 36.2917 -25.2739
  423 534.841 27.8835 27.6201
  424 534.841 27.8727 -27.6092
  425 500.308 81.3479 51.2997
  426 500.336 81.3303 -51.2873
  427 527.796 38.9472 -50.9910
  428 527.796 38.9602 51.0098
  429 816.749 4.09648 -53.0028
  430 816.738 4.09247 52.9860
  431 546.448 50.6736 -108.078
  432 546.454 50.6892 108.109
  433 307.945 -65.0654 -161.022
  434 307.964 -64.9199 160.937
  435 1218.32 -5.57848 25.6170
  436 1218.56 -6.08437 -25.5032
  437 1512.95 8.87105 179.031
  438 1517.72 5.18680 -178.860
  439 504.072 79.5374 35.4312
  440 504.033 79.5289 -35.4461
  441 22.2468 -358.261 -48.7304
  442 22.2805 -358.024 48.6666
  443 905.970 -34.4432 23.1030
  444 905.912 -34.4993 -23.0363
  445 946.694 -9.45892 34.4923
  446 946.551 -8.96287 -33.7667
  447 36.2919 -361.431 20.8589
  448 36.4402 -361.100 -21.0294
  449 825.453 -114.406 -89.0765
  450 825.289 -114.082 89.0247
  451 912.948 -0.716399 -19.8253
  452 912.890 -0.717446 19.8123
  453 852.994 6.96558 -49.3083
  454 933.358 -41.2214 -24.3590
  455 933.081 -41.8175 24.6824
  456 700.135 15.5631 -81.8384
  457 700.150 15.5845 81.8325
  458 605.933 8.50317 -46.3046
  459 605.998 8.50540 46.3223
  460 204.405 14.7591 107.138
  461 204.544 14.8222 -107.212
  462 810.870 -65.9486 78.7902
  463 810.915 -66.1269 -78.7330
  464 750.086 19.9231 17.3814
  465 750.089 19.9323 -17.3896
  466 522.544 73.8302 -28.5958
  467 522.518 73.8477 28.6041
  468 815.329 3.14717 2.69477
  469 815.340 3.14808 -2.69592
  470 642.104 45.1930 -16.2638
  471 642.120 45.1764 16.2587
  472 469.825 0.111686 1.67011
  473 469.813 0.110877 -1.66899
  474 511.113 64.2102 -72.2677
  475 511.099 64.2267 72.2886
  476 339.971 -8.45164 -174.625
  477 339.816 -8.48849 174.589
  478 788.743 4.49283 -26.7034
  479 18.2119 -96.7905 0.390224
  480 4.29923 -52.4514 -1.86931
  481 4.00378 -43.8287 2.98122
  482 3.60498 -86.1417 3.48465
  483 2.19954 -89.6171 -11.0852
  484 2.16009 -83.3067 -5.16945
  485 2.67458 -79.6405 13.2520
  486 3.18824 -48.8077 7.56561
  487 0.645341 -36.7732 -9.55806
  488 -6.14838 -99.1869 -0.490087
  489 -10.6767 -113.791 1.19575
  490 -1.33751 -10.5185 -1.07605
  491 1.62112 -42.6266 -7.06891
  492 -1.66874 -29.4027 8.63825
  493 14.8320 -85.9981 -1.60075
  494 -1.54805 -7.72724 0.713079
  495 12.3056 -77.5291 1.31491
  496 -0.607184 -15.0052 1.01935
  497 -0.372405 -10.1638 -0.787037
  498 13.4274 -96.8585 0.229174
  499 15.8574 -101.885 -1.15040
  500 -0.645711 -11.1292 -2.37088
  501 -4.20153 -71.2202 7.35799
  502 -5.22816 -63.6392 -17.6183
  503 -14.8177 -93.2177 -2.51795
  504 -17.6108 -103.148 8.61258
  505 -11.3681 -96.8652 0.542681
  506 -15.4073 -109.894 -4.46120
  507 -1.76768 -58.2490 -7.61240
  508 -3.24626 -45.8912 14.6367
  509 8.42207 -69.4815 2.75970
  510 6.38784 -65.6269 -9.45845
  511 -1.04378 -6.96744 1.01752
  512 7.11904 -65.4630 7.47017
  513 14.3815 -88.5291 6.26990
  514 13.7993 -89.6421 -0.546566
  515 7.87846 -56.9858 -2.04077
  516 0.659422 -32.3802 -4.71396
  517 0.535656 -20.1454 4.64839
  518 -1.12440 0.649917 -1.04877
  519 8.90589 -103.064 4.17898
  520 2.26080 -36.8407 3.17647
  521 -0.0378285 -45.0743 8.75030
  522 -2.25163 -32.0037 -11.0198
  523 13.9470 -91.7648 -5.50218
  524 -0.673217 -25.8340 3.59031
  525 -1.38919 -0.618622 0.978749
  526 -24.8082 -99.0404 -0.314842
  527 -36.1447 -117.516 1.66856
  528 -0.896490 1.17073 0.275016
  529 -0.642360 -12.9491 -1.56568
  530 1.40110 -29.4331 -2.61437
  531 0.246026 -13.0382 -4.24597
  532 5.81211 -95.3669 -1.43034
  533 13.6383 -92.3027 1.14222
  534 0.935403 -8.11218 1.86870
  535 1.81249 -66.1776 8.40686
  536 -1.39858 -61.2589 -16.1106
  537 6.63903 -95.7827 0.840656
  538 7.62027 -105.650 -3.15257
  539 -0.0656814 -27.0720 -5.91562
  540 -0.888683 -27.8591 -0.925636
  541 -1.58587 2.13305 0.0262497
  542 1.03558 -54.6910 13.0820
  543 -1.11690 1.24856 -1.41356
  544 17.8618 -96.0079 -1.06999
  545 12.5472 -74.7477 -3.98388
  546 4.51126 -65.7714 -6.52897
  547 -25.2663 -99.7518 0.849058
  548 -37.1356 -118.138 -2.08051
  549 -22.9654 -89.2390 6.00357
  550 -24.0212 -93.7613 -14.2925
  551 -0.405164 -3.25340 -0.541978
  552 -14.6784 -78.6543 -7.16706
  553 -11.9132 -74.5330 17.7126
  554 -0.846787 -22.8720 0.665911
  555 -1.74274 -19.5773 7.76188
  556 8.71663 -62.0668 2.40263
  557 17.6833 -92.3820 2.27460
  558 9.97590 -76.7681 -2.62806
  559 -1.63357 3.31483 -0.492258
  560 -1.14542 0.00398514 0.749910
  561 3.00328 -41.7231 7.91792
  562 17.0399 -99.7192 2.18492
  563 -0.865569 6.93743 -0.401623
  564 -36.9780 -100.008 1.00111
  565 -1.05282 5.68220 0.0393695
  566 -55.8736 -119.013 -1.16583
  567 -0.602506 6.38500 2.14011
  568 0.0172028 5.19988 3.64221
  569 2.22829 -1.65079 1.12360
  570 2.03462 -18.1942 -5.56552
  571 -14.2459 -58.5602 -9.88695
  572 -29.4129 -88.1511 -7.51427
  573 -37.5927 -98.4101 -1.90632
  574 -36.1740 -96.2359 2.37457
  575 -42.6426 -90.9654 6.91856
  576 -11.9032 -63.6850 7.62650
  577 0.794008 -21.3971 6.43089
  578 2.77425 -1.84898 -2.96384
  579 1.32779 3.34099 -3.57832
  580 -0.545442 6.68095 -2.59309
  581 -0.368014 5.81444 2.13536
  582 0.519870 3.14757 3.19325
  583 2.63973 -3.05831 1.32760
  584 2.79533 -10.2972 -2.38027
  585 -7.85126 -49.7850 -13.7153
  586 -45.1125 -96.1131 -12.8445
  587 -48.6424 -110.661 -5.85402
  588 -52.0806 -114.761 5.36334
  589 -28.4012 -92.3964 15.2934
  590 -9.18304 -42.2977 15.4153
  591 3.24142 -7.83739 2.15291
  592 3.64899 -1.12890 -2.67001
  593 0.623745 3.92955 -3.73927
  594 -0.465254 6.70968 -2.33001
</Section>

newXOutput 28

<Section columns = "stress_xx | stress_yy | stress_xy">
  1 472.630 4.27975 -4.43005
  2 472.642 4.28065 4.43098
  3 851.563 0.369850 -0.161769
  4 851.550 0.368959 0.160853
  5 1.12430 -581.081 21.6258
  6 1755.20 -4.01850 -1.16062
  7 1.03597 -581.493 -21.7486
  8 2016.46 -35.8524 -14.0019
  9 480.725 2.51257 -2.52367
  10 493.632 4.76554 -8.04534
  11 521.766 6.84777 -18.6796
  12 568.347 4.33054 -34.4534
  13 635.969 3.99610 -36.4011
  14 715.195 10.9395 -59.2398
  15 848.483 2.22180 -75.6884
  16 992.955 -3.71367 -78.2126
  17 1185.21 -26.8025 -41.9582
  18 1246.61 -24.1384 -17.2075
  19 1291.71 -3.43410 10.3187
  20 1348.29 17.2478 -0.733034
  21 1406.14 27.9688 -11.5909
  22 1464.81 -13.7236 -4.09346
  23 1346.94 11.1243 -2.89807
  24 1292.46 -3.10657 -9.44359
  25 1246.97 -23.9231 17.3490
  26 1185.56 -26.8092 41.9980
  27 993.174 -3.71057 78.2560
  28 848.647 2.22483 75.7234
  29 715.301 10.9432 59.2628
  30 636.054 3.99504 36.4156
  31 568.397 4.33079 34.4675
  32 521.800 6.84982 18.6875
  33 493.653 4.76678 8.05023
  34 480.739 2.51362 2.52592
  35 509.716 3.18888 5.32604
  36 539.331 15.6006 8.52145
  37 562.224 26.0393 7.59396
  38 594.562 34.4213 4.92155
  39 624.916 39.6016 2.19321
  40 660.010 38.2322 -0.264333
  41 697.723 31.8520 -1.24456
  42 751.730 20.6932 -3.95023
  43 790.097 12.8356 0.397499
  44 820.493 7.99819 -2.11100
  45 851.338 -0.251045 -5.32693
  46 870.056 -2.34562 -6.31697
  47 875.494 2.43024 -11.6813
  48 905.934 0.671647 -16.2167
  49 950.366 -5.45907 -14.6500
  50 984.381 -5.68946 -16.7948
  51 1008.30 -7.28288 -11.7297
  52 1020.07 -11.4591 0.0323645
  53 1003.34 -14.0572 22.3927
  54 956.961 -5.56765 34.6417
  55 870.203 4.74190 41.2411
  56 784.238 19.0385 31.7072
  57 740.494 21.7304 15.5806
  58 732.432 22.9068 -17.7425
  59 792.845 12.9934 -30.1860
  60 868.183 2.45463 -33.9024
  61 957.961 -4.75365 -32.6189
  62 1003.66 -13.6422 -21.9124
  63 1019.95 -11.3720 -0.0335143
  64 1008.18 -7.28357 11.7021
  65 984.286 -5.68973 16.7766
  66 950.297 -5.45705 14.6396
  67 905.891 0.670680 16.2071
  68 875.466 2.42855 11.6746
  69 870.035 -2.34579 6.31336
  70 851.324 -0.251455 5.32469
  71 820.483 7.99506 2.10936
  72 790.091 12.8289 -0.398940
  73 751.730 20.6824 3.94789
  74 697.731 31.8367 1.24336
  75 660.022 38.2143 0.263753
  76 624.928 39.5835 -2.19280
  77 594.571 34.4055 -4.92033
  78 562.226 26.0281 -7.59131
  79 539.326 15.5935 -8.51983
  80 509.706 3.18562 -5.32435
  81 84.5560 -465.623 2.23105
  82 324.497 -157.339 111.786
  83 661.593 61.2869 254.940
  84 998.627 150.566 322.264
  85 1314.66 128.959 344.962
  86 1614.71 35.6886 303.396
  87 1753.98 -20.3109 147.061
  88 1757.81 -19.2958 -148.283
  89 1616.33 29.9532 -303.563
  90 1313.03 130.061 -343.940
  91 998.101 151.144 -321.711
  92 661.087 61.3027 -254.965
  93 324.369 -157.412 -111.795
  94 84.5260 -465.871 -2.24756
  95 42.4548 -507.977 -40.8734
  96 242.511 -223.616 63.9612
  97 540.719 -35.3851 156.501
  98 939.082 84.6016 231.707
  99 1339.11 97.7060 242.533
  100 1680.92 28.2148 230.774
  101 1951.89 -23.5884 163.559
  102 1915.45 -27.7539 -146.333
  103 1685.06 41.0917 -226.586
  104 1340.18 95.9303 -242.711
  105 939.527 84.7726 -232.304
  106 541.345 -34.9962 -156.908
  107 242.916 -223.178 -64.2698
  108 42.6483 -507.434 40.6010
  109 548.906 85.2074 -20.2180
  110 548.943 85.2018 20.2107
  111 761.437 -58.4698 112.151
  112 761.473 -58.6223 -112.135
  113 378.489 99.9846 91.7113
  114 378.574 99.9840 -91.7272
  115 741.809 30.5873 36.3547
  116 741.802 30.5987 -36.3683
  117 550.206 44.6035 37.8674
  118 550.214 44.5888 -37.8532
  119 1019.45 -38.5732 30.0859
  120 1019.78 -37.7945 -30.8057
  121 414.089 10.7372 139.542
  122 414.065 10.6289 -139.610
  123 1130.59 53.7865 -23.5351
  124 1126.55 50.7688 25.9219
  125 625.095 53.3326 5.89658
  126 625.076 53.3515 -5.89757
  127 779.384 13.7352 -70.6728
  128 779.392 13.7402 70.6602
  129 517.172 -12.2621 208.820
  130 517.287 -12.2631 -208.805
  131 764.426 -138.864 151.369
  132 764.534 -139.109 -151.534
  133 544.733 55.6808 -87.7681
  134 544.732 55.6970 87.7956
  135 940.299 -48.2876 -7.26114
  136 940.368 -48.0097 7.43298
  137 652.912 36.3750 83.4072
  138 652.890 36.3510 -83.4189
  139 190.872 26.4622 8.71983
  140 190.971 26.5554 -8.80885
  141 480.125 98.8025 -49.6517
  142 480.081 98.8176 49.6563
  143 898.387 -21.3042 -47.5104
  144 898.393 -21.2844 47.5248
  145 811.068 8.61393 15.4161
  146 811.078 8.61873 -15.4241
  147 607.615 40.6818 -149.712
  148 607.628 40.7002 149.756
  149 533.519 16.2454 20.9040
  150 533.509 16.2392 -20.8958
  151 1318.31 64.8924 3.59192
  152 655.465 49.3476 48.9691
  153 655.442 49.3544 -48.9814
  154 698.645 34.0299 14.7903
  155 698.634 34.0450 -14.7959
  156 583.168 42.0913 13.0756
  157 583.180 42.0747 -13.0702
  158 567.157 66.2711 -17.2342
  159 567.134 66.2898 17.2405
  160 829.355 10.8260 -35.7889
  161 829.339 10.8205 35.7725
  162 893.107 -59.2611 -122.634
  163 893.079 -59.3094 122.632
  164 451.104 88.5699 38.2623
  165 451.054 88.5435 -38.2909
  166 965.078 -49.3495 104.129
  167 965.452 -49.4436 -104.722
  168 446.899 -135.236 206.616
  169 446.904 -135.387 -206.704
  170 1175.82 34.5744 62.4211
  171 1178.63 40.0688 -65.2064
  172 549.342 24.4201 -48.5964
  173 549.359 24.4288 48.6149
  174 977.014 39.8588 18.8748
  175 983.008 8.85455 70.1273
  176 964.762 9.86457 -67.7849
  177 929.915 -103.650 40.6517
  178 930.189 -104.126 -40.6365
  179 599.484 6.47058 124.100
  180 599.481 6.38696 -124.125
  181 974.253 -32.1230 -43.3124
  182 974.209 -33.9732 43.4691
  183 604.952 -77.8044 176.320
  184 604.979 -77.9796 -176.376
  185 607.303 65.9171 -17.5911
  186 607.330 65.9015 17.5867
  187 1401.95 74.2953 87.3001
  188 1407.96 66.9342 -88.9337
  189 537.373 62.6486 -52.3463
  190 537.358 62.6665 52.3636
  191 668.717 47.9972 25.9218
  192 668.699 48.0130 -25.9299
  193 772.508 -2.19335 85.4639
  194 772.494 -2.22723 -85.4630
  195 931.969 26.8612 -40.7292
  196 735.471 30.7922 56.1544
  197 735.460 30.7976 -56.1697
  198 162.001 -122.463 -129.579
  199 161.793 -122.623 129.464
  200 1090.79 -25.9873 -62.6696
  201 1090.86 -25.7841 62.5480
  202 638.954 41.6069 -1.42764
  203 638.967 41.5882 1.42742
  204 147.521 -114.061 -97.3323
  205 147.580 -113.888 97.2323
  206 894.451 -3.03579 -42.9342
  207 894.426 -3.03912 42.9186
  208 326.896 87.6726 -4.03436
  209 326.820 87.6356 3.98529
  210 842.242 -14.4462 -135.506
  211 842.343 -14.4397 135.566
  212 629.409 18.0199 -90.2222
  213 629.459 18.0285 90.2559
  214 572.986 -106.579 188.210
  215 572.914 -106.627 -188.341
  216 560.516 28.2051 14.2324
  217 560.518 28.1930 -14.2256
  218 514.275 74.0333 -131.117
  219 514.250 74.0557 131.148
  220 550.402 65.2179 73.5582
  221 550.370 65.1915 -73.5784
  222 745.081 23.6350 13.5515
  223 745.078 23.6463 -13.5573
  224 354.385 70.3728 147.285
  225 354.495 70.3724 -147.302
  226 818.665 -95.2711 -100.799
  227 818.579 -95.0135 100.819
  228 355.190 -95.3468 168.286
  229 355.431 -95.2205 -168.377
  230 837.330 5.54556 -20.9961
  231 837.312 5.54243 20.9856
  232 975.733 -11.7291 12.4486
  233 975.757 -11.7347 -12.4503
  234 573.980 26.4418 -64.8625
  235 574.010 26.4516 64.8852
  236 988.246 36.3730 43.9417
  237 1375.80 16.7653 101.367
  238 1376.70 16.9824 -101.228
  239 1102.91 65.8833 207.325
  240 1101.84 68.0017 -207.557
  241 522.587 90.8201 -18.2695
  242 522.550 90.8346 18.2716
  243 886.475 -51.3039 -52.0513
  244 886.493 -51.1548 52.1430
  245 524.975 9.08303 -22.8389
  246 524.994 9.08629 22.8485
  247 1548.74 22.9909 -58.3693
  248 886.050 4.49419 -30.3836
  249 886.015 4.49030 30.3686
  250 591.006 55.4482 -8.98895
  251 590.988 55.4670 8.99308
  252 424.133 107.906 -35.4364
  253 424.070 107.908 35.4227
  254 1082.05 16.8420 31.9675
  255 1076.46 16.9695 -32.4557
  256 1542.70 21.4615 56.9857
  257 602.729 64.5572 54.5446
  258 602.699 64.5535 -54.5570
  259 714.673 26.7723 -77.0704
  260 714.689 26.7816 77.0577
  261 828.196 4.77766 6.90853
  262 828.207 4.77995 -6.91192
  263 1585.83 -28.5466 89.7715
  264 1580.02 -1.42793 -80.1684
  265 1084.12 58.5124 -18.7434
  266 501.437 44.8233 104.690
  267 501.412 44.7588 -104.727
  268 493.141 40.1194 -189.686
  269 493.070 40.1369 189.712
  270 787.827 16.7816 29.7821
  271 787.832 16.7896 -29.7954
  272 544.669 27.5073 -36.7753
  273 544.677 27.5171 36.7899
  274 507.701 4.19029 6.48186
  275 507.690 4.18799 -6.47850
  276 489.282 100.976 -2.18182
  277 489.236 100.979 2.17321
  278 980.040 -21.7905 -12.3602
  279 979.952 -22.0378 12.4492
  280 52.6225 -172.344 21.2939
  281 52.7340 -172.143 -21.4082
  282 678.689 37.1620 -5.41455
  283 678.700 37.1447 5.41257
  284 741.099 27.5586 24.2695
  285 741.095 27.5707 -24.2795
  286 833.987 22.5485 221.676
  287 833.637 22.7228 -221.971
  288 966.678 -61.2106 -17.4158
  289 966.816 -61.8692 17.5121
  290 606.056 40.9233 -3.08102
  291 606.045 40.9412 3.08272
  292 800.720 9.43821 -118.507
  293 800.833 9.44887 118.556
  294 958.579 -3.79008 24.3896
  295 958.638 -3.78752 -24.4070
  296 1345.43 53.4476 -198.494
  297 1343.54 53.1074 196.957
  298 555.960 -86.2688 -157.196
  299 555.646 -86.4753 157.034
  300 947.327 -8.10489 53.0485
  301 947.485 -4.45071 -52.7552
  302 547.380 47.6597 -69.1688
  303 547.383 47.6748 69.1926
  304 276.736 20.0054 92.8107
  305 276.679 19.9034 -92.8942
  306 561.782 39.9775 24.9339
  307 561.789 39.9624 -24.9238
  308 693.995 -6.57662 107.661
  309 693.989 -6.64663 -107.664
  310 1128.20 71.9820 8.28554
  311 507.170 77.1487 -91.7413
  312 507.144 77.1675 91.7640
  313 1051.82 -11.9089 -32.9732
  314 1050.55 -12.7393 32.3163
  315 651.880 43.9422 -7.38146
  316 651.895 43.9240 7.37918
  317 1682.44 -22.7332 -27.1660
  318 1779.20 -42.9976 55.8978
  319 734.458 12.0640 -97.0258
  320 734.557 12.0702 97.0643
  321 1127.90 31.0642 -161.700
  322 1127.61 31.9729 161.159
  323 790.244 13.3703 6.75545
  324 790.250 13.3772 -6.75941
  325 615.664 46.6384 -2.16514
  326 615.649 46.6572 2.16668
  327 581.607 34.4698 -6.44311
  328 581.600 34.4848 6.44608
  329 832.379 -6.24036 -64.4110
  330 832.383 -6.22836 64.4064
  331 1274.55 60.8055 9.91263
  332 715.988 28.5246 -7.07508
  333 715.995 28.5105 7.07213
  334 537.107 15.3372 9.77731
  335 537.102 15.3302 -9.77368
  336 550.998 63.1564 -33.3999
  337 550.980 63.1746 33.4116
  338 901.507 9.83511 -48.6325
  339 819.484 -10.7692 -166.620
  340 819.181 -10.9495 166.394
  341 873.965 5.29075 -19.7687
  342 873.935 5.28799 19.7581
  343 898.022 -115.030 84.9995
  344 898.291 -115.500 -85.2357
  345 810.324 14.8277 51.0522
  346 810.331 14.8342 -51.0712
  347 781.110 21.7677 44.1925
  348 781.111 21.7763 -44.2097
  349 895.103 -92.7043 52.1886
  350 895.207 -93.0384 -52.0903
  351 221.953 -203.307 135.867
  352 221.934 -203.450 -135.923
  353 596.685 62.2632 2.36549
  354 596.661 62.2813 -2.36531
  355 849.928 0.748843 9.60809
  356 849.946 0.750178 -9.61334
  357 456.463 99.1015 -96.5540
  358 456.409 99.1199 96.5642
  359 684.903 -61.3147 -182.228
  360 684.826 -61.3438 182.259
  361 693.775 42.3026 39.4100
  362 693.759 42.3148 -39.4219
  363 996.297 -22.4771 61.9269
  364 995.127 -19.5554 -63.3076
  365 566.393 74.9587 1.79662
  366 566.362 74.9740 -1.79686
  367 479.151 -73.2286 -187.253
  368 479.143 -73.0744 187.180
  369 813.245 -30.9348 -81.2996
  370 813.250 -30.8568 81.3274
  371 1283.63 64.7741 -18.1562
  372 985.852 -66.6594 21.4230
  373 986.391 -67.2154 -21.5145
  374 277.261 78.4598 79.6906
  375 277.372 78.4921 -79.7417
  376 663.545 -40.1029 140.929
  377 663.567 -40.2349 -140.951
  378 1124.06 -32.4540 50.4313
  379 1123.81 -32.4873 -50.4082
  380 899.796 12.7702 51.8151
  381 851.471 26.8913 -3.57654
  382 605.525 -123.872 184.992
  383 605.562 -124.057 -185.087
  384 567.778 52.7960 23.5232
  385 567.793 52.7782 -23.5138
  386 1020.89 27.9033 -48.7567
  387 675.711 40.7638 65.2383
  388 675.689 40.7614 -65.2516
  389 831.060 -113.721 139.999
  390 831.152 -113.819 -140.357
  391 542.866 6.81724 -30.5122
  392 542.897 6.82007 30.5245
  393 1227.68 66.5894 43.6356
  394 1234.86 68.2112 -45.3627
  395 996.809 -33.2813 92.3479
  396 996.635 -33.2734 -92.2994
  397 732.653 -105.195 145.348
  398 732.731 -105.414 -145.395
  399 661.416 7.44398 -180.426
  400 661.408 7.45625 180.477
  401 458.536 83.6566 -147.974
  402 458.475 83.6813 147.994
  403 385.820 63.1355 77.0481
  404 385.774 63.0708 -77.1027
  405 848.415 18.7263 25.4595
  406 600.696 67.6950 -30.8065
  407 600.726 67.6849 30.7987
  408 595.372 32.1245 106.819
  409 595.351 32.0700 -106.839
  410 535.754 -19.2353 -154.112
  411 535.756 -19.1137 154.065
  412 503.383 6.30696 11.4663
  413 503.367 6.30488 -11.4611
  414 640.961 57.0251 -30.7135
  415 640.985 57.0116 30.7049
  416 635.501 57.8934 16.8811
  417 635.479 57.9109 -16.8856
  418 121.098 -264.293 58.6139
  419 121.356 -263.943 -58.8321
  420 1018.81 14.2500 60.4512
  421 701.498 37.4776 26.0352
  422 701.486 37.4922 -26.0445
  423 552.079 28.7354 28.4572
  424 552.079 28.7242 -28.4458
  425 516.799 84.1531 52.9979
  426 516.828 84.1346 -52.9848
  427 544.774 40.2052 -52.5694
  428 544.774 40.2187 52.5891
  429 843.680 4.37705 -54.8520
  430 843.669 4.37266 54.8341
  431 563.924 52.4323 -111.617
  432 563.931 52.4484 111.651
  433 318.049 -66.9545 -166.301
  434 318.070 -66.8014 166.214
  435 1258.15 -5.76549 26.9439
  436 1258.40 -6.29426 -26.8289
  437 1560.67 8.69028 185.152
  438 1565.55 4.85022 -184.975
  439 520.959 82.5254 36.4435
  440 520.918 82.5169 -36.4588
  441 22.8460 -371.217 -50.2730
  442 22.8817 -370.966 50.2068
  443 936.012 -35.5726 24.2264
  444 935.953 -35.6296 -24.1584
  445 978.646 -9.81776 35.5304
  446 978.497 -9.30213 -34.7816
  447 37.5169 -374.176 21.7462
  448 37.6713 -373.828 -21.9237
  449 852.264 -118.417 -92.3576
  450 852.096 -118.078 92.3061
  451 942.950 -0.703877 -20.5312
  452 942.888 -0.704997 20.5176
  453 881.973 7.21017 -51.0069
  454 964.424 -42.7496 -24.8743
  455 964.138 -43.3646 25.2099
  456 723.224 16.4212 -84.5969
  457 723.240 16.4430 84.5904
  458 624.646 8.80442 -47.7602
  459 624.714 8.80672 47.7787
  460 211.305 15.8386 111.029
  461 211.448 15.9051 -111.105
  462 837.421 -68.0239 81.7536
  463 837.465 -68.2083 -81.6942
  464 774.909 20.5471 17.9008
  465 774.912 20.5567 -17.9093
  466 539.853 76.3331 -29.5444
  467 539.825 76.3515 29.5532
  468 842.161 3.25301 2.77883
  469 842.173 3.25395 -2.78002
  470 663.495 46.6556 -16.7484
  471 663.512 46.6382 16.7430
  472 484.376 0.0951002 1.71098
  473 484.364 0.0942572 -1.70981
  474 527.732 66.4015 -74.6046
  475 527.717 66.4187 74.6265
  476 351.160 -8.28338 -180.787
  477 351.000 -8.32266 180.750
  478 815.598 4.56060 -27.6641
  479 18.8258 -100.578 0.400232
  480 4.33015 -54.3041 -1.92209
  481 4.03465 -45.3234 3.07622
  482 3.47494 -89.4233 3.62420
  483 2.16321 -93.0090 -11.5369
  484 1.98994 -86.4484 -5.38421
  485 2.67467 -82.5796 13.7880
  486 3.16707 -50.4482 7.81399
  487 0.616147 -37.9016 -9.85408
  488 -6.80213 -103.117 -0.513582
  489 -11.3388 -118.317 1.24612
  490 -1.44953 -10.7189 -1.08593
  491 1.52437 -44.0276 -7.29320
  492 -1.78859 -30.2465 8.87610
  493 15.2987 -89.2952 -1.65575
  494 -1.66320 -7.83020 0.705993
  495 12.6550 -80.4497 1.35239
  496 -0.706889 -15.3489 1.02775
  497 -0.457187 -10.3400 -0.799083
  498 13.7915 -100.664 0.239508
  499 16.4149 -105.883 -1.20197
  500 -0.685835 -11.3588 -2.36957
  501 -4.64940 -73.7482 7.60134
  502 -5.48783 -65.8107 -18.2752
  503 -15.8571 -96.8015 -2.57016
  504 -18.5334 -107.112 8.91296
  505 -12.2783 -100.638 0.527917
  506 -16.2721 -114.190 -4.60820
  507 -2.07610 -60.2132 -7.83785
  508 -3.41431 -47.2892 15.1346
  509 8.58978 -72.0501 2.88658
  510 6.52330 -68.0102 -9.83119
  511 -1.09111 -7.04698 0.960864
  512 7.27698 -67.8414 7.75729
  513 14.8545 -91.9219 6.53192
  514 14.1872 -93.1078 -0.586676
  515 8.03689 -59.0181 -2.13004
  516 0.588711 -33.3993 -4.85388
  517 0.499570 -20.6565 4.69599
  518 -1.19366 0.848422 -1.11751
  519 9.16444 -107.102 4.35581
  520 2.21575 -38.0303 3.28984
  521 -0.224574 -46.5008 8.94883
  522 -2.28137 -32.8377 -11.2898
  523 14.4054 -95.3049 -5.73434
  524 -0.784440 -26.6003 3.67450
  525 -1.45127 -0.478595 1.06913
  526 -26.5489 -102.910 -0.289336
  527 -38.1205 -122.135 1.69548
  528 -0.958998 1.38236 0.297520
  529 -0.700811 -13.2038 -1.54294
  530 1.34182 -30.3396 -2.70839
  531 0.297416 -13.2867 -4.24000
  532 5.79559 -99.0959 -1.50148
  533 14.0190 -95.8907 1.20623
  534 1.03699 -8.20281 1.76088
  535 1.63465 -68.5689 8.72284
  536 -1.55986 -63.3968 -16.7400
  537 6.65152 -99.5327 0.883717
  538 7.82276 -109.802 -3.29321
  539 -0.158632 -27.7852 -5.94765
  540 -1.03635 -28.6988 -0.942964
  541 -1.66909 2.36531 0.0482251
  542 0.965938 -56.5666 13.5708
  543 -1.16420 1.45112 -1.52106
  544 18.4709 -99.7542 -1.11311
  545 12.9263 -77.5404 -4.13481
  546 4.48761 -68.1420 -6.78516
  547 -27.0341 -103.665 0.868408
  548 -39.1637 -122.805 -2.14553
  549 -24.2981 -92.5882 6.16689
  550 -25.1167 -97.2473 -14.7760
  551 -0.444965 -3.16520 -0.661542
  552 -15.5859 -81.5074 -7.37750
  553 -12.4258 -77.1576 18.3398
  554 -0.975409 -23.5290 0.669107
  555 -1.67871 -19.9239 7.83853
  556 8.92536 -64.3105 2.48171
  557 18.2822 -95.9630 2.36082
  558 10.2007 -79.6451 -2.75506
  559 -1.71462 3.58521 -0.534492
  560 -1.20949 0.191690 0.828560
  561 3.00415 -43.1024 8.19131
  562 17.6300 -103.624 2.27676
  563 -0.910997 7.32700 -0.417092
  564 -39.4744 -103.883 1.06727
  565 -1.10898 6.03014 0.0380966
  566 -58.8998 -123.655 -1.23278
  567 -0.628370 6.78668 2.25733
  568 0.0274368 5.59588 3.86756
  569 2.38365 -1.43602 1.36902
  570 2.08578 -18.5558 -5.44555
  571 -15.0572 -60.4910 -10.1033
  572 -30.9926 -91.4210 -7.68647
  573 -39.9436 -102.221 -1.88079
  574 -38.3854 -99.9637 2.38848
  575 -44.8265 -94.3717 7.04524
  576 -12.6129 -65.8054 7.77687
  577 0.787663 -21.8696 6.42421
  578 2.95345 -1.64143 -3.26564
  579 1.40807 3.66989 -3.80578
  580 -0.566924 7.07953 -2.72469
  581 -0.386914 6.16582 2.25075
  582 0.550082 3.40713 3.38846
  583 2.82796 -2.98223 1.52835
  584 3.08285 -10.3488 -2.20439
  585 -8.04010 -51.2627 -14.0677
  586 -47.0561 -99.6624 -13.1738
  587 -51.1013 -114.968 -5.99890
  588 -54.7628 -119.220 5.47462
  589 -29.6080 -95.7840 15.7539
  590 -9.38485 -43.4740 15.8202
  591 3.58469 -7.87639 1.97036
  592 3.88173 -1.01119 -2.91421
  593 0.664016 4.20826 -3.95290
  594 -0.482589 7.08777 -2.45300
</Section>

newXOutput 29

<Section columns = "stress_xx | stress_yy | stress_xy">
  1 486.530 4.42901 -4.58471
  2 486.543 4.42998 4.58571
  3 878.395 0.363038 -0.146773
  4 878.382 0.362088 0.145795
  5 1.00036 -601.673 22.2255
  6 1807.37 -4.73632 -1.18767
  7 0.906391 -602.116 -22.3533
  8 2074.94 -38.2007 -14.3348
  9 494.874 2.58725 -2.56631
  10 508.149 4.92367 -8.24168
  11 537.051 7.07075 -19.2146
  12 585.039 4.48011 -35.4608
  13 654.521 4.16442 -37.4703
  14 736.294 11.3169 -61.0475
  15 873.700 2.30519 -78.0438
  16 1022.97 -3.80347 -80.7849
  17 1221.40 -27.6510 -43.4998
  18 1285.39 -24.9318 -18.2266
  19 1332.90 -3.47979 10.0021
  20 1392.35 17.7965 -1.42733
  21 1453.10 28.7969 -12.3152
  22 1513.16 -14.3027 -4.00463
  23 1391.01 11.5581 -2.23096
  24 1333.66 -3.12875 -9.09602
  25 1285.76 -24.7094 18.3673
  26 1221.76 -27.6596 43.5387
  27 1023.21 -3.80077 80.8295
  28 873.874 2.30812 78.0802
  29 736.407 11.3206 61.0717
  30 654.610 4.16327 37.4856
  31 585.092 4.48035 35.4758
  32 537.087 7.07293 19.2230
  33 508.170 4.92500 8.24688
  34 494.890 2.58837 2.56870
  35 525.013 3.23340 5.49380
  36 555.790 16.0347 8.81608
  37 579.646 26.7715 7.82464
  38 613.292 35.3645 5.08559
  39 644.762 40.7034 2.27347
  40 681.049 39.3010 -0.254449
  41 719.973 32.7487 -1.26054
  42 775.603 21.2596 -4.04754
  43 815.105 13.1880 0.452013
  44 846.407 8.24188 -2.15661
  45 878.155 -0.275250 -5.48696
  46 897.396 -2.44440 -6.48665
  47 902.985 2.50689 -12.0090
  48 934.352 0.693823 -16.7195
  49 980.152 -5.65575 -15.1290
  50 1015.33 -5.89427 -17.3874
  51 1040.26 -7.53696 -12.2264
  52 1052.69 -11.8914 -0.145448
  53 1035.78 -14.6194 22.9904
  54 988.094 -5.82989 35.6801
  55 898.623 4.92956 42.6109
  56 809.839 19.8193 32.8044
  57 764.616 22.6427 16.1715
  58 756.302 23.8091 -18.3630
  59 818.731 13.4923 -31.1956
  60 896.556 2.52247 -35.0107
  61 989.118 -4.98858 -33.5951
  62 1036.11 -14.1891 -22.4961
  63 1052.56 -11.8020 0.143046
  64 1040.13 -7.53771 12.1975
  65 1015.23 -5.89449 17.3683
  66 980.078 -5.65360 15.1181
  67 934.306 0.692806 16.7094
  68 902.955 2.50509 12.0019
  69 897.373 -2.44458 6.48282
  70 878.141 -0.275684 5.48459
  71 846.397 8.23856 2.15486
  72 815.100 13.1809 -0.453555
  73 775.604 21.2481 4.04505
  74 719.983 32.7324 1.25925
  75 681.062 39.2819 0.253827
  76 644.775 40.6841 -2.27303
  77 613.301 35.3476 -5.08429
  78 579.648 26.7595 -7.82181
  79 555.784 16.0271 -8.81434
  80 525.003 3.22992 -5.49199
  81 86.9775 -482.586 1.97854
  82 334.318 -163.426 115.020
  83 681.461 62.7090 262.663
  84 1028.39 155.187 332.131
  85 1353.69 132.912 355.660
  86 1661.80 36.2915 312.827
  87 1805.32 -21.7116 151.666
  88 1809.27 -20.6076 -152.925
  89 1663.46 30.3025 -313.011
  90 1352.01 134.078 -354.609
  91 1027.84 155.788 -331.567
  92 680.924 62.7193 -262.686
  93 334.180 -163.511 -115.025
  94 86.9432 -482.858 -1.99215
  95 43.7454 -526.004 -42.3360
  96 249.915 -231.541 65.8788
  97 556.960 -36.9818 161.156
  98 966.871 87.1912 238.716
  99 1378.75 101.117 250.207
  100 1730.59 28.9091 238.427
  101 2008.58 -25.3410 168.877
  102 1971.65 -29.5397 -151.159
  103 1734.82 42.2409 -234.142
  104 1379.84 99.2379 -250.406
  105 967.321 87.3701 -239.335
  106 557.604 -36.5728 -161.580
  107 250.335 -231.077 -66.2018
  108 43.9477 -525.426 42.0499
  109 566.521 88.1590 -20.7467
  110 566.561 88.1524 20.7393
  111 785.265 -60.0748 115.964
  112 785.300 -60.2336 -115.948
  113 390.613 103.600 94.8339
  114 390.702 103.600 -94.8491
  115 765.394 31.6047 37.4383
  116 765.388 31.6170 -37.4529
  117 567.333 45.9719 38.9862
  118 567.341 45.9562 -38.9711
  119 1051.74 -40.0380 30.7354
  120 1052.08 -39.2212 -31.4792
  121 427.243 11.6074 143.823
  122 427.216 11.4931 -143.892
  123 1167.06 55.4857 -24.0067
  124 1162.90 52.3769 26.4705
  125 645.046 54.9678 6.05508
  126 645.026 54.9881 -6.05613
  127 804.043 14.4193 -72.9818
  128 804.051 14.4240 72.9676
  129 533.301 -12.2111 215.830
  130 533.419 -12.2097 -215.814
  131 788.107 -143.632 156.438
  132 788.216 -143.893 -156.609
  133 561.483 57.4995 -90.4638
  134 561.482 57.5166 90.4933
  135 970.101 -49.8480 -7.85563
  136 970.172 -49.5610 8.03401
  137 673.647 37.9111 85.9979
  138 673.623 37.8868 -86.0107
  139 197.150 27.9202 9.27787
  140 197.256 28.0200 -9.36935
  141 495.435 102.155 -51.3034
  142 495.388 102.171 51.3090
  143 926.815 -21.8687 -49.3073
  144 926.821 -21.8484 49.3209
  145 836.700 8.86309 15.8548
  146 836.710 8.86821 -15.8634
  147 626.202 42.1177 -154.522
  148 626.217 42.1363 154.569
  149 549.689 16.7243 21.5084
  150 549.679 16.7177 -21.4996
  151 1360.35 66.7323 3.72763
  152 676.402 51.1071 50.4379
  153 676.377 51.1149 -50.4512
  154 720.926 35.0346 15.2147
  155 720.915 35.0508 -15.2208
  156 601.541 43.3181 13.4593
  157 601.553 43.3003 -13.4535
  158 585.182 68.3679 -17.7769
  159 585.158 68.3881 17.7837
  160 855.546 11.2226 -36.8922
  161 855.529 11.2166 36.8746
  162 920.805 -61.0153 -126.968
  163 920.780 -61.0703 126.963
  164 465.639 91.8546 39.2686
  165 465.586 91.8274 -39.2978
  166 994.925 -51.1480 107.735
  167 995.314 -51.2529 -108.349
  168 460.748 -139.775 213.278
  169 460.750 -139.938 -213.369
  170 1212.57 35.6450 64.9368
  171 1215.47 41.3649 -67.8169
  172 565.939 25.1695 -50.0311
  173 565.957 25.1787 50.0508
  174 1008.97 41.1389 19.4994
  175 1014.73 9.05663 72.2654
  176 995.965 10.1358 -69.8827
  177 959.008 -107.280 42.3198
  178 959.290 -107.781 -42.3022
  179 618.380 7.17733 127.994
  180 618.374 7.09038 -128.020
  181 1005.51 -33.3446 -44.4847
  182 1005.46 -35.2638 44.6481
  183 623.798 -80.0523 182.031
  184 623.822 -80.2368 -182.089
  185 626.745 68.0818 -18.0768
  186 626.773 68.0647 18.0721
  187 1445.73 76.4434 90.5138
  188 1451.90 68.7877 -92.2204
  189 554.177 64.6489 -53.9351
  190 554.161 64.6680 53.9537
  191 690.081 49.5356 26.6697
  192 690.062 49.5526 -26.6784
  193 796.895 -1.94627 88.3175
  194 796.880 -1.98099 -88.3178
  195 962.399 27.7621 -42.0599
  196 758.837 31.9445 57.9037
  197 758.825 31.9506 -57.9204
  198 167.151 -126.077 -134.142
  199 166.934 -126.249 134.022
  200 1124.72 -26.6626 -65.1146
  201 1124.79 -26.4540 64.9830
  202 659.301 42.7854 -1.46645
  203 659.315 42.7654 1.46622
  204 152.261 -117.488 -100.343
  205 152.326 -117.302 100.240
  206 922.700 -3.03789 -44.4389
  207 922.673 -3.04143 44.4219
  208 337.522 91.0008 -4.42478
  209 337.441 90.9615 4.37474
  210 868.114 -14.7542 -140.026
  211 868.221 -14.7489 140.088
  212 648.318 18.5834 -92.9978
  213 648.371 18.5923 93.0335
  214 590.594 -110.445 194.243
  215 590.515 -110.501 -194.377
  216 577.888 29.0018 14.6193
  217 577.890 28.9889 -14.6121
  218 530.255 76.5617 -135.304
  219 530.228 76.5849 135.337
  220 568.000 67.7330 75.7405
  221 567.965 67.7063 -75.7616
  222 768.769 24.3207 13.9417
  223 768.766 24.3328 -13.9479
  224 365.630 73.1093 152.239
  225 365.745 73.1103 -152.256
  226 844.227 -98.2840 -104.353
  227 844.140 -98.0151 104.374
  228 366.300 -98.1552 174.016
  229 366.548 -98.0195 -174.110
  230 863.729 5.72993 -21.6145
  231 863.710 5.72661 21.6033
  232 1006.78 -12.0477 13.0612
  233 1006.80 -12.0531 -13.0636
  234 591.246 27.2808 -66.8326
  235 591.277 27.2911 66.8567
  236 1020.41 37.5779 45.2834
  237 1418.54 17.3985 105.184
  238 1419.48 17.5928 -105.040
  239 1136.65 68.0358 214.126
  240 1135.55 70.2462 -214.367
  241 539.296 93.8654 -18.9127
  242 539.256 93.8812 18.9154
  243 914.432 -52.8580 -54.0755
  244 914.451 -52.7035 54.1694
  245 540.635 9.35345 -23.4905
  246 540.656 9.35691 23.5007
  247 1596.33 23.2963 -60.3774
  248 913.953 4.69834 -31.3648
  249 913.916 4.69419 31.3488
  250 609.782 57.1445 -9.26747
  251 609.762 57.1648 9.27192
  252 437.781 111.709 -36.7345
  253 437.715 111.710 36.7212
  254 1116.57 17.3024 32.6581
  255 1110.82 17.4264 -33.1611
  256 1590.15 21.6686 58.9546
  257 622.002 66.9065 56.1574
  258 621.969 66.9035 -56.1706
  259 737.355 27.9307 -79.5209
  260 737.373 27.9397 79.5067
  261 854.330 4.91430 7.10709
  262 854.342 4.91673 -7.11069
  263 1635.32 -29.8272 93.1580
  264 1629.40 -1.78808 -83.2665
  265 1119.38 60.4069 -19.2787
  266 517.406 46.7904 107.849
  267 517.377 46.7232 -107.887
  268 508.493 41.7534 -195.969
  269 508.420 41.7702 195.997
  270 812.784 17.3112 30.6655
  271 812.790 17.3198 -30.6797
  272 561.280 28.3390 -37.8384
  273 561.288 28.3495 37.8540
  274 522.887 4.29320 6.64847
  275 522.874 4.29074 -6.64489
  276 505.016 104.486 -2.39185
  277 504.966 104.490 2.38344
  278 1011.42 -22.5159 -12.5092
  279 1011.34 -22.7702 12.6008
  280 54.3603 -177.637 22.2343
  281 54.4782 -177.421 -22.3525
  282 700.337 38.2135 -5.56820
  283 700.348 38.1951 5.56608
  284 764.674 28.4031 24.9744
  285 764.669 28.4160 -24.9851
  286 859.385 23.0922 228.750
  287 859.017 23.2667 -229.058
  288 997.307 -63.3917 -17.6540
  289 997.447 -64.0786 17.7572
  290 625.235 42.0813 -3.16680
  291 625.223 42.1004 3.16861
  292 824.949 9.82719 -122.315
  293 825.068 9.83781 122.366
  294 988.891 -3.84960 25.3067
  295 988.954 -3.84687 -25.3254
  296 1386.57 54.9785 -205.163
  297 1384.62 54.6372 203.574
  298 573.180 -89.1234 -162.392
  299 572.858 -89.3434 162.222
  300 978.013 -8.45911 54.6769
  301 978.188 -4.66329 -54.3845
  302 564.174 49.1734 -71.2528
  303 564.177 49.1894 71.2783
  304 285.673 21.1905 95.5578
  305 285.610 21.0821 -95.6439
  306 579.308 41.1611 25.6568
  307 579.316 41.1449 -25.6460
  308 715.862 -6.37886 111.165
  309 715.854 -6.45126 -111.169
  310 1164.82 74.3778 8.40674
  311 523.033 79.7213 -94.6372
  312 523.005 79.7410 94.6617
  313 1084.82 -12.3917 -34.4381
  314 1083.51 -13.2534 33.7580
  315 672.684 45.2370 -7.58781
  316 672.700 45.2175 7.58536
  317 1735.20 -23.8771 -28.1645
  318 1833.67 -45.0212 57.8721
  319 756.432 12.4725 -100.056
  320 756.537 12.4789 100.096
  321 1162.42 32.1509 -167.138
  322 1162.14 33.1050 166.572
  323 815.260 13.7460 6.93211
  324 815.266 13.7534 -6.93633
  325 635.243 48.0035 -2.23415
  326 635.227 48.0235 2.23579
  327 599.840 35.4371 -6.62320
  328 599.833 35.4531 6.62637
  329 858.679 -6.23295 -66.6375
  330 858.683 -6.22080 66.6315
  331 1315.29 62.4985 10.5141
  332 738.794 29.3210 -7.27492
  333 738.801 29.3060 7.27177
  334 553.480 15.7617 10.0665
  335 553.474 15.7542 -10.0626
  336 568.366 65.1508 -34.4157
  337 568.347 65.1703 34.4282
  338 930.869 10.0963 -50.1951
  339 844.641 -11.1490 -172.102
  340 844.334 -11.3410 171.866
  341 901.444 5.49057 -20.3609
  342 901.412 5.48763 20.3496
  343 925.926 -119.080 88.0118
  344 926.203 -119.576 -88.2552
  345 835.955 15.4292 52.6806
  346 835.962 15.4363 -52.7011
  347 805.873 22.5458 45.5543
  348 805.875 22.5552 -45.5729
  349 923.214 -95.8246 54.2475
  350 923.319 -96.1737 -54.1448
  351 228.797 -210.373 140.193
  352 228.774 -210.530 -140.249
  353 615.746 64.2381 2.40361
  354 615.720 64.2576 -2.40335
  355 876.686 0.750949 9.87468
  356 876.704 0.752374 -9.88026
  357 470.917 102.520 -99.7130
  358 470.861 102.540 99.7247
  359 706.168 -63.0210 -188.412
  360 706.091 -63.0546 188.443
  361 715.905 43.7308 40.5887
  362 715.888 43.7441 -40.6015
  363 1028.15 -23.3869 63.7160
  364 1026.96 -20.3456 -65.1458
  365 584.518 77.4298 1.79731
  366 584.485 77.4465 -1.79738
  367 494.090 -75.3372 -193.235
  368 494.085 -75.1737 193.159
  369 838.847 -31.6662 -84.1390
  370 838.852 -31.5855 84.1666
  371 1324.61 66.6594 -19.0878
  372 1016.73 -69.0392 22.4398
  373 1017.28 -69.6262 -22.5332
  374 286.264 81.5305 82.5181
  375 286.381 81.5656 -82.5700
  376 684.311 -41.0055 145.496
  377 684.332 -41.1435 -145.518
  378 1158.80 -33.3169 52.4141
  379 1158.54 -33.3488 -52.3937
  380 929.066 13.1784 53.4738
  381 879.309 27.8376 -3.68231
  382 624.268 -127.890 191.036
  383 624.304 -128.087 -191.134
  384 585.665 54.4063 24.2189
  385 585.680 54.3873 -24.2088
  386 1054.01 28.7443 -50.1803
  387 697.220 42.3253 67.2410
  388 697.196 42.3236 -67.2555
  389 856.669 -117.763 144.663
  390 856.762 -117.874 -145.035
  391 558.966 7.01004 -31.3999
  392 558.999 7.01304 31.4130
  393 1266.62 68.7817 45.5738
  394 1274.02 70.4381 -47.3763
  395 1027.48 -34.2041 95.5584
  396 1027.30 -34.1939 -95.5098
  397 755.411 -108.530 150.197
  398 755.489 -108.761 -150.246
  399 681.814 7.96841 -186.384
  400 681.808 7.97981 186.437
  401 472.917 86.6269 -152.811
  402 472.854 86.6520 152.833
  403 398.250 65.7220 79.2602
  404 398.200 65.6540 -79.3164
  405 876.115 19.3655 26.2871
  406 619.948 70.0071 -31.6841
  407 619.980 69.9958 31.6759
  408 614.262 33.6359 110.132
  409 614.238 33.5798 -110.153
  410 552.599 -19.3891 -158.973
  411 552.603 -19.2616 158.924
  412 518.322 6.50132 11.7827
  413 518.305 6.49910 -11.7772
  414 661.471 58.9382 -31.6069
  415 661.496 58.9233 31.5977
  416 655.818 59.7406 17.3569
  417 655.795 59.7595 -17.3617
  418 124.902 -273.153 60.6733
  419 125.170 -272.781 -60.9015
  420 1051.74 14.5432 62.2789
  421 723.870 38.6605 26.7907
  422 723.857 38.6762 -26.8007
  423 569.113 29.5721 29.2784
  424 569.113 29.5602 -29.2662
  425 533.124 86.9328 54.6729
  426 533.154 86.9130 -54.6586
  427 561.547 41.4457 -54.1200
  428 561.547 41.4601 54.1411
  429 870.333 4.66280 -56.6811
  430 870.321 4.65803 56.6616
  431 581.178 54.1765 -115.111
  432 581.186 54.1933 115.147
  433 328.078 -68.7972 -171.530
  434 328.103 -68.6338 171.440
  435 1297.51 -5.94913 28.2898
  436 1297.77 -6.50051 -28.1770
  437 1607.65 8.48904 191.189
  438 1612.66 4.49803 -191.009
  439 537.706 85.4999 37.4368
  440 537.662 85.4918 -37.4525
  441 23.4452 -384.088 -51.8079
  442 23.4847 -383.816 51.7406
  443 965.744 -36.6853 25.3560
  444 965.685 -36.7437 -25.2867
  445 1010.29 -10.1739 36.5477
  446 1010.14 -9.63841 -35.7748
  447 38.7364 -386.823 22.6392
  448 38.8981 -386.451 -22.8246
  449 878.787 -122.391 -95.6122
  450 878.615 -122.035 95.5602
  451 972.625 -0.689207 -21.2293
  452 972.560 -0.690390 21.2148
  453 910.701 7.45222 -52.6849
  454 995.173 -44.2645 -25.3649
  455 994.878 -44.8992 25.7140
  456 746.087 17.2900 -87.3230
  457 746.104 17.3120 87.3152
  458 643.070 9.10391 -49.1935
  459 643.143 9.10628 49.2130
  460 218.151 16.9545 114.896
  461 218.301 17.0264 -114.975
  462 863.693 -70.0653 84.6987
  463 863.738 -70.2571 -84.6375
  464 799.486 21.1597 18.4087
  465 799.489 21.1699 -18.4178
  466 556.994 78.8091 -30.4789
  467 556.965 78.8289 30.4885
  468 868.718 3.35787 2.86147
  469 868.730 3.35886 -2.86274
  470 684.686 48.0963 -17.2237
  471 684.704 48.0776 17.2179
  472 498.713 0.0771877 1.75030
  473 498.700 0.0762919 -1.74905
  474 544.164 68.5713 -76.9074
  475 544.148 68.5896 76.9310
  476 362.234 -8.07909 -186.905
  477 362.068 -8.12279 186.868
  478 842.233 4.61930 -28.6175
  479 19.4705 -104.328 0.409005
  480 4.37357 -56.1404 -1.99356
  481 4.07699 -46.8085 3.19018
  482 3.43875 -92.6693 3.77299
  483 2.10952 -96.3799 -11.9999
  484 1.91804 -89.5453 -5.60741
  485 2.65822 -85.5018 14.3338
  486 3.19265 -52.0548 8.05935
  487 0.576828 -39.0225 -10.1669
  488 -7.32961 -107.016 -0.537527
  489 -12.0302 -122.823 1.29592
  490 -1.55301 -10.9383 -1.10998
  491 1.48582 -45.4086 -7.51282
  492 -1.92047 -31.0908 9.13166
  493 15.7890 -92.5578 -1.71784
  494 -1.77037 -7.95672 0.714387
  495 13.0286 -83.3387 1.39708
  496 -0.787529 -15.7193 1.02582
  497 -0.525184 -10.5481 -0.799641
  498 14.2185 -104.435 0.247655
  499 16.9695 -109.850 -1.25655
  500 -0.732400 -11.5984 -2.38410
  501 -4.96315 -76.2386 7.85868
  502 -5.77110 -67.9675 -18.9457
  503 -16.7458 -100.352 -2.62474
  504 -19.4885 -111.061 9.21921
  505 -13.0584 -104.385 0.519461
  506 -17.1664 -118.467 -4.76091
  507 -2.26058 -62.1332 -8.07307
  508 -3.60510 -48.6823 15.6457
  509 8.79668 -74.5852 3.00707
  510 6.65607 -70.3741 -10.2199
  511 -1.14519 -7.14123 0.921788
  512 7.43821 -70.2005 8.05920
  513 15.3303 -95.2862 6.80001
  514 14.6280 -96.5339 -0.629528
  515 8.22704 -61.0237 -2.20920
  516 0.521661 -34.4159 -5.01280
  517 0.497328 -21.1958 4.75699
  518 -1.25437 1.00993 -1.18539
  519 9.40889 -111.114 4.53465
  520 2.19711 -39.2157 3.38629
  521 -0.265700 -47.8852 9.15220
  522 -2.33237 -33.6646 -11.5738
  523 14.8650 -98.8161 -5.97535
  524 -0.891636 -27.3711 3.77955
  525 -1.51346 -0.359135 1.14686
  526 -28.1304 -106.751 -0.258698
  527 -40.1364 -126.739 1.72414
  528 -1.01437 1.55735 0.324247
  529 -0.737841 -13.4984 -1.52302
  530 1.30696 -31.2505 -2.78427
  531 0.332015 -13.5391 -4.24898
  532 5.87321 -102.789 -1.58019
  533 14.4521 -99.4412 1.26910
  534 1.12061 -8.30188 1.67072
  535 1.54490 -70.9159 9.05069
  536 -1.73745 -65.5188 -17.3842
  537 6.75689 -103.251 0.931129
  538 8.00874 -113.929 -3.43826
  539 -0.131415 -28.5052 -5.99990
  540 -1.16638 -29.5427 -0.979646
  541 -1.74884 2.57040 0.0624248
  542 0.885885 -58.4317 14.0751
  543 -1.21259 1.62973 -1.61481
  544 19.1021 -103.465 -1.15984
  545 13.3166 -80.3030 -4.29822
  546 4.52933 -70.4721 -7.04227
  547 -28.6607 -107.558 0.892578
  548 -41.2310 -127.456 -2.21223
  549 -25.4668 -95.9013 6.33155
  550 -26.2435 -100.717 -15.2703
  551 -0.468047 -3.12545 -0.764400
  552 -16.3066 -84.3132 -7.59062
  553 -12.9717 -79.7723 18.9766
  554 -1.08758 -24.1970 0.692895
  555 -1.63877 -20.2740 7.93100
  556 9.15026 -66.5290 2.57438
  557 18.9009 -99.5089 2.44932
  558 10.4738 -82.4825 -2.88163
  559 -1.79281 3.82590 -0.567434
  560 -1.26095 0.332266 0.902650
  561 3.00355 -44.4756 8.48318
  562 18.2289 -107.497 2.36870
  563 -0.953271 7.68369 -0.428867
  564 -41.8143 -107.734 1.14322
  565 -1.16004 6.34889 0.0349136
  566 -61.9713 -128.283 -1.29973
  567 -0.650560 7.13789 2.36722
  568 0.0418601 5.91718 4.06957
  569 2.52923 -1.33178 1.56156
  570 2.32572 -18.9568 -5.37449
  571 -15.6059 -62.3550 -10.3156
  572 -32.3565 -94.6502 -7.84568
  573 -42.1133 -106.003 -1.84765
  574 -40.4483 -103.671 2.40516
  575 -46.8152 -97.7379 7.15929
  576 -13.1040 -67.8726 7.91615
  577 0.916243 -22.3608 6.43616
  578 3.11619 -1.51783 -3.51228
  579 1.48226 3.94030 -4.00875
  580 -0.585809 7.43596 -2.84839
  581 -0.405752 6.49382 2.35710
  582 0.575493 3.65015 3.56969
  583 3.00216 -2.91566 1.71323
  584 3.34847 -10.4018 -2.04212
  585 -8.25660 -52.7288 -14.4325
  586 -49.0359 -103.198 -13.5131
  587 -53.5999 -119.259 -6.14926
  588 -57.4888 -123.665 5.58996
  589 -30.8544 -99.1608 16.2238
  590 -9.61945 -44.6487 16.2377
  591 3.90329 -7.92283 1.80461
  592 4.09864 -0.905886 -3.14037
  593 0.698357 4.46788 -4.15124
  594 -0.501115 7.43955 -2.56576
</Section>

newXOutput 30

<Section columns = "stress_xx | stress_yy | stress_xy">
  1 500.233 4.57764 -4.73873
  2 500.246 4.57863 4.73974
  3 904.941 0.354955 -0.130477
  4 904.928 0.353979 0.129472
  5 0.872301 -622.194 22.8082
  6 1858.73 -5.48460 -1.21836
  7 0.776866 -622.647 -22.9378
  8 2132.34 -40.6072 -14.6450
  9 508.824 2.66087 -2.60609
  10 522.458 5.08065 -8.43224
  11 552.114 7.29183 -19.7404
  12 601.489 4.62904 -36.4521
  13 672.793 4.33365 -38.5227
  14 757.088 11.6920 -62.8310
  15 898.559 2.38768 -80.3691
  16 1052.59 -3.89365 -83.3300
  17 1257.10 -28.4923 -45.0275
  18 1323.69 -25.7144 -19.2516
  19 1373.63 -3.51260 9.64673
  20 1435.99 18.3394 -2.16622
  21 1499.67 29.6071 -13.0601
  22 1561.04 -14.8861 -3.90372
  23 1434.66 11.9884 -1.50815
  24 1374.40 -3.13785 -8.70145
  25 1324.05 -25.4814 19.3942
  26 1257.47 -28.5014 45.0649
  27 1052.83 -3.89140 83.3742
  28 898.734 2.39045 80.4056
  29 757.203 11.6956 62.8554
  30 672.884 4.33246 38.5383
  31 601.543 4.62924 36.4673
  32 552.150 7.29404 19.7489
  33 522.480 5.08199 8.43754
  34 508.840 2.66201 2.60853
  35 540.112 3.27361 5.65965
  36 572.051 16.4600 9.10917
  37 596.875 27.4891 8.05203
  38 631.831 36.2868 5.24828
  39 664.415 41.7819 2.35349
  40 701.887 40.3475 -0.243464
  41 742.009 33.6271 -1.27472
  42 799.238 21.8129 -4.14173
  43 839.857 13.5323 0.508924
  44 872.050 8.48201 -2.20014
  45 904.687 -0.300314 -5.64452
  46 924.438 -2.54380 -6.65218
  47 930.175 2.58248 -12.3297
  48 962.454 0.715604 -17.2153
  49 1009.60 -5.85187 -15.6029
  50 1045.94 -6.09859 -17.9764
  51 1071.87 -7.78986 -12.7253
  52 1084.98 -12.3236 -0.333771
  53 1067.92 -15.1835 23.5718
  54 1018.96 -6.09561 36.6995
  55 926.813 5.11747 43.9668
  56 835.240 20.6037 33.8946
  57 788.549 23.5616 16.7641
  58 779.982 24.7141 -18.9782
  59 844.405 13.9925 -32.1951
  60 924.690 2.58912 -36.1074
  61 1020.00 -5.22687 -34.5554
  62 1068.25 -14.7382 -23.0653
  63 1084.85 -12.2326 0.329080
  64 1071.74 -7.79105 12.6946
  65 1045.84 -6.09893 17.9564
  66 1009.53 -5.84971 15.5914
  67 962.407 0.714524 17.2048
  68 930.145 2.58060 12.3224
  69 924.415 -2.54400 6.64825
  70 904.672 -0.300761 5.64209
  71 872.040 8.47861 2.19835
  72 839.851 13.5250 -0.510513
  73 799.239 21.8011 4.13917
  74 742.019 33.6104 1.27339
  75 701.899 40.3279 0.242831
  76 664.428 41.7621 -2.35303
  77 631.841 36.2695 -5.24694
  78 596.877 27.4769 -8.04913
  79 572.045 16.4522 -9.10739
  80 540.102 3.27006 -5.65780
  81 89.3637 -499.523 1.70927
  82 344.028 -169.522 118.207
  83 701.104 64.0856 270.294
  84 1057.77 159.744 341.860
  85 1392.15 136.807 366.202
  86 1708.13 36.8587 322.126
  87 1855.84 -23.1377 156.207
  88 1859.86 -21.9517 -157.505
  89 1709.80 30.6017 -322.318
  90 1390.40 138.014 -365.116
  91 1057.19 160.365 -341.282
  92 700.546 64.0957 -270.318
  93 343.885 -169.610 -118.212
  94 89.3285 -499.802 -1.72291
  95 45.0390 -543.937 -43.7708
  96 257.274 -239.408 67.7994
  97 573.072 -38.5586 165.784
  98 994.407 89.7780 245.668
  99 1417.88 104.505 257.774
  100 1779.40 29.5650 245.965
  101 2064.20 -27.1534 174.117
  102 2026.91 -31.3621 -155.921
  103 1783.77 43.3548 -241.605
  104 1418.99 102.537 -258.001
  105 994.842 89.9556 -246.298
  106 573.718 -38.1441 -166.213
  107 257.696 -238.936 -68.1261
  108 45.2435 -543.349 43.4806
  109 583.982 91.0936 -21.2633
  110 584.023 91.0865 21.2563
  111 808.837 -61.6445 119.752
  112 808.870 -61.8063 -119.735
  113 402.636 107.204 97.9370
  114 402.725 107.204 -97.9517
  115 788.747 32.6132 38.5049
  116 788.739 32.6260 -38.5200
  117 584.275 47.3217 40.0865
  118 584.283 47.3056 -40.0709
  119 1083.69 -41.5015 31.3527
  120 1084.03 -40.6446 -32.1256
  121 440.278 12.5053 148.049
  122 440.249 12.3884 -148.118
  123 1203.18 57.1692 -24.4522
  124 1198.91 53.9589 26.9943
  125 664.808 56.5808 6.21058
  126 664.787 56.6017 -6.21158
  127 828.450 15.1123 -75.2678
  128 828.459 15.1162 75.2528
  129 549.270 -12.1374 222.789
  130 549.387 -12.1349 -222.773
  131 811.524 -148.374 161.468
  132 811.633 -148.645 -161.643
  133 578.038 59.3017 -93.1241
  134 578.038 59.3189 93.1542
  135 999.594 -51.3886 -8.46932
  136 999.668 -51.0948 8.65169
  137 694.181 39.4552 88.5571
  138 694.155 39.4312 -88.5699
  139 203.396 29.4109 9.85341
  140 203.502 29.5128 -9.94526
  141 510.603 105.484 -52.9410
  142 510.556 105.500 52.9473
  143 954.946 -22.4180 -51.1022
  144 954.952 -22.3983 51.1148
  145 862.065 9.10760 16.2850
  146 862.075 9.11288 -16.2938
  147 644.565 43.5447 -159.284
  148 644.581 43.5631 159.331
  149 565.658 17.1955 22.1020
  150 565.648 17.1887 -22.0931
  151 1401.94 68.5341 3.86755
  152 697.142 52.8591 51.8855
  153 697.117 52.8677 -51.8990
  154 742.992 36.0227 15.6316
  155 742.981 36.0394 -15.6378
  156 619.728 44.5236 13.8361
  157 619.740 44.5054 -13.8301
  158 603.034 70.4411 -18.3124
  159 603.009 70.4618 18.3195
  160 881.461 11.6178 -37.9796
  161 881.444 11.6115 37.9614
  162 948.203 -62.7482 -131.276
  163 948.182 -62.8052 131.269
  164 480.052 95.1352 40.2518
  165 479.998 95.1075 -40.2806
  166 1024.42 -52.9389 111.315
  167 1024.82 -53.0521 -111.951
  168 474.449 -144.282 219.880
  169 474.450 -144.449 -219.972
  170 1248.90 36.7035 67.4541
  171 1251.87 42.6373 -70.4307
  172 582.326 25.9091 -51.4433
  173 582.345 25.9185 51.4634
  174 1040.66 42.4017 20.1221
  175 1046.16 9.24797 74.3681
  176 1026.88 10.4027 -71.9503
  177 987.781 -110.892 43.9915
  178 988.066 -111.413 -43.9736
  179 637.086 7.91036 131.843
  180 637.079 7.82217 -131.870
  181 1036.46 -34.5655 -45.6297
  182 1036.41 -36.5529 45.7958
  183 642.442 -82.2601 187.690
  184 642.465 -82.4494 -187.748
  185 646.009 70.2259 -18.5531
  186 646.038 70.2082 18.5486
  187 1488.99 78.5579 93.7131
  188 1495.29 70.5908 -95.4920
  189 570.804 66.6283 -55.5011
  190 570.788 66.6476 55.5203
  191 711.244 51.0571 27.4048
  192 711.224 51.0748 -27.4137
  193 821.031 -1.68098 91.1481
  194 821.015 -1.71534 -91.1488
  195 992.571 28.6567 -43.3738
  196 781.971 33.0947 59.6311
  197 781.959 33.1016 -59.6483
  198 172.266 -129.632 -138.696
  199 172.048 -129.807 138.576
  200 1158.27 -27.3150 -67.5492
  201 1158.35 -27.0960 67.4111
  202 679.453 43.9404 -1.50458
  203 679.467 43.9200 1.50436
  204 156.971 -120.852 -103.315
  205 157.036 -120.663 103.211
  206 950.650 -3.03350 -45.9346
  207 950.621 -3.03760 45.9164
  208 348.067 94.3297 -4.82842
  209 347.985 94.2893 4.77868
  210 893.673 -15.0550 -144.506
  211 893.782 -15.0504 144.567
  212 666.977 19.1395 -95.7375
  213 667.031 19.1484 95.7736
  214 608.007 -114.305 200.219
  215 607.924 -114.363 -200.356
  216 595.068 29.7830 14.9974
  217 595.070 29.7697 -14.9899
  218 546.059 79.0727 -139.446
  219 546.033 79.0957 139.480
  220 585.438 70.2501 77.8903
  221 585.401 70.2233 -77.9111
  222 792.222 24.9942 14.3249
  223 792.219 25.0066 -14.3312
  224 376.779 75.8473 157.161
  225 376.894 75.8490 -157.177
  226 869.507 -101.258 -107.891
  227 869.421 -100.982 107.914
  228 377.321 -100.913 179.722
  229 377.569 -100.775 -179.817
  230 889.848 5.91258 -22.2220
  231 889.829 5.90913 22.2105
  232 1037.50 -12.3584 13.6804
  233 1037.53 -12.3629 -13.6845
  234 608.287 28.1106 -68.7757
  235 608.319 28.1210 68.8002
  236 1052.29 38.7684 46.6059
  237 1460.73 18.0291 108.982
  238 1461.72 18.2040 -108.836
  239 1169.96 70.1659 220.853
  240 1168.83 72.4574 -221.103
  241 555.852 96.8878 -19.5516
  242 555.812 96.9039 19.5548
  243 942.094 -54.3862 -56.1016
  244 942.115 -54.2288 56.1967
  245 556.086 9.61984 -24.1305
  246 556.107 9.62336 24.1409
  247 1643.27 23.5669 -62.3698
  248 941.556 4.90415 -32.3348
  249 941.517 4.89972 32.3181
  250 628.376 58.8179 -9.54177
  251 628.356 58.8386 9.54643
  252 451.313 115.494 -38.0290
  253 451.246 115.496 38.0164
  254 1150.74 17.7474 33.3161
  255 1144.82 17.8751 -33.8364
  256 1636.97 21.8474 60.9069
  257 641.097 69.2493 57.7459
  258 641.063 69.2468 -57.7590
  259 759.814 29.0965 -81.9432
  260 759.833 29.1047 81.9286
  261 880.189 5.04837 7.30198
  262 880.201 5.05087 -7.30567
  263 1684.15 -31.1193 96.5306
  264 1678.16 -2.16798 -86.3587
  265 1154.32 62.2827 -19.7989
  266 533.227 48.7729 110.964
  267 533.197 48.7046 -111.002
  268 523.683 43.3880 -202.202
  269 523.611 43.4041 202.230
  270 837.486 17.8341 31.5344
  271 837.492 17.8429 -31.5490
  272 577.690 29.1592 -38.8833
  273 577.698 29.1699 38.8992
  274 537.872 4.39300 6.81059
  275 537.859 4.39050 -6.80693
  276 520.613 107.977 -2.60723
  277 520.562 107.982 2.59940
  278 1042.50 -23.2344 -12.6406
  279 1042.41 -23.4946 12.7323
  280 56.0985 -182.846 23.1908
  281 56.2177 -182.626 -23.3102
  282 721.776 39.2439 -5.71898
  283 721.788 39.2250 5.71681
  284 788.015 29.2355 25.6669
  285 788.011 29.2488 -25.6779
  286 884.489 23.6204 235.749
  287 884.105 23.7983 -236.070
  288 1027.62 -65.5626 -17.8696
  289 1027.76 -66.2757 17.9758
  290 644.223 43.2172 -3.25062
  291 644.211 43.2368 3.25249
  292 848.861 10.2148 -126.082
  293 848.982 10.2252 126.134
  294 1018.88 -3.90427 26.2219
  295 1018.95 -3.90107 -26.2419
  296 1427.15 56.4672 -211.765
  297 1425.17 56.1441 210.127
  298 590.241 -91.9533 -167.557
  299 589.919 -92.1771 167.386
  300 1008.43 -8.81612 56.2789
  301 1008.61 -4.87785 -55.9911
  302 580.770 50.6708 -73.3067
  303 580.773 50.6870 73.3327
  304 294.540 22.4020 98.2629
  305 294.477 22.2910 -98.3493
  306 596.648 42.3256 26.3667
  307 596.655 42.3090 -26.3556
  308 737.505 -6.15592 114.636
  309 737.496 -6.22886 -114.640
  310 1201.10 76.7490 8.52033
  311 538.729 82.2733 -97.4998
  312 538.701 82.2931 97.5251
  313 1117.44 -12.8792 -35.9158
  314 1116.11 -13.7672 35.2076
  315 693.290 46.5097 -7.79025
  316 693.306 46.4897 7.78777
  317 1787.29 -25.0336 -29.1573
  318 1887.31 -47.0702 59.8303
  319 778.105 12.8774 -103.049
  320 778.212 12.8836 103.089
  321 1196.57 33.2510 -172.531
  322 1196.30 34.2532 171.945
  323 840.018 14.1141 7.10415
  324 840.024 14.1216 -7.10849
  325 654.633 49.3457 -2.30196
  326 654.617 49.3663 2.30369
  327 617.884 36.3855 -6.79957
  328 617.876 36.4020 6.80282
  329 884.706 -6.21118 -68.8496
  330 884.709 -6.19977 68.8427
  331 1355.60 64.1593 11.1286
  332 761.377 30.1005 -7.47079
  333 761.384 30.0850 7.46756
  334 569.656 16.1774 10.3510
  335 569.650 16.1697 -10.3470
  336 585.559 67.1227 -35.4166
  337 585.540 67.1426 35.4296
  338 959.978 10.3510 -51.7380
  339 869.550 -11.5221 -177.547
  340 869.248 -11.7173 177.307
  341 928.624 5.69015 -20.9432
  342 928.591 5.68707 20.9315
  343 953.515 -123.111 91.0072
  344 953.796 -123.628 -91.2583
  345 861.321 16.0321 54.2904
  346 861.328 16.0398 -54.3118
  347 830.385 23.3203 46.8976
  348 830.387 23.3303 -46.9168
  349 951.021 -98.9216 56.3087
  350 951.126 -99.2816 -56.2031
  351 235.569 -217.405 144.478
  352 235.545 -217.567 -144.535
  353 634.629 66.1907 2.43986
  354 634.603 66.2108 -2.43942
  355 903.157 0.751440 10.1356
  356 903.176 0.752914 -10.1413
  357 485.232 105.919 -102.843
  358 485.176 105.938 102.856
  359 727.208 -64.7009 -194.552
  360 727.132 -64.7363 194.583
  361 737.823 45.1480 41.7497
  362 737.805 45.1620 -41.7628
  363 1059.69 -24.2997 65.4674
  364 1058.48 -21.1366 -66.9507
  365 602.478 79.8794 1.79561
  366 602.444 79.8967 -1.79537
  367 508.875 -77.4024 -199.155
  368 508.871 -77.2345 199.079
  369 864.179 -32.3703 -86.9628
  370 864.186 -32.2890 86.9904
  371 1365.15 68.5025 -20.0292
  372 1047.26 -71.4074 23.4643
  373 1047.82 -72.0232 -23.5633
  374 295.206 84.6081 85.3384
  375 295.324 84.6443 -85.3900
  376 704.858 -41.8728 150.019
  377 704.877 -42.0135 -150.040
  378 1193.12 -34.1600 54.3881
  379 1192.86 -34.1922 -54.3699
  380 958.089 13.5802 55.1119
  381 906.921 28.7793 -3.78326
  382 642.806 -131.870 197.030
  383 642.840 -132.074 -197.129
  384 603.370 55.9938 24.9027
  385 603.386 55.9743 -24.8923
  386 1086.83 29.5740 -51.5753
  387 718.521 43.8867 69.2176
  388 718.497 43.8856 -69.2322
  389 881.987 -121.790 149.287
  390 882.078 -121.908 -149.671
  391 574.843 7.19924 -32.2729
  392 574.876 7.20226 32.2862
  393 1305.13 70.9601 47.5241
  394 1312.74 72.6331 -49.4015
  395 1057.78 -35.1120 98.7424
  396 1057.59 -35.1007 -98.6947
  397 777.918 -111.828 155.010
  398 777.995 -112.065 -155.058
  399 701.980 8.50067 -192.289
  400 701.975 8.51142 192.342
  401 487.153 89.5826 -157.606
  402 487.090 89.6074 157.628
  403 410.577 68.3202 81.4343
  404 410.526 68.2507 -81.4901
  405 903.591 19.9987 27.1072
  406 639.026 72.3032 -32.5462
  407 639.059 72.2913 32.5380
  408 632.970 35.1636 113.404
  409 632.945 35.1070 -113.424
  410 569.276 -19.5062 -163.778
  411 569.282 -19.3760 163.730
  412 533.057 6.69319 12.0926
  413 533.040 6.69092 -12.0869
  414 681.790 60.8355 -32.4853
  415 681.816 60.8200 32.4760
  416 675.944 61.5673 17.8243
  417 675.921 61.5868 -17.8291
  418 128.692 -281.927 62.7460
  419 128.963 -281.549 -62.9766
  420 1084.37 14.8167 64.0766
  421 746.025 39.8291 27.5332
  422 746.012 39.8454 -27.5435
  423 585.953 30.3944 30.0847
  424 585.953 30.3823 -30.0722
  425 549.289 89.6881 56.3274
  426 549.319 89.6681 -56.3124
  427 578.129 42.6706 -55.6459
  428 578.128 42.6852 55.6674
  429 896.707 4.95504 -58.4938
  430 896.694 4.94958 58.4733
  431 598.225 55.9063 -118.564
  432 598.234 55.9230 118.600
  433 338.017 -70.5914 -176.700
  434 338.042 -70.4238 176.610
  435 1336.39 -6.11073 29.6493
  436 1336.67 -6.69012 -29.5331
  437 1653.96 8.26875 197.157
  438 1659.06 4.11535 -196.972
  439 554.307 88.4652 38.4101
  440 554.261 88.4573 -38.4254
  441 24.0375 -396.880 -53.3226
  442 24.0779 -396.602 53.2544
  443 995.172 -37.7835 26.4962
  444 995.111 -37.8418 -26.4270
  445 1041.65 -10.5280 37.5428
  446 1041.49 -9.97296 -36.7487
  447 39.9616 -399.366 23.5527
  448 40.1250 -398.987 -23.7403
  449 905.012 -126.330 -98.8502
  450 904.839 -125.962 98.7976
  451 1001.97 -0.672064 -21.9215
  452 1001.91 -0.673405 21.9062
  453 939.182 7.69331 -54.3459
  454 1025.61 -45.7717 -25.8304
  455 1025.31 -46.4243 26.1893
  456 768.718 18.1727 -90.0205
  457 768.737 18.1942 90.0123
  458 661.230 9.40152 -50.6063
  459 661.304 9.40386 50.6261
  460 224.956 18.1032 118.752
  461 225.107 18.1768 -118.830
  462 889.684 -72.0755 87.6332
  463 889.726 -72.2711 -87.5707
  464 823.813 21.7623 18.9067
  465 823.816 21.7728 -18.9161
  466 573.971 81.2615 -31.4018
  467 573.941 81.2816 31.4118
  468 894.994 3.46173 2.94281
  469 895.007 3.46274 -2.94410
  470 705.677 49.5171 -17.6900
  471 705.695 49.4978 17.6841
  472 512.852 0.0580948 1.78819
  473 512.840 0.0571815 -1.78692
  474 560.420 70.7216 -79.1803
  475 560.403 70.7400 79.2045
  476 373.209 -7.84958 -192.989
  477 373.043 -7.89467 192.951
  478 868.652 4.66987 -29.5625
  479 20.1321 -108.040 0.413934
  480 4.43286 -57.9665 -2.05834
  481 4.13178 -48.2860 3.29836
  482 3.42676 -95.8896 3.92829
  483 2.10803 -99.7063 -12.4730
  484 1.86589 -92.6142 -5.84427
  485 2.67946 -88.3920 14.8890
  486 3.23151 -53.6484 8.31372
  487 0.556913 -40.1550 -10.4810
  488 -7.83061 -110.889 -0.565617
  489 -12.6338 -127.297 1.34712
  490 -1.64585 -11.1820 -1.13445
  491 1.45799 -46.7765 -7.74091
  492 -2.03686 -31.9450 9.39068
  493 16.2950 -95.7840 -1.77620
  494 -1.86925 -8.10149 0.724056
  495 13.4169 -86.1979 1.43392
  496 -0.858477 -16.1112 1.02979
  497 -0.585956 -10.7722 -0.803722
  498 14.6628 -108.173 0.252991
  499 17.5552 -113.774 -1.31421
  500 -0.771221 -11.8657 -2.40912
  501 -5.23798 -78.7126 8.12475
  502 -5.97271 -70.0904 -19.6405
  503 -17.6079 -103.881 -2.68990
  504 -20.3584 -114.986 9.53990
  505 -13.8071 -108.110 0.511033
  506 -17.9581 -122.707 -4.92090
  507 -2.42157 -64.0264 -8.32208
  508 -3.75675 -50.0603 16.1767
  509 9.01827 -77.0966 3.13449
  510 6.81205 -72.7141 -10.6019
  511 -1.19459 -7.25686 0.892759
  512 7.61627 -72.5368 8.35599
  513 15.8308 -98.6148 7.06444
  514 15.0850 -99.9265 -0.680348
  515 8.42813 -63.0104 -2.29709
  516 0.471775 -35.4428 -5.16847
  517 0.502399 -21.7530 4.83396
  518 -1.31049 1.14337 -1.24708
  519 9.69893 -115.090 4.71566
  520 2.19082 -40.4030 3.48798
  521 -0.259880 -49.2581 9.36584
  522 -2.37284 -34.5075 -11.8891
  523 15.3503 -102.286 -6.21628
  524 -0.985842 -28.1506 3.88392
  525 -1.57163 -0.268672 1.21644
  526 -29.6913 -110.575 -0.236110
  527 -42.0656 -131.328 1.76530
  528 -1.06597 1.71092 0.348596
  529 -0.771859 -13.8066 -1.51156
  530 1.28064 -32.1621 -2.86468
  531 0.368235 -13.8274 -4.28469
  532 5.97175 -106.454 -1.66804
  533 14.9012 -102.957 1.33537
  534 1.19975 -8.42731 1.60429
  535 1.48109 -73.2406 9.38958
  536 -1.87491 -67.6125 -18.0247
  537 6.88358 -106.939 0.980669
  538 8.24626 -118.016 -3.59024
  539 -0.0810806 -29.2204 -6.06474
  540 -1.28084 -30.3980 -1.01235
  541 -1.82329 2.74816 0.0745804
  542 0.828869 -60.2778 14.5778
  543 -1.25855 1.78592 -1.70132
  544 19.7520 -107.137 -1.20724
  545 13.7219 -83.0355 -4.45515
  546 4.58433 -72.7769 -7.31142
  547 -30.2519 -111.428 0.910042
  548 -43.1735 -132.078 -2.26859
  549 -26.5891 -99.1937 6.49693
  550 -27.2048 -104.146 -15.7735
  551 -0.487339 -3.11532 -0.851524
  552 -16.9893 -87.0910 -7.81689
  553 -13.4061 -82.3519 19.6344
  554 -1.18855 -24.8729 0.714062
  555 -1.60908 -20.6443 8.05381
  556 9.38820 -68.7262 2.65956
  557 19.5370 -103.017 2.53236
  558 10.7599 -85.2914 -3.01929
  559 -1.86702 4.04512 -0.597900
  560 -1.30939 0.450994 0.969967
  561 3.01951 -45.8439 8.77017
  562 18.8506 -111.329 2.45760
  563 -0.993377 8.01844 -0.440646
  564 -44.1269 -111.565 1.20795
  565 -1.20784 6.64074 0.0327396
  566 -64.9274 -132.890 -1.34441
  567 -0.672023 7.46466 2.47083
  568 0.0549228 6.21000 4.25840
  569 2.66512 -1.26190 1.73213
  570 2.60562 -19.3646 -5.32161
  571 -16.0952 -64.1842 -10.5364
  572 -33.6792 -97.8554 -8.01295
  573 -44.2663 -109.766 -1.82356
  574 -42.4655 -107.360 2.41663
  575 -48.7458 -101.084 7.26882
  576 -13.5266 -69.9237 8.05542
  577 1.08658 -22.8668 6.46622
  578 3.26514 -1.43585 -3.72699
  579 1.55064 4.17637 -4.19435
  580 -0.604442 7.76378 -2.96437
  581 -0.423066 6.79285 2.45649
  582 0.599875 3.86103 3.73557
  583 3.15901 -2.89096 1.86620
  584 3.57481 -10.5049 -1.93788
  585 -8.36595 -54.1858 -14.8386
  586 -50.7705 -106.694 -13.8389
  587 -55.9357 -123.527 -6.29349
  588 -60.1278 -128.095 5.71997
  589 -31.9585 -102.512 16.7020
  590 -9.78456 -45.8096 16.6909
  591 4.18512 -7.99662 1.67937
  592 4.29912 -0.828307 -3.34174
  593 0.730766 4.70385 -4.33684
  594 -0.518945 7.76863 -2.67250
</Section>

newXOutput 31

<Section columns = "stress_xx | stress_yy | stress_xy">
  1 513.736 4.72567 -4.89213
  2 513.750 4.72670 4.89318
  3 931.205 0.345666 -0.112947
  4 931.191 0.344656 0.111906
  5 0.740082 -642.637 23.3687
  6 1909.31 -6.26833 -1.24867
  7 0.640984 -643.110 -23.5034
  8 2188.70 -43.0778 -14.9513
  9 522.571 2.73348 -2.64308
  10 536.558 5.23650 -8.61716
  11 566.951 7.51106 -20.2571
  12 617.695 4.77735 -37.4275
  13 690.785 4.50379 -39.5588
  14 777.576 12.0647 -64.5906
  15 923.058 2.46916 -82.6643
  16 1081.81 -3.98435 -85.8474
  17 1292.32 -29.3256 -46.5411
  18 1361.49 -26.4842 -20.2840
  19 1413.89 -3.53150 9.24708
  20 1479.21 18.8722 -2.95374
  21 1545.85 30.3909 -13.8196
  22 1608.49 -15.4678 -3.78066
  23 1477.90 12.4221 -0.735763
  24 1414.67 -3.13476 -8.27034
  25 1361.87 -26.2441 20.4283
  26 1292.69 -29.3358 46.5787
  27 1082.05 -3.98221 85.8927
  28 923.239 2.47193 82.7018
  29 777.694 12.0684 64.6157
  30 690.878 4.50255 39.5748
  31 617.751 4.77754 37.4432
  32 566.989 7.51335 20.2659
  33 536.581 5.23790 8.62264
  34 522.588 2.73466 2.64559
  35 555.010 3.30977 5.82377
  36 588.112 16.8770 9.40091
  37 613.908 28.1933 8.27639
  38 650.177 37.1897 5.40972
  39 683.872 42.8388 2.43330
  40 722.520 41.3732 -0.231437
  41 763.829 34.4884 -1.28718
  42 822.634 22.3541 -4.23299
  43 864.352 13.8692 0.568122
  44 897.423 8.71883 -2.24172
  45 930.934 -0.326203 -5.79978
  46 951.187 -2.64381 -6.81385
  47 957.068 2.65709 -12.6438
  48 990.246 0.737007 -17.7045
  49 1038.72 -6.04758 -16.0721
  50 1076.21 -6.30262 -18.5623
  51 1103.15 -8.04199 -13.2264
  52 1116.95 -12.7566 -0.531973
  53 1099.77 -15.7500 24.1386
  54 1049.55 -6.36470 37.7025
  55 954.768 5.30691 45.3106
  56 860.436 21.3934 34.9775
  57 812.289 24.4877 17.3559
  58 803.473 25.6220 -19.5908
  59 869.875 14.4933 -33.1865
  60 952.598 2.65393 -37.1931
  61 1050.61 -5.46920 -35.4993
  62 1100.10 -15.2899 -23.6193
  63 1116.81 -12.6637 0.525681
  64 1103.02 -8.04342 13.1944
  65 1076.11 -6.30299 18.5416
  66 1038.65 -6.04533 16.0603
  67 990.198 0.735888 17.6936
  68 957.037 2.65515 12.6362
  69 951.163 -2.64402 6.80979
  70 930.919 -0.326663 5.79728
  71 897.413 8.71533 2.23986
  72 864.346 13.8617 -0.569770
  73 822.634 22.3419 4.23034
  74 763.838 34.4712 1.28581
  75 722.533 41.3530 0.230780
  76 683.885 42.8183 -2.43283
  77 650.187 37.1719 -5.40833
  78 613.910 28.1806 -8.27339
  79 588.106 16.8690 -9.39906
  80 554.999 3.30611 -5.82185
  81 91.7079 -516.434 1.41652
  82 353.610 -175.633 121.337
  83 720.481 65.4078 277.820
  84 1086.73 164.240 351.463
  85 1430.05 140.642 376.611
  86 1753.72 37.3776 331.301
  87 1905.55 -24.6000 160.688
  88 1909.64 -23.3254 -162.028
  89 1755.42 30.8614 -331.506
  90 1428.23 141.906 -375.488
  91 1086.13 164.882 -350.871
  92 719.906 65.4180 -277.846
  93 353.464 -175.726 -121.344
  94 91.6719 -516.726 -1.43086
  95 46.3268 -561.803 -45.1888
  96 264.570 -247.235 69.7096
  97 589.028 -40.1326 170.368
  98 1021.65 92.3495 252.549
  99 1456.49 107.884 265.245
  100 1827.43 30.1970 253.415
  101 2118.85 -29.0142 179.287
  102 2081.17 -33.2338 -160.624
  103 1831.88 44.4272 -248.971
  104 1457.62 105.825 -265.494
  105 1022.10 92.5337 -253.197
  106 589.692 -39.7023 -170.811
  107 265.006 -246.744 -70.0479
  108 46.5385 -561.190 44.8876
  109 601.282 94.0128 -21.7683
  110 601.324 94.0052 21.7612
  111 832.150 -63.1766 123.517
  112 832.183 -63.3432 -123.499
  113 414.550 110.796 101.022
  114 414.642 110.797 -101.037
  115 811.865 33.6133 39.5552
  116 811.857 33.6267 -39.5708
  117 601.028 48.6542 41.1694
  118 601.037 48.6376 -41.1533
  119 1115.30 -42.9638 31.9432
  120 1115.65 -42.0684 -32.7425
  121 453.186 13.4332 152.218
  122 453.156 13.3116 -152.289
  123 1238.96 58.8303 -24.8737
  124 1234.57 55.5251 27.4902
  125 684.379 58.1723 6.36311
  126 684.357 58.1940 -6.36413
  127 852.605 15.8141 -77.5329
  128 852.614 15.8178 77.5170
  129 565.072 -12.0425 229.701
  130 565.192 -12.0395 -229.684
  131 834.666 -153.089 166.463
  132 834.778 -153.372 -166.642
  133 594.397 61.0873 -95.7499
  134 594.397 61.1050 95.7810
  135 1028.78 -52.9125 -9.10095
  136 1028.86 -52.6111 9.28918
  137 714.511 41.0087 91.0854
  138 714.484 40.9844 -91.0986
  139 209.597 30.9280 10.4460
  140 209.707 31.0339 -10.5407
  141 525.628 108.791 -54.5655
  142 525.579 108.808 54.5723
  143 982.784 -22.9532 -52.8964
  144 982.789 -22.9336 52.9086
  145 887.164 9.34764 16.7070
  146 887.175 9.35311 -16.7161
  147 662.704 44.9622 -163.996
  148 662.720 44.9810 164.045
  149 581.425 17.6596 22.6857
  150 581.414 17.6526 -22.6764
  151 1443.09 70.2974 4.00504
  152 717.683 54.6047 53.3123
  153 717.656 54.6138 -53.3263
  154 764.842 36.9948 16.0412
  155 764.830 37.0120 -16.0476
  156 637.726 45.7092 14.2066
  157 637.738 45.6903 -14.2004
  158 620.710 72.4915 -18.8410
  159 620.684 72.5129 18.8485
  160 907.104 12.0118 -39.0524
  161 907.086 12.0053 39.0335
  162 975.301 -64.4574 -135.559
  163 975.280 -64.5182 135.552
  164 494.338 98.4126 41.2105
  165 494.282 98.3841 -41.2398
  166 1053.57 -54.7281 114.877
  167 1053.98 -54.8492 -115.532
  168 487.991 -148.753 226.419
  169 487.993 -148.928 -226.514
  170 1284.81 37.7451 69.9784
  171 1287.86 43.9025 -73.0492
  172 598.501 26.6393 -52.8336
  173 598.520 26.6489 52.8544
  174 1072.09 43.6492 20.7368
  175 1077.30 9.43309 76.4390
  176 1057.52 10.6630 -73.9888
  177 1016.23 -114.486 45.6720
  178 1016.52 -115.030 -45.6516
  179 655.599 8.67205 135.649
  180 655.591 8.58117 -135.676
  181 1067.12 -35.7871 -46.7455
  182 1067.06 -37.8425 46.9164
  183 660.877 -84.4242 193.295
  184 660.900 -84.6209 -193.354
  185 665.091 72.3514 -19.0207
  186 665.121 72.3329 19.0160
  187 1531.72 80.6281 96.9004
  188 1538.17 72.3563 -98.7568
  189 587.251 68.5870 -57.0451
  190 587.235 68.6070 57.0651
  191 732.202 52.5625 28.1275
  192 732.182 52.5809 -28.1367
  193 844.915 -1.39606 93.9573
  194 844.898 -1.43094 -93.9585
  195 1022.49 29.5437 -44.6757
  196 804.874 34.2437 61.3374
  197 804.861 34.2511 -61.3554
  198 177.349 -133.127 -143.243
  199 177.124 -133.309 143.120
  200 1191.44 -27.9417 -69.9752
  201 1191.52 -27.7166 69.8311
  202 699.406 45.0737 -1.54209
  203 699.421 45.0526 1.54186
  204 161.640 -124.164 -106.247
  205 161.707 -123.967 106.139
  206 978.303 -3.02287 -47.4225
  207 978.273 -3.02727 47.4033
  208 358.529 97.6594 -5.24799
  209 358.444 97.6176 5.19704
  210 918.920 -15.3487 -148.945
  211 919.033 -15.3444 149.008
  212 685.384 19.6881 -98.4417
  213 685.440 19.6973 98.4789
  214 625.208 -118.157 206.135
  215 625.123 -118.220 -206.277
  216 612.052 30.5497 15.3672
  217 612.054 30.5360 -15.3595
  218 561.688 81.5656 -143.545
  219 561.661 81.5893 143.581
  220 602.712 72.7704 80.0075
  221 602.674 72.7431 -80.0287
  222 815.439 25.6558 14.7012
  223 815.436 25.6687 -14.7077
  224 387.823 78.5853 162.050
  225 387.942 78.5874 -162.067
  226 894.506 -104.196 -111.416
  227 894.420 -103.911 111.440
  228 388.240 -103.629 185.400
  229 388.495 -103.485 -185.499
  230 915.688 6.09367 -22.8193
  231 915.669 6.09010 22.8074
  232 1067.92 -12.6610 14.3078
  233 1067.95 -12.6650 -14.3128
  234 625.100 28.9311 -70.6924
  235 625.133 28.9418 70.7178
  236 1083.90 39.9498 47.9063
  237 1502.40 18.6626 112.767
  238 1503.42 18.8157 -112.617
  239 1202.85 72.2725 227.520
  240 1201.68 74.6529 -227.777
  241 572.253 99.8881 -20.1869
  242 572.211 99.9048 20.1904
  243 969.462 -55.8913 -58.1306
  244 969.485 -55.7299 58.2281
  245 571.325 9.88230 -24.7591
  246 571.347 9.88594 24.7699
  247 1689.60 23.8057 -64.3499
  248 968.861 5.11171 -33.2947
  249 968.821 5.10708 33.2773
  250 646.785 60.4690 -9.81206
  251 646.765 60.4905 9.81692
  252 464.726 119.263 -39.3216
  253 464.657 119.264 39.3089
  254 1184.56 18.1856 33.9438
  255 1178.48 18.3114 -34.4808
  256 1683.18 21.9891 62.8444
  257 660.011 71.5867 59.3102
  258 659.976 71.5845 -59.3237
  259 782.047 30.2698 -84.3398
  260 782.067 30.2778 84.3245
  261 905.775 5.17997 7.49333
  262 905.788 5.18254 -7.49715
  263 1732.36 -32.4168 99.8939
  264 1726.28 -2.57258 -89.4470
  265 1188.95 64.1374 -20.3103
  266 548.897 50.7727 114.035
  267 548.865 50.7022 -114.074
  268 538.711 45.0221 -208.386
  269 538.637 45.0384 208.415
  270 861.933 18.3505 32.3894
  271 861.939 18.3598 -32.4045
  272 593.898 29.9681 -39.9102
  273 593.906 29.9792 39.9267
  274 552.654 4.48992 6.96853
  275 552.641 4.48733 -6.96475
  276 536.069 111.451 -2.82896
  277 536.017 111.456 2.82117
  278 1073.28 -23.9461 -12.7523
  279 1073.19 -24.2124 12.8457
  280 57.8285 -187.985 24.1621
  281 57.9518 -187.756 -24.2854
  282 743.005 40.2546 -5.86709
  283 743.018 40.2350 5.86485
  284 811.123 30.0564 26.3474
  285 811.119 30.0702 -26.3588
  286 909.271 24.1287 242.676
  287 908.877 24.3097 -243.009
  288 1057.61 -67.7252 -18.0592
  289 1057.75 -68.4648 18.1710
  290 663.018 44.3318 -3.33255
  291 663.005 44.3520 3.33449
  292 872.457 10.6008 -129.809
  293 872.582 10.6113 129.861
  294 1048.55 -3.95388 27.1361
  295 1048.62 -3.95039 -27.1571
  296 1467.21 57.9334 -218.315
  297 1465.20 57.6161 216.627
  298 607.145 -94.7534 -172.696
  299 606.815 -94.9865 172.519
  300 1038.57 -9.17549 57.8580
  301 1038.77 -5.09515 -57.5745
  302 597.167 52.1521 -75.3313
  303 597.170 52.1688 75.3583
  304 303.333 23.6409 100.922
  305 303.268 23.5255 -101.011
  306 613.797 43.4724 27.0643
  307 613.804 43.4552 -27.0528
  308 758.921 -5.90573 118.075
  309 758.911 -5.98049 -118.079
  310 1237.05 79.1016 8.61935
  311 554.257 84.8048 -100.330
  312 554.228 84.8252 100.357
  313 1149.71 -13.3660 -37.4028
  314 1148.34 -14.2846 36.6695
  315 713.696 47.7620 -7.98908
  316 713.712 47.7412 7.98651
  317 1838.70 -26.2087 -30.1473
  318 1940.20 -49.1371 61.7692
  319 799.479 13.2782 -106.005
  320 799.589 13.2846 106.047
  321 1230.36 34.3683 -177.881
  322 1230.08 35.4108 177.276
  323 864.520 14.4747 7.27170
  324 864.526 14.4825 -7.27619
  325 673.832 50.6658 -2.36864
  326 673.815 50.6872 2.37044
  327 635.734 37.3157 -6.97233
  328 635.726 37.3327 6.97570
  329 910.460 -6.17567 -71.0492
  330 910.464 -6.16438 71.0415
  331 1395.49 65.7796 11.7536
  332 783.736 30.8641 -7.66296
  333 783.743 30.8481 7.65961
  334 585.632 16.5848 10.6313
  335 585.626 16.5769 -10.6271
  336 602.575 69.0727 -36.4032
  337 602.555 69.0933 36.4167
  338 988.844 10.5978 -53.2639
  339 894.215 -11.8840 -182.957
  340 893.905 -12.0878 182.710
  341 955.509 5.88962 -21.5163
  342 955.475 5.88642 21.5043
  343 980.784 -127.125 93.9918
  344 981.073 -127.665 -94.2491
  345 886.423 16.6370 55.8826
  346 886.431 16.6450 -55.9048
  347 854.647 24.0918 48.2231
  348 854.648 24.1021 -48.2431
  349 978.526 -101.995 58.3764
  350 978.632 -102.367 -58.2662
  351 242.259 -224.402 148.716
  352 242.235 -224.572 -148.775
  353 653.331 68.1219 2.47411
  354 653.304 68.1428 -2.47361
  355 929.344 0.750362 10.3910
  356 929.364 0.751889 -10.3969
  357 499.407 109.296 -105.946
  358 499.349 109.316 105.959
  359 748.023 -66.3535 -200.649
  360 747.946 -66.3910 200.681
  361 759.527 46.5549 42.8937
  362 759.509 46.5696 -42.9073
  363 1090.92 -25.2147 67.1864
  364 1089.69 -21.9306 -68.7213
  365 620.268 82.3084 1.79122
  366 620.233 82.3264 -1.79087
  367 523.497 -79.4285 -205.015
  368 523.493 -79.2534 204.937
  369 889.242 -33.0487 -89.7731
  370 889.249 -32.9656 89.8012
  371 1405.26 70.3128 -20.9867
  372 1077.45 -73.7678 24.5011
  373 1078.03 -74.4128 -24.6031
  374 304.078 87.6898 88.1516
  375 304.199 87.7274 -88.2046
  376 725.181 -42.7017 154.499
  377 725.200 -42.8472 -154.521
  378 1227.02 -34.9849 56.3544
  379 1226.75 -35.0168 -56.3370
  380 986.863 13.9786 56.7303
  381 934.312 29.7163 -3.88376
  382 661.127 -135.810 202.971
  383 661.162 -136.023 -203.072
  384 620.892 57.5601 25.5753
  385 620.908 57.5400 -25.5645
  386 1119.36 30.3887 -52.9449
  387 739.613 45.4488 71.1686
  388 739.588 45.4481 -71.1838
  389 906.998 -125.805 153.875
  390 907.093 -125.931 -154.271
  391 590.495 7.38485 -33.1317
  392 590.530 7.38798 33.1454
  393 1343.24 73.1161 49.4884
  394 1351.05 74.8130 -51.4432
  395 1087.70 -36.0057 101.902
  396 1087.51 -35.9933 -101.854
  397 800.166 -115.086 159.787
  398 800.244 -115.333 -159.835
  399 721.912 9.04008 -198.142
  400 721.908 9.05087 198.196
  401 501.242 92.5227 -162.358
  402 501.177 92.5482 162.382
  403 422.797 70.9315 83.5679
  404 422.744 70.8594 -83.6251
  405 930.843 20.6278 27.9169
  406 657.925 74.5850 -33.3935
  407 657.960 74.5725 33.3851
  408 651.492 36.7095 116.636
  409 651.465 36.6514 -116.657
  410 585.780 -19.5892 -168.531
  411 585.786 -19.4543 168.481
  412 547.585 6.88277 12.3962
  413 547.567 6.88042 -12.3903
  414 701.916 62.7187 -33.3497
  415 701.943 62.7024 33.3401
  416 695.879 63.3744 18.2834
  417 695.854 63.3948 -18.2884
  418 132.459 -290.633 64.8227
  419 132.738 -290.239 -65.0615
  420 1116.70 15.0761 65.8449
  421 767.964 40.9841 28.2632
  422 767.950 41.0010 -28.2739
  423 602.598 31.2033 30.8771
  424 602.598 31.1908 -30.8642
  425 565.289 92.4209 57.9631
  426 565.320 92.4003 -57.9474
  427 594.514 43.8801 -57.1478
  428 594.514 43.8952 57.1701
  429 922.804 5.25370 -60.2918
  430 922.790 5.24785 60.2702
  431 615.064 57.6214 -121.975
  432 615.073 57.6386 122.013
  433 347.855 -72.3440 -181.812
  434 347.881 -72.1693 181.719
  435 1374.82 -6.25923 31.0175
  436 1375.10 -6.85936 -30.9003
  437 1699.62 8.01626 203.061
  438 1704.82 3.70757 -202.875
  439 570.757 91.4223 39.3629
  440 570.710 91.4144 -39.3785
  441 24.6162 -409.613 -54.8135
  442 24.6580 -409.322 54.7425
  443 1024.30 -38.8670 27.6495
  444 1024.24 -38.9258 -27.5792
  445 1072.72 -10.8807 38.5188
  446 1072.55 -10.3059 -37.7025
  447 41.1845 -411.824 24.4804
  448 41.3536 -411.429 -24.6748
  449 930.939 -130.241 -102.075
  450 930.763 -129.859 102.023
  451 1031.00 -0.652504 -22.6085
  452 1030.94 -0.653924 22.5926
  453 967.427 7.93260 -55.9911
  454 1055.75 -47.2722 -26.2680
  455 1055.44 -47.9427 26.6389
  456 791.117 19.0692 -92.6916
  457 791.137 19.0909 92.6830
  458 679.124 9.69723 -51.9989
  459 679.200 9.69963 52.0193
  460 231.709 19.2791 122.595
  461 231.865 19.3555 -122.676
  462 915.390 -74.0526 90.5605
  463 915.433 -74.2538 -90.4957
  464 847.892 22.3552 19.3952
  465 847.895 22.3661 -19.4049
  466 590.780 83.6908 -32.3137
  467 590.750 83.7117 32.3242
  468 920.991 3.56463 3.02288
  469 921.004 3.56567 -3.02421
  470 726.464 50.9196 -18.1481
  471 726.483 50.8995 18.1420
  472 526.792 0.0378898 1.82476
  473 526.778 0.0369473 -1.82345
  474 576.495 72.8524 -81.4242
  475 576.478 72.8714 81.4494
  476 384.085 -7.59535 -199.038
  477 383.914 -7.64240 199.000
  478 894.859 4.71189 -30.5025
  479 20.7995 -111.725 0.421827
  480 4.49801 -59.7810 -2.11340
  481 4.19476 -49.7579 3.39635
  482 3.40887 -99.0907 4.09342
  483 2.14593 -103.008 -12.9522
  484 1.80640 -95.6698 -6.08577
  485 2.74136 -91.2474 15.4505
  486 3.26643 -55.2265 8.57551
  487 0.550764 -41.2859 -10.7921
  488 -8.34138 -114.746 -0.591092
  489 -13.1572 -131.746 1.40027
  490 -1.73442 -11.4317 -1.15567
  491 1.42596 -48.1397 -7.97699
  492 -2.13339 -32.8086 9.64695
  493 16.8069 -98.9862 -1.82580
  494 -1.96213 -8.25825 0.730525
  495 13.8104 -89.0355 1.46565
  496 -0.928400 -16.5043 1.03913
  497 -0.644309 -11.0041 -0.814448
  498 15.1051 -111.889 0.262161
  499 18.1667 -117.669 -1.36717
  500 -0.804285 -12.1430 -2.43591
  501 -5.51932 -81.1644 8.40236
  502 -6.12250 -72.1861 -20.3533
  503 -18.4830 -107.398 -2.75719
  504 -21.1274 -118.882 9.86684
  505 -14.5659 -111.820 0.508533
  506 -18.6777 -126.930 -5.08995
  507 -2.59207 -65.9121 -8.57755
  508 -3.85914 -51.4220 16.7217
  509 9.23935 -79.5895 3.27189
  510 6.98371 -75.0366 -10.9763
  511 -1.23704 -7.39022 0.868755
  512 7.80777 -74.8523 8.64503
  513 16.3497 -101.913 7.32834
  514 15.5415 -103.298 -0.732251
  515 8.63030 -64.9867 -2.39348
  516 0.430920 -36.4685 -5.31737
  517 0.503317 -22.3062 4.91538
  518 -1.36574 1.26992 -1.30537
  519 10.0300 -119.034 4.90373
  520 2.18452 -41.5823 3.59725
  521 -0.260794 -50.6122 9.58517
  522 -2.40275 -35.3465 -12.2196
  523 15.8556 -105.729 -6.45147
  524 -1.06831 -28.9370 3.98146
  525 -1.62730 -0.188966 1.28416
  526 -31.2681 -114.388 -0.212775
  527 -43.8807 -135.894 1.79859
  528 -1.11580 1.85308 0.369301
  529 -0.808733 -14.1186 -1.50762
  530 1.25597 -33.0740 -2.95372
  531 0.408469 -14.1292 -4.33052
  532 6.06358 -110.102 -1.75638
  533 15.3498 -106.451 1.40999
  534 1.27991 -8.57802 1.55726
  535 1.41029 -75.5461 9.73828
  536 -1.98492 -69.6839 -18.6637
  537 7.00458 -110.609 1.03688
  538 8.52953 -122.079 -3.74156
  539 -0.0393524 -29.9344 -6.13634
  540 -1.39060 -31.2508 -1.03777
  541 -1.89522 2.91681 0.0873397
  542 0.796996 -62.1037 15.0728
  543 -1.30164 1.92597 -1.78449
  544 20.4115 -110.781 -1.24851
  545 14.1356 -85.7471 -4.60230
  546 4.63475 -75.0706 -7.58781
  547 -31.8588 -115.286 0.930237
  548 -45.0388 -136.690 -2.33546
  549 -27.7183 -102.469 6.67164
  550 -28.0699 -107.551 -16.2890
  551 -0.508218 -3.10908 -0.933850
  552 -17.6848 -89.8598 -8.04848
  553 -13.7059 -84.8933 20.3050
  554 -1.28321 -25.5536 0.727127
  555 -1.58193 -21.0359 8.20313
  556 9.63265 -70.9078 2.73610
  557 20.1814 -106.498 2.61540
  558 11.0442 -88.0844 -3.16277
  559 -1.93804 4.25091 -0.628580
  560 -1.35841 0.560707 1.03173
  561 3.05113 -47.2073 9.04669
  562 19.4882 -115.131 2.55007
  563 -1.03220 8.34029 -0.453537
  564 -46.4584 -115.384 1.27456
  565 -1.25473 6.92317 0.0314970
  566 -67.7802 -137.480 -1.40845
  567 -0.693828 7.78098 2.57020
  568 0.0654130 6.49483 4.44056
  569 2.79406 -1.19692 1.89511
  570 2.87520 -19.7728 -5.27494
  571 -16.5969 -66.0066 -10.7632
  572 -35.0178 -101.053 -8.18503
  573 -46.4374 -113.520 -1.80037
  574 -44.4974 -111.036 2.43287
  575 -50.6829 -104.416 7.38549
  576 -13.9525 -71.9508 8.20263
  577 1.25017 -23.3632 6.49808
  578 3.40960 -1.35631 -3.93618
  579 1.61690 4.40628 -4.37512
  580 -0.623357 8.08385 -3.07727
  581 -0.439503 7.08008 2.55356
  582 0.624578 4.05765 3.89551
  583 3.30901 -2.88530 2.00526
  584 3.78397 -10.6257 -1.85984
  585 -8.40744 -55.6219 -15.2701
  586 -52.3725 -110.165 -14.1649
  587 -58.1965 -127.788 -6.45061
  588 -62.6186 -132.500 5.84218
  589 -32.8814 -105.835 17.1752
  590 -9.85849 -46.9556 17.1740
  591 4.43589 -8.09756 1.59188
  592 4.48722 -0.776104 -3.52266
  593 0.763006 4.92087 -4.51379
  594 -0.535685 8.08200 -2.77607
</Section>

newXOutput 32

<Section columns = "stress_xx | stress_yy | stress_xy">
  1 527.029 4.87321 -5.04502
  2 527.043 4.87427 5.04612
  3 957.192 0.335106 -0.0941022
  4 957.179 0.334064 0.0930269
  5 0.599867 -663.007 23.9131
  6 1959.12 -7.09134 -1.27786
  7 0.497166 -663.500 -24.0527
  8 2244.11 -45.6142 -15.2448
  9 536.105 2.80509 -2.67725
  10 550.439 5.39133 -8.79649
  11 581.554 7.72856 -20.7651
  12 633.647 4.92521 -38.3876
  13 708.487 4.67500 -40.5791
  14 797.750 12.4354 -66.3273
  15 947.193 2.55024 -84.9315
  16 1110.62 -4.07417 -88.3409
  17 1327.07 -30.1503 -48.0472
  18 1398.83 -27.2472 -21.3307
  19 1453.71 -3.54033 8.80971
  20 1522.03 19.4012 -3.78377
  21 1591.68 31.1559 -14.5970
  22 1655.54 -16.0515 -3.64049
  23 1520.74 12.8597 0.0854382
  24 1454.51 -3.12137 -7.80186
  25 1399.21 -27.0002 21.4766
  26 1327.45 -30.1615 48.0847
  27 1110.87 -4.07216 88.3873
  28 947.380 2.55301 84.9700
  29 797.872 12.4392 66.3531
  30 708.584 4.67371 40.5956
  31 633.704 4.92539 38.4038
  32 581.592 7.73091 20.7742
  33 550.462 5.39277 8.80214
  34 536.121 2.80632 2.67985
  35 569.698 3.34180 5.98622
  36 603.967 17.2859 9.69149
  37 630.739 28.8841 8.49780
  38 668.325 38.0733 5.57000
  39 703.129 43.8742 2.51296
  40 742.947 42.3782 -0.218320
  41 785.432 35.3328 -1.29787
  42 845.792 22.8831 -4.32126
  43 888.595 14.1986 0.629780
  44 922.532 8.95247 -2.28129
  45 956.905 -0.352965 -5.95283
  46 977.649 -2.74459 -6.97163
  47 983.671 2.73068 -12.9513
  48 1017.73 0.757983 -18.1871
  49 1067.52 -6.24299 -16.5364
  50 1106.16 -6.50645 -19.1447
  51 1134.11 -8.29339 -13.7293
  52 1148.60 -13.1901 -0.739617
  53 1131.32 -16.3189 24.6911
  54 1079.88 -6.63711 38.6891
  55 982.492 5.49773 46.6425
  56 885.426 22.1883 36.0535
  57 835.836 25.4212 17.9480
  58 826.775 26.5328 -20.2000
  59 895.139 14.9953 -34.1691
  60 980.276 2.71742 -38.2680
  61 1080.96 -5.71514 -36.4280
  62 1131.66 -15.8440 -24.1594
  63 1148.46 -13.0957 0.731634
  64 1133.97 -8.29509 13.6960
  65 1106.04 -6.50684 19.1233
  66 1067.44 -6.24068 16.5241
  67 1017.69 0.756825 18.1758
  68 983.639 2.72866 12.9435
  69 977.625 -2.74482 6.96745
  70 956.890 -0.353438 5.95026
  71 922.522 8.94886 2.27937
  72 888.589 14.1908 -0.631486
  73 845.793 22.8705 4.31852
  74 785.442 35.3149 1.29645
  75 742.961 42.3573 0.217640
  76 703.143 43.8530 -2.51246
  77 668.335 38.0549 -5.56856
  78 630.740 28.8710 -8.49470
  79 603.960 17.2776 -9.68958
  80 569.687 3.33802 -5.98424
  81 94.0114 -533.319 1.10308
  82 363.067 -181.758 124.415
  83 739.601 66.6787 285.245
  84 1115.30 168.678 360.941
  85 1467.40 144.431 386.889
  86 1798.60 37.8561 340.358
  87 1954.47 -26.0983 165.114
  88 1958.64 -24.7331 -166.495
  89 1800.31 31.0787 -340.577
  90 1465.53 145.753 -385.729
  91 1114.67 169.342 -360.336
  92 739.010 66.6889 -285.274
  93 362.918 -181.856 -124.422
  94 93.9748 -533.624 -1.11814
  95 47.6019 -579.602 -46.5961
  96 271.783 -255.027 71.5994
  97 604.782 -41.7137 174.893
  98 1048.52 94.8947 259.342
  99 1494.55 111.257 272.634
  100 1874.73 30.8114 260.799
  101 2172.58 -30.9281 184.399
  102 2134.57 -35.1512 -165.283
  103 1879.26 45.4784 -256.276
  104 1495.70 109.107 -272.906
  105 1048.98 95.0853 -260.009
  106 605.466 -41.2678 -175.350
  107 272.232 -254.518 -71.9490
  108 47.8206 -578.963 46.2841
  109 618.418 96.9160 -22.2624
  110 618.461 96.9079 22.2552
  111 855.208 -64.6731 127.257
  112 855.241 -64.8445 -127.238
  113 426.348 114.378 104.088
  114 426.443 114.379 -104.103
  115 834.751 34.6046 40.5890
  116 834.744 34.6186 -40.6052
  117 617.587 49.9696 42.2350
  118 617.596 49.9525 -42.2183
  119 1146.59 -44.4246 32.5070
  120 1146.94 -43.4900 -33.3328
  121 465.967 14.3882 156.333
  122 465.936 14.2621 -156.406
  123 1274.40 60.4727 -25.2691
  124 1269.89 57.0734 27.9591
  125 703.756 59.7425 6.51289
  126 703.734 59.7650 -6.51394
  127 876.512 16.5242 -79.7765
  128 876.521 16.5276 79.7598
  129 580.694 -11.9231 236.564
  130 580.816 -11.9194 -236.546
  131 857.540 -157.777 171.422
  132 857.656 -158.073 -171.604
  133 610.550 62.8570 -98.3417
  134 610.550 62.8752 98.3739
  135 1057.67 -54.4191 -9.74959
  136 1057.75 -54.1105 9.94359
  137 734.638 42.5702 93.5831
  138 734.610 42.5455 -93.5968
  139 215.751 32.4711 11.0528
  140 215.864 32.5809 -11.1501
  141 540.502 112.076 -56.1760
  142 540.451 112.093 56.1833
  143 1010.33 -23.4745 -54.6888
  144 1010.34 -23.4550 54.7006
  145 912.002 9.58314 17.1207
  146 912.013 9.58879 -17.1301
  147 680.607 46.3719 -168.662
  148 680.625 46.3912 168.712
  149 596.980 18.1167 23.2595
  150 596.969 18.1095 -23.2499
  151 1483.82 72.0203 4.14291
  152 738.025 56.3430 54.7188
  153 737.997 56.3527 -54.7333
  154 786.475 37.9508 16.4435
  155 786.464 37.9687 -16.4502
  156 655.529 46.8751 14.5707
  157 655.542 46.8556 -14.5642
  158 638.205 74.5191 -19.3626
  159 638.179 74.5413 19.3704
  160 932.478 12.4047 -40.1104
  161 932.459 12.3978 40.0908
  162 1002.08 -66.1407 -139.823
  163 1002.06 -66.2053 139.815
  164 508.494 101.686 42.1469
  165 508.436 101.656 -42.1768
  166 1082.37 -56.5139 118.418
  167 1082.79 -56.6431 -119.093
  168 501.379 -153.191 232.896
  169 501.381 -153.374 -232.994
  170 1320.31 38.7774 72.5081
  171 1323.44 45.1595 -75.6725
  172 614.454 27.3601 -54.2025
  173 614.474 27.3701 54.2240
  174 1103.26 44.8805 21.3459
  175 1108.15 9.61159 78.4785
  176 1087.88 10.9188 -75.9987
  177 1044.37 -118.063 47.3583
  178 1044.66 -118.630 -47.3354
  179 673.920 9.46003 139.411
  180 673.911 9.36652 -139.438
  181 1097.49 -37.0089 -47.8348
  182 1097.41 -39.1322 48.0104
  183 679.107 -86.5473 198.849
  184 679.130 -86.7513 -198.908
  185 683.989 74.4578 -19.4797
  186 684.020 74.4385 19.4750
  187 1573.96 82.6589 100.079
  188 1580.53 74.0806 -102.014
  189 603.512 70.5256 -58.5673
  190 603.495 70.5462 58.5879
  191 752.956 54.0516 28.8380
  192 752.936 54.0708 -28.8475
  193 868.550 -1.09309 96.7443
  194 868.533 -1.12844 -96.7459
  195 1052.17 30.4236 -45.9636
  196 827.546 35.3908 63.0227
  197 827.533 35.3986 -63.0414
  198 182.382 -136.565 -147.777
  199 182.151 -136.754 147.650
  200 1224.22 -28.5487 -72.4009
  201 1224.31 -28.3176 72.2507
  202 719.159 46.1854 -1.57902
  203 719.174 46.1635 1.57878
  204 166.267 -127.424 -109.140
  205 166.337 -127.219 109.029
  206 1005.67 -3.00621 -48.9020
  207 1005.63 -3.01093 48.8818
  208 368.899 100.989 -5.67998
  209 368.812 100.946 5.62787
  210 943.846 -15.6322 -153.347
  211 943.962 -15.6282 153.412
  212 703.531 20.2298 -101.111
  213 703.589 20.2391 101.150
  214 642.201 -122.003 211.994
  215 642.115 -122.070 -212.140
  216 628.835 31.3020 15.7287
  217 628.837 31.2879 -15.7207
  218 577.131 84.0420 -147.602
  219 577.104 84.0662 147.638
  220 619.822 75.2926 82.0934
  221 619.782 75.2647 -82.1150
  222 838.422 26.3057 15.0707
  223 838.419 26.3189 -15.0774
  224 398.753 81.3244 166.907
  225 398.874 81.3267 -166.923
  226 919.228 -107.100 -114.925
  227 919.141 -106.806 114.951
  228 399.041 -106.299 191.047
  229 399.303 -106.150 -191.148
  230 941.256 6.27316 -23.4064
  231 941.236 6.26945 23.3941
  232 1098.02 -12.9559 14.9418
  233 1098.06 -12.9593 -14.9477
  234 641.679 29.7429 -72.5835
  235 641.712 29.7539 72.6096
  236 1115.23 41.1209 49.1857
  237 1543.57 19.2999 116.550
  238 1544.62 19.4299 -116.396
  239 1235.33 74.3631 234.126
  240 1234.13 76.8328 -234.390
  241 588.493 102.866 -20.8178
  242 588.450 102.884 20.8216
  243 996.542 -57.3733 -60.1615
  244 996.567 -57.2080 60.2613
  245 586.342 10.1410 -25.3767
  246 586.365 10.1447 25.3878
  247 1735.33 24.0085 -66.3171
  248 995.874 5.32087 -34.2440
  249 995.833 5.31605 34.2260
  250 665.007 62.0980 -10.0782
  251 664.986 62.1203 10.0832
  252 478.013 123.015 -40.6102
  253 477.942 123.017 40.5975
  254 1218.04 18.6163 34.5415
  255 1211.80 18.7394 -35.0950
  256 1728.80 22.0927 64.7696
  257 678.744 73.9177 60.8513
  258 678.708 73.9158 -60.8651
  259 804.057 31.4499 -86.7103
  260 804.078 31.4577 86.6943
  261 931.093 5.30915 7.68120
  262 931.106 5.31179 -7.68513
  263 1779.99 -33.7250 103.255
  264 1773.82 -2.99807 -92.5387
  265 1223.28 65.9714 -20.8102
  266 564.414 52.7876 117.063
  267 564.381 52.7149 -117.103
  268 553.563 46.6585 -214.521
  269 553.487 46.6750 214.550
  270 886.130 18.8604 33.2304
  271 886.136 18.8699 -33.2461
  272 609.894 30.7660 -40.9197
  273 609.903 30.7775 40.9367
  274 567.224 4.58395 7.12229
  275 567.211 4.58127 -7.11839
  276 551.381 114.907 -3.05560
  277 551.328 114.912 3.04787
  278 1103.75 -24.6513 -12.8467
  279 1103.66 -24.9234 12.9415
  280 59.5469 -193.052 25.1446
  281 59.6742 -192.815 -25.2720
  282 764.025 41.2455 -6.01257
  283 764.037 41.2253 6.01024
  284 834.000 30.8657 27.0161
  285 833.995 30.8800 -27.0279
  286 933.741 24.6185 249.531
  287 933.337 24.8025 -249.877
  288 1087.30 -69.8790 -18.2260
  289 1087.44 -70.6453 18.3435
  290 681.616 45.4253 -3.41256
  291 681.603 45.4462 3.41457
  292 895.729 10.9865 -133.496
  293 895.859 10.9972 133.551
  294 1077.91 -3.99872 28.0485
  295 1077.98 -3.99495 -28.0705
  296 1506.76 59.3746 -224.812
  297 1504.71 59.0642 223.075
  298 623.857 -97.5290 -177.796
  299 623.519 -97.7713 177.614
  300 1068.44 -9.53716 59.4142
  301 1068.66 -5.31457 -59.1361
  302 613.356 53.6177 -77.3271
  303 613.360 53.6349 77.3550
  304 312.049 24.9050 103.539
  305 311.981 24.7852 -103.630
  306 630.749 44.6015 27.7498
  307 630.757 44.5838 -27.7379
  308 780.114 -5.63037 121.483
  309 780.103 -5.70687 -121.487
  310 1272.68 81.4333 8.70601
  311 569.607 87.3167 -103.129
  312 569.578 87.3377 103.156
  313 1181.62 -13.8518 -38.8989
  314 1180.22 -14.8011 38.1403
  315 733.900 48.9938 -8.18437
  316 733.917 48.9723 8.18172
  317 1889.50 -27.4027 -31.1349
  318 1992.36 -51.2285 63.6962
  319 820.543 13.6757 -108.927
  320 820.657 13.6822 108.970
  321 1263.74 35.4862 -183.193
  322 1263.45 36.5694 182.569
  323 888.770 14.8279 7.43473
  324 888.776 14.8359 -7.43937
  325 692.835 51.9641 -2.43410
  326 692.818 51.9861 2.43596
  327 653.386 38.2280 -7.14150
  328 653.378 38.2455 7.14499
  329 935.946 -6.12681 -73.2354
  330 935.950 -6.11569 73.2269
  331 1434.97 67.3610 12.3923
  332 805.872 31.6118 -7.85145
  333 805.879 31.5953 7.84798
  334 601.400 16.9840 10.9073
  335 601.394 16.9759 -10.9030
  336 619.407 71.0012 -37.3755
  337 619.387 71.0226 37.3895
  338 1017.47 10.8375 -54.7718
  339 918.585 -12.2420 -188.325
  340 918.269 -12.4542 188.071
  341 982.105 6.08895 -22.0803
  342 982.070 6.08563 22.0678
  343 1007.74 -131.122 96.9639
  344 1008.04 -131.685 -97.2273
  345 911.265 17.2433 57.4567
  346 911.273 17.2518 -57.4799
  347 878.660 24.8596 49.5307
  348 878.662 24.8705 -49.5514
  349 1005.73 -105.045 60.4479
  350 1005.84 -105.430 -60.3331
  351 248.870 -231.365 152.910
  352 248.846 -231.543 -152.971
  353 671.850 70.0316 2.50673
  354 671.822 70.0533 -2.50616
  355 955.253 0.747604 10.6409
  356 955.273 0.749183 -10.6470
  357 513.432 112.654 -109.021
  358 513.373 112.674 109.035
  359 768.594 -67.9747 -206.705
  360 768.516 -68.0143 206.737
  361 781.018 47.9511 44.0208
  362 780.999 47.9664 -44.0350
  363 1121.84 -26.1319 68.8734
  364 1120.60 -22.7260 -70.4598
  365 637.886 84.7166 1.78475
  366 637.850 84.7354 -1.78428
  367 537.959 -81.4154 -210.816
  368 537.955 -81.2331 210.736
  369 914.039 -33.7018 -92.5690
  370 914.047 -33.6171 92.5976
  371 1444.96 72.0869 -21.9591
  372 1107.30 -76.1194 25.5471
  373 1107.90 -76.7941 -25.6522
  374 312.871 90.7757 90.9552
  375 312.996 90.8147 -91.0094
  376 745.284 -43.4949 158.938
  377 745.302 -43.6450 -158.960
  378 1260.49 -35.7893 58.3197
  379 1260.22 -35.8208 -58.3031
  380 1015.39 14.3730 58.3293
  381 961.481 30.6487 -3.98206
  382 679.236 -139.712 208.861
  383 679.273 -139.933 -208.964
  384 638.224 59.1055 26.2367
  385 638.241 59.0846 -26.2255
  386 1151.60 31.1908 -54.2876
  387 760.498 47.0107 73.0944
  388 760.471 47.0104 -73.1103
  389 931.711 -129.807 158.429
  390 931.810 -129.942 -158.837
  391 605.913 7.56700 -33.9765
  392 605.949 7.57022 33.9907
  393 1380.94 75.2573 51.4681
  394 1388.95 76.9751 -53.5012
  395 1117.25 -36.8826 105.042
  396 1117.05 -36.8691 -104.993
  397 822.161 -118.307 164.528
  398 822.241 -118.563 -164.577
  399 741.598 9.58955 -203.945
  400 741.595 9.60035 204.001
  401 515.172 95.4492 -167.068
  402 515.106 95.4752 167.093
  403 434.906 73.5539 85.6641
  404 434.851 73.4793 -85.7227
  405 957.872 21.2523 28.7176
  406 676.645 76.8519 -34.2265
  407 676.680 76.8387 34.2179
  408 669.829 38.2716 119.829
  409 669.802 38.2121 -119.851
  410 602.110 -19.6385 -173.231
  411 602.117 -19.4989 173.181
  412 561.897 7.07014 12.6939
  413 561.879 7.06771 -12.6878
  414 721.849 64.5873 -34.2004
  415 721.876 64.5703 34.1904
  416 715.619 65.1619 18.7345
  417 715.594 65.1831 -18.7397
  418 136.189 -299.271 66.8966
  419 136.477 -298.862 -67.1433
  420 1148.73 15.3204 67.5846
  421 789.686 42.1254 28.9809
  422 789.672 42.1429 -28.9919
  423 619.040 31.9990 31.6558
  424 619.040 31.9860 -31.6425
  425 581.118 95.1312 59.5794
  426 581.151 95.1099 -59.5631
  427 610.697 45.0745 -58.6260
  428 610.697 45.0901 58.6491
  429 948.627 5.55844 -62.0743
  430 948.613 5.55218 62.0518
  431 631.685 59.3229 -125.348
  432 631.695 59.3405 125.386
  433 357.592 -74.0548 -186.865
  434 357.619 -73.8728 186.769
  435 1412.79 -6.40281 32.3997
  436 1413.08 -7.02369 -32.2816
  437 1744.63 7.73538 208.905
  438 1749.93 3.27032 -208.719
  439 587.055 94.3703 40.2967
  440 587.007 94.3624 -40.3124
  441 25.1814 -422.282 -56.2819
  442 25.2247 -421.978 56.2083
  443 1053.13 -39.9365 28.8135
  444 1053.07 -39.9956 -28.7423
  445 1103.51 -11.2317 39.4758
  446 1103.34 -10.6373 -38.6377
  447 42.3999 -424.196 25.4175
  448 42.5745 -423.785 -25.6185
  449 956.573 -134.121 -105.286
  450 956.393 -133.725 105.234
  451 1059.72 -0.630629 -23.2899
  452 1059.65 -0.632130 23.2734
  453 995.432 8.17087 -57.6205
  454 1085.59 -48.7659 -26.6808
  455 1085.27 -49.4540 27.0637
  456 813.286 19.9788 -95.3359
  457 813.306 20.0006 95.3268
  458 696.744 9.99128 -53.3721
  459 696.823 9.99374 53.3930
  460 238.403 20.4825 126.423
  461 238.563 20.5616 -126.506
  462 940.819 -75.9983 93.4785
  463 940.861 -76.2052 -93.4115
  464 871.726 22.9386 19.8740
  465 871.729 22.9499 -19.8840
  466 607.417 86.0972 -33.2143
  467 607.385 86.1189 33.2254
  468 946.716 3.66669 3.10173
  469 946.729 3.66775 -3.10310
  470 747.048 52.3036 -18.5981
  471 747.067 52.2828 18.5918
  472 540.520 0.0165326 1.86000
  473 540.507 0.0155616 -1.85864
  474 592.383 74.9644 -83.6393
  475 592.366 74.9840 83.6654
  476 394.846 -7.31499 -205.050
  477 394.671 -7.36399 205.011
  478 920.854 4.74539 -31.4363
  479 21.4679 -115.399 0.429487
  480 4.56125 -61.5837 -2.16853
  481 4.25596 -51.2188 3.49430
  482 3.39306 -102.280 4.26185
  483 2.18590 -106.296 -13.4351
  484 1.74851 -98.7121 -6.33106
  485 2.80440 -94.0886 16.0155
  486 3.30066 -56.7896 8.83667
  487 0.544157 -42.4031 -11.1023
  488 -8.84828 -118.595 -0.616974
  489 -13.6763 -136.189 1.45382
  490 -1.82324 -11.6768 -1.17658
  491 1.39213 -49.4900 -8.21214
  492 -2.23099 -33.6602 9.90151
  493 17.3188 -102.176 -1.87528
  494 -2.05524 -8.41123 0.736724
  495 14.2031 -91.8600 1.49703
  496 -0.998721 -16.8916 1.04761
  497 -0.703148 -11.2315 -0.824548
  498 15.5492 -115.594 0.271139
  499 18.7801 -121.552 -1.42047
  500 -0.837499 -12.4154 -2.46143
  501 -5.79741 -83.5977 8.68531
  502 -6.26861 -74.2627 -21.0716
  503 -19.3538 -110.907 -2.82731
  504 -21.8919 -122.768 10.1968
  505 -15.3210 -115.522 0.507806
  506 -19.3933 -131.146 -5.26115
  507 -2.76107 -67.7782 -8.83589
  508 -3.95988 -52.7633 17.2692
  509 9.45959 -82.0690 3.41023
  510 7.15421 -77.3459 -11.3517
  511 -1.27949 -7.51969 0.843597
  512 7.99776 -77.1543 8.93479
  513 16.8692 -105.198 7.59335
  514 15.9992 -106.657 -0.785474
  515 8.83087 -66.9499 -2.49027
  516 0.388994 -37.4841 -5.46580
  517 0.504090 -22.8519 4.99454
  518 -1.42087 1.39766 -1.36374
  519 10.3638 -122.968 5.09327
  520 2.17682 -42.7508 3.70569
  521 -0.260647 -51.9475 9.80360
  522 -2.43151 -36.1666 -12.5490
  523 16.3617 -109.160 -6.68783
  524 -1.15166 -29.7149 4.07832
  525 -1.68274 -0.107542 1.35204
  526 -32.8431 -118.194 -0.189916
  527 -45.6945 -140.455 1.83241
  528 -1.16566 1.99638 0.390201
  529 -0.845470 -14.4251 -1.50237
  530 1.23003 -33.9768 -3.04205
  531 0.448762 -14.4237 -4.37357
  532 6.15820 -113.740 -1.84696
  533 15.7995 -109.933 1.48567
  534 1.36061 -8.72311 1.50741
  535 1.33899 -77.8357 10.0894
  536 -2.09550 -71.7389 -19.3051
  537 7.12854 -114.268 1.09459
  538 8.81598 -126.133 -3.89424
  539 0.00321789 -30.6347 -6.20530
  540 -1.50120 -32.0946 -1.06332
  541 -1.96699 3.08622 0.100194
  542 0.763932 -63.9143 15.5687
  543 -1.34453 2.06724 -1.86778
  544 21.0720 -114.414 -1.28986
  545 14.5483 -88.4453 -4.74965
  546 4.68463 -77.3488 -7.86604
  547 -33.4640 -119.138 0.950633
  548 -46.9028 -141.296 -2.40272
  549 -28.8407 -105.734 6.85065
  550 -28.9274 -110.943 -16.8090
  551 -0.528929 -3.10054 -1.01691
  552 -18.3728 -92.6127 -8.28552
  553 -13.9973 -87.4174 20.9809
  554 -1.37858 -26.2268 0.740208
  555 -1.55310 -21.4109 8.34862
  556 9.87548 -73.0762 2.81255
  557 20.8262 -109.966 2.69845
  558 11.3281 -90.8635 -3.30814
  559 -2.00887 4.45718 -0.659272
  560 -1.40713 0.671875 1.09389
  561 3.08093 -48.5585 9.32286
  562 20.1269 -118.921 2.64292
  563 -1.07093 8.66144 -0.466258
  564 -48.7905 -119.198 1.34126
  565 -1.30145 7.20524 0.0301746
  566 -70.6345 -142.066 -1.47259
  567 -0.715448 8.09679 2.66938
  568 0.0761350 6.77938 4.62251
  569 2.92334 -1.13012 2.05933
  570 3.14714 -20.1708 -5.22311
  571 -17.0901 -67.8062 -10.9916
  572 -36.3479 -104.238 -8.36075
  573 -48.6075 -117.267 -1.77846
  574 -46.5273 -114.705 2.45050
  575 -52.6116 -107.737 7.50492
  576 -14.3697 -73.9559 8.35220
  577 1.41539 -23.8478 6.52556
  578 3.55397 -1.27462 -4.14577
  579 1.68308 4.63660 -4.55564
  580 -0.642098 8.40320 -3.18979
  581 -0.455907 7.36699 2.65035
  582 0.649186 4.25479 4.05532
  583 3.45921 -2.87666 2.14543
  584 3.99394 -10.7353 -1.77769
  585 -8.43955 -57.0350 -15.7038
  586 -53.9643 -113.624 -14.4936
  587 -60.4555 -132.043 -6.60955
  588 -65.1085 -136.899 5.96589
  589 -33.7943 -109.146 17.6518
  590 -9.92318 -48.0779 17.6584
  591 4.68845 -8.19069 1.49991
  592 4.67540 -0.722032 -3.70434
  593 0.795213 5.13809 -4.69048
  594 -0.552327 8.39481 -2.87935
</Section>

newXOutput 33

<Section columns = "stress_xx | stress_yy | stress_xy">
  1 540.114 5.02026 -5.19743
  2 540.128 5.02136 5.19856
  3 982.908 0.323293 -0.0739585
  4 982.894 0.322218 0.0728491
  5 0.451812 -683.304 24.4410
  6 2008.17 -7.95311 -1.30593
  7 0.345570 -683.817 -24.5856
  8 2298.57 -48.2153 -15.5257
  9 549.428 2.87575 -2.70867
  10 564.103 5.54516 -8.97033
  11 595.925 7.94435 -21.2645
  12 649.350 5.07263 -39.3326
  13 725.905 4.84727 -41.5839
  14 817.615 12.8042 -68.0415
  15 970.970 2.63092 -87.1711
  16 1139.04 -4.16326 -90.8108
  17 1361.36 -30.9665 -49.5455
  18 1435.71 -28.0037 -22.3912
  19 1493.10 -3.53896 8.33556
  20 1564.47 19.9267 -4.65561
  21 1637.15 31.9019 -15.3918
  22 1702.17 -16.6367 -3.48338
  23 1563.20 13.3010 0.954582
  24 1493.92 -3.09759 -7.29701
  25 1436.10 -27.7498 22.5382
  26 1361.75 -30.9788 49.5829
  27 1139.29 -4.16140 90.8581
  28 971.162 2.63367 87.2105
  29 817.740 12.8080 68.0681
  30 726.004 4.84593 41.6009
  31 649.409 5.07280 39.3493
  32 595.964 7.94678 21.2739
  33 564.126 5.54665 8.97616
  34 549.445 2.87701 2.71135
  35 584.179 3.36978 6.14704
  36 619.616 17.6868 9.98093
  37 647.370 29.5619 8.71630
  38 686.278 38.9380 5.72913
  39 722.190 44.8884 2.59245
  40 763.172 43.3627 -0.204134
  41 806.822 36.1604 -1.30682
  42 868.717 23.4002 -4.40659
  43 912.589 14.5206 0.693868
  44 947.382 9.18299 -2.31888
  45 982.604 -0.380586 -6.10371
  46 1003.83 -2.84615 -7.12560
  47 1009.99 2.80322 -13.2523
  48 1044.92 0.778517 -18.6631
  49 1096.01 -6.43814 -16.9958
  50 1135.77 -6.71007 -19.7237
  51 1164.74 -8.54410 -14.2339
  52 1179.95 -13.6244 -0.956477
  53 1162.59 -16.8903 25.2296
  54 1109.94 -6.91283 39.6597
  55 1009.99 5.68998 47.9625
  56 910.216 22.9883 37.1227
  57 859.195 26.3619 18.5402
  58 849.891 27.4465 -20.8057
  59 920.198 15.4983 -35.1429
  60 1007.73 2.77960 -39.3321
  61 1111.04 -5.96469 -37.3415
  62 1162.92 -16.4006 -24.6858
  63 1179.79 -13.5284 0.946717
  64 1164.60 -8.54608 14.1993
  65 1135.66 -6.71050 19.7016
  66 1095.92 -6.43576 16.9831
  67 1044.87 0.777319 18.6515
  68 1009.95 2.80114 13.2442
  69 1003.80 -2.84639 7.12129
  70 982.588 -0.381071 6.10106
  71 947.371 9.17927 2.31691
  72 912.582 14.5126 -0.695631
  73 868.718 23.3872 4.40376
  74 806.832 36.1420 1.30534
  75 763.185 43.3412 0.203431
  76 722.204 44.8666 -2.59194
  77 686.288 38.9189 -5.72765
  78 647.371 29.5484 -8.71310
  79 619.610 17.6783 -9.97896
  80 584.168 3.36588 -6.14500
  81 96.2748 -550.176 0.768989
  82 372.401 -187.896 127.439
  83 758.468 67.8986 292.570
  84 1143.48 173.059 370.297
  85 1504.23 148.176 397.036
  86 1842.77 38.2954 349.299
  87 2002.62 -27.6318 169.485
  88 2006.85 -26.1740 -170.907
  89 1844.50 31.2543 -349.533
  90 1502.30 149.556 -395.839
  91 1142.83 173.745 -369.678
  92 757.862 67.9089 -292.602
  93 372.250 -187.998 -127.447
  94 96.2375 -550.495 -0.784822
  95 48.8645 -597.332 -47.9927
  96 278.913 -262.784 73.4692
  97 620.341 -43.3011 179.358
  98 1075.03 97.4141 266.049
  99 1532.07 114.624 279.943
  100 1921.32 31.4088 268.119
  101 2225.43 -32.8941 189.455
  102 2187.11 -37.1133 -169.896
  103 1925.93 46.5091 -263.519
  104 1533.25 112.381 -280.238
  105 1075.50 97.6109 -266.734
  106 621.041 -42.8399 -179.829
  107 279.375 -262.256 -73.8300
  108 49.0901 -596.668 47.6700
  109 635.392 99.8030 -22.7458
  110 635.437 99.7945 22.7386
  111 878.016 -66.1344 130.973
  112 878.049 -66.3105 -130.953
  113 438.031 117.948 107.134
  114 438.128 117.949 -107.149
  115 857.409 35.5874 41.6067
  116 857.402 35.6019 -41.6235
  117 633.954 51.2682 43.2836
  118 633.963 51.2505 -43.2664
  119 1177.54 -45.8838 33.0448
  120 1177.91 -44.9093 -33.8971
  121 478.623 15.3701 160.395
  122 478.591 15.2395 -160.469
  123 1309.51 62.0966 -25.6389
  124 1304.89 58.6041 28.4015
  125 722.943 61.2916 6.66005
  126 722.920 61.3148 -6.66111
  127 900.173 17.2423 -81.9987
  128 900.183 17.2453 81.9812
  129 596.138 -11.7799 243.377
  130 596.262 -11.7756 -243.359
  131 880.151 -162.439 176.346
  132 880.270 -162.748 -176.532
  133 626.502 64.6109 -100.900
  134 626.502 64.6297 100.933
  135 1086.26 -55.9086 -10.4148
  136 1086.34 -55.5929 10.6145
  137 754.566 44.1391 96.0509
  138 754.537 44.1142 -96.0649
  139 221.857 34.0394 11.6734
  140 221.974 34.1531 -11.7734
  141 555.226 115.339 -57.7726
  142 555.174 115.357 57.7803
  143 1037.60 -23.9821 -56.4792
  144 1037.60 -23.9627 56.4905
  145 936.583 9.81416 17.5262
  146 936.595 9.82000 -17.5359
  147 698.279 47.7737 -173.280
  148 698.298 47.7933 173.332
  149 612.327 18.5669 23.8237
  150 612.316 18.5595 -23.8138
  151 1524.12 73.7032 4.28116
  152 758.171 58.0739 56.1052
  153 758.142 58.0842 -56.1202
  154 807.896 38.8911 16.8388
  155 807.884 38.9096 -16.8457
  156 673.141 48.0215 14.9284
  157 673.154 48.0014 -14.9217
  158 655.522 76.5243 -19.8771
  159 655.495 76.5473 19.8852
  160 957.587 12.7962 -41.1537
  161 957.568 12.7891 41.1333
  162 1028.54 -67.7985 -144.067
  163 1028.52 -67.8671 144.058
  164 522.521 104.954 43.0616
  165 522.461 104.924 -43.0919
  166 1110.83 -58.2964 121.938
  167 1111.27 -58.4339 -122.632
  168 514.613 -157.595 239.312
  169 514.617 -157.786 -239.412
  170 1355.41 39.8005 75.0429
  171 1358.61 46.4086 -78.3002
  172 630.189 28.0719 -55.5504
  173 630.210 28.0821 55.5725
  174 1134.17 46.0956 21.9494
  175 1138.72 9.78356 80.4867
  176 1117.97 11.1701 -77.9802
  177 1072.19 -121.623 49.0502
  178 1072.49 -122.213 -49.0247
  179 692.052 10.2738 143.131
  180 692.043 10.1777 -143.158
  181 1127.56 -38.2310 -48.8979
  182 1127.48 -40.4220 49.0779
  183 697.135 -88.6296 204.350
  184 697.159 -88.8409 -204.411
  185 702.706 76.5453 -19.9305
  186 702.738 76.5253 19.9257
  187 1615.69 84.6509 103.249
  188 1622.39 75.7642 -105.265
  189 619.589 72.4442 -60.0678
  190 619.571 72.4655 60.0891
  191 773.509 55.5245 29.5366
  192 773.488 55.5444 -29.5464
  193 891.942 -0.772464 99.5094
  194 891.923 -0.808209 -99.5114
  195 1081.60 31.2964 -47.2375
  196 849.992 36.5356 64.6870
  197 849.978 36.5440 -64.7065
  198 187.368 -139.947 -152.296
  199 187.130 -140.142 152.166
  200 1256.62 -29.1362 -74.8256
  201 1256.71 -28.8992 74.6695
  202 738.714 47.2756 -1.61539
  203 738.730 47.2531 1.61515
  204 170.853 -130.632 -111.995
  205 170.925 -130.419 111.881
  206 1032.74 -2.98366 -50.3729
  207 1032.71 -2.98870 50.3518
  208 379.181 104.318 -6.12405
  209 379.091 104.273 6.07085
  210 968.455 -15.9061 -157.713
  211 968.575 -15.9023 157.779
  212 721.421 20.7645 -103.748
  213 721.481 20.7740 103.787
  214 658.991 -125.841 217.795
  215 658.904 -125.913 -217.946
  216 645.419 32.0402 16.0820
  217 645.421 32.0256 -16.0738
  218 592.391 86.5019 -151.616
  219 592.363 86.5266 151.654
  220 636.769 77.8163 84.1486
  221 636.728 77.7879 -84.1706
  222 861.176 26.9439 15.4335
  223 861.173 26.9576 -15.4405
  224 409.569 84.0638 171.730
  225 409.694 84.0665 -171.747
  226 943.677 -109.968 -118.419
  227 943.589 -109.665 118.447
  228 409.726 -108.926 196.662
  229 409.995 -108.771 -196.766
  230 966.555 6.45103 -23.9835
  231 966.535 6.44720 23.9707
  232 1127.82 -13.2431 15.5821
  233 1127.86 -13.2458 -15.5890
  234 658.024 30.5459 -74.4493
  235 658.059 30.5572 74.4762
  236 1146.29 42.2819 50.4444
  237 1584.24 19.9412 120.329
  238 1585.33 20.0468 -120.171
  239 1267.41 76.4379 240.672
  240 1266.17 78.9973 -240.942
  241 604.574 105.822 -21.4441
  242 604.530 105.840 21.4483
  243 1023.34 -58.8323 -62.1939
  244 1023.36 -58.6632 62.2958
  245 601.141 10.3959 -25.9834
  246 601.164 10.3998 25.9949
  247 1780.47 24.1758 -68.2713
  248 1022.60 5.53158 -35.1829
  249 1022.56 5.52655 35.1642
  250 683.043 63.7053 -10.3402
  251 683.021 63.7284 10.3454
  252 491.175 126.751 -41.8948
  253 491.102 126.752 41.8821
  254 1251.18 19.0395 35.1097
  255 1244.79 19.1594 -35.6797
  256 1773.83 22.1587 66.6826
  257 697.298 76.2421 62.3695
  258 697.261 76.2405 -62.3836
  259 825.847 32.6366 -89.0550
  260 825.868 32.6441 89.0383
  261 956.148 5.43594 7.86563
  262 956.161 5.43866 -7.86968
  263 1827.05 -35.0437 106.615
  264 1820.80 -3.44432 -95.6336
  265 1257.30 67.7849 -21.2986
  266 579.780 54.8172 120.049
  267 579.746 54.7424 -120.089
  268 568.241 48.2966 -220.606
  269 568.164 48.3133 220.637
  270 910.079 19.3636 34.0576
  271 910.085 19.3736 -34.0739
  272 625.683 31.5532 -41.9119
  273 625.692 31.5650 41.9294
  274 581.586 4.67516 7.27197
  275 581.572 4.67240 -7.26794
  276 566.550 118.345 -3.28689
  277 566.495 118.350 3.27925
  278 1133.93 -25.3498 -12.9238
  279 1133.84 -25.6276 13.0200
  280 61.2535 -198.050 26.1385
  281 61.3847 -197.804 -26.2697
  282 784.836 42.2171 -6.15547
  283 784.849 42.1962 6.15307
  284 856.649 31.6635 27.6731
  285 856.644 31.6783 -27.6853
  286 957.905 25.0898 256.316
  287 957.491 25.2766 -256.675
  288 1116.68 -72.0240 -18.3705
  289 1116.82 -72.8169 18.4937
  290 700.019 46.4980 -3.49066
  291 700.006 46.5197 3.49274
  292 918.683 11.3718 -137.146
  293 918.816 11.3826 137.202
  294 1106.97 -4.03889 28.9590
  295 1107.04 -4.03481 -28.9820
  296 1545.79 60.7912 -231.257
  297 1543.71 60.4890 229.471
  298 640.381 -100.280 -182.859
  299 640.035 -100.531 182.671
  300 1098.04 -9.90108 60.9480
  301 1098.28 -5.53608 -60.6762
  302 629.341 55.0678 -79.2946
  303 629.345 55.0855 79.3234
  304 320.688 26.1935 106.114
  305 320.618 26.0693 -106.208
  306 647.508 45.7134 28.4232
  307 647.516 45.6951 -28.4110
  308 801.086 -5.33029 124.860
  309 801.074 -5.40845 -124.864
  310 1307.98 83.7445 8.78048
  311 584.783 89.8089 -105.896
  312 584.753 89.8305 105.924
  313 1213.18 -14.3368 -40.4038
  314 1211.75 -15.3167 39.6198
  315 753.905 50.2054 -8.37622
  316 753.922 50.1832 8.37348
  317 1939.69 -28.6154 -32.1201
  318 2043.82 -53.3438 65.6113
  319 841.305 14.0698 -111.814
  320 841.422 14.0764 111.858
  321 1296.70 36.6050 -188.467
  322 1296.41 37.7291 187.823
  323 912.771 15.1738 7.59330
  324 912.778 15.1821 -7.59809
  325 711.647 53.2407 -2.49831
  326 711.629 53.2635 2.50024
  327 670.843 39.1226 -7.30715
  328 670.835 39.1407 7.31075
  329 961.168 -6.06487 -75.4081
  330 961.171 -6.05396 75.3988
  331 1474.05 68.9040 13.0443
  332 827.788 32.3440 -8.03632
  333 827.796 32.3270 8.03274
  334 616.963 17.3753 11.1792
  335 616.957 17.3669 -11.1748
  336 636.058 72.9085 -38.3336
  337 636.037 72.9305 38.3482
  338 1045.85 11.0701 -56.2618
  339 942.666 -12.5961 -193.651
  340 942.344 -12.8166 193.389
  341 1008.42 6.28812 -22.6350
  342 1008.38 6.28469 22.6221
  343 1034.39 -135.104 99.9235
  344 1034.70 -135.690 -100.193
  345 935.852 17.8509 59.0130
  346 935.860 17.8598 -59.0370
  347 902.430 25.6239 50.8206
  348 902.432 25.6352 -50.8420
  349 1032.65 -108.073 62.5230
  350 1032.75 -108.471 -62.4036
  351 255.403 -238.293 157.060
  352 255.379 -238.479 -157.124
  353 690.187 71.9202 2.53783
  354 690.158 71.9427 -2.53720
  355 980.889 0.743183 10.8853
  356 980.909 0.744813 -10.8916
  357 527.309 115.992 -112.068
  358 527.248 116.013 112.083
  359 788.924 -69.5651 -212.720
  360 788.846 -69.6068 212.752
  361 802.299 49.3364 45.1314
  362 802.280 49.3524 -45.1460
  363 1152.46 -27.0510 70.5287
  364 1151.21 -23.5226 -72.1668
  365 655.334 87.1042 1.77637
  366 655.297 87.1238 -1.77577
  367 552.261 -83.3633 -216.558
  368 552.257 -83.1739 216.476
  369 938.574 -34.3300 -95.3504
  370 938.584 -34.2437 95.3794
  371 1484.25 73.8253 -22.9458
  372 1136.83 -78.4622 26.6020
  373 1137.44 -79.1671 -26.7102
  374 321.587 93.8650 93.7492
  375 321.715 93.9055 -93.8045
  376 765.170 -44.2527 163.336
  377 765.188 -44.4074 -163.357
  378 1293.55 -36.5735 60.2835
  379 1293.27 -36.6045 -60.2679
  380 1043.68 14.7635 59.9091
  381 988.432 31.5764 -4.07816
  382 697.137 -143.574 214.700
  383 697.175 -143.805 -214.805
  384 655.370 60.6300 26.8870
  385 655.386 60.6085 -26.8754
  386 1183.55 31.9803 -55.6038
  387 781.177 48.5721 74.9954
  388 781.150 48.5722 -75.0118
  389 956.132 -133.798 162.949
  390 956.234 -133.942 -163.369
  391 621.100 7.74575 -34.8077
  392 621.137 7.74905 34.8224
  393 1418.24 77.3839 53.4629
  394 1426.45 79.1199 -55.5748
  395 1146.42 -37.7429 108.162
  396 1146.22 -37.7283 -108.112
  397 843.907 -121.490 169.234
  398 843.988 -121.755 -169.283
  399 761.042 10.1486 -209.700
  400 761.039 10.1594 209.757
  401 528.945 98.3616 -171.737
  402 528.878 98.3882 171.762
  403 446.907 76.1869 87.7238
  404 446.850 76.1099 -87.7836
  405 984.681 21.8722 29.5091
  406 695.187 79.1039 -35.0455
  407 695.224 79.0900 35.0367
  408 687.985 39.8494 122.984
  409 687.956 39.7885 -123.006
  410 618.270 -19.6547 -177.879
  411 618.277 -19.5105 177.828
  412 575.995 7.25533 12.9855
  413 575.976 7.25284 -12.9793
  414 741.590 66.4413 -35.0375
  415 741.618 66.4235 35.0272
  416 735.168 66.9298 19.1779
  417 735.142 66.9518 -19.1832
  418 139.885 -307.842 68.9678
  419 140.181 -307.418 -69.2222
  420 1180.47 15.5499 69.2958
  421 811.195 43.2530 29.6863
  422 811.181 43.2712 -29.6977
  423 635.282 32.7815 32.4210
  424 635.282 32.7681 -32.4072
  425 596.779 97.8192 61.1766
  426 596.812 97.7972 -61.1596
  427 626.680 46.2541 -60.0809
  428 626.680 46.2702 60.1048
  429 974.182 5.86908 -63.8415
  430 974.167 5.86241 63.8180
  431 648.092 61.0108 -128.681
  432 648.102 61.0288 128.720
  433 367.230 -75.7241 -191.861
  434 367.257 -75.5351 191.762
  435 1450.31 -6.54148 33.7951
  436 1450.61 -7.18312 -33.6764
  437 1789.01 7.42687 214.690
  438 1794.40 2.80435 -214.505
  439 603.202 97.3090 41.2117
  440 603.152 97.3011 -41.2277
  441 25.7334 -434.887 -57.7278
  442 25.7781 -434.571 57.6516
  443 1081.67 -40.9919 29.9880
  444 1081.61 -41.0513 -29.9159
  445 1134.02 -11.5812 40.4141
  446 1133.84 -10.9670 -39.5545
  447 43.6077 -436.482 26.3640
  448 43.7877 -436.056 -26.5715
  449 981.918 -137.973 -108.483
  450 981.735 -137.561 108.432
  451 1088.13 -0.606478 -23.9656
  452 1088.05 -0.608063 23.9485
  453 1023.20 8.40816 -59.2343
  454 1115.13 -50.2529 -27.0692
  455 1114.80 -50.9581 27.4639
  456 835.229 20.9010 -97.9536
  457 835.250 20.9228 97.9441
  458 714.093 10.2837 -54.7261
  459 714.174 10.2862 54.7477
  460 245.038 21.7124 130.235
  461 245.203 21.7944 -130.320
  462 965.974 -77.9131 96.3872
  463 966.015 -78.1253 -96.3180
  464 895.317 23.5125 20.3434
  465 895.321 23.5241 -20.3537
  466 623.882 88.4810 -34.1038
  467 623.850 88.5034 34.1152
  468 972.173 3.76793 3.17938
  469 972.186 3.76902 -3.18079
  470 767.431 53.6693 -19.0401
  471 767.450 53.6478 19.0335
  472 554.040 -0.00595120 1.89393
  473 554.027 -0.00694992 -1.89253
  474 608.085 77.0578 -85.8260
  475 608.068 77.0780 85.8531
  476 405.493 -7.00932 -211.024
  477 405.314 -7.06025 210.984
  478 946.639 4.77035 -32.3638
  479 22.1375 -119.061 0.436904
  480 4.62257 -63.3745 -2.22372
  481 4.31538 -52.6685 3.59218
  482 3.37935 -105.456 4.43359
  483 2.22793 -109.572 -13.9215
  484 1.69221 -101.741 -6.58015
  485 2.86857 -96.9156 16.5839
  486 3.33420 -58.3378 9.09721
  487 0.537096 -43.5067 -11.4115
  488 -9.35130 -122.435 -0.643265
  489 -14.1909 -140.624 1.50776
  490 -1.91231 -11.9173 -1.19718
  491 1.35649 -50.8271 -8.44635
  492 -2.32966 -34.4997 10.1543
  493 17.8306 -105.352 -1.92460
  494 -2.14858 -8.56041 0.742652
  495 14.5950 -94.6712 1.52802
  496 -1.06944 -17.2732 1.05522
  497 -0.762472 -11.4544 -0.834022
  498 15.9951 -119.289 0.279925
  499 19.3953 -125.425 -1.47411
  500 -0.870861 -12.6829 -2.48569
  501 -6.07223 -86.0123 8.97362
  502 -6.41105 -76.3199 -21.7952
  503 -20.2205 -114.406 -2.90029
  504 -22.6520 -126.645 10.5297
  505 -16.0724 -119.216 0.508864
  506 -20.1049 -135.355 -5.43446
  507 -2.92857 -69.6248 -9.09713
  508 -4.05898 -54.0844 17.8193
  509 9.67897 -84.5351 3.54951
  510 7.32352 -79.6417 -11.7282
  511 -1.32193 -7.64529 0.817288
  512 8.18623 -79.4429 9.22525
  513 17.3893 -108.471 7.85942
  514 16.4580 -110.003 -0.840034
  515 9.02982 -68.9001 -2.58748
  516 0.346002 -38.4897 -5.61377
  517 0.504716 -23.3900 5.07144
  518 -1.47588 1.52659 -1.42220
  519 10.7001 -126.892 5.28424
  520 2.16772 -43.9084 3.81332
  521 -0.259441 -53.2641 10.0211
  522 -2.45910 -36.9678 -12.8773
  523 16.8687 -112.579 -6.92534
  524 -1.23587 -30.4841 4.17447
  525 -1.73795 -0.0244042 1.42009
  526 -34.4162 -121.994 -0.167535
  527 -47.5068 -145.011 1.86672
  528 -1.21554 2.14082 0.411297
  529 -0.882068 -14.7259 -1.49582
  530 1.20281 -34.8706 -3.12966
  531 0.489117 -14.7107 -4.41385
  532 6.25558 -117.368 -1.93980
  533 16.2502 -113.403 1.56243
  534 1.44183 -8.86261 1.45477
  535 1.26718 -80.1095 10.4430
  536 -2.20666 -73.7777 -19.9490
  537 7.25544 -117.917 1.15380
  538 9.10560 -130.177 -4.04827
  539 0.0466283 -31.3213 -6.27159
  540 -1.61265 -32.9293 -1.08901
  541 -2.03859 3.25639 0.113144
  542 0.729685 -65.7097 16.0654
  543 -1.38721 2.20972 -1.95118
  544 21.7335 -118.034 -1.33128
  545 14.9601 -91.1301 -4.89715
  546 4.73395 -79.6113 -8.14612
  547 -35.0675 -122.985 0.971231
  548 -48.7655 -145.898 -2.47038
  549 -29.9563 -108.986 7.03399
  550 -29.7771 -114.322 -17.3335
  551 -0.549472 -3.08968 -1.10070
  552 -19.0533 -95.3498 -8.52802
  553 -14.2804 -89.9241 21.6619
  554 -1.47465 -26.8924 0.753298
  555 -1.52257 -21.7691 8.49028
  556 10.1167 -75.2312 2.88890
  557 21.4715 -113.422 2.78148
  558 11.6114 -93.6289 -3.45542
  559 -2.07952 4.66392 -0.689975
  560 -1.45557 0.784498 1.15647
  561 3.10891 -49.8975 9.59867
  562 20.7664 -122.700 2.73615
  563 -1.10956 8.98191 -0.478810
  564 -51.1233 -123.006 1.40803
  565 -1.34802 7.48694 0.0287723
  566 -73.4902 -146.647 -1.53683
  567 -0.736881 8.41209 2.76838
  568 0.0870888 7.06365 4.80425
  569 3.05296 -1.06150 2.22478
  570 3.42145 -20.5584 -5.16609
  571 -17.5748 -69.5829 -11.2215
  572 -37.6696 -107.413 -8.54012
  573 -50.7765 -121.008 -1.75784
  574 -48.5553 -118.368 2.46953
  575 -54.5316 -111.047 7.62711
  576 -14.7783 -75.9388 8.50414
  577 1.58223 -24.3206 6.54866
  578 3.69823 -1.19081 -4.35577
  579 1.74918 4.86733 -4.73591
  580 -0.660663 8.72182 -3.30192
  581 -0.472277 7.65359 2.74686
  582 0.673699 4.45245 4.21498
  583 3.60960 -2.86505 2.28670
  584 4.20469 -10.8338 -1.69144
  585 -8.46229 -58.4251 -16.1396
  586 -55.5458 -117.070 -14.8249
  587 -62.7126 -136.291 -6.77026
  588 -67.5973 -141.292 6.09107
  589 -34.6974 -112.443 18.1319
  590 -9.97866 -49.1766 18.1439
  591 4.94278 -8.27605 1.40346
  592 4.86367 -0.666097 -3.88677
  593 0.827386 5.35551 -4.86691
  594 -0.568872 8.70706 -2.98232
</Section>

newXOutput 34

<Section columns = "stress_xx | stress_yy | stress_xy">
  1 552.997 5.16682 -5.34933
  2 553.011 5.16793 5.35047
  3 1008.36 0.310162 -0.0524453
  4 1008.35 0.309076 0.0513233
  5 0.298465 -703.521 24.9565
  6 2056.43 -8.85224 -1.33901
  7 0.190373 -704.045 -25.1059
  8 2352.13 -50.8769 -15.7961
  9 562.547 2.94543 -2.73730
  10 577.556 5.69796 -9.13862
  11 610.070 8.15841 -21.7553
  12 664.808 5.21967 -40.2623
  13 743.043 5.02061 -42.5732
  14 837.177 13.1710 -69.7331
  15 994.394 2.71131 -89.3831
  16 1167.06 -4.25162 -93.2569
  17 1395.18 -31.7741 -51.0358
  18 1472.14 -28.7539 -23.4648
  19 1532.07 -3.52795 7.82607
  20 1606.51 20.4487 -5.56716
  21 1682.26 32.6304 -16.2035
  22 1748.41 -17.2225 -3.31257
  23 1605.28 13.7436 1.86868
  24 1532.91 -3.06535 -6.75440
  25 1472.54 -28.4925 23.6154
  26 1395.58 -31.7868 51.0739
  27 1167.31 -4.24971 93.3050
  28 994.587 2.71413 89.4229
  29 837.303 13.1749 69.7600
  30 743.143 5.01926 42.5902
  31 664.868 5.21982 40.2792
  32 610.109 8.16086 21.7647
  33 577.579 5.69946 9.14450
  34 562.564 2.94670 2.74000
  35 598.459 3.39355 6.30615
  36 635.068 18.0795 10.2692
  37 663.808 30.2260 8.93177
  38 704.042 39.7829 5.88705
  39 741.062 45.8805 2.67175
  40 783.201 44.3259 -0.188847
  41 828.007 36.9704 -1.31393
  42 891.417 23.9047 -4.48883
  43 936.343 14.8350 0.760516
  44 971.980 9.41025 -2.35439
  45 1008.04 -0.409101 -6.25232
  46 1029.74 -2.94856 -7.27555
  47 1036.03 2.87457 -13.5463
  48 1071.82 0.798478 -19.1318
  49 1124.18 -6.63306 -17.4493
  50 1165.06 -6.91357 -20.2979
  51 1195.05 -8.79422 -14.7384
  52 1210.97 -14.0588 -1.18057
  53 1193.56 -17.4624 25.7543
  54 1139.73 -7.19001 40.6126
  55 1037.25 5.88425 49.2664
  56 934.813 23.7917 38.1812
  57 882.377 27.3076 19.1314
  58 872.831 28.3612 -21.4054
  59 945.058 16.0021 -36.1041
  60 1034.94 2.84137 -40.3829
  61 1140.86 -6.21637 -38.2395
  62 1193.90 -16.9584 -25.1991
  63 1210.81 -13.9615 1.16894
  64 1194.90 -8.79659 14.7026
  65 1164.95 -6.91408 20.2753
  66 1124.09 -6.63065 17.4364
  67 1071.77 0.797254 19.1201
  68 1035.99 2.87246 13.5381
  69 1029.71 -2.94881 7.27120
  70 1008.02 -0.409588 6.24965
  71 971.969 9.40650 2.35239
  72 936.336 14.8269 -0.762298
  73 891.418 23.8916 4.48597
  74 828.017 36.9519 1.31244
  75 783.215 44.3041 0.188137
  76 741.076 45.8584 -2.67124
  77 704.053 39.7636 -5.88555
  78 663.810 30.2124 -8.92854
  79 635.061 18.0708 -10.2672
  80 598.448 3.38962 -6.30409
  81 98.5079 -566.994 0.423595
  82 381.638 -194.032 130.425
  83 777.132 69.0827 299.812
  84 1171.36 177.399 379.538
  85 1540.57 151.874 407.025
  86 1886.21 38.6883 358.092
  87 2049.97 -29.1952 173.787
  88 2054.24 -27.6510 -175.256
  89 1887.92 31.3874 -358.332
  90 1538.59 153.305 -405.783
  91 1170.70 178.108 -378.909
  92 776.518 69.0977 -299.851
  93 381.488 -194.132 -130.437
  94 98.4726 -567.317 -0.443015
  95 50.1161 -614.983 -49.3772
  96 285.964 -270.500 75.3213
  97 635.703 -44.8913 183.767
  98 1101.17 99.9091 272.673
  99 1569.06 117.977 287.173
  100 1967.20 31.9845 275.370
  101 2277.39 -34.9101 194.451
  102 2238.81 -39.1168 -174.465
  103 1971.89 47.5196 -270.700
  104 1570.26 115.646 -287.489
  105 1101.66 100.110 -273.373
  106 636.422 -44.4187 -184.249
  107 286.436 -269.959 -75.6906
  108 50.3471 -614.304 49.0462
  109 652.215 102.672 -23.2196
  110 652.260 102.663 23.2124
  111 900.589 -67.5633 134.661
  112 900.621 -67.7430 -134.640
  113 449.606 121.506 110.157
  114 449.704 121.507 -110.172
  115 879.848 36.5604 42.6076
  116 879.840 36.5751 -42.6245
  117 650.135 52.5491 44.3142
  118 650.144 52.5312 -44.2968
  119 1208.18 -47.3279 33.5575
  120 1208.55 -46.3151 -34.4379
  121 491.167 16.3768 164.407
  122 491.136 16.2429 -164.483
  123 1344.27 63.6986 -25.9804
  124 1339.54 60.1073 28.8131
  125 741.946 62.8185 6.80472
  126 741.924 62.8420 -6.80578
  127 923.599 17.9663 -84.1968
  128 923.609 17.9691 84.1791
  129 611.406 -11.6111 250.141
  130 611.533 -11.6078 -250.122
  131 902.522 -167.074 181.232
  132 902.646 -167.393 -181.421
  133 642.257 66.3489 -103.424
  134 642.257 66.3679 103.458
  135 1114.56 -57.3791 -11.0920
  136 1114.65 -57.0575 11.2971
  137 774.306 45.7127 98.4880
  138 774.276 45.6874 -98.5018
  139 227.923 35.6360 12.3030
  140 228.041 35.7515 -12.4058
  141 569.808 118.579 -59.3533
  142 569.756 118.597 59.3611
  143 1064.58 -24.4765 -58.2633
  144 1064.59 -24.4576 58.2745
  145 960.916 10.0404 17.9232
  146 960.928 10.0464 -17.9331
  147 715.724 49.1678 -177.851
  148 715.742 49.1879 177.903
  149 627.471 19.0100 24.3778
  150 627.460 19.0025 -24.3678
  151 1563.97 75.3390 4.42077
  152 778.129 59.7955 57.4713
  153 778.100 59.8059 -57.4864
  154 829.111 39.8150 17.2269
  155 829.099 39.8337 -17.2338
  156 690.569 49.1476 15.2794
  157 690.582 49.1272 -15.2727
  158 672.669 78.5061 -20.3839
  159 672.642 78.5293 20.3922
  160 982.440 13.1857 -42.1809
  161 982.421 13.1784 42.1602
  162 1054.69 -69.4312 -148.291
  163 1054.67 -69.5012 148.282
  164 536.428 108.216 43.9570
  165 536.368 108.185 -43.9877
  166 1138.99 -60.0647 125.429
  167 1139.43 -60.2076 -126.142
  168 527.714 -161.964 245.672
  169 527.721 -162.160 -245.775
  170 1390.11 40.8217 77.5803
  171 1393.38 47.6547 -80.9303
  172 645.713 28.7744 -56.8768
  173 645.733 28.7848 56.8992
  174 1164.82 47.2886 22.5465
  175 1169.00 9.95171 82.4561
  176 1147.79 11.4196 -79.9278
  177 1099.72 -125.162 50.7407
  178 1100.03 -125.772 -50.7124
  179 710.009 11.1100 146.808
  180 710.000 11.0118 -146.835
  181 1157.35 -39.4492 -49.9362
  182 1157.26 -41.7067 50.1194
  183 714.979 -90.6737 209.802
  184 715.004 -90.8908 -209.863
  185 721.250 78.6119 -20.3732
  186 721.282 78.5915 20.3684
  187 1656.90 86.5961 106.399
  188 1663.71 77.3930 -108.498
  189 635.488 74.3424 -61.5457
  190 635.470 74.3639 61.5673
  191 793.868 56.9798 30.2231
  192 793.847 57.0000 -30.2329
  193 915.099 -0.436685 102.250
  194 915.080 -0.472713 -102.251
  195 1110.78 32.1601 -48.4920
  196 872.220 37.6766 66.3294
  197 872.207 37.6852 -66.3490
  198 192.307 -143.270 -156.799
  199 192.064 -143.468 156.665
  200 1288.64 -29.7046 -77.2493
  201 1288.73 -29.4602 77.0901
  202 758.079 48.3435 -1.65124
  203 758.095 48.3207 1.65099
  204 175.409 -133.782 -114.819
  205 175.481 -133.565 114.700
  206 1059.53 -2.95595 -51.8324
  207 1059.50 -2.96134 51.8108
  208 389.380 107.646 -6.57650
  209 389.289 107.600 6.52197
  210 992.751 -16.1702 -162.042
  211 992.872 -16.1661 162.110
  212 739.060 21.2923 -106.349
  213 739.121 21.3020 106.389
  214 675.606 -129.667 223.547
  215 675.521 -129.739 -223.703
  216 661.811 32.7637 16.4268
  217 661.813 32.7490 -16.4185
  218 607.473 88.9451 -155.586
  219 607.444 88.9703 155.624
  220 653.564 80.3387 86.1740
  221 653.523 80.3096 -86.1960
  222 883.707 27.5701 15.7895
  223 883.704 27.5840 -15.7966
  224 420.278 86.8052 176.517
  225 420.404 86.8074 -176.534
  226 967.868 -112.800 -121.894
  227 967.779 -112.491 121.924
  228 420.297 -111.505 202.244
  229 420.572 -111.348 -202.351
  230 991.594 6.62703 -24.5497
  231 991.573 6.62314 24.5368
  232 1157.32 -13.5230 16.2261
  233 1157.36 -13.5249 -16.2338
  234 674.143 31.3402 -76.2894
  235 674.179 31.3516 76.3166
  236 1177.08 43.4268 51.6773
  237 1624.42 20.5814 124.105
  238 1625.54 20.6652 -123.942
  239 1299.12 78.5078 247.146
  240 1297.86 81.1556 -247.422
  241 620.504 108.755 -22.0646
  242 620.460 108.773 22.0688
  243 1049.86 -60.2682 -64.2227
  244 1049.89 -60.0963 64.3271
  245 615.727 10.6471 -26.5791
  246 615.751 10.6510 26.5907
  247 1824.97 24.3007 -70.2107
  248 1049.04 5.74332 -36.1098
  249 1049.00 5.73814 36.0907
  250 700.900 65.2900 -10.5976
  251 700.878 65.3133 10.6029
  252 504.220 130.468 -43.1726
  253 504.146 130.470 43.1596
  254 1283.98 19.4590 35.6433
  255 1277.44 19.5763 -36.2320
  256 1818.25 22.1885 68.5751
  257 715.683 78.5576 63.8652
  258 715.645 78.5558 -63.8793
  259 847.427 33.8270 -91.3718
  260 847.448 33.8345 91.3550
  261 980.948 5.56029 8.04654
  262 980.961 5.56304 -8.05063
  263 1873.54 -36.3730 109.968
  264 1867.22 -3.90969 -98.7301
  265 1291.02 69.5726 -21.7726
  266 595.009 56.8587 122.995
  267 594.975 56.7821 -123.036
  268 582.749 49.9371 -226.641
  269 582.670 49.9545 226.672
  270 933.789 19.8597 34.8704
  271 933.795 19.8697 -34.8868
  272 641.271 32.3293 -42.8864
  273 641.280 32.3412 42.9042
  274 595.744 4.76345 7.41740
  275 595.731 4.76067 -7.41333
  276 581.584 121.764 -3.52098
  277 581.528 121.769 3.51325
  278 1163.82 -26.0409 -12.9866
  279 1163.72 -26.3236 13.0836
  280 62.9534 -202.970 27.1396
  281 63.0866 -202.720 -27.2748
  282 805.448 43.1682 -6.29569
  283 805.460 43.1471 6.29327
  284 879.077 32.4492 28.3180
  285 879.073 32.4642 -28.3304
  286 981.807 25.5494 263.034
  287 981.388 25.7414 -263.408
  288 1145.76 -74.1545 -18.4972
  289 1145.90 -74.9722 18.6253
  290 718.235 47.5496 -3.56678
  291 718.222 47.5714 3.56887
  292 941.322 11.7567 -140.758
  293 941.457 11.7679 140.814
  294 1135.71 -4.07482 29.8653
  295 1135.79 -4.07039 -29.8891
  296 1584.30 62.1717 -237.622
  297 1582.20 61.8825 235.794
  298 656.717 -103.007 -187.885
  299 656.363 -103.264 187.693
  300 1127.38 -10.2646 62.4553
  301 1127.64 -5.75772 -62.1927
  302 645.127 56.5021 -81.2330
  303 645.131 56.5200 81.2620
  304 329.260 27.5062 108.653
  305 329.190 27.3792 -108.750
  306 664.080 46.8071 29.0841
  307 664.088 46.7886 -29.0717
  308 821.851 -5.00859 128.204
  309 821.839 -5.08810 -128.207
  310 1342.96 86.0241 8.84302
  311 599.790 92.2813 -108.629
  312 599.760 92.3031 108.658
  313 1244.40 -14.8030 -41.9106
  314 1242.94 -15.8153 41.1004
  315 773.719 51.3956 -8.56455
  316 773.736 51.3731 8.56179
  317 1989.28 -29.8435 -33.1038
  318 2094.58 -55.4795 67.5118
  319 861.767 14.4607 -114.666
  320 861.885 14.4674 114.710
  321 1329.25 37.7232 -193.703
  322 1328.96 38.8875 193.044
  323 936.532 15.5122 7.74726
  324 936.539 15.5206 -7.75210
  325 730.273 54.4951 -2.56112
  326 730.255 54.5182 2.56308
  327 688.111 39.9992 -7.46916
  328 688.103 40.0175 7.47279
  329 986.134 -5.99147 -77.5638
  330 986.138 -5.98086 77.5543
  331 1512.71 70.4055 13.7072
  332 849.493 33.0598 -8.21740
  333 849.500 33.0426 8.21378
  334 632.328 17.7582 11.4468
  335 632.322 17.7497 -11.4423
  336 652.535 74.7938 -39.2768
  337 652.514 74.8161 39.2915
  338 1073.99 11.2957 -57.7286
  339 966.459 -12.9463 -198.934
  340 966.129 -13.1722 198.667
  341 1034.45 6.48688 -23.1798
  342 1034.41 6.48338 23.1667
  343 1060.76 -139.063 102.864
  344 1061.07 -139.670 -103.139
  345 960.190 18.4587 60.5498
  346 960.198 18.4679 -60.5742
  347 925.965 26.3835 52.0917
  348 925.967 26.3950 -52.1135
  349 1059.28 -111.077 64.5961
  350 1059.39 -111.485 -64.4719
  351 261.872 -245.181 161.175
  352 261.850 -245.369 -161.242
  353 708.351 73.7864 2.56782
  354 708.322 73.8091 -2.56715
  355 1006.26 0.736998 11.1242
  356 1006.28 0.738647 -11.1306
  357 541.043 119.310 -115.086
  358 540.981 119.331 115.100
  359 809.017 -71.1248 -218.693
  360 808.936 -71.1666 218.726
  361 823.378 50.7095 46.2249
  362 823.359 50.7258 -46.2397
  363 1182.77 -27.9652 72.1490
  364 1181.51 -24.3146 -73.8407
  365 672.619 89.4698 1.76680
  366 672.582 89.4895 -1.76614
  367 566.424 -85.2721 -222.244
  368 566.418 -85.0775 222.161
  369 962.859 -34.9350 -98.1131
  370 962.870 -34.8476 98.1431
  371 1523.11 75.5148 -23.9449
  372 1166.04 -80.7879 27.6583
  373 1166.66 -81.5210 -27.7700
  374 330.232 96.9594 96.5294
  375 330.362 97.0002 -96.5863
  376 784.854 -44.9783 167.691
  377 784.873 -45.1366 -167.711
  378 1326.20 -37.3366 62.2474
  379 1325.91 -37.3682 -62.2311
  380 1071.72 15.1493 61.4638
  381 1015.17 32.4965 -4.17049
  382 714.850 -147.399 220.490
  383 714.892 -147.636 -220.597
  384 672.335 62.1326 27.5254
  385 672.353 62.1109 -27.5137
  386 1215.22 32.7570 -56.8877
  387 801.661 50.1307 76.8709
  388 801.633 50.1308 -76.8873
  389 980.291 -137.771 167.431
  390 980.399 -137.921 -167.863
  391 636.062 7.92106 -35.6251
  392 636.099 7.92439 35.6399
  393 1455.13 79.4886 55.4692
  394 1463.53 81.2341 -57.6613
  395 1175.23 -38.5857 111.263
  396 1175.02 -38.5710 -111.212
  397 865.423 -124.638 173.904
  398 865.506 -124.909 -173.952
  399 780.247 10.7174 -215.404
  400 780.244 10.7288 215.463
  401 542.567 101.260 -176.362
  402 542.499 101.287 176.387
  403 458.808 78.8288 89.7503
  404 458.751 78.7498 -89.8113
  405 1011.28 22.4847 30.2888
  406 713.561 81.3385 -35.8506
  407 713.598 81.3245 35.8418
  408 705.970 41.4397 126.100
  409 705.941 41.3775 -126.122
  410 634.276 -19.6397 -182.476
  411 634.282 -19.4919 182.425
  412 589.886 7.43828 13.2710
  413 589.867 7.43576 -13.2647
  414 761.149 68.2786 -35.8608
  415 761.178 68.2606 35.8505
  416 754.533 68.6770 19.6135
  417 754.507 68.6992 -19.6188
  418 143.547 -316.339 71.0369
  419 143.850 -315.907 -71.2973
  420 1211.91 15.7632 70.9704
  421 832.499 44.3660 30.3792
  422 832.484 44.3845 -30.3907
  423 651.330 33.5505 33.1721
  424 651.330 33.5370 -33.1581
  425 612.278 100.484 62.7528
  426 612.311 100.461 -62.7356
  427 642.469 47.4186 -61.5120
  428 642.469 47.4348 61.5360
  429 999.475 6.18441 -65.5906
  430 999.461 6.17737 65.5666
  431 664.289 62.6851 -131.973
  432 664.299 62.7033 132.014
  433 376.785 -77.3489 -196.805
  434 376.810 -77.1554 196.703
  435 1487.39 -6.67553 35.2064
  436 1487.70 -7.33821 -35.0839
  437 1832.75 7.09046 220.397
  438 1838.20 2.31029 -220.216
  439 619.208 100.236 42.1096
  440 619.157 100.228 -42.1256
  441 26.2794 -447.414 -59.1587
  442 26.3237 -447.092 59.0787
  443 1109.92 -42.0336 31.1686
  444 1109.85 -42.0925 -31.0955
  445 1164.24 -11.9277 41.3332
  446 1164.06 -11.2942 -40.4534
  447 44.8102 -448.673 27.3192
  448 44.9940 -448.238 -27.5321
  449 1006.99 -141.791 -111.660
  450 1006.81 -141.367 111.610
  451 1116.23 -0.580316 -24.6342
  452 1116.15 -0.581984 24.6167
  453 1050.73 8.64497 -60.8282
  454 1144.38 -51.7293 -27.4371
  455 1144.04 -52.4502 27.8429
  456 856.956 21.8332 -100.542
  457 856.977 21.8552 100.533
  458 731.178 10.5745 -56.0608
  459 731.259 10.5770 56.0826
  460 251.619 22.9724 134.027
  461 251.787 23.0549 -134.114
  462 990.868 -79.7986 99.2821
  463 990.908 -80.0150 -99.2101
  464 918.676 24.0764 20.8029
  465 918.679 24.0882 -20.8134
  466 640.184 90.8413 -34.9810
  467 640.152 90.8639 34.9926
  468 997.370 3.86837 3.25582
  469 997.384 3.86946 -3.25725
  470 787.621 55.0153 -19.4738
  471 787.641 54.9935 19.4672
  472 567.359 -0.0295924 1.92650
  473 567.346 -0.0305999 -1.92508
  474 623.609 79.1321 -87.9832
  475 623.592 79.1525 88.0105
  476 416.029 -6.67736 -216.959
  477 415.846 -6.72820 216.918
  478 972.221 4.78633 -33.2811
  479 22.8198 -122.695 0.447355
  480 4.69171 -65.1557 -2.28963
  481 4.38029 -54.1106 3.69907
  482 3.41303 -108.599 4.61365
  483 2.26286 -112.833 -14.4139
  484 1.67631 -104.742 -6.83707
  485 2.92696 -99.7241 17.1613
  486 3.38693 -59.8837 9.35279
  487 0.526066 -44.6038 -11.7286
  488 -9.78018 -126.252 -0.669617
  489 -14.7157 -145.044 1.56344
  490 -1.99688 -12.1666 -1.22298
  491 1.33622 -52.1621 -8.67593
  492 -2.43301 -35.3311 10.4133
  493 18.3513 -108.503 -1.97844
  494 -2.23848 -8.71675 0.752885
  495 14.9962 -97.4602 1.56700
  496 -1.13192 -17.6674 1.06100
  497 -0.815812 -11.6874 -0.841500
  498 16.4697 -122.956 0.290316
  499 20.0093 -129.274 -1.52693
  500 -0.906325 -12.9547 -2.51683
  501 -6.27555 -88.3930 9.28187
  502 -6.56301 -78.3646 -22.5264
  503 -21.0040 -117.887 -2.98398
  504 -23.4219 -130.507 10.8686
  505 -16.7359 -122.885 0.516808
  506 -20.8280 -139.550 -5.61034
  507 -3.05364 -71.4519 -9.37271
  508 -4.16524 -55.3871 18.3779
  509 9.91619 -86.9797 3.68131
  510 7.49193 -81.9238 -12.1130
  511 -1.36599 -7.77431 0.796499
  512 8.37602 -81.7145 9.52539
  513 17.9103 -111.721 8.13282
  514 16.9402 -113.320 -0.892348
  515 9.24038 -70.8365 -2.67644
  516 0.306172 -39.4928 -5.77072
  517 0.514122 -23.9441 5.15592
  518 -1.52778 1.64107 -1.47919
  519 11.0314 -130.795 5.47986
  520 2.17233 -45.0688 3.91327
  521 -0.244773 -54.5808 10.2578
  522 -2.49611 -37.7615 -13.2123
  523 17.3759 -115.977 -7.16691
  524 -1.31751 -31.2508 4.27816
  525 -1.79280 0.0494300 1.48303
  526 -35.9023 -125.783 -0.151832
  527 -49.3346 -149.554 1.90281
  528 -1.26296 2.27395 0.432602
  529 -0.913607 -15.0402 -1.49315
  530 1.18558 -35.7673 -3.21087
  531 0.522129 -14.9984 -4.46075
  532 6.39917 -120.970 -2.03716
  533 16.7237 -116.841 1.63900
  534 1.51717 -9.00142 1.40694
  535 1.23137 -82.3559 10.7933
  536 -2.32478 -75.8040 -20.6005
  537 7.43006 -121.537 1.21953
  538 9.38884 -134.203 -4.20303
  539 0.0885362 -32.0196 -6.35745
  540 -1.71440 -33.7677 -1.12289
  541 -2.10827 3.41508 0.123398
  542 0.691139 -67.4898 16.5708
  543 -1.42974 2.34412 -2.03032
  544 22.4037 -121.628 -1.37249
  545 15.3771 -93.7942 -5.05248
  546 4.80712 -81.8497 -8.42322
  547 -36.5651 -126.813 0.986400
  548 -50.6451 -150.488 -2.53841
  549 -30.9334 -112.206 7.22557
  550 -30.6388 -117.689 -17.8640
  551 -0.565900 -3.09687 -1.17672
  552 -19.6259 -98.0566 -8.78704
  553 -14.5693 -92.4123 22.3521
  554 -1.56392 -27.5611 0.773113
  555 -1.49990 -22.1157 8.63567
  556 10.3644 -77.3702 2.97471
  557 22.1244 -116.851 2.87009
  558 11.9135 -96.3685 -3.59886
  559 -2.14875 4.86095 -0.718223
  560 -1.50123 0.883424 1.21616
  561 3.13629 -51.2265 9.88300
  562 21.4091 -126.454 2.83312
  563 -1.14703 9.29175 -0.490704
  564 -53.3519 -126.800 1.46331
  565 -1.39269 7.75663 0.0270046
  566 -76.3659 -151.216 -1.60097
  567 -0.757566 8.71314 2.86445
  568 0.0981518 7.33007 4.97838
  569 3.17828 -1.01179 2.37149
  570 3.66156 -20.9669 -5.14570
  571 -17.9827 -71.3419 -11.4776
  572 -38.8554 -110.566 -8.72324
  573 -52.8531 -124.737 -1.74509
  574 -50.4511 -122.015 2.48587
  575 -56.2521 -114.325 7.73929
  576 -15.0945 -77.9023 8.68644
  577 1.72566 -24.8215 6.60445
  578 3.83557 -1.13421 -4.54677
  579 1.81251 5.07786 -4.90693
  580 -0.678528 9.02511 -3.41066
  581 -0.488415 7.92989 2.83968
  582 0.696448 4.64240 4.36848
  583 3.75370 -2.85772 2.42057
  584 4.40515 -10.9310 -1.61125
  585 -8.49529 -59.8038 -16.5820
  586 -57.1405 -120.505 -15.1614
  587 -64.9874 -140.529 -6.93394
  588 -70.1021 -145.674 6.21956
  589 -35.6068 -115.725 18.6189
  590 -10.0389 -50.2553 18.6361
  591 5.18897 -8.35840 1.31036
  592 5.04635 -0.613878 -4.06284
  593 0.857852 5.56595 -5.03795
  594 -0.585511 9.01004 -3.08201
</Section>

newXOutput 35

<Section columns = "stress_xx | stress_yy | stress_xy">
  1 565.681 5.31287 -5.50071
  2 565.696 5.31402 5.50189
  3 1033.56 0.295756 -0.0296060
  4 1033.54 0.294640 0.0284515
  5 0.141195 -723.651 25.4591
  6 2103.92 -9.78832 -1.36344
  7 0.0299165 -724.193 -25.6132
  8 2404.78 -53.5986 -16.0528
  9 575.463 3.01413 -2.76315
  10 590.801 5.84974 -9.30137
  11 623.992 8.37074 -22.2373
  12 680.025 5.36634 -41.1769
  13 759.904 5.19504 -43.5469
  14 856.437 13.5359 -71.4023
  15 1017.47 2.79148 -91.5676
  16 1194.69 -4.33920 -95.6795
  17 1428.55 -32.5727 -52.5188
  18 1508.12 -29.4973 -24.5530
  19 1570.61 -3.50824 7.27962
  20 1648.17 20.9652 -6.51726
  21 1727.02 33.3402 -17.0286
  22 1794.24 -17.8077 -3.12478
  23 1646.98 14.1901 2.82760
  24 1571.47 -3.02319 -6.17783
  25 1508.52 -29.2290 24.7047
  26 1428.95 -32.5865 52.5566
  27 1194.95 -4.33745 95.7284
  28 1017.66 2.79428 91.6082
  29 856.566 13.5399 71.4297
  30 760.007 5.19364 43.5644
  31 680.086 5.36648 41.1941
  32 624.032 8.37325 22.2470
  33 590.825 5.85128 9.30741
  34 575.481 3.01544 2.76592
  35 612.541 3.41330 6.46364
  36 650.324 18.4641 10.5563
  37 680.056 30.8771 9.14433
  38 721.621 40.6088 6.04382
  39 759.747 46.8513 2.75088
  40 803.037 45.2686 -0.172497
  41 848.988 37.7637 -1.31927
  42 913.894 24.3972 -4.56809
  43 959.859 15.1419 0.829645
  44 996.330 9.63441 -2.38789
  45 1033.21 -0.438480 -6.39878
  46 1055.37 -3.05181 -7.42165
  47 1061.79 2.94478 -13.8335
  48 1098.43 0.817876 -19.5936
  49 1152.04 -6.82781 -17.8971
  50 1194.04 -7.11700 -20.8676
  51 1225.05 -9.04386 -15.2430
  52 1241.69 -14.4937 -1.41184
  53 1224.24 -18.0358 26.2658
  54 1169.26 -7.46896 41.5492
  55 1064.29 6.08094 50.5558
  56 959.216 24.5994 39.2296
  57 905.384 28.2587 19.7205
  58 895.601 29.2765 -22.0003
  59 969.724 16.5059 -37.0532
  60 1061.94 2.90256 -41.4196
  61 1170.40 -6.47005 -39.1213
  62 1224.58 -17.5170 -25.6991
  63 1241.52 -14.3950 1.39818
  64 1224.89 -9.04656 15.2058
  65 1193.92 -7.11756 20.8443
  66 1151.95 -6.82534 17.8838
  67 1098.38 0.816609 19.5816
  68 1061.76 2.94259 13.8252
  69 1055.35 -3.05206 7.41719
  70 1033.20 -0.438980 6.39604
  71 996.319 9.63056 2.38583
  72 959.853 15.1336 -0.831481
  73 913.895 24.3837 4.56515
  74 848.998 37.7446 1.31774
  75 803.051 45.2462 0.171766
  76 759.761 46.8286 -2.75035
  77 721.631 40.5890 -6.04227
  78 680.057 30.8631 -9.14101
  79 650.317 18.4552 -10.5542
  80 612.530 3.40926 -6.46151
  81 100.713 -583.766 0.0687688
  82 390.780 -200.162 133.375
  83 795.601 70.2345 306.975
  84 1198.96 181.698 388.668
  85 1576.43 155.524 416.854
  86 1928.90 39.0318 366.735
  87 2096.51 -30.7919 178.027
  88 2100.84 -29.1568 -179.540
  89 1930.63 31.4817 -366.988
  90 1574.39 157.008 -415.573
  91 1198.28 182.429 -388.028
  92 794.971 70.2499 -307.017
  93 390.628 -200.266 -133.388
  94 100.677 -584.100 -0.0891632
  95 51.3557 -632.564 -50.7515
  96 292.935 -278.180 77.1538
  97 650.875 -46.4872 188.119
  98 1126.96 102.379 279.213
  99 1605.53 121.322 294.324
  100 2012.39 32.5442 282.556
  101 2328.49 -36.9736 199.391
  102 2289.68 -41.1629 -178.986
  103 2017.15 48.5059 -277.816
  104 1606.75 118.897 -294.662
  105 1127.46 102.586 -279.928
  106 651.610 -46.0006 -188.612
  107 293.418 -277.622 -77.5331
  108 51.5929 -631.862 50.4108
  109 668.886 105.522 -23.6839
  110 668.933 105.513 23.6768
  111 922.928 -68.9592 138.323
  112 922.960 -69.1431 -138.300
  113 461.072 125.053 113.158
  114 461.172 125.054 -113.173
  115 902.069 37.5235 43.5915
  116 902.061 37.5387 -43.6090
  117 666.133 53.8130 45.3276
  118 666.142 53.7946 -45.3096
  119 1238.50 -48.7604 34.0471
  120 1238.87 -47.7054 -34.9540
  121 503.602 17.4090 168.370
  122 503.569 17.2708 -168.448
  123 1378.70 65.2726 -26.2930
  124 1373.86 61.5907 29.1964
  125 760.768 64.3234 6.94698
  126 760.745 64.3476 -6.94804
  127 946.792 18.6963 -86.3717
  128 946.803 18.6986 86.3532
  129 626.500 -11.4193 256.855
  130 626.629 -11.4154 -256.835
  131 924.658 -171.679 186.081
  132 924.784 -172.011 -186.274
  133 657.817 68.0709 -105.913
  134 657.817 68.0903 105.948
  135 1142.57 -58.8316 -11.7811
  136 1142.67 -58.5034 11.9914
  137 793.859 47.2905 100.894
  138 793.828 47.2651 -100.909
  139 233.947 37.2580 12.9422
  140 234.068 37.3770 -13.0473
  141 584.250 121.796 -60.9179
  142 584.196 121.814 60.9262
  143 1091.29 -24.9583 -60.0417
  144 1091.30 -24.9397 60.0523
  145 985.003 10.2620 18.3118
  146 985.015 10.2681 -18.3219
  147 732.944 50.5541 -182.375
  148 732.963 50.5745 182.428
  149 642.416 19.4463 24.9223
  150 642.405 19.4386 -24.9120
  151 1603.39 76.9295 4.55930
  152 797.903 61.5073 58.8170
  153 797.874 61.5185 -58.8325
  154 850.124 40.7223 17.6077
  155 850.112 40.7415 -17.6148
  156 707.814 50.2541 15.6240
  157 707.827 50.2331 -15.6170
  158 689.647 80.4643 -20.8830
  159 689.619 80.4882 20.8916
  160 1007.04 13.5733 -43.1926
  161 1007.02 13.5658 43.1713
  162 1080.53 -71.0368 -152.496
  163 1080.51 -71.1105 152.486
  164 550.218 111.471 44.8334
  165 550.156 111.439 -44.8644
  166 1166.84 -61.8163 128.891
  167 1167.29 -61.9688 -129.625
  168 540.684 -166.295 251.978
  169 540.692 -166.499 -252.084
  170 1424.40 41.8400 80.1218
  171 1427.74 48.8986 -83.5607
  172 661.027 29.4677 -58.1817
  173 661.048 29.4783 58.2047
  174 1195.22 48.4615 23.1347
  175 1199.01 10.1168 84.3902
  176 1177.33 11.6661 -81.8404
  177 1126.96 -128.678 52.4296
  178 1127.27 -129.311 -52.3991
  179 727.794 11.9687 150.443
  180 727.784 11.8683 -150.470
  181 1186.85 -40.6628 -50.9489
  182 1186.75 -42.9880 51.1363
  183 732.642 -92.6787 215.203
  184 732.667 -92.9027 -215.264
  185 739.623 80.6583 -20.8082
  186 739.656 80.6372 20.8033
  187 1697.60 88.4865 109.531
  188 1704.52 78.9772 -111.713
  189 651.211 76.2201 -63.0010
  190 651.193 76.2422 63.0233
  191 814.037 58.4174 30.8974
  192 814.015 58.4383 -30.9075
  193 938.025 -0.0859889 104.965
  194 938.005 -0.122178 -104.967
  195 1139.72 33.0130 -49.7289
  196 894.234 38.8134 67.9496
  197 894.220 38.8225 -67.9700
  198 197.202 -146.534 -161.286
  199 196.953 -146.737 161.149
  200 1320.27 -30.2527 -79.6739
  201 1320.37 -30.0024 79.5091
  202 777.256 49.3898 -1.68657
  203 777.271 49.3664 1.68632
  204 179.932 -136.878 -117.610
  205 180.006 -136.654 117.489
  206 1086.05 -2.92316 -53.2812
  207 1086.02 -2.92894 53.2585
  208 399.499 110.972 -7.03694
  209 399.407 110.925 6.98157
  210 1016.74 -16.4243 -166.335
  211 1016.86 -16.4205 166.404
  212 756.450 21.8133 -108.917
  213 756.512 21.8231 108.958
  214 692.048 -133.477 229.249
  215 691.962 -133.554 -229.410
  216 678.012 33.4731 16.7634
  217 678.015 33.4579 -16.7549
  218 622.378 91.3718 -159.511
  219 622.349 91.3974 159.551
  220 670.211 82.8595 88.1699
  221 670.168 82.8300 -88.1921
  222 906.019 28.1843 16.1387
  223 906.016 28.1985 -16.1459
  224 430.878 89.5469 181.269
  225 431.007 89.5494 -181.286
  226 991.805 -115.599 -125.349
  227 991.716 -115.281 125.382
  228 430.755 -114.040 207.795
  229 431.035 -113.878 -207.904
  230 1016.38 6.80124 -25.1055
  231 1016.36 6.79723 25.0922
  232 1186.52 -13.7955 16.8734
  233 1186.56 -13.7966 -16.8824
  234 690.038 32.1256 -78.1039
  235 690.074 32.1373 78.1318
  236 1207.60 44.5596 52.8847
  237 1664.11 21.2245 127.876
  238 1665.27 21.2821 -127.709
  239 1330.49 80.5734 253.548
  240 1329.19 83.3063 -253.831
  241 636.285 111.664 -22.6791
  242 636.240 111.683 22.6836
  243 1076.10 -61.6819 -66.2485
  244 1076.13 -61.5067 66.3548
  245 630.104 10.8945 -27.1638
  246 630.128 10.8985 27.1757
  247 1868.87 24.3911 -72.1299
  248 1075.21 5.95615 -37.0251
  249 1075.17 5.95075 37.0054
  250 718.581 66.8521 -10.8504
  251 718.559 66.8761 10.8560
  252 517.149 134.168 -44.4434
  253 517.073 134.170 44.4305
  254 1316.45 19.8762 36.1459
  255 1309.76 19.9886 -36.7500
  256 1862.05 22.1767 70.4536
  257 733.900 80.8636 65.3385
  258 733.861 80.8623 -65.3528
  259 868.799 35.0213 -93.6618
  260 868.821 35.0284 93.6444
  261 1005.50 5.68222 8.22392
  262 1005.51 5.68503 -8.22812
  263 1919.47 -37.7107 113.317
  264 1913.08 -4.39598 -101.826
  265 1324.43 71.3319 -22.2349
  266 610.102 58.9119 125.902
  267 610.066 58.8334 -125.943
  268 597.088 51.5798 -232.626
  269 597.009 51.5974 232.658
  270 957.264 20.3484 35.6687
  271 957.270 20.3588 -35.6856
  272 656.660 33.0944 -43.8434
  273 656.669 33.1066 43.8617
  274 609.702 4.84896 7.55876
  275 609.689 4.84610 -7.55459
  276 596.485 125.162 -3.75754
  277 596.428 125.167 3.75000
  278 1193.41 -26.7241 -13.0347
  279 1193.31 -27.0121 13.1327
  280 64.6445 -207.817 28.1485
  281 64.7811 -207.560 -28.2872
  282 825.862 44.0997 -6.43335
  283 825.875 44.0779 6.43086
  284 901.289 33.2227 28.9509
  285 901.284 33.2382 -28.9636
  286 1005.45 25.9992 269.687
  287 1005.02 26.1937 -270.074
  288 1174.55 -76.2688 -18.6056
  289 1174.68 -77.1136 18.7393
  290 736.266 48.5800 -3.64088
  291 736.253 48.6024 3.64304
  292 963.650 12.1413 -144.332
  293 963.787 12.1526 144.389
  294 1164.16 -4.10657 30.7674
  295 1164.24 -4.10177 -30.7922
  296 1622.30 63.5227 -243.915
  297 1620.17 63.2400 242.042
  298 672.869 -105.707 -192.875
  299 672.508 -105.972 192.678
  300 1156.45 -10.6281 63.9384
  301 1156.72 -5.97941 -63.6844
  302 660.717 57.9206 -83.1422
  303 660.721 57.9390 83.1721
  304 337.767 28.8437 111.157
  305 337.696 28.7127 -111.255
  306 680.467 47.8834 29.7329
  307 680.475 47.8644 -29.7201
  308 842.411 -4.66543 131.515
  309 842.397 -4.74627 -131.518
  310 1377.60 88.2782 8.89169
  311 614.630 94.7336 -111.329
  312 614.599 94.7559 111.359
  313 1275.28 -15.2548 -43.4189
  314 1273.79 -16.2950 42.5828
  315 793.344 52.5652 -8.74953
  316 793.361 52.5421 8.74669
  317 2038.28 -31.0872 -34.0827
  318 2144.65 -57.6348 69.4006
  319 881.934 14.8483 -117.483
  320 882.054 14.8551 117.529
  321 1361.41 38.8401 -198.903
  322 1361.11 40.0460 198.227
  323 960.056 15.8430 7.89661
  324 960.063 15.8517 -7.90159
  325 748.717 55.7273 -2.62250
  326 748.699 55.7510 2.62453
  327 705.192 40.8579 -7.62753
  328 705.184 40.8767 7.63127
  329 1010.85 -5.90679 -79.7033
  330 1010.85 -5.89655 79.6930
  331 1550.95 71.8573 14.3815
  332 870.988 33.7598 -8.39485
  333 870.996 33.7421 8.39112
  334 647.498 18.1332 11.7102
  335 647.491 18.1245 -11.7057
  336 668.840 76.6571 -40.2050
  337 668.818 76.6801 40.2202
  338 1101.89 11.5129 -59.1722
  339 989.967 -13.2903 -204.176
  340 989.632 -13.5238 203.904
  341 1060.21 6.68528 -23.7150
  342 1060.17 6.68166 23.7015
  343 1086.84 -142.999 105.785
  344 1087.16 -143.629 -106.066
  345 984.284 19.0665 62.0670
  346 984.292 19.0762 -62.0923
  347 949.267 27.1382 53.3439
  348 949.269 27.1502 -53.3664
  349 1085.64 -114.056 66.6669
  350 1085.74 -114.476 -66.5383
  351 268.278 -252.024 165.256
  352 268.257 -252.220 -165.324
  353 726.343 75.6300 2.59681
  354 726.313 75.6536 -2.59604
  355 1031.37 0.729047 11.3576
  356 1031.39 0.730746 -11.3641
  357 554.636 122.608 -118.072
  358 554.574 122.629 118.088
  359 828.873 -72.6525 -224.625
  360 828.792 -72.6963 224.659
  361 844.259 52.0701 47.3013
  362 844.239 52.0870 -47.3166
  363 1212.79 -28.8758 73.7372
  364 1211.52 -25.1015 -75.4802
  365 689.743 91.8130 1.75623
  366 689.705 91.8334 -1.75540
  367 580.446 -87.1440 -227.875
  368 580.440 -86.9426 227.791
  369 986.897 -35.5174 -100.858
  370 986.909 -35.4289 100.888
  371 1561.55 77.1666 -24.9549
  372 1194.93 -83.0946 28.7164
  373 1195.57 -83.8593 -28.8318
  374 338.806 100.057 99.2968
  375 338.939 100.099 -99.3546
  376 804.341 -45.6713 172.004
  377 804.359 -45.8338 -172.024
  378 1358.43 -38.0801 64.2090
  379 1358.14 -38.1111 -64.1938
  380 1099.52 15.5317 62.9952
  381 1041.70 33.4087 -4.26111
  382 732.380 -151.184 226.232
  383 732.422 -151.430 -226.341
  384 689.124 63.6142 28.1524
  385 689.141 63.5918 -28.1403
  386 1246.59 33.5178 -58.1394
  387 821.952 51.6860 78.7208
  388 821.924 51.6867 -78.7377
  389 1004.19 -141.724 171.877
  390 1004.30 -141.884 -172.322
  391 650.802 8.09297 -36.4286
  392 650.840 8.09638 36.4438
  393 1491.62 81.5656 57.4885
  394 1500.20 83.3253 -59.7583
  395 1203.66 -39.4125 114.343
  396 1203.45 -39.3967 -114.291
  397 886.713 -127.748 178.536
  398 886.796 -128.028 -178.584
  399 799.215 11.2961 -221.059
  400 799.212 11.3075 221.119
  401 556.039 104.145 -180.943
  402 555.969 104.173 180.969
  403 470.613 81.4794 91.7441
  404 470.555 81.3981 -91.8060
  405 1037.66 23.0912 31.0559
  406 731.769 83.5566 -36.6423
  407 731.807 83.5419 36.6334
  408 723.788 43.0421 129.178
  409 723.758 42.9788 -129.200
  410 650.127 -19.5948 -187.023
  411 650.135 -19.4428 186.972
  412 603.571 7.61906 13.5506
  413 603.552 7.61647 -13.5441
  414 780.528 70.0999 -36.6708
  415 780.557 70.0812 36.6602
  416 773.718 70.4031 20.0416
  417 773.691 70.4261 -20.0470
  418 147.176 -324.769 73.1025
  419 147.486 -324.323 -73.3700
  420 1243.06 15.9633 72.6115
  421 853.600 45.4643 31.0595
  422 853.585 45.4833 -31.0714
  423 667.186 34.3064 33.9095
  424 667.186 34.2925 -33.8952
  425 627.616 103.125 64.3089
  426 627.650 103.102 -64.2910
  427 658.067 48.5679 -62.9191
  428 658.067 48.5846 62.9439
  429 1024.51 6.50441 -67.3224
  430 1024.50 6.49688 67.2974
  431 680.279 64.3457 -135.226
  432 680.290 64.3643 135.267
  433 386.255 -78.9323 -201.697
  434 386.280 -78.7321 201.593
  435 1524.03 -6.80520 36.6297
  436 1524.36 -7.48864 -36.5063
  437 1875.82 6.72279 226.029
  438 1881.35 1.79289 -225.853
  439 635.074 103.151 42.9904
  440 635.022 103.143 -43.0066
  441 26.8173 -459.871 -60.5729
  442 26.8627 -459.538 60.4903
  443 1137.89 -43.0610 32.3549
  444 1137.82 -43.1198 -32.2814
  445 1194.19 -12.2718 42.2342
  446 1194.00 -11.6185 -41.3337
  447 46.0061 -460.776 28.2822
  448 46.1947 -460.327 -28.5010
  449 1031.80 -145.579 -114.819
  450 1031.61 -145.141 114.770
  451 1144.03 -0.552157 -25.2959
  452 1143.96 -0.553926 25.2778
  453 1078.03 8.88073 -62.4013
  454 1173.34 -53.1943 -27.7843
  455 1172.99 -53.9321 28.2013
  456 878.470 22.7753 -103.103
  457 878.492 22.7972 103.093
  458 747.999 10.8637 -57.3764
  459 748.083 10.8663 57.3987
  460 258.145 24.2592 137.800
  461 258.316 24.3441 -137.889
  462 1015.50 -81.6543 102.163
  463 1015.54 -81.8755 -102.089
  464 941.803 24.6304 21.2526
  465 941.807 24.6425 -21.2634
  466 656.324 93.1778 -35.8458
  467 656.291 93.2011 35.8579
  468 1022.31 3.96801 3.33106
  469 1022.33 3.96912 -3.33251
  470 807.621 56.3423 -19.8997
  471 807.640 56.3198 19.8929
  472 580.479 -0.0543445 1.95777
  473 580.465 -0.0553770 -1.95632
  474 638.956 81.1872 -90.1108
  475 638.938 81.2081 90.1390
  476 426.455 -6.31830 -222.854
  477 426.269 -6.37082 222.812
  478 997.604 4.79284 -34.1893
  479 23.5135 -126.301 0.456611
  480 4.76668 -66.9260 -2.36472
  481 4.45088 -55.5460 3.81468
  482 3.48580 -111.715 4.80070
  483 2.29245 -116.076 -14.9145
  484 1.70164 -107.710 -7.10186
  485 2.97952 -102.517 17.7447
  486 3.45470 -61.4242 9.60485
  487 0.511644 -45.6897 -12.0521
  488 -10.1403 -130.045 -0.697185
  489 -15.2496 -149.449 1.61842
  490 -2.07799 -12.4211 -1.25271
  491 1.33265 -53.4955 -8.90015
  492 -2.54069 -36.1574 10.6787
  493 18.8803 -111.630 -2.03871
  494 -2.32479 -8.88132 0.767715
  495 15.4058 -100.227 1.61165
  496 -1.18809 -18.0697 1.06518
  497 -0.862817 -11.9318 -0.846848
  498 16.9705 -126.595 0.298127
  499 20.6223 -133.102 -1.58258
  500 -0.943492 -13.2279 -2.55293
  501 -6.42538 -90.7448 9.60826
  502 -6.72109 -80.3903 -23.2675
  503 -21.6977 -121.346 -3.07479
  504 -24.2020 -134.356 11.2112
  505 -17.3291 -126.537 0.533233
  506 -21.5601 -143.732 -5.79073
  507 -3.13256 -73.2596 -9.66220
  508 -4.27907 -56.6777 18.9434
  509 10.1682 -89.4050 3.80654
  510 7.65921 -84.1900 -12.5065
  511 -1.41176 -7.90785 0.781725
  512 8.56711 -83.9713 9.83340
  513 18.4320 -114.949 8.41026
  514 17.4438 -116.608 -0.945755
  515 9.46236 -72.7589 -2.75730
  516 0.268528 -40.4903 -5.93501
  517 0.529916 -24.5081 5.24572
  518 -1.57725 1.74482 -1.53498
  519 11.3580 -134.680 5.67664
  520 2.18749 -46.2282 4.00695
  521 -0.220111 -55.8924 10.5093
  522 -2.54021 -38.5401 -13.5526
  523 17.8837 -119.353 -7.41508
  524 -1.39641 -32.0167 4.38958
  525 -1.84726 0.116655 1.54208
  526 -37.2900 -129.554 -0.132855
  527 -51.1769 -154.087 1.93942
  528 -1.30780 2.39494 0.454170
  529 -0.939643 -15.3697 -1.49459
  530 1.17890 -36.6682 -3.28538
  531 0.549361 -15.2832 -4.51172
  532 6.58576 -124.544 -2.14155
  533 17.2180 -120.252 1.71252
  534 1.58624 -9.14131 1.36494
  535 1.22369 -84.5787 11.1424
  536 -2.44922 -77.8134 -21.2603
  537 7.64801 -125.132 1.28786
  538 9.66695 -138.211 -4.36164
  539 0.129126 -32.7327 -6.46440
  540 -1.80870 -34.6060 -1.16342
  541 -2.17638 3.56513 0.131625
  542 0.648769 -69.2580 17.0835
  543 -1.47217 2.46983 -2.10493
  544 23.0820 -125.195 -1.41720
  545 15.7983 -96.4383 -5.21595
  546 4.90441 -84.0623 -8.69666
  547 -37.9835 -130.629 1.00694
  548 -52.5391 -155.067 -2.60796
  549 -31.8101 -115.401 7.42811
  550 -31.5067 -121.040 -18.4024
  551 -0.579270 -3.11712 -1.24691
  552 -20.0789 -100.730 -9.05991
  553 -14.8664 -94.8868 23.0487
  554 -1.64608 -28.2343 0.799899
  555 -1.48573 -22.4561 8.78590
  556 10.6181 -79.4939 3.06887
  557 22.7842 -120.254 2.96054
  558 12.2332 -99.0801 -3.73953
  559 -2.21655 5.04766 -0.743842
  560 -1.54392 0.967575 1.27284
  561 3.16345 -52.5479 10.1752
  562 22.0543 -130.185 2.92993
  563 -1.18329 9.59054 -0.501895
  564 -55.4854 -130.580 1.52813
  565 -1.43584 8.01689 0.0249506
  566 -79.2596 -155.775 -1.66578
  567 -0.777466 8.99915 2.95749
  568 0.109388 7.57739 5.14449
  569 3.29915 -0.982694 2.49796
  570 3.86453 -21.3995 -5.16566
  571 -18.3043 -73.0840 -11.7600
  572 -39.8855 -113.696 -8.90394
  573 -54.8086 -128.447 -1.72885
  574 -52.2617 -125.655 2.51022
  575 -57.8322 -117.578 7.84952
  576 -15.3420 -79.8447 8.89388
  577 1.85157 -25.3397 6.68357
  578 3.96748 -1.09742 -4.72343
  579 1.87367 5.27316 -5.07075
  580 -0.695811 9.31640 -3.51661
  581 -0.504351 8.19807 2.92954
  582 0.717805 4.82655 4.51716
  583 3.89299 -2.85248 2.54909
  584 4.59782 -11.0218 -1.53395
  585 -8.53206 -61.1623 -17.0313
  586 -58.7409 -123.925 -15.5039
  587 -67.2761 -144.756 -7.10153
  588 -72.6226 -150.045 6.35014
  589 -36.5258 -118.996 19.1112
  590 -10.1071 -51.3216 19.1342
  591 5.42612 -8.44035 1.22223
  592 5.22313 -0.566013 -4.23211
  593 0.886506 5.76908 -5.20339
  594 -0.602290 9.30344 -3.17829
</Section>

newXOutput 36

<Section columns = "stress_xx | stress_yy | stress_xy">
  1 578.166 5.45849 -5.65165
  2 578.181 5.45967 5.65286
  3 1058.49 0.280144 -0.00551302
  4 1058.48 0.278998 0.00432671
  5 -0.0233913 -743.707 25.9452
  6 2150.69 -10.7613 -1.38679
  7 -0.137782 -744.268 -26.1038
  8 2456.55 -56.3823 -16.2973
  9 588.179 3.08194 -2.78642
  10 603.838 6.00057 -9.45899
  11 637.692 8.58147 -22.7113
  12 695.003 5.51265 -42.0772
  13 776.494 5.37045 -44.5060
  14 875.403 13.8989 -73.0500
  15 1040.20 2.87120 -93.7255
  16 1221.94 -4.42642 -98.0787
  17 1461.47 -33.3631 -53.9932
  18 1543.65 -30.2344 -25.6527
  19 1608.74 -3.47797 6.69923
  20 1689.46 21.4786 -7.50700
  21 1771.42 34.0307 -17.8698
  22 1839.67 -18.3934 -2.92059
  23 1688.29 14.6405 3.83179
  24 1609.60 -2.97038 -5.56780
  25 1544.06 -29.9594 25.8052
  26 1461.88 -33.3779 54.0307
  27 1222.20 -4.42485 98.1283
  28 1040.40 2.87397 93.7669
  29 875.535 13.9029 73.0780
  30 776.599 5.36901 44.5239
  31 695.065 5.51278 42.0948
  32 637.733 8.58404 22.7212
  33 603.863 6.00216 9.46518
  34 588.196 3.08328 2.78926
  35 626.424 3.42922 6.61960
  36 665.383 18.8413 10.8423
  37 696.111 31.5159 9.35415
  38 739.011 41.4168 6.19949
  39 778.242 47.8021 2.82984
  40 822.677 46.1919 -0.155136
  41 869.764 38.5410 -1.32295
  42 936.147 24.8782 -4.64455
  43 983.138 15.4419 0.901114
  44 1020.43 9.85559 -2.41949
  45 1058.13 -0.468675 -6.54318
  46 1080.74 -3.15581 -7.56412
  47 1087.28 3.01395 -14.1145
  48 1124.76 0.836791 -20.0491
  49 1179.60 -7.02232 -18.3401
  50 1222.71 -7.32030 -21.4337
  51 1254.73 -9.29293 -15.7487
  52 1272.10 -14.9293 -1.65161
  53 1254.63 -18.6115 26.7639
  54 1198.53 -7.75108 42.4701
  55 1091.11 6.27917 51.8334
  56 983.427 25.4123 40.2710
  57 928.209 29.2170 20.3096
  58 918.192 30.1947 -22.5916
  59 994.194 17.0108 -37.9936
  60 1088.71 2.96251 -42.4458
  61 1199.70 -6.72719 -39.9884
  62 1254.98 -18.0781 -26.1860
  63 1271.93 -14.8292 1.63584
  64 1254.57 -9.29596 15.7101
  65 1222.58 -7.32091 21.4096
  66 1179.51 -7.01979 18.3264
  67 1124.71 0.835480 20.0366
  68 1087.25 3.01170 14.1059
  69 1080.72 -3.15608 7.55955
  70 1058.11 -0.469186 6.54038
  71 1020.42 9.85165 2.41738
  72 983.131 15.4334 -0.903004
  73 936.148 24.8644 4.64152
  74 869.775 38.5214 1.32137
  75 822.692 46.1689 0.154385
  76 778.257 47.7788 -2.82929
  77 739.022 41.3965 -6.19790
  78 696.113 31.5015 -9.35074
  79 665.377 18.8322 -10.8402
  80 626.413 3.42508 -6.61742
  81 102.880 -600.509 -0.306233
  82 399.806 -206.304 136.273
  83 813.830 71.3372 314.043
  84 1226.19 185.943 397.679
  85 1611.79 159.132 426.558
  86 1970.93 39.3388 375.269
  87 2142.32 -32.4209 182.215
  88 2146.71 -30.6932 -183.772
  89 1972.67 31.5374 -375.535
  90 1609.69 160.669 -425.238
  91 1225.48 186.694 -397.029
  92 813.185 71.3529 -314.087
  93 399.652 -206.412 -136.288
  94 102.844 -600.855 0.284834
  95 52.5837 -650.075 -52.1143
  96 299.827 -285.824 78.9677
  97 665.861 -48.0878 192.414
  98 1152.41 104.824 285.670
  99 1641.49 124.662 301.397
  100 2056.90 33.0887 289.679
  101 2378.75 -39.0861 204.276
  102 2339.75 -43.2515 -183.464
  103 2061.73 49.4732 -284.873
  104 1642.73 122.143 -301.758
  105 1152.91 105.036 -286.401
  106 666.610 -47.5875 -192.920
  107 300.321 -285.249 -79.3568
  108 52.8269 -649.350 51.7640
  109 685.402 108.357 -24.1386
  110 685.449 108.347 24.1316
  111 945.029 -70.3211 141.960
  112 945.060 -70.5091 -141.936
  113 472.426 128.587 116.139
  114 472.529 128.589 -116.154
  115 924.071 38.4779 44.5599
  116 924.063 38.4938 -44.5780
  117 681.945 55.0608 46.3246
  118 681.955 55.0419 -46.3062
  119 1268.51 -50.1907 34.5122
  120 1268.88 -49.0930 -35.4457
  121 515.917 18.4662 172.283
  122 515.884 18.3239 -172.361
  123 1412.80 66.8287 -26.5811
  124 1407.85 63.0568 29.5543
  125 779.407 65.8079 7.08687
  126 779.383 65.8329 -7.08794
  127 969.751 19.4334 -88.5258
  128 969.762 19.4352 88.5063
  129 641.422 -11.2062 263.520
  130 641.553 -11.2017 -263.500
  131 946.543 -176.258 190.896
  132 946.671 -176.603 -191.092
  133 673.183 69.7776 -108.371
  134 673.183 69.7974 108.406
  135 1170.31 -60.2672 -12.4854
  136 1170.40 -59.9325 12.7009
  137 813.221 48.8747 103.272
  138 813.189 48.8493 -103.286
  139 239.925 38.9031 13.5945
  140 240.049 39.0255 -13.7018
  141 598.547 124.991 -62.4685
  142 598.492 125.010 62.4774
  143 1117.73 -25.4269 -61.8175
  144 1117.73 -25.4087 61.8273
  145 1008.85 10.4792 18.6925
  146 1008.86 10.4854 -18.7029
  147 749.941 51.9322 -186.853
  148 749.961 51.9528 186.907
  149 657.162 19.8761 25.4576
  150 657.150 19.8682 -25.4471
  151 1642.40 78.4817 4.69823
  152 817.489 63.2115 60.1437
  153 817.458 63.2233 -60.1596
  154 870.932 41.6145 17.9818
  155 870.920 41.6343 -17.9892
  156 724.874 51.3421 15.9624
  157 724.888 51.3205 -15.9553
  158 706.453 82.4008 -21.3751
  159 706.424 82.4255 21.3840
  160 1031.39 13.9595 -44.1901
  161 1031.37 13.9517 44.1682
  162 1106.07 -72.6183 -156.680
  163 1106.05 -72.6957 156.670
  164 563.884 114.720 45.6895
  165 563.820 114.688 -45.7207
  166 1194.36 -63.5646 132.332
  167 1194.83 -63.7270 -133.086
  168 553.508 -170.593 258.225
  169 553.517 -170.805 -258.332
  170 1458.30 42.8497 82.6667
  171 1461.72 50.1351 -86.1938
  172 676.132 30.1522 -59.4668
  173 676.154 30.1631 59.4904
  174 1225.36 49.6182 23.7174
  175 1228.74 10.2759 86.2940
  176 1206.61 11.9085 -83.7252
  177 1153.90 -132.177 54.1232
  178 1154.21 -132.833 -54.0904
  179 745.399 12.8515 154.037
  180 745.387 12.7489 -154.064
  181 1216.07 -41.8763 -51.9366
  182 1215.96 -44.2690 52.1280
  183 750.113 -94.6442 220.554
  184 750.137 -94.8750 -220.616
  185 757.821 82.6861 -21.2355
  186 757.855 82.6642 21.2306
  187 1737.81 90.3392 112.653
  188 1744.85 80.5219 -114.920
  189 666.757 78.0786 -64.4354
  190 666.738 78.1012 64.4584
  191 834.012 59.8391 31.5605
  192 833.989 59.8607 -31.5709
  193 960.717 0.281152 107.659
  194 960.696 0.244860 -107.661
  195 1168.42 33.8589 -50.9519
  196 916.031 39.9475 69.5497
  197 916.017 39.9572 -69.5707
  198 202.050 -149.743 -165.759
  199 201.796 -149.952 165.619
  200 1351.54 -30.7820 -82.0962
  201 1351.64 -30.5259 81.9257
  202 796.242 50.4159 -1.72143
  203 796.258 50.3918 1.72117
  204 184.416 -139.923 -120.365
  205 184.491 -139.692 120.240
  206 1112.30 -2.88489 -54.7211
  207 1112.26 -2.89107 54.6974
  208 409.532 114.297 -7.50841
  209 409.437 114.248 7.45227
  210 1040.42 -16.6698 -170.592
  211 1040.54 -16.6663 170.662
  212 773.594 22.3275 -111.452
  213 773.658 22.3375 111.494
  214 708.297 -137.281 234.896
  215 708.210 -137.362 -235.061
  216 694.023 34.1691 17.0923
  217 694.025 34.1535 -17.0835
  218 637.106 93.7818 -163.396
  219 637.077 93.8079 163.437
  220 686.701 85.3806 90.1366
  221 686.656 85.3509 -90.1590
  222 928.110 28.7873 16.4815
  223 928.107 28.8019 -16.4889
  224 441.369 92.2874 185.988
  225 441.500 92.2902 -186.005
  226 1015.48 -118.364 -128.790
  227 1015.39 -118.038 128.824
  228 441.102 -116.533 213.314
  229 441.387 -116.366 -213.425
  230 1040.90 6.97386 -25.6517
  231 1040.88 6.96973 25.6380
  232 1215.43 -14.0606 17.5264
  233 1215.47 -14.0609 -17.5366
  234 705.710 32.9027 -79.8943
  235 705.747 32.9146 79.9229
  236 1237.86 45.6825 54.0719
  237 1703.33 21.8718 131.643
  238 1704.52 21.9021 -131.470
  239 1361.46 82.6241 259.890
  240 1360.13 85.4424 -260.181
  241 651.913 114.551 -23.2887
  242 651.866 114.571 23.2936
  243 1102.08 -63.0733 -68.2749
  244 1102.11 -62.8949 68.3829
  245 644.272 11.1384 -27.7383
  246 644.296 11.1425 27.7505
  247 1912.20 24.4479 -74.0365
  248 1101.10 6.17031 -37.9302
  249 1101.06 6.16468 37.9098
  250 736.083 68.3933 -11.0992
  251 736.060 68.4180 11.1049
  252 529.956 137.851 -45.7095
  253 529.879 137.852 45.6969
  254 1348.59 20.2865 36.6205
  255 1341.76 20.3933 -37.2401
  256 1905.29 22.1294 72.3202
  257 751.946 83.1625 66.7902
  258 751.906 83.1615 -66.8047
  259 889.960 36.2210 -95.9269
  260 889.983 36.2277 95.9088
  261 1029.79 5.80188 8.39803
  262 1029.81 5.80476 -8.40234
  263 1964.84 -39.0579 116.663
  264 1958.39 -4.90268 -104.924
  265 1357.54 73.0712 -22.6860
  266 625.051 60.9783 128.768
  267 625.014 60.8979 -128.809
  268 611.260 53.2228 -238.562
  269 611.179 53.2405 238.596
  270 980.502 20.8307 36.4537
  271 980.508 20.8414 -36.4711
  272 671.849 33.8492 -44.7841
  273 671.858 33.8618 44.8028
  274 623.460 4.93182 7.69627
  275 623.447 4.92890 -7.69199
  276 611.248 128.543 -3.99795
  277 611.189 128.548 3.99063
  278 1222.72 -27.4007 -13.0668
  279 1222.62 -27.6938 13.1656
  280 66.3240 -212.597 29.1684
  281 66.4639 -212.332 -29.3105
  282 846.076 45.0126 -6.56859
  283 846.089 44.9903 6.56602
  284 923.282 33.9851 29.5725
  285 923.277 34.0011 -29.5856
  286 1028.81 26.4309 276.272
  287 1028.37 26.6278 -276.672
  288 1203.04 -78.3740 -18.6931
  289 1203.17 -79.2460 18.8324
  290 754.110 49.5907 -3.71314
  291 754.096 49.6138 3.71536
  292 985.671 12.5250 -147.868
  293 985.812 12.5364 147.927
  294 1192.31 -4.13388 31.6670
  295 1192.39 -4.12872 -31.6929
  296 1659.82 64.8503 -250.156
  297 1657.65 64.5754 248.240
  298 688.839 -108.383 -197.828
  299 688.472 -108.655 197.627
  300 1185.26 -10.9936 65.3995
  301 1185.56 -6.20294 -65.1551
  302 676.110 59.3242 -85.0243
  303 676.115 59.3430 85.0550
  304 346.201 30.2039 113.620
  305 346.128 30.0689 -113.720
  306 696.667 48.9432 30.3702
  307 696.676 48.9237 -30.3570
  308 862.760 -4.29903 134.795
  309 862.746 -4.38112 -134.799
  310 1411.94 90.5123 8.92876
  311 629.301 97.1667 -113.999
  312 629.270 97.1895 114.029
  313 1305.82 -15.7050 -44.9343
  314 1304.30 -16.7733 44.0722
  315 812.776 53.7156 -8.93130
  316 812.795 53.6918 8.92839
  317 2086.70 -32.3484 -35.0591
  318 2194.04 -59.8119 71.2772
  319 901.809 15.2326 -120.268
  320 901.933 15.2394 120.314
  321 1393.16 39.9581 -204.066
  322 1392.86 41.2059 203.372
  323 983.342 16.1669 8.04169
  324 983.349 16.1758 -8.04680
  325 766.976 56.9389 -2.68260
  326 766.957 56.9633 2.68470
  327 722.085 41.7000 -7.78252
  328 722.077 41.7193 7.78637
  329 1035.31 -5.80987 -81.8292
  330 1035.31 -5.80006 81.8180
  331 1588.81 73.2718 15.0680
  332 892.272 34.4449 -8.56885
  333 892.280 34.4268 8.56503
  334 662.470 18.5006 11.9698
  335 662.464 18.4917 -11.9652
  336 684.970 78.5000 -41.1194
  337 684.947 78.5236 41.1351
  338 1129.56 11.7232 -60.5983
  339 1013.20 -13.6303 -209.377
  340 1012.86 -13.8712 209.099
  341 1085.70 6.88347 -24.2413
  342 1085.66 6.87973 24.2274
  343 1112.63 -146.918 108.693
  344 1112.96 -147.572 -108.980
  345 1008.13 19.6753 63.5667
  346 1008.14 19.6854 -63.5929
  347 972.335 27.8891 54.5791
  348 972.337 27.9016 -54.6023
  349 1111.71 -117.012 68.7403
  350 1111.82 -117.445 -68.6074
  351 274.610 -258.833 169.293
  352 274.589 -259.036 -169.364
  353 744.160 77.4531 2.62459
  354 744.130 77.4774 -2.62373
  355 1056.22 0.719475 11.5857
  356 1056.24 0.721224 -11.5924
  357 568.086 125.885 -121.032
  358 568.022 125.907 121.048
  359 848.497 -74.1514 -230.516
  360 848.416 -74.1971 230.550
  361 864.938 53.4199 48.3620
  362 864.918 53.4375 -48.3777
  363 1242.51 -29.7879 75.2950
  364 1241.23 -25.8890 -77.0893
  365 706.704 94.1360 1.74417
  366 706.665 94.1571 -1.74317
  367 594.316 -88.9783 -233.449
  368 594.310 -88.7701 233.363
  369 1010.68 -36.0761 -103.588
  370 1010.70 -35.9864 103.619
  371 1599.60 78.7838 -25.9780
  372 1223.51 -85.3924 29.7820
  373 1224.16 -86.1892 -29.9013
  374 347.303 103.156 102.054
  375 347.439 103.200 -102.113
  376 823.620 -46.3305 176.277
  377 823.637 -46.4970 -176.296
  378 1390.27 -38.8043 66.1678
  379 1389.97 -38.8346 -66.1536
  380 1127.09 15.9104 64.5075
  381 1068.02 34.3163 -4.34956
  382 749.711 -154.931 231.925
  383 749.754 -155.186 -232.035
  384 705.732 65.0759 28.7687
  385 705.749 65.0529 -28.7562
  386 1277.70 34.2663 -59.3653
  387 842.047 53.2402 80.5469
  388 842.018 53.2413 -80.5643
  389 1027.81 -145.666 176.290
  390 1027.93 -145.835 -176.746
  391 665.320 8.26165 -37.2192
  392 665.359 8.26514 37.2348
  393 1527.71 83.6284 59.5209
  394 1536.48 85.3995 -61.8690
  395 1231.74 -40.2239 117.403
  396 1231.53 -40.2070 -117.351
  397 907.765 -130.821 183.134
  398 907.849 -131.110 -183.182
  399 817.949 11.8829 -226.665
  400 817.947 11.8942 226.726
  401 569.359 107.015 -185.483
  402 569.288 107.043 185.510
  403 482.313 84.1391 93.7030
  404 482.253 84.0556 -93.7658
  405 1063.83 23.6932 31.8140
  406 749.805 85.7597 -37.4208
  407 749.844 85.7444 37.4118
  408 741.433 44.6587 132.220
  409 741.401 44.5943 -132.242
  410 665.816 -19.5183 -191.521
  411 665.824 -19.3622 191.469
  412 617.053 7.79782 13.8246
  413 617.033 7.79516 -13.8179
  414 799.722 71.9068 -37.4680
  415 799.753 71.8873 37.4572
  416 792.718 72.1103 20.4624
  417 792.691 72.1340 -20.4679
  418 150.770 -333.133 75.1657
  419 151.088 -332.673 -75.4399
  420 1273.93 16.1489 74.2249
  421 874.496 46.5492 31.7283
  422 874.481 46.5689 -31.7405
  423 682.851 35.0500 34.6341
  424 682.851 35.0357 -34.6194
  425 642.791 105.745 65.8462
  426 642.826 105.721 -65.8276
  427 673.472 49.7031 -64.3041
  428 673.472 49.7201 64.3295
  429 1049.29 6.82975 -69.0389
  430 1049.27 6.82172 69.0129
  431 696.063 65.9929 -138.441
  432 696.074 66.0119 138.483
  433 395.630 -80.4757 -206.533
  434 395.656 -80.2688 206.427
  435 1560.25 -6.93000 38.0642
  436 1560.58 -7.63421 -37.9401
  437 1918.30 6.32980 231.603
  438 1923.91 1.24913 -231.434
  439 650.795 106.056 43.8539
  440 650.742 106.048 -43.8701
  441 27.3425 -472.264 -61.9647
  442 27.3891 -471.920 61.8797
  443 1165.58 -44.0748 33.5505
  444 1165.51 -44.1335 -33.4766
  445 1223.86 -12.6141 43.1173
  446 1223.66 -11.9410 -42.1965
  447 47.1948 -472.794 29.2547
  448 47.3880 -472.331 -29.4793
  449 1056.33 -149.337 -117.963
  450 1056.14 -148.885 117.916
  451 1171.54 -0.521850 -25.9519
  452 1171.46 -0.523725 25.9332
  453 1105.11 9.11565 -63.9591
  454 1202.02 -54.6524 -28.1084
  455 1201.65 -55.4066 28.5366
  456 899.767 23.7289 -105.638
  457 899.790 23.7507 105.628
  458 764.562 11.1514 -58.6738
  459 764.648 11.1540 58.6966
  460 264.613 25.5700 141.558
  461 264.788 25.6573 -141.649
  462 1039.88 -83.4798 105.034
  463 1039.92 -83.7058 -104.958
  464 964.699 25.1752 21.6933
  465 964.703 25.1877 -21.7044
  466 672.299 95.4924 -36.6996
  467 672.265 95.5164 36.7122
  468 1047.00 4.06690 3.40516
  469 1047.01 4.06803 -3.40665
  470 827.426 57.6516 -20.3180
  471 827.447 57.6284 20.3110
  472 593.400 -0.0801505 1.98782
  473 593.386 -0.0812072 -1.98632
  474 654.124 83.2242 -92.2110
  475 654.106 83.2456 92.2400
  476 436.770 -5.93626 -228.712
  477 436.581 -5.99045 228.670
  478 1022.78 4.79074 -35.0914
  479 24.2083 -129.895 0.465610
  480 4.83980 -68.6843 -2.43990
  481 4.51975 -56.9702 3.93026
  482 3.56099 -114.818 4.99113
  483 2.32400 -119.305 -15.4187
  484 1.72889 -110.664 -7.37055
  485 3.03315 -105.296 18.3314
  486 3.52192 -62.9495 9.85626
  487 0.496749 -46.7620 -12.3747
  488 -10.4959 -133.829 -0.725169
  489 -15.7791 -153.847 1.67376
  490 -2.15931 -12.6711 -1.28217
  491 1.32740 -54.8158 -9.12340
  492 -2.64943 -36.9718 10.9424
  493 19.4092 -114.745 -2.09883
  494 -2.41129 -9.04217 0.782309
  495 15.8146 -102.980 1.65593
  496 -1.24459 -18.4663 1.06851
  497 -0.910247 -12.1718 -0.851561
  498 17.4732 -130.223 0.305735
  499 21.2370 -136.917 -1.63857
  500 -0.980813 -13.4964 -2.58782
  501 -6.57145 -93.0774 9.94016
  502 -6.87559 -82.3966 -24.0137
  503 -22.3865 -124.795 -3.16854
  504 -24.9777 -138.194 11.5567
  505 -17.9179 -130.180 0.551522
  506 -22.2882 -147.905 -5.97319
  507 -3.20962 -75.0474 -9.95470
  508 -4.39132 -57.9480 19.5112
  509 10.4194 -91.8165 3.93268
  510 7.82531 -86.4426 -12.9010
  511 -1.45754 -8.03758 0.765860
  512 8.75670 -86.2144 10.1421
  513 18.9542 -118.165 8.68872
  514 17.9485 -119.883 -1.00052
  515 9.68280 -74.6680 -2.83855
  516 0.229855 -41.4776 -6.09886
  517 0.545619 -25.0646 5.33332
  518 -1.62658 1.84964 -1.59084
  519 11.6872 -138.554 5.87480
  520 2.20135 -47.3767 4.09976
  521 -0.194307 -57.1851 10.7601
  522 -2.58322 -39.3000 -13.8917
  523 18.3922 -122.717 -7.66435
  524 -1.47614 -32.7739 4.50033
  525 -1.90149 0.185502 1.60125
  526 -38.6750 -133.319 -0.114372
  527 -53.0176 -158.614 1.97650
  528 -1.35263 2.51695 0.475932
  529 -0.965496 -15.6936 -1.49477
  530 1.17105 -37.5601 -3.35914
  531 0.576603 -15.5606 -4.55999
  532 6.77547 -128.106 -2.24827
  533 17.7134 -123.651 1.78711
  534 1.65578 -9.27566 1.32022
  535 1.21576 -86.7853 11.4941
  536 -2.57425 -79.8064 -21.9224
  537 7.86925 -128.717 1.35773
  538 9.94808 -142.210 -4.52157
  539 0.170532 -33.4321 -6.56888
  540 -1.90377 -35.4351 -1.20411
  541 -2.24429 3.71585 0.139925
  542 0.605212 -71.0109 17.5969
  543 -1.51440 2.59665 -2.17961
  544 23.7613 -128.750 -1.46198
  545 16.2187 -99.0686 -5.37959
  546 5.00133 -86.2589 -8.97193
  547 -39.3994 -134.439 1.02769
  548 -54.4318 -159.640 -2.67789
  549 -32.6789 -118.583 7.63507
  550 -32.3670 -124.378 -18.9450
  551 -0.592442 -3.13521 -1.31777
  552 -20.5233 -103.388 -9.33837
  553 -15.1553 -97.3437 23.7503
  554 -1.72886 -28.8998 0.826737
  555 -1.46996 -22.7799 8.93236
  556 10.8703 -81.6041 3.16294
  557 23.4444 -123.644 3.05096
  558 12.5526 -101.777 -3.88212
  559 -2.28415 5.23473 -0.769447
  560 -1.58629 1.05304 1.32990
  561 3.18881 -53.8571 10.4671
  562 22.7004 -133.903 3.02709
  563 -1.21944 9.88851 -0.512911
  564 -57.6187 -134.353 1.59302
  565 -1.47882 8.27667 0.0228149
  566 -82.1544 -160.329 -1.73068
  567 -0.797171 9.28449 3.05032
  568 0.120854 7.82424 5.31030
  569 3.42031 -0.951962 2.62548
  570 4.06953 -21.8220 -5.18078
  571 -18.6167 -74.8030 -12.0442
  572 -40.9057 -116.813 -9.08832
  573 -56.7620 -132.150 -1.71393
  574 -54.0693 -129.287 2.53602
  575 -59.4022 -120.819 7.96248
  576 -15.5802 -81.7647 9.10392
  577 1.97892 -25.8462 6.75854
  578 4.09923 -1.05870 -4.90035
  579 1.93471 5.46870 -5.23423
  580 -0.712912 9.60683 -3.62214
  581 -0.520249 8.46583 3.01908
  582 0.739052 5.01113 4.66563
  583 4.03242 -2.84432 2.67864
  584 4.79117 -11.1016 -1.45266
  585 -8.55968 -62.4979 -17.4826
  586 -60.3311 -127.332 -15.8488
  587 -69.5627 -148.975 -7.27085
  588 -75.1419 -154.409 6.48211
  589 -37.4350 -122.253 19.6068
  590 -10.1663 -52.3645 19.6334
  591 5.66493 -8.51463 1.12974
  592 5.39992 -0.516347 -4.40204
  593 0.915108 5.97233 -5.36851
  594 -0.618972 9.59616 -3.27423
</Section>

newXOutput 37

<Section columns = "stress_xx | stress_yy | stress_xy">
  1 590.458 5.60366 -5.80214
  2 590.474 5.60487 5.80337
  3 1083.17 0.263366 0.0197897
  4 1083.16 0.262190 -0.0210071
  5 -0.195729 -763.696 26.4156
  6 2196.77 -11.7694 -1.40819
  7 -0.311074 -764.265 -26.5747
  8 2507.42 -59.2221 -16.5131
  9 600.699 3.14888 -2.80719
  10 616.675 6.15049 -9.61165
  11 651.178 8.79063 -23.1775
  12 709.750 5.65860 -42.9636
  13 792.821 5.54678 -45.4510
  14 894.083 14.2600 -74.6770
  15 1062.60 2.95042 -95.8576
  16 1248.82 -4.51355 -100.455
  17 1493.96 -34.1460 -55.4580
  18 1578.75 -30.9664 -26.7610
  19 1646.45 -3.43691 6.08957
  20 1730.35 21.9917 -8.53370
  21 1815.48 34.7069 -18.7309
  22 1884.69 -18.9873 -2.70489
  23 1729.22 15.0945 4.89056
  24 1647.31 -2.89876 -4.92450
  25 1579.15 -30.6829 26.9121
  26 1494.37 -34.1618 55.4931
  27 1249.08 -4.51258 100.503
  28 1062.80 2.95296 95.8987
  29 894.217 14.2639 74.7050
  30 792.927 5.54530 45.4690
  31 709.813 5.65869 42.9815
  32 651.220 8.79323 23.1876
  33 616.700 6.15210 9.61794
  34 600.716 3.15025 2.81009
  35 640.115 3.44143 6.77405
  36 680.252 19.2111 11.1273
  37 711.980 32.1426 9.56127
  38 756.218 42.2072 6.35407
  39 796.552 48.7331 2.90863
  40 842.126 47.0962 -0.136800
  41 890.339 39.3027 -1.32501
  42 958.180 25.3481 -4.71825
  43 1006.18 15.7350 0.974833
  44 1044.29 10.0738 -2.44925
  45 1082.79 -0.499650 -6.68555
  46 1105.85 -3.26051 -7.70305
  47 1112.51 3.08212 -14.3894
  48 1150.80 0.855243 -20.4983
  49 1206.86 -7.21652 -18.7784
  50 1251.06 -7.52338 -21.9963
  51 1284.11 -9.54129 -16.2561
  52 1302.22 -15.3656 -1.90040
  53 1284.76 -19.1898 27.2480
  54 1227.56 -8.03682 43.3747
  55 1117.71 6.47823 53.0992
  56 1007.45 26.2296 41.3062
  57 950.858 30.1826 20.9004
  58 940.604 31.1160 -23.1780
  59 1018.47 17.5174 -38.9243
  60 1115.27 3.02164 -43.4615
  61 1228.73 -6.98753 -40.8418
  62 1285.10 -18.6414 -26.6604
  63 1302.04 -15.2645 1.88125
  64 1283.94 -9.54494 16.2153
  65 1250.94 -7.52418 21.9712
  66 1206.77 -7.21402 18.7640
  67 1150.75 0.853848 20.4854
  68 1112.47 3.07978 14.3806
  69 1105.82 -3.26080 7.69837
  70 1082.77 -0.500175 6.68270
  71 1044.28 10.0698 2.44709
  72 1006.18 15.7263 -0.976778
  73 958.180 25.3340 4.71516
  74 890.349 39.2827 1.32340
  75 842.140 47.0726 0.136037
  76 796.566 48.7094 -2.90807
  77 756.229 42.1865 -6.35244
  78 711.982 32.1279 -9.55778
  79 680.246 19.2018 -11.1252
  80 640.103 3.43721 -6.77182
  81 105.008 -617.229 -0.701276
  82 408.717 -212.459 139.122
  83 831.825 72.3909 321.016
  84 1253.07 190.135 406.575
  85 1646.67 162.708 436.138
  86 2012.32 39.6178 383.695
  87 2187.43 -34.0772 186.355
  88 2191.86 -32.2616 -187.952
  89 2014.06 31.5478 -383.970
  90 1644.49 164.277 -434.778
  91 1252.32 190.903 -405.913
  92 831.157 72.4047 -321.061
  93 408.557 -212.572 -139.135
  94 104.971 -617.583 0.680892
  95 53.8054 -667.509 -53.4593
  96 306.656 -293.424 80.7714
  97 680.687 -49.6835 196.666
  98 1177.56 107.255 292.058
  99 1677.00 128.012 308.398
  100 2100.73 33.6176 296.726
  101 2428.09 -41.2601 209.094
  102 2389.05 -45.3716 -187.892
  103 2105.66 50.4249 -291.870
  104 1678.22 125.385 -308.776
  105 1178.04 107.462 -292.793
  106 681.431 -49.1813 -197.171
  107 307.148 -292.845 -81.1610
  108 54.0488 -666.776 53.1074
  109 701.765 111.175 -24.5835
  110 701.813 111.165 24.5771
  111 966.896 -71.6508 145.573
  112 966.924 -71.8401 -145.548
  113 483.673 132.108 119.102
  114 483.775 132.110 -119.116
  115 945.858 39.4239 45.5132
  116 945.850 39.4404 -45.5318
  117 697.578 56.2928 47.3057
  118 697.587 56.2735 -47.2868
  119 1298.21 -51.6208 34.9516
  120 1298.59 -50.4764 -35.9150
  121 528.115 19.5470 176.145
  122 528.080 19.4027 -176.222
  123 1446.59 68.3717 -26.8431
  124 1441.53 64.5019 29.8901
  125 797.865 67.2725 7.22450
  126 797.841 67.2982 -7.22549
  127 992.479 20.1779 -90.6594
  128 992.490 20.1784 90.6387
  129 656.181 -10.9744 270.138
  130 656.309 -10.9683 -270.118
  131 968.182 -180.814 195.676
  132 968.307 -181.169 -195.876
  133 688.359 71.4693 -110.797
  134 688.360 71.4891 110.833
  135 1197.76 -61.6852 -13.2063
  136 1197.85 -61.3455 13.4240
  137 832.396 50.4645 105.621
  138 832.362 50.4402 -105.636
  139 245.859 40.5710 14.2623
  140 245.983 40.6954 -14.3684
  141 612.703 128.164 -64.0053
  142 612.647 128.183 64.0153
  143 1143.89 -25.8820 -63.5913
  144 1143.90 -25.8651 63.5989
  145 1032.44 10.6921 19.0656
  146 1032.46 10.6986 -19.0763
  147 766.721 53.3019 -191.286
  148 766.742 53.3220 191.341
  149 671.713 20.2996 25.9840
  150 671.701 20.2915 -25.9732
  151 1681.00 79.9968 4.84180
  152 836.889 64.9078 61.4518
  153 836.858 64.9207 -61.4679
  154 891.539 42.4918 18.3494
  155 891.526 42.5122 -18.3569
  156 741.755 52.4119 16.2949
  157 741.769 52.3899 -16.2876
  158 723.090 84.3161 -21.8603
  159 723.061 84.3414 21.8696
  160 1055.48 14.3443 -45.1736
  161 1055.46 14.3361 45.1510
  162 1131.31 -74.1780 -160.842
  163 1131.30 -74.2585 160.830
  164 577.427 117.963 46.5262
  165 577.362 117.931 -46.5562
  166 1221.57 -65.3097 135.752
  167 1222.04 -65.4839 -136.527
  168 566.190 -174.860 264.414
  169 566.196 -175.077 -264.521
  170 1491.83 43.8567 85.2137
  171 1495.31 51.3570 -88.8294
  172 691.035 30.8284 -60.7324
  173 691.057 30.8393 60.7564
  174 1255.27 50.7585 24.2986
  175 1258.20 10.4265 88.1678
  176 1235.63 12.1487 -85.5826
  177 1180.55 -135.660 55.8199
  178 1180.86 -136.337 -55.7875
  179 762.827 13.7570 157.591
  180 762.813 13.6544 -157.617
  181 1245.01 -43.0896 -52.9010
  182 1244.90 -45.5501 53.0932
  183 767.395 -96.5722 225.857
  184 767.417 -96.8067 -225.917
  185 775.847 84.6957 -21.6553
  186 775.882 84.6730 21.6505
  187 1777.56 92.1612 115.767
  188 1784.70 82.0217 -118.115
  189 682.129 79.9183 -65.8495
  190 682.111 79.9412 65.8731
  191 853.796 61.2451 32.2125
  192 853.773 61.2676 -32.2231
  193 983.179 0.663854 110.331
  194 983.157 0.628850 -110.334
  195 1196.89 34.6992 -52.1588
  196 937.614 41.0787 71.1300
  197 937.599 41.0896 -71.1518
  198 206.852 -152.902 -170.217
  199 206.598 -153.113 170.078
  200 1382.44 -31.2941 -84.5134
  201 1382.55 -31.0303 84.3367
  202 815.040 51.4220 -1.75580
  203 815.057 51.3974 1.75556
  204 188.860 -142.918 -123.079
  205 188.936 -142.684 122.955
  206 1138.27 -2.84102 -56.1528
  207 1138.23 -2.84800 56.1273
  208 419.478 117.619 -7.99012
  209 419.383 117.569 7.93538
  210 1063.80 -16.9075 -174.813
  211 1063.93 -16.9051 174.882
  212 790.499 22.8351 -113.955
  213 790.564 22.8450 113.997
  214 724.357 -141.078 240.489
  215 724.263 -141.162 -240.656
  216 709.847 34.8520 17.4136
  217 709.849 34.8361 -17.4047
  218 651.662 96.1754 -167.240
  219 651.634 96.2011 167.282
  220 703.038 87.9017 92.0751
  221 702.991 87.8726 -92.0968
  222 949.983 29.3794 16.8180
  223 949.981 29.3945 -16.8257
  224 451.755 95.0251 190.676
  225 451.885 95.0290 -190.692
  226 1038.90 -121.093 -132.216
  227 1038.81 -120.761 132.251
  228 451.347 -118.984 218.805
  229 451.629 -118.815 -218.915
  230 1065.17 7.14494 -26.1883
  231 1065.15 7.14066 26.1742
  232 1244.05 -14.3185 18.1841
  233 1244.09 -14.3174 -18.1969
  234 721.166 33.6717 -81.6613
  235 721.204 33.6836 81.6903
  236 1267.87 46.7934 55.2419
  237 1742.08 22.5314 135.406
  238 1743.30 22.5261 -135.226
  239 1392.07 84.6646 266.172
  240 1390.69 87.5575 -266.472
  241 667.390 117.417 -23.8934
  242 667.343 117.437 23.8992
  243 1127.79 -64.4418 -70.3030
  244 1127.82 -64.2619 70.4108
  245 658.237 11.3789 -28.3028
  246 658.261 11.3830 28.3152
  247 1954.97 24.4705 -75.9282
  248 1126.73 6.38584 -38.8252
  249 1126.68 6.37985 38.8039
  250 753.409 69.9140 -11.3438
  251 753.386 69.9394 11.3498
  252 542.646 141.516 -46.9708
  253 542.568 141.517 46.9595
  254 1380.41 20.6859 37.0679
  255 1373.44 20.7942 -37.7028
  256 1947.99 22.0506 74.1771
  257 769.824 85.4539 68.2209
  258 769.782 85.4540 -68.2352
  259 910.914 37.4267 -98.1674
  260 910.938 37.4320 98.1486
  261 1053.84 5.91933 8.56896
  262 1053.86 5.92228 -8.57336
  263 2009.64 -40.4251 120.003
  264 2003.17 -5.42704 -108.022
  265 1390.37 74.7927 -23.1224
  266 639.858 63.0568 131.596
  267 639.819 62.9761 -131.636
  268 625.268 54.8654 -244.452
  269 625.189 54.8819 244.486
  270 1003.51 21.3065 37.2256
  271 1003.51 21.3177 -37.2436
  272 686.845 34.5941 -45.7088
  273 686.854 34.6068 45.7279
  274 637.024 5.01210 7.83001
  275 637.010 5.00913 -7.82565
  276 625.875 131.905 -4.24180
  277 625.815 131.910 4.23551
  278 1251.75 -28.0709 -13.0840
  279 1251.65 -28.3684 13.1813
  280 67.9945 -217.309 30.2025
  281 68.1348 -217.040 -30.3442
  282 866.094 45.9075 -6.70145
  283 866.107 45.8846 6.69883
  284 945.059 34.7366 30.1832
  285 945.054 34.7530 -30.1967
  286 1051.88 26.8443 282.790
  287 1051.42 27.0422 -283.202
  288 1231.24 -80.4705 -18.7616
  289 1231.37 -81.3697 18.9030
  290 771.770 50.5823 -3.78358
  291 771.757 50.6059 3.78587
  292 1007.40 12.9076 -151.369
  293 1007.54 12.9186 151.427
  294 1220.18 -4.15696 32.5638
  295 1220.26 -4.15112 -32.5916
  296 1696.85 66.1449 -256.345
  297 1694.67 65.8981 254.387
  298 704.634 -111.037 -202.745
  299 704.272 -111.313 202.544
  300 1213.83 -11.3615 66.8383
  301 1214.13 -6.42789 -66.6059
  302 691.312 60.7133 -86.8800
  303 691.317 60.7323 86.9113
  304 354.562 31.5854 116.045
  305 354.487 31.4482 -116.144
  306 712.686 49.9868 30.9963
  307 712.695 49.9669 -30.9828
  308 882.904 -3.91059 138.046
  309 882.886 -3.99201 -138.049
  310 1445.97 92.7251 8.95875
  311 643.807 99.5809 -116.638
  312 643.776 99.6037 116.669
  313 1336.03 -16.1581 -46.4581
  314 1334.49 -17.2473 45.5664
  315 832.021 54.8470 -9.10993
  316 832.040 54.8226 9.10699
  317 2134.54 -33.6236 -36.0302
  318 2242.72 -62.0173 73.1443
  319 921.403 15.6134 -123.020
  320 921.528 15.6200 123.067
  321 1424.54 41.0767 -209.190
  322 1424.25 42.3732 208.482
  323 1006.39 16.4840 8.18262
  324 1006.40 16.4931 -8.18786
  325 785.053 58.1304 -2.74142
  326 785.033 58.1553 2.74362
  327 738.795 42.5257 -7.93422
  328 738.786 42.5455 7.93816
  329 1059.52 -5.70042 -83.9422
  330 1059.53 -5.69199 83.9293
  331 1626.27 74.6534 15.7694
  332 913.348 35.1155 -8.73949
  333 913.356 35.0969 8.73557
  334 677.252 18.8607 12.2256
  335 677.246 18.8516 -12.2208
  336 700.929 80.3229 -42.0204
  337 700.906 80.3469 42.0366
  338 1157.00 11.9273 -62.0057
  339 1036.16 -13.9682 -214.536
  340 1035.83 -14.2112 214.258
  341 1110.92 7.08146 -24.7589
  342 1110.88 7.07755 24.7446
  343 1138.13 -150.822 111.588
  344 1138.46 -151.499 -111.882
  345 1031.74 20.2847 65.0491
  346 1031.75 20.2956 -65.0764
  347 995.173 28.6360 55.7973
  348 995.175 28.6493 -55.8213
  349 1137.51 -119.948 70.8152
  350 1137.61 -120.390 -70.6804
  351 280.869 -265.610 173.289
  352 280.846 -265.818 -173.359
  353 761.806 79.2561 2.65129
  354 761.775 79.2811 -2.65019
  355 1080.81 0.708334 11.8088
  356 1080.83 0.710143 -11.8157
  357 581.396 129.143 -123.964
  358 581.332 129.164 123.982
  359 867.897 -75.6235 -236.365
  360 867.819 -75.6715 236.400
  361 885.419 54.7589 49.4072
  362 885.398 54.7774 -49.4232
  363 1271.95 -30.7026 76.8215
  364 1270.66 -26.6762 -78.6698
  365 723.503 96.4390 1.73083
  366 723.463 96.4609 -1.72937
  367 608.036 -90.7739 -238.966
  368 608.033 -90.5621 238.881
  369 1034.23 -36.6103 -106.304
  370 1034.24 -36.5214 106.334
  371 1637.25 80.3633 -27.0102
  372 1251.79 -87.6815 30.8535
  373 1252.44 -88.5116 -30.9798
  374 355.730 106.257 104.804
  375 355.865 106.301 -104.861
  376 842.697 -46.9576 180.510
  377 842.711 -47.1255 -180.529
  378 1421.71 -39.5108 68.1198
  379 1421.40 -39.5401 -68.1090
  380 1154.43 16.2842 66.0020
  381 1094.13 35.2197 -4.43325
  382 766.848 -158.642 237.570
  383 766.888 -158.904 -237.680
  384 722.164 66.5181 29.3745
  385 722.182 66.4946 -29.3617
  386 1308.52 35.0052 -60.5639
  387 861.949 54.7927 82.3497
  388 861.918 54.7951 -82.3675
  389 1051.17 -149.597 180.669
  390 1051.27 -149.775 -181.137
  391 679.625 8.42719 -37.9973
  392 679.664 8.43070 38.0131
  393 1563.43 85.6842 61.5675
  394 1572.37 87.4496 -63.9908
  395 1259.47 -41.0215 120.439
  396 1259.25 -41.0029 -120.389
  397 928.585 -133.860 187.698
  398 928.665 -134.155 -187.745
  399 836.455 12.4770 -232.224
  400 836.456 12.4873 232.285
  401 582.531 109.870 -189.983
  402 582.462 109.897 190.011
  403 493.910 86.8069 95.6285
  404 493.849 86.7225 -95.6899
  405 1089.80 24.2899 32.5652
  406 767.673 87.9483 -38.1864
  407 767.713 87.9319 38.1776
  408 758.906 46.2885 135.225
  409 758.872 46.2247 -135.247
  410 681.343 -19.4096 -195.968
  411 681.355 -19.2519 195.917
  412 630.336 7.97456 14.0931
  413 630.316 7.97186 -14.0863
  414 818.736 73.6995 -38.2528
  415 818.768 73.6791 38.2418
  416 811.537 73.7987 20.8762
  417 811.510 73.8233 -20.8817
  418 154.339 -341.425 77.2320
  419 154.656 -340.962 -77.5064
  420 1304.53 16.3176 75.8124
  421 895.191 47.6211 32.3857
  422 895.176 47.6415 -32.3982
  423 698.328 35.7814 35.3462
  424 698.328 35.7668 -35.3312
  425 657.808 108.343 67.3654
  426 657.843 108.319 -67.3459
  427 688.690 50.8244 -65.6674
  428 688.690 50.8417 65.6934
  429 1073.81 7.16057 -70.7407
  430 1073.80 7.15155 70.7132
  431 711.645 67.6271 -141.619
  432 711.657 67.6459 141.662
  433 404.911 -81.9783 -211.313
  434 404.939 -81.7676 211.208
  435 1596.03 -7.04714 39.5074
  436 1596.37 -7.77583 -39.3817
  437 1960.19 5.91857 237.124
  438 1965.86 0.674775 -236.958
  439 666.374 108.951 44.7008
  440 666.319 108.944 -44.7162
  441 27.8551 -484.594 -63.3322
  442 27.9026 -484.243 63.2474
  443 1192.99 -45.0755 34.7543
  444 1192.92 -45.1329 -34.6822
  445 1253.27 -12.9546 43.9815
  446 1253.06 -12.2617 -43.0427
  447 48.3801 -484.724 30.2411
  448 48.5736 -484.256 -30.4660
  449 1080.59 -153.066 -121.095
  450 1080.40 -152.602 121.047
  451 1198.75 -0.489351 -26.6024
  452 1198.67 -0.491453 26.5828
  453 1131.95 9.35043 -65.5015
  454 1230.41 -56.1036 -28.4113
  455 1230.04 -56.8737 28.8473
  456 920.850 24.6944 -108.148
  457 920.876 24.7148 108.137
  458 780.875 11.4375 -59.9537
  459 780.962 11.4400 59.9767
  460 271.029 26.9039 145.302
  461 271.204 26.9928 -145.392
  462 1063.99 -85.2768 107.894
  463 1064.03 -85.5048 -107.818
  464 987.366 25.7109 22.1251
  465 987.370 25.7238 -22.1365
  466 688.113 97.7854 -37.5425
  467 688.079 97.8099 37.5558
  468 1071.43 4.16505 3.47814
  469 1071.45 4.16619 -3.47966
  470 847.042 58.9437 -20.7289
  471 847.063 58.9197 20.7218
  472 606.128 -0.106971 2.01667
  473 606.113 -0.108045 -2.01515
  474 669.118 85.2435 -94.2844
  475 669.100 85.2651 94.3142
  476 446.978 -5.53302 -234.534
  477 446.790 -5.58884 234.493
  478 1047.76 4.78029 -35.9855
  479 24.9048 -133.472 0.468753
  480 4.91453 -70.4329 -2.51342
  481 4.58765 -58.3816 4.04406
  482 3.63613 -117.910 5.18170
  483 2.37096 -122.513 -15.9279
  484 1.75713 -113.598 -7.64819
  485 3.09212 -108.062 18.9206
  486 3.58825 -64.4665 10.1086
  487 0.486174 -47.8268 -12.6967
  488 -10.8496 -137.602 -0.757755
  489 -16.2855 -158.229 1.72629
  490 -2.23903 -12.9217 -1.31064
  491 1.31928 -56.1181 -9.34704
  492 -2.75840 -37.7747 11.2045
  493 19.9396 -117.842 -2.16087
  494 -2.49759 -9.19947 0.796543
  495 16.2238 -105.716 1.69499
  496 -1.30058 -18.8617 1.07328
  497 -0.957947 -12.4070 -0.855962
  498 17.9771 -133.837 0.308134
  499 21.8582 -140.714 -1.70033
  500 -1.01633 -13.7660 -2.62321
  501 -6.71818 -95.3996 10.2747
  502 -7.01543 -84.3836 -24.7687
  503 -23.0714 -128.230 -3.26922
  504 -25.7449 -142.026 11.9085
  505 -18.5065 -133.815 0.568480
  506 -22.9771 -152.053 -6.15860
  507 -3.28546 -76.8064 -10.2535
  508 -4.50066 -59.1984 20.0830
  509 10.6707 -94.2164 4.05924
  510 7.99590 -88.6803 -13.2946
  511 -1.50310 -8.16411 0.749196
  512 8.94686 -88.4432 10.4487
  513 19.4813 -121.365 8.96315
  514 18.4543 -123.140 -1.06216
  515 9.90165 -76.5599 -2.92321
  516 0.194131 -42.4599 -6.26103
  517 0.560033 -25.6184 5.42191
  518 -1.67549 1.95212 -1.64547
  519 12.0273 -142.414 6.06917
  520 2.21536 -48.5193 4.19386
  521 -0.170401 -58.4692 11.0120
  522 -2.62374 -40.0494 -14.2358
  523 18.9051 -126.062 -7.91673
  524 -1.55597 -33.5225 4.60987
  525 -1.95475 0.251053 1.65966
  526 -40.0607 -137.075 -0.0993174
  527 -54.8560 -163.141 2.02618
  528 -1.39733 2.63942 0.497785
  529 -0.991263 -16.0106 -1.49400
  530 1.16187 -38.4408 -3.43324
  531 0.604405 -15.8389 -4.61085
  532 6.96700 -131.655 -2.36252
  533 18.2094 -127.036 1.85934
  534 1.72558 -9.40520 1.27356
  535 1.20682 -88.9814 11.8469
  536 -2.69054 -81.7830 -22.5860
  537 8.09140 -132.290 1.42492
  538 10.2412 -146.188 -4.68809
  539 0.212262 -34.1120 -6.67086
  540 -1.99708 -36.2603 -1.24308
  541 -2.31119 3.86337 0.148395
  542 0.562865 -72.7487 18.1107
  543 -1.55633 2.72388 -2.25408
  544 24.4429 -132.288 -1.51132
  545 16.6402 -101.684 -5.54302
  546 5.09679 -88.4335 -9.25269
  547 -40.8160 -138.241 1.04591
  548 -56.2606 -164.191 -2.73655
  549 -33.5475 -121.758 7.84366
  550 -33.1781 -127.701 -19.5038
  551 -0.606105 -3.15434 -1.38696
  552 -20.9576 -106.021 -9.62691
  553 -15.4353 -99.7842 24.4607
  554 -1.81184 -29.5570 0.852844
  555 -1.45318 -23.0873 9.07618
  556 11.1217 -83.6985 3.25370
  557 24.1066 -127.017 3.13562
  558 12.8710 -104.456 -4.03143
  559 -2.35134 5.42146 -0.794951
  560 -1.62823 1.13948 1.38711
  561 3.21414 -55.1537 10.7575
  562 23.3504 -137.605 3.11879
  563 -1.25538 10.1848 -0.523723
  564 -59.7555 -138.118 1.65525
  565 -1.52137 8.53271 0.0209796
  566 -85.0092 -164.873 -1.76639
  567 -0.816624 9.56827 3.14266
  568 0.132512 8.06989 5.47528
  569 3.54138 -0.919466 2.75380
  570 4.27657 -22.2302 -5.18962
  571 -18.9173 -76.4880 -12.3322
  572 -41.9139 -119.913 -9.27946
  573 -58.7166 -135.844 -1.70315
  574 -55.8786 -132.912 2.56099
  575 -60.9721 -124.054 8.07691
  576 -15.8180 -83.6743 9.31608
  577 2.10384 -26.3485 6.83385
  578 4.22919 -1.02080 -5.07508
  579 1.99490 5.66182 -5.39572
  580 -0.730046 9.89395 -3.72636
  581 -0.535816 8.72910 3.10760
  582 0.760322 5.19093 4.81176
  583 4.16929 -2.84094 2.80374
  584 4.97863 -11.1813 -1.37789
  585 -8.58514 -63.8303 -17.9549
  586 -61.8458 -130.732 -16.2279
  587 -71.7388 -153.164 -7.43675
  588 -77.6828 -158.773 6.63024
  589 -38.3402 -125.499 20.1124
  590 -10.2181 -53.3838 20.1369
  591 5.90411 -8.58179 1.03407
  592 5.57610 -0.465756 -4.57178
  593 0.943551 6.17484 -5.53280
  594 -0.635527 9.88730 -3.36955
</Section>

newXOutput 38

<Section columns = "stress_xx | stress_yy | stress_xy">
  1 602.568 5.74838 -5.95215
  2 602.583 5.74960 5.95341
  3 1107.60 0.245477 0.0462390
  4 1107.58 0.244275 -0.0474857
  5 -0.375097 -783.621 26.8688
  6 2242.16 -12.8097 -1.42769
  7 -0.488953 -784.188 -27.0239
  8 2557.36 -62.1149 -16.6982
  9 613.033 3.21498 -2.82558
  10 629.320 6.29949 -9.75954
  11 664.459 8.99826 -23.6361
  12 724.276 5.80415 -43.8366
  13 808.896 5.72389 -46.3822
  14 912.489 14.6191 -76.2835
  15 1084.67 3.02891 -97.9638
  16 1275.34 -4.60126 -102.807
  17 1526.02 -34.9224 -56.9106
  18 1613.41 -31.6937 -27.8720
  19 1683.73 -3.37904 5.45470
  20 1770.85 22.5067 -9.60172
  21 1859.16 35.3632 -19.6141
  22 1929.30 -19.5922 -2.47581
  23 1769.76 15.5537 6.00978
  24 1684.59 -2.80124 -4.25138
  25 1613.79 -31.3998 28.0195
  26 1526.42 -34.9390 56.9409
  27 1275.60 -4.60136 102.853
  28 1084.88 3.03100 98.0037
  29 912.622 14.6227 76.3111
  30 809.002 5.72237 46.4001
  31 724.339 5.80417 43.8545
  32 664.501 9.00085 23.6462
  33 629.345 6.30111 9.76589
  34 613.050 3.21636 2.82850
  35 653.621 3.45009 6.92701
  36 694.938 19.5738 11.4112
  37 727.669 32.7575 9.76574
  38 773.247 42.9805 6.50754
  39 814.681 49.6451 2.98723
  40 861.387 47.9820 -0.117540
  41 910.715 40.0493 -1.32554
  42 979.995 25.8072 -4.78931
  43 1028.99 16.0214 1.05067
  44 1067.90 10.2891 -2.47723
  45 1107.19 -0.531360 -6.82592
  46 1130.69 -3.36582 -7.83855
  47 1137.46 3.14933 -14.6583
  48 1176.57 0.873244 -20.9414
  49 1233.83 -7.41036 -19.2122
  50 1279.12 -7.72623 -22.5558
  51 1313.19 -9.78896 -16.7651
  52 1332.05 -15.8027 -2.15831
  53 1314.62 -19.7706 27.7181
  54 1256.35 -8.32636 44.2630
  55 1144.11 6.67796 54.3533
  56 1031.30 27.0512 42.3357
  57 973.334 31.1555 21.4932
  58 962.840 32.0405 -23.7593
  59 1042.54 18.0257 -39.8456
  60 1141.60 3.07992 -44.4671
  61 1257.51 -7.25115 -41.6815
  62 1314.95 -19.2071 -27.1226
  63 1331.85 -15.7007 2.13440
  64 1313.01 -9.79352 16.7215
  65 1278.98 -7.72736 22.5293
  66 1233.73 -7.40797 19.1971
  67 1176.51 0.871723 20.9281
  68 1137.43 3.14688 14.6492
  69 1130.66 -3.36615 7.83377
  70 1107.18 -0.531902 6.82303
  71 1067.89 10.2851 2.47502
  72 1028.99 16.0126 -1.05267
  73 979.996 25.7928 4.78615
  74 910.726 40.0289 1.32389
  75 861.401 47.9580 0.116773
  76 814.695 49.6209 -2.98664
  77 773.258 42.9595 -6.50587
  78 727.671 32.7427 -9.76219
  79 694.932 19.5644 -11.4090
  80 653.610 3.44583 -6.92475
  81 107.099 -633.930 -1.11779
  82 417.515 -218.632 141.919
  83 849.590 73.3941 327.896
  84 1279.59 194.274 415.354
  85 1681.07 166.251 445.595
  86 2053.08 39.8706 392.015
  87 2231.85 -35.7581 190.447
  88 2236.30 -33.8598 -192.080
  89 2054.80 31.5135 -392.294
  90 1678.80 167.831 -444.197
  91 1278.78 195.054 -414.681
  92 848.891 73.4036 -327.938
  93 417.345 -218.749 -141.929
  94 107.059 -634.287 1.10061
  95 55.0249 -684.864 -54.7825
  96 313.433 -300.977 82.5708
  97 695.381 -51.2680 200.885
  98 1202.45 109.676 298.388
  99 1712.12 131.385 315.330
  100 2143.89 34.1328 303.684
  101 2476.47 -43.4991 213.835
  102 2437.56 -47.5231 -192.260
  103 2148.96 51.3624 -298.797
  104 1713.28 128.634 -315.722
  105 1202.88 109.870 -299.113
  106 696.096 -50.7770 -201.376
  107 313.910 -300.407 -82.9507
  108 55.2622 -684.139 54.4380
  109 717.979 113.978 -25.0186
  110 718.028 113.967 25.0134
  111 988.533 -72.9487 149.163
  112 988.554 -73.1365 -149.138
  113 494.818 135.615 122.048
  114 494.917 135.619 -122.059
  115 967.432 40.3614 46.4517
  116 967.423 40.3789 -46.4708
  117 713.037 57.5092 48.2712
  118 713.046 57.4898 -48.2519
  119 1327.60 -53.0518 35.3657
  120 1327.99 -51.8562 -36.3626
  121 540.198 20.6507 179.959
  122 540.159 20.5069 -180.032
  123 1480.05 69.9023 -27.0799
  124 1474.90 65.9258 30.2049
  125 816.146 68.7177 7.35992
  126 816.122 68.7440 -7.36075
  127 1014.98 20.9298 -92.7732
  128 1014.99 20.9282 92.7509
  129 670.787 -10.7270 276.709
  130 670.907 -10.7182 -276.688
  131 989.581 -185.346 200.423
  132 989.696 -185.710 -200.625
  133 703.353 73.1462 -113.192
  134 703.354 73.1657 113.229
  135 1224.93 -63.0858 -13.9442
  136 1225.03 -62.7428 14.1608
  137 851.387 52.0601 107.943
  138 851.350 52.0381 -107.957
  139 251.752 42.2610 14.9472
  140 251.874 42.3855 -15.0485
  141 626.722 131.316 -65.5287
  142 626.667 131.335 65.5402
  143 1169.80 -26.3237 -65.3635
  144 1169.80 -26.3093 65.3675
  145 1055.80 10.9010 19.4313
  146 1055.82 10.9076 -19.4422
  147 783.293 54.6627 -195.676
  148 783.316 54.6813 195.730
  149 686.078 20.7169 26.5016
  150 686.067 20.7087 -26.4907
  151 1719.20 81.4768 4.99031
  152 856.107 66.5966 62.7418
  153 856.075 66.6111 -62.7580
  154 911.947 43.3548 18.7106
  155 911.935 43.3756 -18.7182
  156 758.460 53.4641 16.6216
  157 758.475 53.4418 -16.6140
  158 739.565 86.2107 -22.3388
  159 739.536 86.2364 22.3487
  160 1079.34 14.7278 -46.1436
  161 1079.31 14.7191 46.1201
  162 1156.27 -75.7194 -164.979
  163 1156.26 -75.8022 164.965
  164 590.852 121.201 47.3436
  165 590.786 121.169 -47.3709
  166 1248.48 -67.0527 139.149
  167 1248.94 -67.2408 -139.949
  168 578.733 -179.097 270.546
  169 578.732 -179.316 -270.650
  170 1524.98 44.8606 87.7616
  171 1528.52 52.5629 -91.4666
  172 705.743 31.4962 -61.9790
  173 705.765 31.5071 62.0032
  174 1284.93 51.8826 24.8787
  175 1287.40 10.5682 90.0122
  176 1264.38 12.3866 -87.4133
  177 1206.92 -139.128 57.5198
  178 1207.22 -139.826 -57.4909
  179 780.081 14.6851 161.105
  180 780.062 14.5845 -161.130
  181 1273.68 -44.3029 -53.8422
  182 1273.56 -46.8314 54.0319
  183 784.493 -98.4635 231.111
  184 784.508 -98.6982 -231.169
  185 793.706 86.6875 -22.0677
  186 793.741 86.6638 22.0633
  187 1816.84 93.9540 118.872
  188 1824.07 83.4771 -121.296
  189 697.335 81.7396 -67.2437
  190 697.317 81.7625 67.2679
  191 873.393 62.6359 32.8539
  192 873.370 62.6594 -32.8646
  193 1005.42 1.06195 112.981
  194 1005.39 1.02973 -112.987
  195 1225.13 35.5343 -53.3498
  196 958.987 42.2073 72.6910
  197 958.971 42.2197 -72.7136
  198 211.613 -156.012 -174.664
  199 211.367 -156.222 174.530
  200 1413.00 -31.7905 -86.9211
  201 1413.11 -31.5170 86.7375
  202 833.657 52.4088 -1.78971
  203 833.673 52.3837 1.78950
  204 193.267 -145.864 -125.754
  205 193.344 -145.629 125.634
  206 1163.97 -2.79157 -57.5764
  207 1163.93 -2.79979 57.5485
  208 429.343 120.938 -8.48263
  209 429.248 120.888 8.43163
  210 1086.90 -17.1391 -178.997
  211 1087.03 -17.1389 179.063
  212 807.175 23.3361 -116.428
  213 807.241 23.3455 116.470
  214 740.230 -144.871 246.028
  215 740.124 -144.958 -246.195
  216 725.492 35.5221 17.7276
  217 725.494 35.5061 -17.7185
  218 666.053 98.5523 -171.045
  219 666.026 98.5767 171.087
  220 719.225 90.4226 93.9859
  221 719.176 90.3953 -94.0059
  222 971.642 29.9610 17.1486
  223 971.640 29.9764 -17.1564
  224 462.043 97.7586 195.334
  225 462.169 97.7645 -195.347
  226 1062.06 -123.787 -135.628
  227 1061.98 -123.453 135.663
  228 461.502 -121.396 224.269
  229 461.773 -121.228 -224.375
  230 1089.20 7.31452 -26.7156
  231 1089.17 7.31006 26.7012
  232 1272.38 -14.5693 18.8469
  233 1272.43 -14.5663 -18.8637
  234 736.414 34.4325 -83.4054
  235 736.452 34.4442 83.4345
  236 1297.62 47.8924 56.3954
  237 1780.38 23.2108 139.163
  238 1781.64 23.1602 -138.972
  239 1422.31 86.6942 272.393
  240 1420.87 89.6497 -272.704
  241 682.721 120.262 -24.4935
  242 682.674 120.282 24.5005
  243 1153.23 -65.7874 -72.3334
  244 1153.27 -65.6081 72.4387
  245 672.008 11.6160 -28.8576
  246 672.032 11.6202 28.8702
  247 1997.19 24.4612 -77.8044
  248 1152.08 6.60274 -39.7105
  249 1152.03 6.59625 39.6881
  250 770.566 71.4149 -11.5845
  251 770.542 71.4407 11.5907
  252 555.220 145.164 -48.2277
  253 555.144 145.165 48.2188
  254 1411.92 21.0734 37.4889
  255 1404.81 21.1909 -38.1392
  256 1990.14 21.9428 76.0243
  257 787.535 87.7382 69.6311
  258 787.492 87.7399 -69.6446
  259 931.663 38.6382 -100.384
  260 931.689 38.6411 100.364
  261 1077.65 6.03462 8.73676
  262 1077.66 6.03762 -8.74124
  263 2053.83 -41.8173 123.332
  264 2047.40 -5.97356 -111.117
  265 1422.91 76.4971 -23.5441
  266 654.528 65.1471 134.385
  267 654.486 65.0680 -134.422
  268 639.121 56.5057 -250.295
  269 639.046 56.5198 250.329
  270 1026.28 21.7760 37.9850
  271 1026.29 21.7877 -38.0035
  272 701.654 35.3292 -46.6180
  273 701.664 35.3420 46.6373
  274 650.402 5.08989 7.96009
  275 650.388 5.08689 -7.95568
  276 640.370 135.249 -4.48920
  277 640.310 135.255 4.48480
  278 1280.50 -28.7347 -13.0863
  279 1280.41 -29.0360 13.1797
  280 69.6576 -221.954 31.2527
  281 69.7953 -221.686 -31.3898
  282 885.919 46.7846 -6.83198
  283 885.933 46.7613 6.82934
  284 966.624 35.4774 30.7833
  285 966.618 35.4944 -30.7971
  286 1074.67 27.2382 289.242
  287 1074.18 27.4357 -289.664
  288 1259.16 -82.5586 -18.8114
  289 1259.28 -83.4851 18.9510
  290 789.253 51.5552 -3.85225
  291 789.239 51.5792 3.85462
  292 1028.83 13.2884 -154.833
  293 1028.98 13.2983 154.889
  294 1247.75 -4.17585 33.4581
  295 1247.84 -4.16899 -33.4885
  296 1733.41 67.4053 -262.480
  297 1731.23 67.2087 260.484
  298 720.269 -113.672 -207.628
  299 719.924 -113.944 207.432
  300 1242.15 -11.7321 68.2550
  301 1242.46 -6.65434 -68.0371
  302 706.330 62.0882 -88.7099
  303 706.335 62.1070 88.7416
  304 362.852 32.9873 118.432
  305 362.776 32.8501 -118.526
  306 728.529 51.0147 31.6115
  307 728.538 50.9946 -31.5977
  308 902.844 -3.50036 141.267
  309 902.822 -3.57904 -141.270
  310 1479.69 94.9172 8.98250
  311 658.155 101.976 -119.248
  312 658.125 101.998 119.280
  313 1365.91 -16.6153 -47.9899
  314 1364.36 -17.7181 47.0649
  315 851.082 55.9599 -9.28550
  316 851.101 55.9349 9.28257
  317 2181.78 -34.9126 -36.9952
  318 2290.64 -64.2502 74.9988
  319 940.726 15.9906 -125.741
  320 940.851 15.9967 125.786
  321 1455.56 42.1995 -214.274
  322 1455.30 43.5529 213.557
  323 1029.21 16.7944 8.31953
  324 1029.22 16.8037 -8.32489
  325 802.953 59.3023 -2.79898
  326 802.933 59.3278 2.80132
  327 755.327 43.3357 -8.08271
  328 755.318 43.3557 8.08673
  329 1083.49 -5.57849 -86.0427
  330 1083.49 -5.57249 86.0273
  331 1663.36 76.0039 16.4852
  332 934.220 35.7719 -8.90684
  333 934.227 35.7529 8.90285
  334 691.851 19.2136 12.4776
  335 691.844 19.2043 -12.4728
  336 716.723 82.1262 -42.9082
  337 716.701 82.1504 42.9250
  338 1184.21 12.1255 -63.3950
  339 1058.88 -14.3038 -219.656
  340 1058.58 -14.5426 219.383
  341 1135.88 7.27923 -25.2681
  342 1135.84 7.27513 25.2533
  343 1163.36 -154.712 114.469
  344 1163.67 -155.411 -114.772
  345 1055.11 20.8948 66.5148
  346 1055.12 20.9069 -66.5434
  347 1017.78 29.3792 56.9992
  348 1017.79 29.3935 -57.0241
  349 1163.04 -122.863 72.8919
  350 1163.13 -123.313 -72.7577
  351 287.055 -272.359 177.243
  352 287.027 -272.569 -177.309
  353 779.284 81.0393 2.67693
  354 779.253 81.0651 -2.67542
  355 1105.15 0.695705 12.0271
  356 1105.17 0.697583 -12.0341
  357 594.571 132.380 -126.871
  358 594.509 132.401 126.889
  359 887.082 -77.0723 -242.174
  360 887.012 -77.1229 242.206
  361 905.705 56.0875 50.4373
  362 905.684 56.1072 -50.4537
  363 1301.11 -31.6204 78.3170
  364 1299.81 -27.4633 -80.2222
  365 740.145 98.7226 1.71619
  366 740.104 98.7453 -1.71396
  367 621.608 -92.5315 -244.425
  368 621.610 -92.3194 244.343
  369 1057.52 -37.1202 -109.007
  370 1057.54 -37.0340 109.035
  371 1674.51 81.9061 -28.0500
  372 1279.75 -89.9629 31.9305
  373 1280.41 -90.8273 -32.0674
  374 364.089 109.357 107.546
  375 364.221 109.403 -107.600
  376 861.575 -47.5530 184.704
  377 861.583 -47.7194 -184.722
  378 1452.75 -40.2021 70.0608
  379 1452.46 -40.2298 -70.0558
  380 1181.55 16.6530 67.4789
  381 1120.03 36.1191 -4.51202
  382 783.794 -162.319 243.166
  383 783.826 -162.583 -243.275
  384 738.426 67.9411 29.9701
  385 738.444 67.9173 -29.9569
  386 1339.08 35.7346 -61.7358
  387 881.661 56.3437 84.1299
  388 881.628 56.3481 -84.1478
  389 1074.25 -153.519 185.015
  390 1074.34 -153.705 -185.493
  391 693.725 8.58968 -38.7632
  392 693.765 8.59315 38.7791
  393 1598.78 87.7333 63.6269
  394 1607.89 89.4749 -66.1222
  395 1286.85 -41.8075 123.450
  396 1286.64 -41.7866 -123.404
  397 949.177 -136.865 192.229
  398 949.249 -137.162 -192.275
  399 854.744 13.0766 -237.734
  400 854.749 13.0847 237.794
  401 595.562 112.709 -194.444
  402 595.496 112.735 194.473
  403 505.407 89.4826 97.5205
  404 505.344 89.3987 -97.5781
  405 1115.56 24.8814 33.3100
  406 785.378 90.1226 -38.9393
  407 785.419 90.1050 38.9310
  408 776.211 47.9315 138.196
  409 776.174 47.8700 -138.216
  410 696.713 -19.2688 -200.365
  411 696.729 -19.1122 200.318
  412 643.430 8.14933 14.3563
  413 643.410 8.14660 -14.3495
  414 837.573 75.4786 -39.0252
  415 837.605 75.4569 39.0144
  416 830.179 75.4689 21.2831
  417 830.151 75.4944 -21.2885
  418 157.889 -349.647 79.3052
  419 158.197 -349.190 -79.5727
  420 1334.85 16.4689 77.3749
  421 915.687 48.6803 33.0321
  422 915.672 48.7015 -33.0449
  423 713.625 36.5009 36.0459
  424 713.625 36.4862 -36.0307
  425 672.671 110.919 68.8668
  426 672.706 110.896 -68.8463
  427 703.728 51.9323 -67.0097
  428 703.728 51.9496 67.0360
  429 1098.09 7.49685 -72.4282
  430 1098.07 7.48633 72.3987
  431 727.035 69.2481 -144.761
  432 727.048 69.2662 144.805
  433 414.099 -83.4409 -216.035
  434 414.130 -83.2298 215.934
  435 1631.39 -7.15509 40.9552
  436 1631.75 -7.91258 -40.8266
  437 2001.51 5.49138 242.590
  438 2007.23 0.0712473 -242.424
  439 681.813 111.836 45.5312
  440 681.757 111.830 -45.5449
  441 28.3549 -496.862 -64.6740
  442 28.4033 -496.511 64.5925
  443 1220.12 -46.0634 35.9664
  444 1220.06 -46.1182 -35.8986
  445 1282.43 -13.2931 44.8270
  446 1282.20 -12.5806 -43.8725
  447 49.5652 -496.568 31.2442
  448 49.7539 -496.104 -31.4636
  449 1104.57 -156.764 -124.213
  450 1104.39 -156.291 124.163
  451 1225.68 -0.454653 -27.2478
  452 1225.60 -0.457113 27.2268
  453 1158.57 9.58508 -67.0288
  454 1258.53 -57.5483 -28.6931
  455 1258.15 -58.3338 29.1330
  456 941.723 25.6717 -110.633
  457 941.752 25.6896 110.621
  458 796.948 11.7220 -61.2163
  459 797.035 11.7245 61.2392
  460 277.397 28.2592 149.036
  461 277.566 28.3489 -149.121
  462 1087.86 -87.0456 110.745
  463 1087.89 -87.2729 -110.669
  464 1009.81 26.2379 22.5483
  465 1009.81 26.2511 -22.5600
  466 703.771 100.057 -38.3748
  467 703.736 100.082 38.3888
  468 1095.62 4.26243 3.55003
  469 1095.63 4.26358 -3.55156
  470 866.472 60.2189 -21.1327
  471 866.492 60.1942 21.1255
  472 618.671 -0.134753 2.04437
  473 618.657 -0.135834 -2.04283
  474 683.945 87.2453 -96.3317
  475 683.927 87.2667 96.3622
  476 457.085 -5.11097 -240.321
  477 456.905 -5.16840 240.283
  478 1072.55 4.76153 -36.8718
  479 25.6039 -137.025 0.464738
  480 4.99450 -72.1725 -2.58185
  481 4.65818 -59.7820 4.15304
  482 3.70821 -120.990 5.37358
  483 2.44979 -125.692 -16.4425
  484 1.78380 -116.511 -7.93691
  485 3.16961 -110.814 19.5101
  486 3.65277 -65.9765 10.3649
  487 0.485279 -48.8899 -13.0188
  488 -11.2058 -141.359 -0.795431
  489 -16.7348 -162.583 1.77630
  490 -2.31523 -13.1772 -1.33728
  491 1.30758 -57.4034 -9.57392
  492 -2.86376 -38.5727 11.4672
  493 20.4735 -120.919 -2.22228
  494 -2.58193 -9.35720 0.810085
  495 16.6360 -108.432 1.72513
  496 -1.35528 -19.2593 1.08192
  497 -1.00489 -12.6407 -0.861801
  498 18.4805 -137.431 0.304824
  499 22.4938 -144.481 -1.76752
  500 -1.04805 -14.0427 -2.66079
  501 -6.86956 -97.7120 10.6130
  502 -7.13016 -86.3530 -25.5376
  503 -23.7571 -131.648 -3.37804
  504 -26.4655 -145.844 12.2717
  505 -19.0998 -137.438 0.584447
  506 -23.5895 -156.166 -6.34966
  507 -3.36306 -78.5370 -10.5609
  508 -4.60149 -60.4363 20.6646
  509 10.9224 -96.6033 4.18898
  510 8.17827 -90.9019 -13.6838
  511 -1.54729 -8.29245 0.733762
  512 9.14347 -90.6572 10.7493
  513 20.0194 -124.543 9.22960
  514 18.9605 -126.375 -1.13290
  515 10.1201 -78.4343 -3.01468
  516 0.165685 -43.4412 -6.41966
  517 0.571717 -26.1718 5.51433
  518 -1.72364 2.04895 -1.69753
  519 12.3924 -146.249 6.25886
  520 2.23056 -49.6578 4.29229
  521 -0.151500 -59.7471 11.2675
  522 -2.66060 -40.7959 -14.5912
  523 19.4296 -129.379 -8.16959
  524 -1.63246 -34.2672 4.71741
  525 -2.00627 0.308485 1.71635
  526 -41.4528 -140.818 -0.0882841
  527 -56.6382 -167.662 2.09282
  528 -1.44132 2.75904 0.518868
  529 -1.01757 -16.3229 -1.49463
  530 1.15248 -39.3126 -3.51038
  531 0.633041 -16.1259 -4.66955
  532 7.15732 -135.184 -2.48570
  533 18.7055 -130.401 1.93057
  534 1.79458 -9.53575 1.23002
  535 1.19481 -91.1670 12.2029
  536 -2.78753 -83.7442 -23.2503
  537 8.31116 -135.846 1.48973
  538 10.5626 -150.135 -4.86118
  539 0.251761 -34.7740 -6.77291
  540 -2.08608 -37.0849 -1.27773
  541 -2.37614 4.00381 0.157105
  542 0.531149 -74.4751 18.6237
  543 -1.59751 2.84737 -2.32724
  544 25.1293 -135.801 -1.56446
  545 17.0667 -104.282 -5.70261
  546 5.18962 -90.5852 -9.54178
  547 -42.2391 -142.032 1.06152
  548 -57.9674 -168.709 -2.78349
  549 -34.4217 -124.923 8.05471
  550 -33.9062 -131.007 -20.0924
  551 -0.620909 -3.17726 -1.45222
  552 -21.3865 -108.630 -9.92703
  553 -15.7028 -102.217 25.1931
  554 -1.89275 -30.2092 0.876299
  555 -1.43891 -23.3847 9.22440
  556 11.3757 -85.7768 3.33739
  557 24.7730 -130.366 3.21159
  558 13.1883 -107.112 -4.19055
  559 -2.41735 5.60433 -0.820203
  560 -1.66981 1.22404 1.44295
  561 3.24598 -56.4417 11.0443
  562 24.0090 -141.280 3.20339
  563 -1.29076 10.4761 -0.534558
  564 -61.9019 -141.872 1.71454
  565 -1.56318 8.78150 0.0197987
  566 -87.7506 -169.404 -1.76881
  567 -0.835903 9.84769 3.23345
  568 0.143701 8.31207 5.63763
  569 3.66039 -0.887005 2.88047
  570 4.48225 -22.6254 -5.19485
  571 -19.2108 -78.1398 -12.6259
  572 -42.9156 -122.993 -9.47876
  573 -60.6782 -139.524 -1.69733
  574 -57.6955 -136.529 2.58554
  575 -62.5490 -127.281 8.19382
  576 -16.0611 -85.5757 9.53201
  577 2.22274 -26.8491 6.91259
  578 4.35562 -0.985871 -5.24516
  579 2.05342 5.84978 -5.55339
  580 -0.747381 10.1750 -3.82822
  581 -0.550759 8.98361 3.19425
  582 0.781683 5.36077 4.95329
  583 4.30079 -2.84965 2.91893
  584 5.15354 -11.2707 -1.31965
  585 -8.61556 -65.1760 -18.4670
  586 -63.2376 -134.133 -16.6730
  587 -73.7248 -157.309 -7.60588
  588 -80.1686 -163.129 6.80329
  589 -39.2177 -128.739 20.6492
  590 -10.2740 -54.3889 20.6612
  591 6.13675 -8.64769 0.942968
  592 5.74883 -0.419482 -4.73674
  593 0.971613 6.37248 -5.69424
  594 -0.651791 10.1733 -3.46343
</Section>

newXOutput 39

<Section columns = "stress_xx | stress_yy | stress_xy">
  1 614.493 5.89264 -6.10171
  2 614.509 5.89389 6.10299
  3 1131.77 0.226481 0.0738348
  4 1131.76 0.225254 -0.0751084
  5 -0.558573 -803.468 27.2992
  6 2286.88 -13.8826 -1.44787
  7 -0.674761 -804.050 -27.4579
  8 2606.41 -65.0732 -16.9040
  9 625.181 3.28025 -2.84160
  10 641.774 6.44758 -9.90269
  11 677.536 9.20434 -24.0871
  12 738.581 5.94931 -44.6962
  13 824.720 5.90182 -47.2995
  14 930.621 14.9760 -77.8693
  15 1106.43 3.10647 -100.043
  16 1301.50 -4.69001 -105.133
  17 1557.65 -35.6919 -58.3487
  18 1647.63 -32.4139 -28.9843
  19 1720.58 -3.29505 4.78867
  20 1810.96 23.0186 -10.7246
  21 1902.48 35.9751 -20.5089
  22 1973.49 -20.1865 -2.21548
  23 1809.92 16.0224 7.16690
  24 1721.45 -2.69254 -3.55558
  25 1648.01 -32.1129 29.1313
  26 1558.04 -35.7097 58.3779
  27 1301.76 -4.69043 105.179
  28 1106.64 3.10847 100.084
  29 930.756 14.9797 77.8973
  30 824.828 5.90026 47.3176
  31 738.645 5.94930 44.7144
  32 677.579 9.20698 24.0975
  33 641.799 6.44923 9.90916
  34 625.199 3.28165 2.84458
  35 666.945 3.45528 7.07853
  36 709.442 19.9296 11.6941
  37 743.179 33.3610 9.96762
  38 790.098 43.7371 6.65994
  39 832.630 50.5383 3.06563
  40 880.461 48.8496 -0.0973744
  41 930.895 40.7811 -1.32454
  42 1001.60 26.2556 -4.85775
  43 1051.58 16.3012 1.12863
  44 1091.28 10.5016 -2.50345
  45 1131.35 -0.563805 -6.96433
  46 1155.27 -3.47178 -7.97066
  47 1162.15 3.21554 -14.9213
  48 1202.06 0.890716 -21.3784
  49 1260.50 -7.60398 -19.6412
  50 1306.87 -7.92907 -23.1114
  51 1341.97 -10.0364 -17.2746
  52 1361.58 -16.2408 -2.42323
  53 1344.21 -20.3536 28.1764
  54 1284.88 -8.61841 45.1374
  55 1170.29 6.88053 55.5962
  56 1054.94 27.8793 43.3567
  57 995.632 32.1361 22.0830
  58 984.911 32.9673 -24.3401
  59 1066.44 18.5340 -40.7604
  60 1167.74 3.13591 -45.4624
  61 1286.06 -7.51901 -42.5054
  62 1344.53 -19.7755 -27.5707
  63 1361.38 -16.1378 2.39686
  64 1341.79 -10.0413 17.2294
  65 1306.73 -7.93028 23.0842
  66 1260.41 -7.60156 19.6257
  67 1202.00 0.889149 21.3648
  68 1162.12 3.21303 14.9120
  69 1155.24 -3.47212 7.96579
  70 1131.33 -0.564356 6.96139
  71 1091.27 10.4975 2.50120
  72 1051.57 16.2922 -1.13068
  73 1001.60 26.2409 4.85452
  74 930.906 40.7602 1.32286
  75 880.476 48.8252 0.0965918
  76 832.645 50.5136 -3.06502
  77 790.109 43.7157 -6.65823
  78 743.181 33.3458 -9.96400
  79 709.435 19.9199 -11.6918
  80 666.933 3.45094 -7.07623
  81 109.150 -650.605 -1.55838
  82 426.195 -224.820 144.663
  83 867.117 74.3442 334.679
  84 1305.74 198.354 424.018
  85 1714.98 169.732 454.931
  86 2093.21 40.0745 400.224
  87 2275.56 -37.4731 194.486
  88 2280.06 -35.4776 -196.161
  89 2094.93 31.4584 -400.518
  90 1712.65 171.364 -453.493
  91 1304.91 199.155 -423.335
  92 866.402 74.3543 -334.725
  93 426.023 -224.941 -144.674
  94 109.110 -650.972 1.54023
  95 56.2328 -702.163 -56.0969
  96 320.139 -308.501 84.3509
  97 709.907 -52.8603 205.050
  98 1227.03 112.074 304.641
  99 1746.78 134.758 322.188
  100 2186.44 34.6393 310.582
  101 2524.10 -45.7680 218.513
  102 2485.13 -49.7379 -196.573
  103 2191.57 52.2792 -305.635
  104 1747.96 131.903 -322.600
  105 1227.47 112.270 -305.377
  106 710.631 -52.3591 -205.549
  107 320.623 -307.918 -84.7378
  108 56.4744 -701.420 55.7451
  109 734.045 116.765 -25.4452
  110 734.095 116.753 25.4402
  111 1009.94 -74.2112 152.730
  112 1009.96 -74.4023 -152.705
  113 505.856 139.110 124.975
  114 505.957 139.114 -124.986
  115 988.796 41.2909 47.3755
  116 988.788 41.3088 -47.3951
  117 728.322 58.7105 49.2213
  118 728.332 58.6907 -49.2016
  119 1356.70 -54.4780 35.7599
  120 1357.09 -53.2375 -36.7840
  121 552.166 21.7801 183.721
  122 552.126 21.6327 -183.794
  123 1513.21 71.4072 -27.2992
  124 1507.95 67.3417 30.4916
  125 834.253 70.1436 7.49311
  126 834.229 70.1707 -7.49392
  127 1037.25 21.6876 -94.8666
  128 1037.27 21.6853 94.8436
  129 685.232 -10.4625 283.233
  130 685.353 -10.4527 -283.211
  131 1010.73 -189.852 205.136
  132 1010.85 -190.229 -205.341
  133 718.166 74.8080 -115.557
  134 718.168 74.8277 115.594
  135 1251.83 -64.4708 -14.6941
  136 1251.94 -64.1222 14.9153
  137 870.195 53.6625 110.238
  138 870.156 53.6407 -110.252
  139 257.599 43.9700 15.6433
  140 257.723 44.0976 -15.7460
  141 640.606 134.447 -67.0393
  142 640.550 134.466 67.0514
  143 1195.44 -26.7536 -67.1317
  144 1195.44 -26.7399 67.1347
  145 1078.93 11.1057 19.7897
  146 1078.94 11.1125 -19.8008
  147 799.658 56.0135 -200.021
  148 799.682 56.0322 200.076
  149 700.258 21.1281 27.0107
  150 700.247 21.1198 -26.9996
  151 1757.01 82.9221 5.13093
  152 875.146 68.2782 64.0137
  153 875.112 68.2934 -64.0302
  154 932.160 44.2034 19.0655
  155 932.147 44.2248 -19.0733
  156 774.992 54.4990 16.9425
  157 775.007 54.4762 -16.9347
  158 755.877 88.0845 -22.8107
  159 755.848 88.1109 22.8209
  160 1102.94 15.1097 -47.0998
  161 1102.92 15.1007 47.0757
  162 1180.95 -77.2407 -169.092
  163 1180.95 -77.3274 169.076
  164 604.159 124.433 48.1402
  165 604.092 124.401 -48.1673
  166 1275.06 -68.7963 142.527
  167 1275.53 -68.9948 -143.347
  168 591.132 -183.301 276.617
  169 591.132 -183.526 -276.723
  170 1557.76 45.8426 90.3122
  171 1561.36 53.7733 -94.1034
  172 720.257 32.1557 -63.2067
  173 720.279 32.1668 63.2314
  174 1314.35 52.9920 25.4464
  175 1316.33 10.7080 91.8277
  176 1292.89 12.6166 -89.2176
  177 1232.99 -142.578 59.2268
  178 1233.30 -143.299 -59.1957
  179 797.162 15.6380 164.580
  180 797.142 15.5358 -164.604
  181 1302.09 -45.5167 -54.7561
  182 1301.96 -48.1123 54.9490
  183 801.404 -100.314 236.316
  184 801.418 -100.554 -236.373
  185 811.399 88.6614 -22.4732
  186 811.435 88.6370 22.4688
  187 1855.65 95.6986 121.961
  188 1862.98 84.9071 -124.473
  189 712.374 83.5423 -68.6182
  190 712.356 83.5657 68.6430
  191 892.805 64.0117 33.4846
  192 892.782 64.0358 -33.4955
  193 1027.43 1.47704 115.612
  194 1027.40 1.44504 -115.618
  195 1253.14 36.3608 -54.5331
  196 980.152 43.3336 74.2330
  197 980.136 43.3466 -74.2562
  198 216.342 -159.069 -179.103
  199 216.092 -159.284 178.967
  200 1443.21 -32.2685 -89.3197
  201 1443.32 -31.9890 89.1300
  202 852.092 53.3765 -1.82320
  203 852.109 53.3509 1.82298
  204 197.636 -148.765 -128.394
  205 197.714 -148.524 128.272
  206 1189.41 -2.73729 -58.9910
  207 1189.37 -2.74598 58.9620
  208 439.126 124.255 -8.98844
  209 439.030 124.203 8.93714
  210 1109.71 -17.3658 -183.142
  211 1109.84 -17.3661 183.208
  212 823.623 23.8302 -118.869
  213 823.690 23.8397 118.912
  214 755.912 -148.658 251.510
  215 755.804 -148.749 -251.681
  216 740.958 36.1799 18.0343
  217 740.960 36.1635 -18.0250
  218 680.279 100.912 -174.810
  219 680.252 100.936 174.853
  220 735.263 92.9445 95.8682
  221 735.213 92.9171 -95.8881
  222 993.090 30.5321 17.4731
  223 993.087 30.5478 -17.4811
  224 472.227 100.489 199.960
  225 472.354 100.495 -199.973
  226 1084.98 -126.450 -139.025
  227 1084.90 -126.109 139.062
  228 471.552 -123.772 229.702
  229 471.826 -123.600 -229.810
  230 1112.97 7.48255 -27.2338
  231 1112.95 7.47799 27.2190
  232 1300.44 -14.8123 19.5162
  233 1300.49 -14.8082 -19.5345
  234 751.456 35.1851 -85.1266
  235 751.495 35.1969 85.1562
  236 1327.12 48.9862 57.5246
  237 1818.24 23.8956 142.912
  238 1819.52 23.8119 -142.712
  239 1452.16 88.6966 278.558
  240 1450.69 91.7369 -278.876
  241 697.908 123.086 -25.0893
  242 697.860 123.107 25.0967
  243 1178.41 -67.1128 -74.3625
  244 1178.45 -66.9311 74.4692
  245 685.585 11.8498 -29.4029
  246 685.611 11.8540 29.4157
  247 2038.87 24.4272 -79.6726
  248 1177.17 6.82073 -40.5858
  249 1177.12 6.81401 40.5628
  250 787.552 72.8960 -11.8212
  251 787.529 72.9224 11.8277
  252 567.682 148.795 -49.4814
  253 567.604 148.795 49.4729
  254 1443.12 21.4616 37.8841
  255 1435.87 21.5723 -38.5495
  256 2031.75 21.7990 77.8549
  257 805.083 90.0159 71.0205
  258 805.038 90.0181 -71.0340
  259 952.211 39.8538 -102.577
  260 952.237 39.8561 102.557
  261 1101.21 6.14777 8.90148
  262 1101.22 6.15082 -8.90605
  263 2097.51 -43.2072 126.653
  264 2091.03 -6.55768 -114.207
  265 1455.17 78.1797 -23.9630
  266 669.059 67.2512 137.135
  267 669.016 67.1705 -137.172
  268 652.821 58.1423 -256.092
  269 652.746 58.1560 256.127
  270 1048.83 22.2395 38.7318
  271 1048.83 22.2515 -38.7507
  272 716.279 36.0546 -47.5117
  273 716.288 36.0676 47.5315
  274 663.595 5.16526 8.08661
  275 663.581 5.16220 -8.08211
  276 654.735 138.575 -4.74098
  277 654.674 138.582 4.73694
  278 1308.99 -29.3916 -13.0709
  279 1308.89 -29.6972 13.1645
  280 71.3088 -226.538 32.3127
  281 71.4488 -226.265 -32.4522
  282 905.554 47.6444 -6.96027
  283 905.568 47.6206 6.95757
  284 987.979 36.2077 31.3729
  285 987.973 36.2251 -31.3869
  286 1097.17 27.6112 295.624
  287 1096.67 27.8107 -296.060
  288 1286.80 -84.6384 -18.8375
  289 1286.92 -85.5920 18.9822
  290 806.558 52.5097 -3.91919
  291 806.544 52.5342 3.92161
  292 1049.99 13.6667 -158.260
  293 1050.13 13.6765 158.316
  294 1275.04 -4.19018 34.3508
  295 1275.13 -4.18288 -34.3823
  296 1769.51 68.6615 -268.567
  297 1767.31 68.4787 266.528
  298 735.758 -116.279 -212.483
  299 735.410 -116.557 212.285
  300 1270.22 -12.1037 69.6516
  301 1270.55 -6.88349 -69.4465
  302 721.165 63.4486 -90.5141
  303 721.171 63.4677 90.5465
  304 371.072 34.4119 120.776
  305 370.995 34.2713 -120.872
  306 744.198 52.0272 32.2159
  307 744.207 52.0066 -32.2018
  308 922.582 -3.06608 144.459
  309 922.559 -3.14553 -144.462
  310 1513.12 97.0952 8.98754
  311 672.346 104.352 -121.828
  312 672.316 104.375 121.861
  313 1395.47 -17.0658 -49.5242
  314 1393.89 -18.1956 48.5723
  315 869.960 57.0546 -9.45814
  316 869.979 57.0291 9.45516
  317 2228.38 -36.2258 -37.9622
  318 2337.93 -66.4886 76.8259
  319 959.778 16.3639 -128.428
  320 959.905 16.3700 128.474
  321 1486.26 43.3333 -219.325
  322 1486.00 44.7334 218.591
  323 1051.80 17.0983 8.45247
  324 1051.81 17.1078 -8.45795
  325 820.677 60.4548 -2.85533
  326 820.658 60.4809 2.85772
  327 771.682 44.1301 -8.22802
  328 771.673 44.1505 8.23213
  329 1107.21 -5.44580 -88.1294
  330 1107.22 -5.44045 88.1130
  331 1700.07 77.3122 17.2046
  332 954.889 36.4144 -9.07096
  333 954.897 36.3950 9.06689
  334 706.268 19.5595 12.7260
  335 706.261 19.5501 -12.7210
  336 732.354 83.9099 -43.7830
  337 732.331 83.9347 43.8003
  338 1211.20 12.3150 -64.7700
  339 1081.37 -14.6292 -224.744
  340 1081.07 -14.8740 224.467
  341 1160.57 7.47672 -25.7688
  342 1160.53 7.47250 25.7537
  343 1188.29 -158.586 117.339
  344 1188.62 -159.309 -117.648
  345 1078.24 21.5059 67.9640
  346 1078.25 21.5185 -67.9935
  347 1040.17 30.1189 58.1849
  348 1040.17 30.1336 -58.2104
  349 1188.30 -125.754 74.9736
  350 1188.39 -126.215 -74.8352
  351 293.166 -279.075 181.151
  352 293.139 -279.291 -181.219
  353 796.597 82.8030 2.70140
  354 796.565 82.8294 -2.69977
  355 1129.23 0.681601 12.2404
  356 1129.25 0.683522 -12.2476
  357 607.613 135.597 -129.752
  358 607.551 135.617 129.771
  359 906.060 -78.4977 -247.939
  360 905.990 -78.5505 247.971
  361 925.798 57.4060 51.4525
  362 925.776 57.4264 -51.4692
  363 1329.98 -32.5375 79.7859
  364 1328.68 -28.2536 -81.7428
  365 756.631 100.987 1.70000
  366 756.590 101.010 -1.69757
  367 635.039 -94.2559 -249.830
  368 635.041 -94.0378 249.748
  369 1080.58 -37.6087 -111.695
  370 1080.60 -37.5220 111.723
  371 1711.39 83.4243 -29.1082
  372 1307.42 -92.2373 33.0174
  373 1308.08 -93.1351 -33.1587
  374 372.375 112.458 110.278
  375 372.509 112.505 -110.332
  376 880.254 -48.1135 188.860
  377 880.260 -48.2832 -188.876
  378 1483.42 -40.8772 71.9949
  379 1483.13 -40.9037 -71.9920
  380 1208.44 17.0206 68.9361
  381 1145.74 37.0136 -4.59390
  382 800.546 -165.957 248.714
  383 800.579 -166.229 -248.824
  384 754.519 69.3454 30.5556
  385 754.538 69.3211 -30.5420
  386 1369.38 36.4468 -62.8875
  387 901.185 57.8941 85.8874
  388 901.151 57.8990 -85.9057
  389 1097.06 -157.431 189.327
  390 1097.15 -157.626 -189.817
  391 707.621 8.74908 -39.5169
  392 707.661 8.75261 39.5331
  393 1633.75 89.7547 65.6935
  394 1643.03 91.4973 -68.2684
  395 1313.90 -42.5807 126.439
  396 1313.68 -42.5585 -126.393
  397 969.538 -139.832 196.727
  398 969.610 -140.136 -196.772
  399 872.819 13.6804 -243.196
  400 872.824 13.6881 243.256
  401 608.454 115.532 -198.866
  402 608.387 115.558 198.896
  403 516.803 92.1675 99.3766
  404 516.739 92.0816 -99.4346
  405 1141.11 25.4698 34.0421
  406 802.920 92.2822 -39.6802
  407 802.961 92.2640 39.6718
  408 793.350 49.5893 141.130
  409 793.311 49.5271 -141.150
  410 711.929 -19.1002 -204.716
  411 711.946 -18.9401 204.668
  412 656.335 8.32220 14.6144
  413 656.315 8.31941 -14.6074
  414 856.235 77.2435 -39.7860
  415 856.267 77.2211 39.7749
  416 848.646 77.1211 21.6832
  417 848.617 77.1473 -21.6887
  418 161.408 -357.812 81.3746
  419 161.720 -357.344 -81.6469
  420 1364.89 16.6108 78.9091
  421 935.988 49.7270 33.6676
  422 935.972 49.7487 -33.6806
  423 728.743 37.2089 36.7337
  424 728.743 37.1939 -36.7181
  425 687.381 113.475 70.3503
  426 687.417 113.451 -70.3292
  427 718.586 53.0266 -68.3310
  428 718.587 53.0442 68.3578
  429 1122.12 7.83765 -74.1006
  430 1122.10 7.82656 74.0701
  431 742.233 70.8555 -147.867
  432 742.246 70.8737 147.911
  433 423.197 -84.8682 -220.705
  434 423.229 -84.6512 220.603
  435 1666.33 -7.26033 42.4064
  436 1666.71 -8.04018 -42.2772
  437 2042.26 5.03128 247.996
  438 2048.04 -0.544034 -247.839
  439 697.114 114.712 46.3445
  440 697.056 114.706 -46.3580
  441 28.8421 -509.077 -65.9949
  442 28.8912 -508.716 65.9114
  443 1246.99 -47.0370 37.1896
  444 1246.93 -47.0911 -37.1219
  445 1311.31 -13.6300 45.6568
  446 1311.08 -12.8975 -44.6833
  447 50.7424 -508.337 32.2551
  448 50.9344 -507.862 -32.4788
  449 1128.30 -160.437 -127.317
  450 1128.12 -159.950 127.268
  451 1252.32 -0.417988 -27.8872
  452 1252.24 -0.420572 27.8656
  453 1184.98 9.81755 -68.5415
  454 1286.38 -58.9862 -28.9492
  455 1285.99 -59.7870 29.3996
  456 962.390 26.6587 -113.093
  457 962.420 26.6762 113.081
  458 812.782 12.0050 -62.4617
  459 812.871 12.0074 62.4849
  460 283.709 29.6344 152.753
  461 283.880 29.7262 -152.839
  462 1111.47 -88.7827 113.588
  463 1111.50 -89.0139 -113.510
  464 1032.03 26.7562 22.9630
  465 1032.03 26.7697 -22.9750
  466 719.273 102.308 -39.1967
  467 719.238 102.333 39.2112
  468 1119.55 4.35908 3.62082
  469 1119.57 4.36024 -3.62239
  470 885.717 61.4772 -21.5294
  471 885.738 61.4519 21.5222
  472 631.032 -0.163473 2.07095
  473 631.018 -0.164574 -2.06939
  474 698.605 89.2294 -98.3530
  475 698.588 89.2510 98.3842
  476 467.098 -4.67022 -246.075
  477 466.917 -4.72930 246.037
  478 1097.14 4.73372 -37.7558
  479 26.3054 -140.555 0.469258
  480 5.07451 -73.8966 -2.64532
  481 4.73454 -61.1787 4.25795
  482 3.78038 -124.046 5.57895
  483 2.54363 -128.862 -16.9578
  484 1.80785 -119.416 -8.22398
  485 3.27254 -113.545 20.0999
  486 3.71506 -67.4598 10.6244
  487 0.487294 -49.9410 -13.3399
  488 -11.5635 -145.103 -0.825695
  489 -17.1338 -166.909 1.83453
  490 -2.39060 -13.4285 -1.36302
  491 1.29497 -58.6876 -9.80418
  492 -2.96206 -39.3744 11.7329
  493 21.0097 -123.974 -2.27248
  494 -2.66274 -9.52100 0.822805
  495 17.0512 -111.133 1.75581
  496 -1.41010 -19.6497 1.09082
  497 -1.04996 -12.8788 -0.870787
  498 18.9837 -141.005 0.310892
  499 23.1412 -148.223 -1.82234
  500 -1.07907 -14.3160 -2.69775
  501 -7.01772 -99.9879 10.9662
  502 -7.23857 -88.3068 -26.3169
  503 -24.4482 -135.060 -3.48426
  504 -27.0932 -149.624 12.6430
  505 -19.6928 -141.046 0.610123
  506 -24.1781 -160.278 -6.54760
  507 -3.44497 -80.2671 -10.8696
  508 -4.68921 -61.6720 21.2602
  509 11.1729 -98.9677 4.32786
  510 8.36579 -93.1100 -14.0689
  511 -1.58893 -8.42851 0.721791
  512 9.34904 -92.8570 11.0464
  513 20.5643 -127.696 9.49784
  514 19.4667 -129.594 -1.19874
  515 10.3403 -80.3025 -3.10865
  516 0.138700 -44.4121 -6.57571
  517 0.582203 -26.7131 5.60497
  518 -1.77134 2.14567 -1.74903
  519 12.7777 -150.047 6.45890
  520 2.24389 -50.7801 4.39315
  521 -0.132843 -60.9897 11.5247
  522 -2.69640 -41.5250 -14.9490
  523 19.9643 -132.677 -8.41238
  524 -1.70243 -35.0155 4.82341
  525 -2.05721 0.365825 1.77261
  526 -42.8498 -144.553 -0.0728796
  527 -58.2837 -172.145 2.14513
  528 -1.48420 2.87242 0.538164
  529 -1.04510 -16.6382 -1.49937
  530 1.14503 -40.1852 -3.59128
  531 0.661213 -16.4077 -4.72756
  532 7.34572 -138.700 -2.60357
  533 19.2019 -133.744 2.01386
  534 1.86172 -9.67410 1.19507
  535 1.17889 -93.3236 12.5690
  536 -2.87812 -85.6909 -23.9174
  537 8.53097 -139.384 1.56606
  538 10.9089 -154.063 -5.02401
  539 0.286592 -35.4385 -6.87906
  540 -2.17474 -37.8982 -1.31002
  541 -2.44035 4.14328 0.165864
  542 0.517146 -76.1946 19.1355
  543 -1.63747 2.96287 -2.39829
  544 25.8201 -139.291 -1.60598
  545 17.4968 -106.860 -5.85376
  546 5.28140 -92.7314 -9.83210
  547 -43.6674 -145.811 1.08311
  548 -59.6577 -173.228 -2.85453
  549 -35.2865 -128.064 8.27835
  550 -34.6302 -134.305 -20.6953
  551 -0.635690 -3.19810 -1.51733
  552 -21.8225 -111.235 -10.2270
  553 -15.9546 -104.651 25.9556
  554 -1.96946 -30.8644 0.896564
  555 -1.43070 -23.6824 9.38440
  556 11.6341 -87.8446 3.41835
  557 25.4418 -133.693 3.29231
  558 13.5057 -109.757 -4.34906
  559 -2.48164 5.78017 -0.845245
  560 -1.71155 1.30338 1.49578
  561 3.28893 -57.7273 11.3277
  562 24.6742 -144.926 3.29676
  563 -1.32539 10.7606 -0.545857
  564 -64.0555 -145.616 1.77916
  565 -1.60453 9.02783 0.0186150
  566 -90.3940 -173.919 -1.82374
  567 -0.855317 10.1212 3.32192
  568 0.153515 8.54959 5.79624
  569 3.77546 -0.857770 3.00249
  570 4.68118 -23.0235 -5.20517
  571 -19.5124 -79.7930 -12.9220
  572 -43.9266 -126.071 -9.67857
  573 -62.6462 -143.198 -1.68881
  574 -59.5147 -140.131 2.61748
  575 -64.1112 -130.486 8.31884
  576 -16.2904 -87.4336 9.75584
  577 2.34218 -27.3284 6.98537
  578 4.48087 -0.948592 -5.41435
  579 2.11138 6.03671 -5.70960
  580 -0.764506 10.4533 -3.92895
  581 -0.565559 9.23556 3.27996
  582 0.802815 5.52898 5.09343
  583 4.43099 -2.85761 3.03299
  584 5.32635 -11.3504 -1.26031
  585 -8.63989 -66.4987 -18.9887
  586 -64.6377 -137.525 -17.1345
  587 -75.7389 -161.459 -7.80460
  588 -82.4076 -167.440 6.96835
  589 -40.0122 -131.966 21.2287
  590 -10.3462 -55.3941 21.2213
  591 6.35602 -8.71976 0.864791
  592 5.91559 -0.382927 -4.89252
  593 0.999277 6.56142 -5.85124
  594 -0.667595 10.4514 -3.55546
</Section>

newXOutput 40

<Section columns = "stress_xx | stress_yy | stress_xy">
  1 626.231 6.03652 -6.25087
  2 626.247 6.03779 6.25218
  3 1155.70 0.206346 0.102618
  4 1155.69 0.205095 -0.103918
  5 -0.748845 -823.242 27.7127
  6 2330.94 -14.9905 -1.46702
  7 -0.867267 -823.838 -27.8749
  8 2654.65 -68.0883 -17.0982
  9 637.139 3.34471 -2.85524
  10 654.032 6.59481 -10.0411
  11 690.404 9.40895 -24.5307
  12 752.662 6.09418 -45.5425
  13 840.289 6.08065 -48.2034
  14 948.476 15.3311 -79.4351
  15 1127.87 3.18355 -102.098
  16 1327.29 -4.77884 -107.436
  17 1588.85 -36.4538 -59.7774
  18 1681.43 -33.1286 -30.1050
  19 1757.03 -3.19956 4.09271
  20 1850.70 23.5280 -11.8840
  21 1945.46 36.5671 -21.4175
  22 2017.30 -20.7800 -1.93950
  23 1849.70 16.4951 8.36549
  24 1757.90 -2.57235 -2.83044
  25 1681.81 -32.8204 30.2514
  26 1589.25 -36.4728 59.8053
  27 1327.56 -4.77958 107.483
  28 1128.08 3.18545 102.139
  29 948.613 15.3347 79.4635
  30 840.399 6.07904 48.2218
  31 752.727 6.09414 45.5610
  32 690.448 9.41163 24.5413
  33 654.058 6.59649 10.0477
  34 637.157 3.34614 2.85827
  35 680.080 3.45695 7.22866
  36 723.761 20.2784 11.9760
  37 758.507 33.9530 10.1670
  38 806.771 44.4770 6.81131
  39 850.400 51.4127 3.14386
  40 899.350 49.6992 -0.0762745
  41 950.881 41.4979 -1.32199
  42 1022.98 26.6933 -4.92354
  43 1073.94 16.5745 1.20881
  44 1114.42 10.7113 -2.52789
  45 1155.26 -0.597006 -7.10083
  46 1179.60 -3.57847 -8.09938
  47 1186.59 3.28073 -15.1783
  48 1227.28 0.907658 -21.8092
  49 1286.89 -7.79739 -20.0654
  50 1334.33 -8.13182 -23.6633
  51 1370.45 -10.2833 -17.7848
  52 1390.83 -16.6798 -2.69585
  53 1373.53 -20.9390 28.6220
  54 1313.18 -8.91359 45.9968
  55 1196.26 7.08474 56.8275
  56 1078.41 28.7126 44.3707
  57 1017.76 33.1241 22.6729
  58 1006.81 33.8970 -24.9173
  59 1090.16 19.0433 -41.6665
  60 1193.66 3.19069 -46.4474
  61 1314.37 -7.79029 -43.3152
  62 1373.85 -20.3463 -28.0064
  63 1390.63 -16.5758 2.66694
  64 1370.27 -10.2887 17.7381
  65 1334.19 -8.13312 23.6353
  66 1286.79 -7.79494 20.0495
  67 1227.22 0.906045 21.7953
  68 1186.55 3.27815 15.1689
  69 1179.57 -3.57883 8.09442
  70 1155.24 -0.597566 7.09785
  71 1114.41 10.7071 2.52560
  72 1073.93 16.5654 -1.21090
  73 1022.98 26.6783 4.92024
  74 950.892 41.4767 1.32027
  75 899.365 49.6742 0.0754761
  76 850.415 51.3876 -3.14324
  77 806.783 44.4552 -6.80957
  78 758.509 33.9375 -10.1633
  79 723.754 20.2686 -11.9737
  80 680.068 3.45253 -7.22631
  81 111.165 -667.253 -2.01909
  82 434.765 -231.021 147.358
  83 884.419 75.2464 341.371
  84 1331.55 202.382 432.571
  85 1748.42 173.174 464.148
  86 2132.72 40.2453 408.329
  87 2318.61 -39.2174 198.478
  88 2323.15 -37.1228 -200.196
  89 2134.44 31.3682 -408.638
  90 1746.03 174.859 -462.671
  91 1330.69 203.202 -431.879
  92 883.689 75.2571 -341.420
  93 434.591 -231.145 -147.371
  94 111.125 -667.629 1.99995
  95 57.4301 -719.391 -57.3988
  96 326.772 -315.989 86.1144
  97 724.260 -54.4550 209.164
  98 1251.30 114.450 310.817
  99 1780.98 138.128 328.972
  100 2228.37 35.1328 317.418
  101 2570.96 -48.0814 223.139
  102 2531.94 -51.9916 -200.843
  103 2233.56 53.1789 -312.414
  104 1782.16 135.168 -329.403
  105 1251.74 114.648 -311.564
  106 724.992 -53.9440 -209.670
  107 327.262 -315.393 -86.5079
  108 57.6758 -718.630 57.0400
  109 749.963 119.536 -25.8631
  110 750.014 119.524 25.8583
  111 1031.12 -75.4414 156.274
  112 1031.14 -75.6355 -156.248
  113 516.787 142.590 127.882
  114 516.889 142.595 -127.893
  115 1009.95 42.2118 48.2848
  116 1009.94 42.2303 -48.3048
  117 743.433 59.8967 50.1562
  118 743.442 59.8766 -50.1360
  119 1385.50 -55.9020 36.1314
  120 1385.90 -54.6159 -37.1828
  121 564.020 22.9326 187.434
  122 563.980 22.7817 -187.508
  123 1546.06 72.8952 -27.4957
  124 1540.70 68.7414 30.7546
  125 852.185 71.5504 7.62425
  126 852.161 71.5780 -7.62505
  127 1059.31 22.4515 -96.9397
  128 1059.32 22.4486 96.9158
  129 699.513 -10.1797 289.709
  130 699.635 -10.1690 -289.688
  131 1031.65 -194.333 209.814
  132 1031.77 -194.722 -210.022
  133 732.794 76.4552 -117.892
  134 732.796 76.4751 117.930
  135 1278.47 -65.8390 -15.4579
  136 1278.58 -65.4850 15.6835
  137 888.822 55.2701 112.505
  138 888.782 55.2484 -112.519
  139 263.402 45.6994 16.3517
  140 263.527 45.8299 -16.4557
  141 654.352 137.556 -68.5362
  142 654.295 137.575 68.5489
  143 1220.82 -27.1711 -68.8964
  144 1220.82 -27.1581 68.8984
  145 1101.82 11.3064 20.1406
  146 1101.83 11.3133 -20.1520
  147 815.812 57.3557 -204.323
  148 815.837 57.3744 204.379
  149 714.250 21.5334 27.5113
  150 714.238 21.5250 -27.5000
  151 1794.43 84.3311 5.27197
  152 894.005 69.9518 65.2678
  153 893.971 69.9677 -65.2846
  154 952.178 45.0378 19.4141
  155 952.165 45.0596 -19.4221
  156 791.349 55.5166 17.2576
  157 791.364 55.4934 -17.2497
  158 772.026 89.9378 -23.2758
  159 771.996 89.9647 23.2863
  160 1126.31 15.4901 -48.0424
  161 1126.29 15.4808 48.0177
  162 1205.35 -78.7397 -173.183
  163 1205.35 -78.8304 173.166
  164 617.347 127.658 48.9182
  165 617.279 127.626 -48.9452
  166 1301.35 -70.5373 145.884
  167 1301.82 -70.7464 -146.724
  168 603.393 -187.472 282.632
  169 603.394 -187.704 -282.739
  170 1590.17 46.8167 92.8643
  171 1593.83 54.9767 -96.7409
  172 734.574 32.8071 -64.4159
  173 734.597 32.8184 64.4410
  174 1343.54 54.0855 26.0088
  175 1345.00 10.8419 93.6141
  176 1321.15 12.8428 -90.9954
  177 1258.79 -146.011 60.9374
  178 1259.10 -146.756 -60.9041
  179 814.073 16.6131 168.015
  180 814.052 16.5094 -168.039
  181 1330.23 -46.7302 -55.6463
  182 1330.10 -49.3929 55.8422
  183 818.134 -102.126 241.473
  184 818.148 -102.373 -241.530
  185 828.925 90.6172 -22.8719
  186 828.962 90.5922 22.8675
  187 1894.01 97.4073 125.038
  188 1901.44 86.2994 -127.640
  189 727.245 85.3268 -69.9729
  190 727.227 85.3506 69.9984
  191 912.033 65.3721 34.1049
  192 912.009 65.3969 -34.1160
  193 1049.22 1.90716 118.222
  194 1049.19 1.87543 -118.228
  195 1280.92 37.1807 -55.7031
  196 1001.11 44.4567 75.7558
  197 1001.09 44.4703 -75.7797
  198 221.025 -162.076 -183.529
  199 220.773 -162.296 183.391
  200 1473.06 -32.7288 -91.7138
  201 1473.18 -32.4435 91.5181
  202 870.346 54.3252 -1.85629
  203 870.363 54.2991 1.85607
  204 201.966 -151.619 -130.998
  205 202.045 -151.372 130.873
  206 1214.59 -2.67800 -60.3965
  207 1214.55 -2.68718 60.3665
  208 448.826 127.568 -9.50408
  209 448.729 127.515 9.45255
  210 1132.23 -17.5851 -187.252
  211 1132.37 -17.5861 187.318
  212 839.839 24.3178 -121.280
  213 839.907 24.3273 121.323
  214 771.410 -152.438 256.938
  215 771.301 -152.533 -257.113
  216 756.243 36.8252 18.3339
  217 756.245 36.8086 -18.3244
  218 694.337 103.254 -178.536
  219 694.310 103.279 178.580
  220 751.153 95.4657 97.7233
  221 751.102 95.4381 -97.7432
  222 1014.33 31.0928 17.7916
  223 1014.33 31.1088 -17.7998
  224 482.306 103.216 204.554
  225 482.434 103.223 -204.568
  226 1107.65 -129.079 -142.407
  227 1107.58 -128.731 142.446
  228 481.497 -126.109 235.105
  229 481.773 -125.933 -235.214
  230 1136.50 7.64903 -27.7427
  231 1136.48 7.64435 27.7276
  232 1328.21 -15.0480 20.1901
  233 1328.27 -15.0429 -20.2099
  234 766.287 35.9297 -86.8254
  235 766.327 35.9417 86.8555
  236 1356.37 50.0704 58.6343
  237 1855.64 24.5853 146.654
  238 1856.96 24.4676 -146.445
  239 1481.66 90.6846 284.665
  240 1480.15 93.8100 -284.990
  241 712.948 125.889 -25.6801
  242 712.899 125.910 25.6879
  243 1203.34 -68.4167 -76.3913
  244 1203.38 -68.2325 76.4993
  245 698.966 12.0803 -29.9387
  246 698.991 12.0846 29.9517
  247 2080.03 24.3621 -81.5288
  248 1202.00 7.03982 -41.4510
  249 1201.95 7.03287 41.4273
  250 804.369 74.3573 -12.0540
  251 804.345 74.3844 12.0606
  252 580.028 152.408 -50.7301
  253 579.949 152.408 50.7219
  254 1474.00 21.8435 38.2533
  255 1466.63 21.9467 -38.9337
  256 2072.83 21.6220 79.6741
  257 822.467 92.2858 72.3898
  258 822.422 92.2884 -72.4034
  259 972.560 41.0737 -104.746
  260 972.587 41.0754 104.725
  261 1124.53 6.25881 9.06315
  262 1124.54 6.26192 -9.06781
  263 2140.66 -44.6058 129.970
  264 2134.14 -7.16226 -117.298
  265 1487.15 79.8430 -24.3712
  266 683.454 69.3667 139.847
  267 683.409 69.2845 -139.884
  268 666.361 59.7773 -261.842
  269 666.286 59.7906 261.877
  270 1071.15 22.6966 39.4660
  271 1071.16 22.7090 -39.4853
  272 730.714 36.7704 -48.3903
  273 730.724 36.7837 48.4104
  274 676.599 5.23821 8.20957
  275 676.585 5.23509 -8.20499
  276 668.967 141.884 -4.99570
  277 668.905 141.890 4.99204
  278 1337.20 -30.0418 -13.0406
  279 1337.10 -30.3515 13.1343
  280 72.9486 -231.059 33.3836
  281 73.0907 -230.779 -33.5255
  282 924.999 48.4868 -7.08632
  283 925.013 48.4625 7.08356
  284 1009.13 36.9274 31.9519
  285 1009.12 36.9452 -31.9663
  286 1119.40 27.9659 301.941
  287 1118.89 28.1674 -302.391
  288 1314.16 -86.7091 -18.8442
  289 1314.27 -87.6899 18.9941
  290 823.686 53.4459 -3.98434
  291 823.671 53.4709 3.98682
  292 1070.85 14.0436 -161.651
  293 1071.00 14.0533 161.708
  294 1302.05 -4.20037 35.2405
  295 1302.14 -4.19262 -35.2732
  296 1805.16 69.8963 -274.604
  297 1802.94 69.7285 272.523
  298 751.076 -118.862 -217.304
  299 750.726 -119.147 217.102
  300 1298.04 -12.4770 71.0272
  301 1298.39 -7.11429 -70.8357
  302 735.814 64.7949 -92.2929
  303 735.820 64.8142 92.3259
  304 379.222 35.8571 123.082
  305 379.144 35.7130 -123.179
  306 759.690 53.0242 32.8096
  307 759.699 53.0033 -32.7953
  308 942.122 -2.61027 147.622
  309 942.097 -2.69042 -147.625
  310 1546.25 99.2543 8.98168
  311 686.376 106.710 -124.380
  312 686.346 106.732 124.413
  313 1424.71 -17.5150 -51.0640
  314 1423.11 -18.6719 50.0851
  315 888.656 58.1311 -9.62788
  316 888.675 58.1050 9.62484
  317 2274.43 -37.5549 -38.9265
  318 2384.58 -68.7457 78.6405
  319 978.556 16.7338 -131.085
  320 978.685 16.7399 131.131
  321 1516.58 44.4683 -224.338
  322 1516.32 45.9155 223.589
  323 1074.17 17.3956 8.58140
  324 1074.18 17.4052 -8.58699
  325 838.226 61.5881 -2.91036
  326 838.206 61.6146 2.91282
  327 787.858 44.9089 -8.37017
  328 787.849 44.9297 8.37436
  329 1130.70 -5.30186 -90.2024
  330 1130.70 -5.29719 90.1851
  331 1736.40 78.5848 17.9351
  332 975.359 37.0429 -9.23187
  333 975.366 37.0231 9.22772
  334 720.498 19.8985 12.9707
  335 720.491 19.8888 -12.9657
  336 747.818 85.6743 -44.6448
  337 747.794 85.6995 44.6625
  338 1237.98 12.4975 -66.1279
  339 1103.60 -14.9505 -229.791
  340 1103.30 -15.2012 229.511
  341 1185.01 7.67393 -26.2611
  342 1184.97 7.66959 26.2456
  343 1212.95 -162.444 120.195
  344 1213.28 -163.191 -120.510
  345 1101.14 22.1175 69.3964
  346 1101.15 22.1306 -69.4266
  347 1062.34 30.8545 59.3543
  348 1062.34 30.8697 -59.3804
  349 1213.29 -128.623 77.0569
  350 1213.39 -129.096 -76.9145
  351 299.207 -285.758 185.017
  352 299.180 -285.981 -185.087
  353 813.743 84.5471 2.72502
  354 813.710 84.5741 -2.72328
  355 1153.07 0.665946 12.4490
  356 1153.09 0.667909 -12.4563
  357 620.518 138.794 -132.606
  358 620.455 138.814 132.626
  359 924.817 -79.8968 -253.663
  360 924.748 -79.9518 253.696
  361 945.700 58.7137 52.4529
  362 945.678 58.7348 -52.4700
  363 1358.58 -33.4557 81.2259
  364 1357.28 -29.0442 -83.2347
  365 772.960 103.232 1.68285
  366 772.919 103.255 -1.68020
  367 648.326 -95.9441 -255.181
  368 648.328 -95.7201 255.099
  369 1103.41 -38.0748 -114.368
  370 1103.43 -37.9876 114.397
  371 1747.90 84.9094 -30.1782
  372 1334.78 -94.5030 34.1107
  373 1335.45 -95.4347 -34.2565
  374 380.589 115.558 113.000
  375 380.724 115.606 -113.055
  376 898.737 -48.6419 192.976
  377 898.743 -48.8149 -192.992
  378 1513.71 -41.5345 73.9244
  379 1513.41 -41.5597 -73.9236
  380 1235.10 17.3846 70.3749
  381 1171.24 37.9036 -4.67363
  382 817.111 -169.557 254.214
  383 817.144 -169.838 -254.325
  384 770.441 70.7310 31.1308
  385 770.460 70.7062 -31.1169
  386 1399.41 37.1472 -64.0144
  387 920.522 59.4424 87.6225
  388 920.488 59.4480 -87.6411
  389 1119.60 -161.331 193.606
  390 1119.70 -161.536 -194.108
  391 721.309 8.90549 -40.2587
  392 721.350 8.90907 40.2752
  393 1668.35 91.7631 67.7714
  394 1677.80 93.5037 -70.4263
  395 1340.61 -43.3401 129.407
  396 1340.39 -43.3163 -129.362
  397 989.677 -142.763 201.191
  398 989.748 -143.075 -201.235
  399 890.671 14.2905 -248.611
  400 890.677 14.2978 248.671
  401 621.201 118.340 -203.249
  402 621.134 118.365 203.279
  403 528.099 94.8597 101.200
  404 528.034 94.7719 -101.258
  405 1166.47 26.0537 34.7652
  406 820.299 94.4269 -40.4091
  407 820.342 94.4081 40.4007
  408 810.324 51.2597 144.030
  409 810.284 51.1968 -144.050
  410 726.991 -18.9020 -209.019
  411 727.009 -18.7385 208.971
  412 669.048 8.49320 14.8673
  413 669.027 8.49036 -14.8602
  414 874.722 78.9941 -40.5349
  415 874.755 78.9711 40.5237
  416 866.937 78.7550 22.0768
  417 866.908 78.7818 -22.0823
  418 164.894 -365.913 83.4420
  419 165.211 -365.434 -83.7190
  420 1394.67 16.7386 80.4168
  421 956.094 50.7608 34.2922
  422 956.078 50.7831 -34.3055
  423 743.678 37.9054 37.4095
  424 743.678 37.8901 -37.3936
  425 701.936 116.010 71.8158
  426 701.971 115.985 -71.7941
  427 733.263 54.1076 -69.6315
  428 733.263 54.1255 69.6589
  429 1145.90 8.18314 -75.7579
  430 1145.88 8.17146 75.7265
  431 757.235 72.4500 -150.938
  432 757.249 72.4683 150.982
  433 432.206 -86.2572 -225.322
  434 432.238 -86.0344 225.218
  435 1700.87 -7.36113 43.8661
  436 1701.26 -8.16330 -43.7365
  437 2082.44 4.54877 253.348
  438 2088.28 -1.18282 -253.202
  439 712.276 117.577 47.1420
  440 712.218 117.571 -47.1553
  441 29.3172 -521.229 -67.2934
  442 29.3670 -520.859 67.2078
  443 1273.60 -47.9973 38.4208
  444 1273.53 -48.0505 -38.3534
  445 1339.95 -13.9648 46.4696
  446 1339.71 -13.2124 -45.4774
  447 51.9129 -520.024 33.2759
  448 52.1080 -519.538 -33.5036
  449 1151.77 -164.081 -130.406
  450 1151.59 -163.581 130.358
  451 1278.68 -0.379323 -28.5209
  452 1278.60 -0.382034 28.4987
  453 1211.17 10.0494 -70.0391
  454 1313.96 -60.4170 -29.1839
  455 1313.56 -61.2328 29.6445
  456 982.853 27.6558 -115.529
  457 982.883 27.6729 115.516
  458 828.373 12.2864 -63.6903
  459 828.463 12.2888 63.7138
  460 289.965 31.0302 156.455
  461 290.139 31.1241 -156.542
  462 1134.84 -90.4909 116.420
  463 1134.86 -90.7257 -116.341
  464 1054.03 27.2657 23.3692
  465 1054.03 27.2795 -23.3814
  466 734.618 104.538 -40.0079
  467 734.583 104.564 40.0228
  468 1143.25 4.45505 3.69057
  469 1143.26 4.45623 -3.69216
  470 904.778 62.7187 -21.9193
  471 904.800 62.6928 21.9119
  472 643.205 -0.193156 2.09641
  473 643.190 -0.194276 -2.09481
  474 713.096 91.1961 -100.348
  475 713.078 91.2181 100.380
  476 477.006 -4.20957 -251.793
  477 476.823 -4.27031 251.755
  478 1121.54 4.69722 -38.6338
  479 27.0079 -144.073 0.473448
  480 5.15274 -75.6084 -2.70868
  481 4.80926 -62.5641 4.36264
  482 3.85486 -127.088 5.78784
  483 2.63977 -132.018 -17.4764
  484 1.83372 -122.306 -8.51509
  485 3.37685 -116.261 20.6925
  486 3.77673 -68.9277 10.8833
  487 0.488989 -50.9787 -13.6600
  488 -11.9169 -148.838 -0.856392
  489 -17.5277 -171.226 1.89307
  490 -2.46612 -13.6755 -1.38846
  491 1.28061 -59.9584 -10.0336
  492 -3.06125 -40.1644 11.9970
  493 21.5457 -127.015 -2.32235
  494 -2.74368 -9.68120 0.835272
  495 17.4655 -113.819 1.78588
  496 -1.46523 -20.0345 1.09892
  497 -1.09543 -13.1127 -0.879194
  498 19.4887 -144.569 0.316745
  499 23.7904 -151.952 -1.87744
  500 -1.11017 -14.5846 -2.73354
  501 -7.16219 -102.244 11.3252
  502 -7.34319 -90.2414 -27.1011
  503 -25.1343 -138.462 -3.59353
  504 -27.7154 -153.393 13.0170
  505 -20.2816 -144.645 0.637728
  506 -24.7617 -164.381 -6.74750
  507 -3.52510 -81.9768 -11.1815
  508 -4.77519 -62.8879 21.8580
  509 11.4225 -101.318 4.46783
  510 8.55228 -95.3041 -14.4546
  511 -1.63053 -8.56093 0.708792
  512 9.55323 -95.0428 11.3438
  513 21.1096 -130.834 9.76680
  514 19.9741 -132.799 -1.26609
  515 10.5588 -82.1571 -3.20319
  516 0.110811 -45.3729 -6.73118
  517 0.592548 -27.2469 5.69349
  518 -1.81888 2.24336 -1.80056
  519 13.1656 -153.834 6.66015
  520 2.25592 -51.8913 4.49328
  521 -0.113138 -62.2131 11.7813
  522 -2.73108 -42.2359 -15.3058
  523 20.4998 -135.961 -8.65604
  524 -1.77310 -35.7551 4.92868
  525 -2.10789 0.424647 1.82895
  526 -44.2443 -148.280 -0.0579971
  527 -59.9258 -176.621 2.19788
  528 -1.52705 2.98670 0.557627
  529 -1.07247 -16.9480 -1.50292
  530 1.13641 -41.0485 -3.67153
  531 0.689414 -16.6826 -4.78301
  532 7.53713 -142.205 -2.72386
  533 19.6995 -137.075 2.09834
  534 1.92929 -9.80717 1.15759
  535 1.16262 -95.4636 12.9377
  536 -2.96897 -87.6210 -24.5865
  537 8.75394 -142.912 1.64400
  538 11.2585 -157.980 -5.18804
  539 0.322158 -36.0891 -6.98280
  540 -2.26410 -38.7023 -1.34237
  541 -2.50434 4.28327 0.174697
  542 0.502252 -77.8987 19.6478
  543 -1.67722 3.07936 -2.46937
  544 26.5117 -142.768 -1.64749
  545 17.9260 -109.425 -6.00481
  546 5.37273 -94.8613 -10.1244
  547 -45.0933 -149.584 1.10493
  548 -61.3449 -177.739 -2.92591
  549 -36.1434 -131.193 8.50653
  550 -35.3458 -137.590 -21.3024
  551 -0.650289 -3.21683 -1.58305
  552 -22.2500 -113.824 -10.5327
  553 -16.1982 -107.068 26.7230
  554 -2.04673 -31.5121 0.916791
  555 -1.42100 -23.9642 9.54084
  556 11.8909 -89.8985 3.49900
  557 26.1110 -137.006 3.37281
  558 13.8227 -112.388 -4.50968
  559 -2.54570 5.95625 -0.870266
  560 -1.75297 1.38395 1.54894
  561 3.33030 -59.0006 11.6105
  562 25.3402 -148.560 3.39035
  563 -1.35990 11.0441 -0.556985
  564 -66.2089 -149.353 1.84385
  565 -1.64570 9.27356 0.0173582
  566 -93.0358 -178.426 -1.87875
  567 -0.874536 10.3940 3.41014
  568 0.163543 8.78655 5.95447
  569 3.89074 -0.826936 3.12549
  570 4.88206 -23.4114 -5.21066
  571 -19.8047 -81.4225 -13.2199
  572 -44.9278 -129.136 -9.88218
  573 -64.6123 -146.866 -1.68168
  574 -61.3310 -143.726 2.65091
  575 -65.6633 -133.678 8.44667
  576 -16.5104 -89.2686 9.98236
  577 2.46296 -27.7958 7.05403
  578 4.60589 -0.909426 -5.58370
  579 2.16921 6.22378 -5.86540
  580 -0.781451 10.7306 -4.02923
  581 -0.580314 9.48694 3.36533
  582 0.823836 5.69747 5.23329
  583 4.56123 -2.86289 3.14791
  584 5.49966 -11.4196 -1.19731
  585 -8.65544 -67.7991 -19.5126
  586 -66.0263 -140.904 -17.5990
  587 -77.7487 -165.600 -8.00504
  588 -84.6427 -171.742 7.13477
  589 -40.7963 -135.180 21.8117
  590 -10.4099 -56.3764 21.7827
  591 6.57669 -8.78449 0.782563
  592 6.08226 -0.344742 -5.04882
  593 1.02688 6.75033 -6.00784
  594 -0.683297 10.7286 -3.64712
</Section>

newXOutput 41

<Section columns = "stress_xx | stress_yy | stress_xy">
  1 637.784 6.18001 -6.39964
  2 637.799 6.18131 6.40098
  3 1179.39 0.185087 0.132575
  4 1179.38 0.183812 -0.133900
  5 -0.945792 -842.941 28.1090
  6 2374.34 -16.1330 -1.48514
  7 -1.06635 -843.553 -28.2746
  8 2702.09 -71.1594 -17.2809
  9 648.909 3.40837 -2.86655
  10 666.097 6.74120 -10.1750
  11 703.067 9.61211 -24.9671
  12 766.521 6.23878 -46.3760
  13 855.607 6.26035 -49.0941
  14 966.058 15.6843 -80.9814
  15 1148.99 3.26014 -104.128
  16 1352.74 -4.86782 -109.717
  17 1619.63 -37.2080 -61.1964
  18 1714.81 -33.8377 -31.2336
  19 1793.07 -3.09244 3.36771
  20 1890.07 24.0351 -13.0793
  21 1988.08 37.1391 -22.3396
  22 2060.71 -21.3723 -1.64806
  23 1889.12 16.9719 9.60463
  24 1793.95 -2.44060 -2.07686
  25 1715.18 -33.5225 31.3789
  26 1620.04 -37.2282 61.2229
  27 1353.01 -4.86892 109.763
  28 1149.20 3.26194 104.169
  29 966.198 15.6879 81.0101
  30 855.718 6.25871 49.1127
  31 766.588 6.23872 46.3947
  32 703.111 9.61483 24.9778
  33 666.123 6.74291 10.1817
  34 648.928 3.40982 2.86963
  35 693.031 3.45515 7.37741
  36 737.896 20.6204 12.2570
  37 773.656 34.5338 10.3638
  38 823.268 45.2006 6.96167
  39 867.991 52.2688 3.22193
  40 918.055 50.5310 -0.0542572
  41 970.674 42.2002 -1.31789
  42 1044.16 27.1205 -4.98674
  43 1096.07 16.8414 1.29116
  44 1137.33 10.9183 -2.55058
  45 1178.93 -0.630950 -7.23547
  46 1203.67 -3.68588 -8.22478
  47 1210.77 3.34490 -15.4295
  48 1252.24 0.924058 -22.2340
  49 1312.99 -7.99061 -20.4848
  50 1361.49 -8.33452 -24.2114
  51 1398.65 -10.5298 -18.2956
  52 1419.80 -17.1196 -2.97598
  53 1402.59 -21.5266 29.0550
  54 1341.23 -9.21187 46.8413
  55 1222.02 7.29060 58.0473
  56 1101.70 29.5510 45.3778
  57 1039.72 34.1196 23.2628
  58 1028.55 34.8296 -25.4910
  59 1113.69 19.5538 -42.5640
  60 1219.39 3.24424 -47.4223
  61 1342.43 -8.06498 -44.1112
  62 1402.91 -20.9194 -28.4297
  63 1419.59 -17.0147 2.94445
  64 1398.46 -10.5357 18.2474
  65 1361.35 -8.33591 24.1828
  66 1312.89 -7.98812 20.4685
  67 1252.18 0.922399 22.2198
  68 1210.74 3.34226 15.4199
  69 1203.65 -3.68625 8.21974
  70 1178.91 -0.631518 7.23244
  71 1137.31 10.9140 2.54824
  72 1096.07 16.8321 -1.29330
  73 1044.16 27.1053 4.98337
  74 970.685 42.1786 1.31614
  75 918.070 50.5056 0.0534434
  76 868.006 52.2432 -3.22130
  77 823.279 45.1784 -6.95989
  78 773.658 34.5181 -10.3601
  79 737.889 20.6104 -12.2546
  80 693.019 3.45065 -7.37501
  81 113.143 -683.872 -2.49988
  82 443.226 -237.233 150.004
  83 901.500 76.1011 347.973
  84 1357.02 206.357 441.012
  85 1781.40 176.578 473.248
  86 2171.64 40.3839 416.332
  87 2361.00 -40.9902 202.424
  88 2365.57 -38.7948 -204.183
  89 2173.36 31.2437 -416.657
  90 1778.96 178.315 -471.732
  91 1356.13 207.198 -440.312
  92 900.754 76.1125 -348.026
  93 443.050 -237.360 -150.018
  94 113.103 -684.258 2.47973
  95 58.6172 -736.547 -58.6880
  96 333.333 -323.440 87.8616
  97 738.443 -56.0516 213.226
  98 1275.26 116.805 316.917
  99 1814.71 141.497 335.683
  100 2269.67 35.6139 324.193
  101 2617.05 -50.4381 227.711
  102 2578.01 -54.2834 -205.072
  103 2274.93 54.0620 -319.134
  104 1815.90 138.430 -336.134
  105 1275.69 117.004 -317.674
  106 739.182 -55.5312 -213.740
  107 333.830 -322.831 -88.2614
  108 58.8667 -735.769 58.3225
  109 765.734 122.291 -26.2728
  110 765.786 122.278 26.2682
  111 1052.08 -76.6394 159.795
  112 1052.10 -76.8365 -159.767
  113 527.612 146.057 130.770
  114 527.714 146.062 -130.780
  115 1030.91 43.1243 49.1795
  116 1030.90 43.1433 -49.2000
  117 758.369 61.0680 51.0759
  118 758.379 61.0475 -51.0554
  119 1414.01 -57.3236 36.4807
  120 1414.41 -55.9913 -37.5595
  121 575.763 24.1076 191.099
  122 575.722 23.9532 -191.173
  123 1578.60 74.3666 -27.6696
  124 1573.15 70.1251 30.9941
  125 869.945 72.9381 7.75342
  126 869.919 72.9663 -7.75421
  127 1081.15 23.2213 -98.9925
  128 1081.16 23.2178 98.9679
  129 713.633 -9.87946 296.138
  130 713.754 -9.86764 -296.117
  131 1052.33 -198.789 214.460
  132 1052.45 -199.190 -214.670
  133 747.240 78.0878 -120.196
  134 747.242 78.1079 120.235
  135 1304.84 -67.1902 -16.2351
  136 1304.95 -66.8312 16.4651
  137 907.271 56.8823 114.745
  138 907.231 56.8609 -114.759
  139 269.159 47.4483 17.0723
  140 269.286 47.5816 -17.1775
  141 667.961 140.643 -70.0194
  142 667.904 140.663 70.0326
  143 1245.95 -27.5762 -70.6574
  144 1245.95 -27.5640 70.6584
  145 1124.48 11.5030 20.4844
  146 1124.50 11.5101 -20.4959
  147 831.758 58.6892 -208.582
  148 831.783 58.7078 208.639
  149 728.055 21.9329 28.0036
  150 728.043 21.9243 -27.9921
  151 1831.46 85.7043 5.41343
  152 912.689 71.6173 66.5044
  153 912.654 71.6339 -66.5214
  154 972.005 45.8580 19.7567
  155 971.991 45.8803 -19.7648
  156 807.533 56.5173 17.5670
  157 807.548 56.4936 -17.5590
  158 788.013 91.7706 -23.7342
  159 787.982 91.7981 23.7449
  160 1149.45 15.8688 -48.9714
  161 1149.43 15.8592 48.9462
  162 1229.46 -80.2168 -177.252
  163 1229.46 -80.3116 177.234
  164 630.418 130.877 49.6782
  165 630.348 130.844 -49.7050
  166 1327.33 -72.2759 149.220
  167 1327.81 -72.4958 -150.080
  168 615.520 -191.611 288.589
  169 615.521 -191.850 -288.698
  170 1622.21 47.7829 95.4176
  171 1625.94 56.1734 -99.3788
  172 748.696 33.4505 -65.6068
  173 748.719 33.4619 65.6323
  174 1372.49 55.1628 26.5661
  175 1373.42 10.9701 95.3717
  176 1349.16 13.0653 -92.7467
  177 1284.31 -149.428 62.6514
  178 1284.62 -150.195 -62.6159
  179 830.817 17.6099 171.412
  180 830.794 17.5046 -171.435
  181 1358.12 -47.9434 -56.5130
  182 1357.97 -50.6731 56.7118
  183 834.686 -103.901 246.582
  184 834.699 -104.153 -246.638
  185 846.287 92.5551 -23.2639
  186 846.324 92.5294 23.2596
  187 1931.93 99.0805 128.105
  188 1939.44 87.6547 -130.799
  189 741.949 87.0933 -71.3083
  190 741.931 87.1174 71.3342
  191 931.080 66.7173 34.7149
  192 931.055 66.7427 -34.7262
  193 1070.79 2.35197 120.810
  194 1070.76 2.32057 -120.817
  195 1308.49 37.9942 -56.8598
  196 1021.87 45.5766 77.2597
  197 1021.85 45.5908 -77.2841
  198 225.665 -165.034 -187.940
  199 225.410 -165.258 187.801
  200 1502.57 -33.1717 -94.1032
  201 1502.70 -32.8807 93.9014
  202 888.421 55.2553 -1.88898
  203 888.438 55.2286 1.88876
  204 206.260 -154.425 -133.566
  205 206.339 -154.173 133.439
  206 1239.52 -2.61382 -61.7930
  207 1239.48 -2.62349 61.7619
  208 458.443 130.877 -10.0293
  209 458.344 130.823 9.97756
  210 1154.47 -17.7975 -191.326
  211 1154.61 -17.7992 191.393
  212 855.826 24.7990 -123.662
  213 855.895 24.8085 123.705
  214 786.729 -156.211 262.314
  215 786.618 -156.309 -262.493
  216 771.349 37.4584 18.6263
  217 771.352 37.4414 -18.6167
  218 708.228 105.581 -182.224
  219 708.201 105.605 182.268
  220 766.897 97.9859 99.5518
  221 766.845 97.9581 -99.5715
  222 1035.36 31.6431 18.1044
  223 1035.36 31.6594 -18.1126
  224 492.280 105.939 209.117
  225 492.410 105.947 -209.130
  226 1130.08 -131.675 -145.773
  227 1130.01 -131.320 145.814
  228 491.337 -128.408 240.476
  229 491.616 -128.227 -240.587
  230 1159.80 7.81395 -28.2425
  231 1159.77 7.80917 28.2271
  232 1355.72 -15.2766 20.8684
  233 1355.78 -15.2704 -20.8898
  234 780.911 36.6665 -88.5021
  235 780.952 36.6786 88.5327
  236 1385.37 51.1451 59.7247
  237 1892.59 25.2797 150.390
  238 1893.94 25.1273 -150.171
  239 1510.79 92.6584 290.714
  240 1509.26 95.8690 -291.047
  241 727.843 128.670 -26.2657
  242 727.794 128.692 26.2740
  243 1228.01 -69.6991 -78.4196
  244 1228.05 -69.5127 78.5288
  245 712.152 12.3077 -30.4652
  246 712.178 12.3120 30.4785
  247 2120.65 24.2665 -83.3729
  248 1226.57 7.25995 -42.3061
  249 1226.52 7.25277 42.2819
  250 821.017 75.7993 -12.2827
  251 820.993 75.8269 12.2895
  252 592.259 156.003 -51.9735
  253 592.179 156.003 51.9657
  254 1504.59 22.2193 38.5970
  255 1497.08 22.3143 -39.2923
  256 2113.39 21.4123 81.4821
  257 839.690 94.5478 73.7395
  258 839.644 94.5509 -73.7531
  259 992.712 42.2977 -106.891
  260 992.740 42.2988 106.870
  261 1147.62 6.36779 9.22182
  262 1147.63 6.37096 -9.22656
  263 2183.29 -46.0128 133.281
  264 2176.74 -7.78721 -120.389
  265 1518.86 81.4874 -24.7688
  266 697.714 71.4931 142.522
  267 697.669 71.4095 -142.559
  268 679.743 61.4103 -267.546
  269 679.668 61.4232 267.582
  270 1093.25 23.1474 40.1878
  271 1093.26 23.1600 -40.2075
  272 744.964 37.4768 -49.2539
  273 744.974 37.4903 49.2744
  274 689.417 5.30878 8.32904
  275 689.402 5.30561 -8.32437
  276 683.069 145.174 -5.25314
  277 683.006 145.180 5.24988
  278 1365.14 -30.6852 -12.9956
  279 1365.04 -30.9989 13.0893
  280 74.5771 -235.515 34.4655
  281 74.7212 -235.230 -34.6096
  282 944.256 49.3121 -7.21018
  283 944.270 49.2874 7.20737
  284 1030.07 37.6366 32.5206
  285 1030.06 37.6548 -32.5353
  286 1141.36 28.3025 308.194
  287 1140.84 28.5058 -308.657
  288 1341.25 -88.7707 -18.8319
  289 1341.36 -89.7787 18.9870
  290 840.637 54.3642 -4.04775
  291 840.623 54.3896 4.05027
  292 1091.43 14.4190 -165.007
  293 1091.58 14.4285 165.065
  294 1328.78 -4.20648 36.1273
  295 1328.88 -4.19828 -36.1612
  296 1840.36 71.1099 -280.591
  297 1838.12 70.9584 278.468
  298 766.226 -121.423 -222.089
  299 765.874 -121.714 221.884
  300 1325.62 -12.8520 72.3820
  301 1325.99 -7.34669 -72.2050
  302 750.279 66.1272 -94.0467
  303 750.285 66.1469 94.0803
  304 387.302 37.3223 125.352
  305 387.223 37.1748 -125.450
  306 775.007 54.0062 33.3927
  307 775.016 53.9849 -33.3781
  308 961.466 -2.13336 150.757
  309 961.440 -2.21412 -150.759
  310 1579.08 101.395 8.96509
  311 700.247 109.049 -126.902
  312 700.217 109.071 126.936
  313 1453.64 -17.9630 -52.6088
  314 1452.02 -19.1470 51.6029
  315 907.172 59.1897 -9.79479
  316 907.191 59.1631 9.79170
  317 2319.92 -38.8996 -39.8879
  318 2430.60 -71.0209 80.4422
  319 997.064 17.1003 -133.710
  320 997.195 17.1064 133.757
  321 1546.53 45.6048 -229.314
  322 1546.28 47.0994 228.550
  323 1096.32 17.6864 8.70639
  324 1096.32 17.6963 -8.71208
  325 855.600 62.7023 -2.96409
  326 855.580 62.7294 2.96661
  327 803.858 45.6727 -8.50920
  328 803.849 45.6938 8.51347
  329 1153.95 -5.14691 -92.2618
  330 1153.95 -5.14296 92.2435
  331 1772.37 79.8219 18.6763
  332 995.630 37.6577 -9.38963
  333 995.638 37.6376 9.38540
  334 734.546 20.2306 13.2120
  335 734.539 20.2208 -13.2068
  336 763.118 87.4195 -45.4936
  337 763.094 87.4452 45.5117
  338 1264.53 12.6732 -67.4689
  339 1125.58 -15.2678 -234.799
  340 1125.27 -15.5243 234.515
  341 1209.19 7.87085 -26.7449
  342 1209.15 7.86640 26.7291
  343 1237.34 -166.286 123.039
  344 1237.67 -167.057 -123.360
  345 1123.82 22.7294 70.8120
  346 1123.83 22.7430 -70.8430
  347 1084.29 31.5860 60.5075
  348 1084.29 31.6017 -60.5342
  349 1238.03 -131.471 79.1418
  350 1238.12 -131.954 -78.9953
  351 305.178 -292.408 188.841
  352 305.151 -292.637 -188.913
  353 830.724 86.2717 2.74788
  354 830.691 86.2994 -2.74603
  355 1176.67 0.648756 12.6527
  356 1176.69 0.650761 -12.6602
  357 633.286 141.971 -135.434
  358 633.223 141.991 135.455
  359 943.357 -81.2701 -259.347
  360 943.289 -81.3273 259.380
  361 965.413 60.0108 53.4387
  362 965.391 60.0325 -53.4561
  363 1386.91 -34.3749 82.6375
  364 1385.60 -29.8351 -84.6981
  365 789.135 105.457 1.66485
  366 789.092 105.481 -1.66197
  367 661.474 -97.5967 -260.478
  368 661.476 -97.3669 260.395
  369 1126.00 -38.5187 -117.027
  370 1126.02 -38.4311 117.055
  371 1784.03 86.3618 -31.2598
  372 1361.85 -96.7602 35.2101
  373 1362.54 -97.7263 -35.3603
  374 388.730 118.657 115.712
  375 388.867 118.706 -115.767
  376 917.029 -49.1387 197.054
  377 917.034 -49.3149 -197.069
  378 1543.63 -42.1743 75.8488
  379 1543.32 -42.1980 -75.8502
  380 1261.55 17.7453 71.7955
  381 1196.55 38.7891 -4.75124
  382 833.493 -173.122 259.667
  383 833.526 -173.411 -259.778
  384 786.194 72.0981 31.6960
  385 786.213 72.0729 -31.6818
  386 1429.18 37.8357 -65.1169
  387 939.677 60.9885 89.3354
  388 939.642 60.9947 -89.3544
  389 1141.89 -165.220 197.853
  390 1141.99 -165.436 -198.367
  391 734.791 9.05895 -40.9887
  392 734.832 9.06258 41.0055
  393 1702.59 93.7588 69.8601
  394 1712.21 95.4945 -72.5956
  395 1366.98 -44.0857 132.354
  396 1366.76 -44.0605 -132.309
  397 1009.60 -145.658 205.622
  398 1009.67 -145.978 -205.665
  399 908.304 14.9066 -253.979
  400 908.312 14.9134 254.040
  401 633.805 121.131 -207.592
  402 633.737 121.157 207.624
  403 539.296 97.5589 102.992
  404 539.230 97.4691 -103.050
  405 1191.62 26.6330 35.4795
  406 837.518 96.5568 -41.1263
  407 837.561 96.5374 41.1179
  408 827.136 52.9421 146.895
  409 827.095 52.8787 -146.915
  410 741.903 -18.6748 -213.274
  411 741.922 -18.5079 213.227
  412 681.570 8.66236 15.1152
  413 681.549 8.65947 -15.1079
  414 893.036 80.7306 -41.2724
  415 893.070 80.7069 41.2610
  416 885.055 80.3708 22.4639
  417 885.026 80.3983 -22.4695
  418 168.350 -373.949 85.5075
  419 168.671 -373.460 -85.7889
  420 1424.18 16.8524 81.8984
  421 976.008 51.7821 34.9062
  422 975.992 51.8049 -34.9198
  423 758.434 38.5905 38.0735
  424 758.434 38.5750 -38.0573
  425 716.336 118.524 73.2634
  426 716.372 118.499 -73.2412
  427 747.759 55.1755 -70.9116
  428 747.760 55.1937 70.9395
  429 1169.45 8.53316 -77.4002
  430 1169.43 8.52088 77.3678
  431 772.044 74.0316 -153.973
  432 772.058 74.0500 154.018
  433 441.127 -87.6084 -229.886
  434 441.159 -87.3800 229.780
  435 1735.00 -7.45752 45.3335
  436 1735.40 -8.28201 -45.2036
  437 2122.08 4.04451 258.647
  438 2127.98 -1.84445 -258.512
  439 727.302 120.432 47.9241
  440 727.243 120.426 -47.9372
  441 29.7802 -533.320 -68.5694
  442 29.8307 -532.940 68.4819
  443 1299.94 -48.9444 39.6598
  444 1299.87 -48.9967 -39.5927
  445 1368.32 -14.2977 47.2654
  446 1368.08 -13.5252 -46.2550
  447 53.0767 -531.629 34.3064
  448 53.2746 -531.132 -34.5380
  449 1174.98 -167.696 -133.481
  450 1174.80 -167.182 133.434
  451 1304.77 -0.338693 -29.1488
  452 1304.68 -0.341532 29.1259
  453 1237.15 10.2805 -71.5217
  454 1341.27 -61.8407 -29.3973
  455 1340.87 -62.6712 29.8682
  456 1003.11 28.6627 -117.940
  457 1003.15 28.6794 117.927
  458 843.725 12.5664 -64.9024
  459 843.816 12.5688 64.9262
  460 296.166 32.4460 160.142
  461 296.342 32.5420 -160.230
  462 1157.96 -92.1702 119.242
  463 1157.98 -92.4085 -119.161
  464 1075.81 27.7666 23.7669
  465 1075.82 27.7806 -23.7794
  466 749.808 106.747 -40.8084
  467 749.772 106.773 40.8238
  468 1166.71 4.55038 3.75927
  469 1166.72 4.55158 -3.76089
  470 923.658 63.9436 -22.3023
  471 923.680 63.9171 22.2948
  472 655.192 -0.223781 2.12076
  473 655.177 -0.224919 -2.11914
  474 727.418 93.1457 -102.318
  475 727.401 93.1680 102.351
  476 486.809 -3.72975 -257.475
  477 486.624 -3.79217 257.437
  478 1145.76 4.65201 -39.5056
  479 27.7113 -147.577 0.477300
  480 5.22921 -77.3079 -2.77192
  481 4.88233 -63.9381 4.46711
  482 3.93165 -130.118 6.00026
  483 2.73819 -135.160 -17.9980
  484 1.86140 -125.182 -8.81026
  485 3.48252 -118.962 21.2879
  486 3.83777 -70.3802 11.1417
  487 0.490368 -52.0029 -13.9790
  488 -12.2659 -152.564 -0.887523
  489 -17.9165 -175.532 1.95193
  490 -2.54177 -13.9180 -1.41358
  491 1.26452 -61.2158 -10.2621
  492 -3.16132 -40.9426 12.2593
  493 22.0816 -130.043 -2.37187
  494 -2.82475 -9.83779 0.847483
  495 17.8791 -116.491 1.81531
  496 -1.52066 -20.4136 1.10623
  497 -1.14130 -13.3422 -0.887025
  498 19.9955 -148.120 0.322382
  499 24.4412 -155.668 -1.93282
  500 -1.14137 -14.8487 -2.76815
  501 -7.30296 -104.481 11.6898
  502 -7.44402 -92.1565 -27.8900
  503 -25.8155 -141.853 -3.70587
  504 -28.3322 -157.150 13.3935
  505 -20.8661 -148.236 0.667275
  506 -25.3405 -168.474 -6.94934
  507 -3.60344 -83.6661 -11.4965
  508 -4.85942 -64.0840 22.4581
  509 11.6713 -103.654 4.60890
  510 8.73774 -97.4842 -14.8410
  511 -1.67208 -8.68970 0.694766
  512 9.75603 -97.2145 11.6415
  513 21.6554 -133.959 10.0364
  514 20.4827 -135.991 -1.33495
  515 10.7758 -83.9980 -3.29829
  516 0.0820218 -46.3236 -6.88606
  517 0.602748 -27.7730 5.77986
  518 -1.86625 2.34200 -1.85211
  519 13.5562 -157.608 6.86260
  520 2.26665 -52.9914 4.59269
  521 -0.0923871 -63.4172 12.0371
  522 -2.76462 -42.9286 -15.6615
  523 21.0361 -139.232 -8.90054
  524 -1.84449 -36.4862 5.03320
  525 -2.15831 0.484948 1.88538
  526 -45.6362 -152.001 -0.0436384
  527 -61.5644 -181.088 2.25106
  528 -1.56987 3.10189 0.577258
  529 -1.09967 -17.2522 -1.50528
  530 1.12661 -41.9027 -3.75114
  531 0.717646 -16.9503 -4.83591
  532 7.73154 -145.700 -2.84660
  533 20.1980 -140.393 2.18402
  534 1.99728 -9.93496 1.11759
  535 1.14598 -97.5868 13.3090
  536 -3.06008 -89.5345 -25.2575
  537 8.98007 -146.428 1.72355
  538 11.6113 -161.885 -5.35324
  539 0.358457 -36.7258 -7.08410
  540 -2.35413 -39.4972 -1.37476
  541 -2.56810 4.42380 0.183605
  542 0.486477 -79.5875 20.1605
  543 -1.71674 3.19682 -2.54046
  544 27.2042 -146.232 -1.68900
  545 18.3542 -111.975 -6.15575
  546 5.46360 -96.9746 -10.4187
  547 -46.5169 -153.350 1.12697
  548 -63.0287 -182.242 -2.99764
  549 -36.9925 -134.310 8.73925
  550 -36.0530 -140.862 -21.9137
  551 -0.664704 -3.23344 -1.64935
  552 -22.6688 -116.395 -10.8442
  553 -16.4337 -109.467 27.4952
  554 -2.12456 -32.1522 0.936975
  555 -1.40980 -24.2300 9.69373
  556 12.1462 -91.9385 3.57930
  557 26.7804 -140.305 3.45305
  558 14.1392 -115.005 -4.67242
  559 -2.60952 6.13257 -0.895263
  560 -1.79408 1.46575 1.60242
  561 3.37008 -60.2617 11.8928
  562 26.0071 -152.180 3.48416
  563 -1.39428 11.3267 -0.567940
  564 -68.3623 -153.084 1.90862
  565 -1.68667 9.51867 0.0160284
  566 -95.6760 -182.926 -1.93383
  567 -0.893557 10.6659 3.49810
  568 0.173784 9.02294 6.11233
  569 4.00624 -0.794499 3.24946
  570 5.08487 -23.7889 -5.21131
  571 -20.0878 -83.0283 -13.5196
  572 -45.9191 -132.189 -10.0896
  573 -66.5765 -150.526 -1.67594
  574 -63.1444 -147.313 2.68585
  575 -67.2053 -136.859 8.57733
  576 -16.7211 -91.0806 10.2116
  577 2.58507 -28.2514 7.11856
  578 4.73068 -0.868368 -5.75321
  579 2.22690 6.41099 -6.02078
  580 -0.798217 11.0069 -4.12904
  581 -0.595022 9.73774 3.45035
  582 0.844746 5.86623 5.37287
  583 4.69151 -2.86550 3.26368
  584 5.67346 -11.4783 -1.13067
  585 -8.66223 -69.0774 -20.0387
  586 -67.4034 -144.269 -18.0663
  587 -79.7538 -169.732 -8.20715
  588 -86.8738 -176.036 7.30253
  589 -41.5699 -138.380 22.3981
  590 -10.4651 -57.3359 22.3453
  591 6.79874 -8.84189 0.696305
  592 6.24883 -0.304931 -5.20563
  593 1.05442 6.93920 -6.16403
  594 -0.698895 11.0051 -3.73839
</Section>

newXOutput 42

<Section columns = "stress_xx | stress_yy | stress_xy">
  1 649.153 6.32314 -6.54804
  2 649.168 6.32446 6.54940
  3 1202.85 0.162720 0.163689
  4 1202.83 0.161422 -0.165038
  5 -1.14930 -862.568 28.4882
  6 2417.11 -17.3097 -1.50224
  7 -1.27189 -863.193 -28.6569
  8 2748.75 -74.2855 -17.4524
  9 660.494 3.47126 -2.87558
  10 677.972 6.88678 -10.3043
  11 715.527 9.81385 -25.3964
  12 780.162 6.38313 -47.1967
  13 870.678 6.44092 -49.9719
  14 983.373 16.0357 -82.5084
  15 1169.80 3.33624 -106.133
  16 1377.83 -4.95706 -111.975
  17 1650.01 -37.9548 -62.6055
  18 1747.77 -34.5415 -32.3693
  19 1828.72 -2.97361 2.61454
  20 1929.06 24.5401 -14.3097
  21 2030.36 37.6911 -23.2747
  22 2103.74 -21.9630 -1.34135
  23 1928.17 17.4527 10.8834
  24 1829.60 -2.29720 -1.29575
  25 1748.14 -34.2194 32.5134
  26 1650.41 -37.9763 62.6306
  27 1378.11 -4.95853 112.021
  28 1170.01 3.33792 106.174
  29 983.514 16.0393 82.5374
  30 870.791 6.43923 49.9907
  31 780.230 6.38305 47.2158
  32 715.571 9.81661 25.4073
  33 677.998 6.88851 10.3111
  34 660.513 3.47274 2.87871
  35 705.799 3.44996 7.52482
  36 751.851 20.9558 12.5371
  37 788.628 35.1037 10.5582
  38 839.590 45.9081 7.11104
  39 885.407 53.1069 3.29984
  40 936.579 51.3453 -0.0313392
  41 990.277 42.8882 -1.31229
  42 1065.14 27.5375 -5.04736
  43 1117.99 17.1019 1.37567
  44 1160.01 11.1225 -2.57153
  45 1202.36 -0.665623 -7.36827
  46 1227.51 -3.79401 -8.34692
  47 1234.71 3.40805 -15.6749
  48 1276.93 0.939906 -22.6527
  49 1338.82 -8.18363 -20.8994
  50 1388.37 -8.53716 -24.7558
  51 1426.56 -10.7759 -18.8070
  52 1448.49 -17.5604 -3.26343
  53 1431.39 -22.1166 29.4757
  54 1369.04 -9.51326 47.6710
  55 1247.57 7.49816 59.2557
  56 1124.80 30.3947 46.3779
  57 1061.51 35.1225 23.8528
  58 1050.11 35.7649 -26.0611
  59 1137.04 20.0655 -43.4530
  60 1244.90 3.29659 -48.3870
  61 1370.26 -8.34307 -44.8934
  62 1431.70 -21.4949 -28.8411
  63 1448.27 -17.4547 3.22922
  64 1426.36 -10.7822 18.7572
  65 1388.23 -8.53864 24.7264
  66 1338.72 -8.18112 20.8827
  67 1276.87 0.938201 22.6383
  68 1234.67 3.40536 15.6651
  69 1227.48 -3.79440 8.34179
  70 1202.34 -0.666199 7.36519
  71 1160.00 11.1182 2.56915
  72 1117.98 17.0924 -1.37785
  73 1065.14 27.5219 5.04394
  74 990.288 42.8662 1.31050
  75 936.594 51.3194 0.0305106
  76 885.422 53.0808 -3.29920
  77 839.602 45.8855 -7.10923
  78 788.630 35.0877 -10.5544
  79 751.844 20.9456 -12.5347
  80 705.787 3.44539 -7.52239
  81 115.086 -700.463 -3.00073
  82 451.579 -243.457 152.602
  83 918.362 76.9087 354.486
  84 1382.16 210.281 449.345
  85 1813.94 179.945 482.232
  86 2209.96 40.4910 424.234
  87 2402.73 -42.7908 206.324
  88 2407.34 -40.4930 -208.125
  89 2211.68 31.0857 -424.576
  90 1811.43 181.735 -480.677
  91 1381.24 211.142 -448.636
  92 917.602 76.9207 -354.542
  93 451.401 -243.587 -152.618
  94 115.046 -700.859 2.97955
  95 59.7942 -753.633 -59.9643
  96 339.825 -330.853 89.5930
  97 752.459 -57.6497 217.239
  98 1298.90 119.139 322.943
  99 1847.98 144.863 342.322
  100 2310.37 36.0831 330.908
  101 2662.38 -52.8373 232.230
  102 2623.36 -56.6125 -209.258
  103 2315.68 54.9291 -325.796
  104 1849.19 141.689 -342.791
  105 1299.34 119.339 -323.709
  106 753.205 -57.1203 -217.759
  107 340.327 -330.232 -89.9987
  108 60.0474 -752.837 59.5924
  109 781.360 125.029 -26.6743
  110 781.413 125.016 26.6699
  111 1072.82 -77.8056 163.292
  112 1072.84 -78.0056 -163.263
  113 538.330 149.510 133.639
  114 538.434 149.516 -133.649
  115 1051.66 44.0284 50.0600
  116 1051.65 44.0478 -50.0809
  117 773.135 62.2246 51.9808
  118 773.144 62.2038 -51.9599
  119 1442.23 -58.7428 36.8082
  120 1442.64 -57.3637 -37.9145
  121 587.396 25.3047 194.717
  122 587.354 25.1468 -194.791
  123 1610.85 75.8217 -27.8215
  124 1605.30 71.4931 31.2106
  125 887.533 74.3070 7.88071
  126 887.507 74.3358 -7.88147
  127 1102.77 23.9968 -101.025
  128 1102.78 23.9926 101.000
  129 727.592 -9.56241 302.521
  130 727.714 -9.54948 -302.499
  131 1072.78 -203.219 219.072
  132 1072.90 -203.633 -219.285
  133 761.506 79.7061 -122.472
  134 761.508 79.7264 122.511
  135 1330.94 -68.5247 -17.0256
  136 1331.06 -68.1608 17.2598
  137 925.545 58.4989 116.958
  138 925.503 58.4778 -116.973
  139 274.871 49.2161 17.8047
  140 275.000 49.3523 -17.9111
  141 681.434 143.710 -71.4889
  142 681.377 143.729 71.5027
  143 1270.82 -27.9693 -72.4145
  144 1270.83 -27.9579 72.4145
  145 1146.92 11.6955 20.8209
  146 1146.93 11.7027 -20.8327
  147 847.497 60.0140 -212.799
  148 847.523 60.0325 212.856
  149 741.676 22.3267 28.4878
  150 741.664 22.3179 -28.4760
  151 1868.12 87.0422 5.55531
  152 931.198 73.2747 67.7237
  153 931.163 73.2918 -67.7411
  154 991.641 46.6644 20.0932
  155 991.628 46.6871 -20.1015
  156 823.545 57.5012 17.8708
  157 823.561 57.4771 -17.8626
  158 803.840 93.5833 -24.1858
  159 803.809 93.6114 24.1968
  160 1172.35 16.2458 -49.8870
  161 1172.33 16.2360 49.8612
  162 1253.29 -81.6724 -181.299
  163 1253.29 -81.7715 181.279
  164 643.373 134.088 50.4205
  165 643.302 134.055 -50.4470
  166 1353.02 -74.0122 152.536
  167 1353.51 -74.2430 -153.416
  168 627.514 -195.718 294.491
  169 627.515 -195.963 -294.601
  170 1653.91 48.7414 97.9716
  171 1657.70 57.3635 -102.017
  172 762.626 34.0860 -66.7798
  173 762.650 34.0976 66.8057
  174 1401.21 56.2242 27.1182
  175 1401.59 11.0927 97.1009
  176 1376.93 13.2842 -94.4720
  177 1309.56 -152.827 64.3685
  178 1309.87 -153.619 -64.3307
  179 847.396 18.6279 174.771
  180 847.372 18.5212 -174.794
  181 1385.74 -49.1563 -57.3567
  182 1385.58 -51.9528 57.5581
  183 851.063 -105.638 251.644
  184 851.075 -105.896 -251.700
  185 863.487 94.4752 -23.6495
  186 863.525 94.4489 23.6452
  187 1969.40 100.719 131.161
  188 1976.99 88.9732 -133.948
  189 756.488 88.8420 -72.6243
  190 756.470 88.8664 72.6509
  191 949.947 68.0473 35.3148
  192 949.922 68.0733 -35.3263
  193 1092.15 2.81113 123.377
  194 1092.12 2.78011 -123.384
  195 1335.83 38.8012 -58.0034
  196 1042.43 46.6930 78.7449
  197 1042.41 46.7079 -78.7699
  198 230.261 -167.943 -192.338
  199 230.003 -168.171 192.197
  200 1531.74 -33.5974 -96.4873
  201 1531.86 -33.3008 96.2793
  202 906.319 56.1670 -1.92131
  203 906.336 56.1399 1.92109
  204 210.516 -157.185 -136.098
  205 210.596 -156.927 135.969
  206 1264.19 -2.54487 -63.1804
  207 1264.15 -2.55504 63.1482
  208 467.978 134.182 -10.5637
  209 467.878 134.127 10.5119
  210 1176.43 -18.0032 -195.365
  211 1176.57 -18.0057 195.432
  212 871.587 25.2738 -126.013
  213 871.657 25.2834 126.057
  214 801.871 -159.977 267.637
  215 801.759 -160.079 -267.820
  216 786.279 38.0796 18.9118
  217 786.281 38.0624 -18.9020
  218 721.954 107.890 -185.872
  219 721.927 107.915 185.918
  220 782.497 100.505 101.354
  221 782.444 100.477 -101.374
  222 1056.19 32.1833 18.4113
  223 1056.19 32.1999 -18.4197
  224 502.151 108.658 213.648
  225 502.281 108.667 -213.661
  226 1152.27 -134.238 -149.124
  227 1152.20 -133.877 149.167
  228 501.074 -130.668 245.817
  229 501.354 -130.484 -245.929
  230 1182.86 7.97733 -28.7333
  231 1182.83 7.97245 28.7176
  232 1382.95 -15.4981 21.5510
  233 1383.01 -15.4907 -21.5740
  234 795.331 37.3955 -90.1571
  235 795.372 37.4077 90.1881
  236 1414.13 52.2105 60.7958
  237 1929.10 25.9790 154.119
  238 1930.49 25.7912 -153.891
  239 1539.58 94.6181 296.706
  240 1538.01 97.9142 -297.046
  241 742.595 131.431 -26.8462
  242 742.545 131.453 26.8550
  243 1252.43 -70.9603 -80.4472
  244 1252.48 -70.7718 80.5576
  245 725.146 12.5319 -30.9827
  246 725.172 12.5363 30.9962
  247 2160.76 24.1409 -85.2052
  248 1250.89 7.48108 -43.1513
  249 1250.84 7.47366 43.1265
  250 837.499 77.2221 -12.5074
  251 837.474 77.2502 12.5143
  252 604.376 159.581 -53.2115
  253 604.295 159.581 53.2042
  254 1534.87 22.5891 38.9157
  255 1527.24 22.6750 -39.6257
  256 2153.45 21.1705 83.2788
  257 856.755 96.8018 75.0699
  258 856.708 96.8053 -75.0835
  259 1012.67 43.5255 -109.013
  260 1012.70 43.5259 108.991
  261 1170.48 6.47475 9.37754
  262 1170.49 6.47796 -9.38236
  263 2225.40 -47.4281 136.588
  264 2218.83 -8.43243 -123.480
  265 1550.29 83.1128 -25.1559
  266 711.842 73.6300 145.160
  267 711.795 73.5451 -145.197
  268 692.969 63.0409 -273.204
  269 692.894 63.0533 273.241
  270 1115.14 23.5919 40.8973
  271 1115.15 23.6049 -40.9175
  272 759.030 38.1740 -50.1028
  273 759.041 38.1877 50.1237
  274 702.050 5.37704 8.44509
  275 702.035 5.37382 -8.44034
  276 697.041 148.445 -5.51310
  277 696.977 148.452 5.51026
  278 1392.83 -31.3220 -12.9363
  279 1392.73 -31.6394 13.0298
  280 76.1941 -239.909 35.5583
  281 76.3401 -239.619 -35.7045
  282 963.328 50.1207 -7.33189
  283 963.342 50.0955 7.32903
  284 1050.81 38.3354 33.0791
  285 1050.81 38.3540 -33.0941
  286 1163.05 28.6210 314.383
  287 1162.52 28.8259 -314.860
  288 1368.06 -90.8233 -18.8009
  289 1368.17 -91.8584 18.9612
  290 857.415 55.2648 -4.10942
  291 857.401 55.2906 4.11199
  292 1111.73 14.7926 -168.328
  293 1111.88 14.8021 168.386
  294 1355.25 -4.20860 37.0110
  295 1355.34 -4.19992 -37.0461
  296 1875.12 72.3031 -286.529
  297 1872.86 72.1691 284.364
  298 781.209 -123.961 -226.839
  299 780.856 -124.258 226.632
  300 1352.97 -13.2287 73.7161
  301 1353.35 -7.58065 -73.5546
  302 764.562 67.4459 -95.7759
  303 764.568 67.4657 95.8101
  304 395.312 38.8070 127.584
  305 395.233 38.6562 -127.683
  306 790.151 54.9733 33.9655
  307 790.160 54.9516 -33.9506
  308 980.618 -1.63576 153.862
  309 980.591 -1.71705 -153.864
  310 1611.63 103.517 8.93793
  311 713.961 111.369 -129.396
  312 713.930 111.392 129.431
  313 1482.26 -18.4097 -54.1584
  314 1480.61 -19.6208 53.1252
  315 925.510 60.2306 -9.95893
  316 925.529 60.2035 9.95580
  317 2364.87 -40.2595 -40.8465
  318 2476.00 -73.3136 82.2312
  319 1015.31 17.4634 -136.305
  320 1015.44 17.4693 136.353
  321 1576.13 46.7427 -234.254
  322 1575.88 48.2851 233.474
  323 1118.24 17.9709 8.82749
  324 1118.25 17.9809 -8.83329
  325 872.802 63.7979 -3.01650
  326 872.782 63.8255 3.01908
  327 819.684 46.4215 -8.64515
  328 819.675 46.4430 8.64950
  329 1176.96 -4.98119 -94.3074
  330 1176.97 -4.97799 94.2882
  331 1807.97 81.0240 19.4279
  332 1015.71 38.2590 -9.54429
  333 1015.71 38.2385 9.53997
  334 748.413 20.5560 13.4497
  335 748.406 20.5461 -13.4445
  336 778.255 89.1459 -46.3296
  337 778.231 89.1720 46.3481
  338 1290.87 12.8420 -68.7931
  339 1147.30 -15.5811 -239.767
  340 1147.00 -15.8432 239.480
  341 1233.13 8.06746 -27.2204
  342 1233.09 8.06290 27.2043
  343 1261.46 -170.112 125.870
  344 1261.80 -170.908 -126.196
  345 1146.27 23.3415 72.2110
  346 1146.28 23.3556 -72.2428
  347 1106.02 32.3134 61.6447
  348 1106.02 32.3295 -61.6720
  349 1262.50 -134.296 81.2279
  350 1262.59 -134.791 -81.0773
  351 311.079 -299.025 192.624
  352 311.053 -299.260 -192.698
  353 847.543 87.9771 2.77006
  354 847.510 88.0054 -2.76809
  355 1200.02 0.630046 12.8518
  356 1200.05 0.632091 -12.8594
  357 645.920 145.127 -138.236
  358 645.856 145.148 138.258
  359 961.683 -82.6182 -264.990
  360 961.616 -82.6778 265.022
  361 984.940 61.2971 54.4102
  362 984.918 61.3194 -54.4279
  363 1414.97 -35.2949 84.0210
  364 1413.66 -30.6261 -86.1336
  365 805.156 107.663 1.64611
  366 805.113 107.688 -1.64301
  367 674.483 -99.2140 -265.721
  368 674.486 -98.9783 265.638
  369 1148.36 -38.9407 -119.670
  370 1148.39 -38.8528 119.699
  371 1819.79 87.7819 -32.3527
  372 1388.64 -99.0090 36.3153
  373 1389.33 -100.010 -36.4700
  374 396.799 121.755 118.414
  375 396.937 121.805 -118.469
  376 935.133 -49.6045 201.095
  377 935.136 -49.7837 -201.109
  378 1573.17 -42.7967 77.7676
  379 1572.86 -42.8189 -77.7715
  380 1287.78 18.1026 73.1978
  381 1221.67 39.6702 -4.82671
  382 849.693 -176.649 265.073
  383 849.726 -176.946 -265.185
  384 801.779 73.4470 32.2513
  385 801.799 73.4213 -32.2368
  386 1458.69 38.5124 -66.1952
  387 958.651 62.5322 91.0266
  388 958.615 62.5390 -91.0458
  389 1163.92 -169.098 202.068
  390 1164.02 -169.324 -202.593
  391 748.071 9.20953 -41.7073
  392 748.113 9.21319 41.7244
  393 1736.47 95.7421 71.9592
  394 1746.25 97.4699 -74.7757
  395 1393.03 -44.8181 135.280
  396 1392.80 -44.7913 -135.235
  397 1029.30 -148.519 210.019
  398 1029.37 -148.846 -210.062
  399 925.721 15.5283 -259.300
  400 925.730 15.5345 259.361
  401 646.267 123.907 -211.898
  402 646.199 123.933 211.930
  403 550.395 100.264 104.752
  404 550.328 100.173 -104.810
  405 1216.59 27.2078 36.1849
  406 854.578 98.6719 -41.8320
  407 854.622 98.6519 41.8237
  408 843.788 54.6363 149.727
  409 843.745 54.5723 -149.746
  410 756.666 -18.4190 -217.483
  411 756.686 -18.2488 217.436
  412 693.904 8.82973 15.3581
  413 693.883 8.82679 -15.3507
  414 911.180 82.4530 -41.9985
  415 911.214 82.4286 41.9870
  416 903.002 81.9686 22.8448
  417 902.973 81.9968 -22.8504
  418 171.776 -381.920 87.5712
  419 172.100 -381.422 -87.8567
  420 1453.43 16.9523 83.3543
  421 995.733 52.7908 35.5097
  422 995.716 52.8141 -35.5235
  423 773.012 39.2646 38.7260
  424 773.012 39.2488 -38.7095
  425 730.585 121.017 74.6935
  426 730.621 120.992 -74.6706
  427 762.078 56.2305 -72.1717
  428 762.079 56.2489 72.2001
  429 1192.75 8.88754 -79.0276
  430 1192.74 8.87466 78.9942
  431 786.661 75.6005 -156.973
  432 786.676 75.6190 157.019
  433 449.961 -88.9223 -234.397
  434 449.993 -88.6883 234.290
  435 1768.72 -7.54958 46.8081
  436 1769.13 -8.39635 -46.6781
  437 2161.18 3.51920 263.894
  438 2167.12 -2.52824 -263.771
  439 742.193 123.276 48.6912
  440 742.132 123.270 -48.7040
  441 30.2314 -545.349 -69.8230
  442 30.2825 -544.961 69.7335
  443 1326.03 -49.8784 40.9062
  444 1325.96 -49.9296 -40.8394
  445 1396.45 -14.6285 48.0445
  446 1396.20 -13.8360 -47.0163
  447 54.2337 -543.152 35.3469
  448 54.4344 -542.645 -35.5821
  449 1197.94 -171.282 -136.542
  450 1197.76 -170.755 136.496
  451 1330.58 -0.296133 -29.7708
  452 1330.49 -0.299103 29.7473
  453 1262.92 10.5111 -72.9896
  454 1368.33 -63.2574 -29.5900
  455 1367.91 -64.1021 30.0710
  456 1023.18 29.6791 -120.326
  457 1023.21 29.6952 120.313
  458 858.840 12.8450 -66.0983
  459 858.933 12.8474 66.1225
  460 302.313 33.8810 163.812
  461 302.490 33.9790 -163.901
  462 1180.84 -93.8209 122.054
  463 1180.87 -94.0627 -121.971
  464 1097.38 28.2589 24.1564
  465 1097.39 28.2733 -24.1691
  466 764.844 108.935 -41.5983
  467 764.807 108.962 41.6141
  468 1189.93 4.64508 3.82696
  469 1189.95 4.64629 -3.82860
  470 942.359 65.1521 -22.6787
  471 942.380 65.1250 22.6710
  472 666.996 -0.255327 2.14404
  473 666.981 -0.256482 -2.14238
  474 741.575 95.0783 -104.263
  475 741.557 95.1008 104.296
  476 496.509 -3.23149 -263.122
  477 496.323 -3.29559 263.083
  478 1169.78 4.59807 -40.3714
  479 28.4156 -151.068 0.480803
  480 5.30391 -78.9951 -2.83500
  481 4.95377 -65.3007 4.57133
  482 4.01075 -133.133 6.21624
  483 2.83889 -138.288 -18.5227
  484 1.89090 -128.044 -9.10953
  485 3.58957 -121.648 21.8861
  486 3.89819 -71.8171 11.3996
  487 0.491438 -53.0137 -14.2968
  488 -12.6105 -156.280 -0.919088
  489 -18.3001 -179.829 2.01109
  490 -2.61757 -14.1561 -1.43838
  491 1.24667 -62.4596 -10.4897
  492 -3.26225 -41.7091 12.5198
  493 22.6173 -133.056 -2.42101
  494 -2.90593 -9.99076 0.859436
  495 18.2918 -119.149 1.84409
  496 -1.57640 -20.7871 1.11275
  497 -1.18756 -13.5674 -0.894282
  498 20.5041 -151.660 0.327803
  499 25.0937 -159.371 -1.98847
  500 -1.17265 -15.1080 -2.80158
  501 -7.44003 -106.698 12.0601
  502 -7.54107 -94.0524 -28.6836
  503 -26.4919 -145.235 -3.82129
  504 -28.9436 -160.897 13.7727
  505 -21.4464 -151.817 0.698777
  506 -25.9142 -172.557 -7.15308
  507 -3.68000 -85.3349 -11.8147
  508 -4.94189 -65.2602 23.0603
  509 11.9193 -105.976 4.75108
  510 8.92217 -99.6503 -15.2280
  511 -1.71359 -8.81483 0.679714
  512 9.95744 -99.3721 11.9395
  513 22.2018 -137.069 10.3067
  514 20.9923 -139.169 -1.40535
  515 10.9913 -85.8251 -3.39399
  516 0.0523354 -47.2642 -7.04033
  517 0.612801 -28.2915 5.86409
  518 -1.91345 2.44161 -1.90369
  519 13.9495 -161.370 7.06621
  520 2.27607 -54.0805 4.69137
  521 -0.0705945 -64.6020 12.2922
  522 -2.79701 -43.6033 -16.0161
  523 21.5730 -142.489 -9.14585
  524 -1.91657 -37.2087 5.13697
  525 -2.20847 0.546723 1.94189
  526 -47.0257 -155.715 -0.0298066
  527 -63.1995 -185.548 2.30464
  528 -1.61267 3.21797 0.597055
  529 -1.12670 -17.5509 -1.50645
  530 1.11564 -42.7476 -3.83012
  531 0.745913 -17.2111 -4.88626
  532 7.92895 -149.182 -2.97180
  533 20.6975 -143.697 2.27092
  534 2.06569 -10.0575 1.07508
  535 1.12897 -99.6933 13.6829
  536 -3.15142 -91.4314 -25.9305
  537 9.20935 -149.932 1.80473
  538 11.9672 -165.779 -5.51961
  539 0.395485 -37.3485 -7.18298
  540 -2.44485 -40.2830 -1.40718
  541 -2.63163 4.56485 0.192588
  542 0.469831 -81.2608 20.6737
  543 -1.75604 3.31525 -2.61157
  544 27.8976 -149.682 -1.73049
  545 18.7815 -114.510 -6.30653
  546 5.55399 -99.0714 -10.7151
  547 -47.9380 -157.109 1.14924
  548 -64.7092 -186.738 -3.06969
  549 -37.8338 -137.414 8.97655
  550 -36.7518 -144.119 -22.5291
  551 -0.678936 -3.24794 -1.71624
  552 -23.0791 -118.950 -11.1615
  553 -16.6611 -111.849 28.2721
  554 -2.20294 -32.7847 0.957107
  555 -1.39710 -24.4799 9.84305
  556 12.3999 -93.9645 3.65925
  557 27.4501 -143.591 3.53301
  558 14.4551 -117.606 -4.83730
  559 -2.67311 6.30913 -0.920238
  560 -1.83486 1.54877 1.65622
  561 3.40827 -61.5104 12.1744
  562 26.6748 -155.787 3.57816
  563 -1.42853 11.6083 -0.578722
  564 -70.5155 -156.808 1.97347
  565 -1.72744 9.76316 0.0146257
  566 -98.3143 -187.417 -1.98900
  567 -0.912382 10.9371 3.58580
  568 0.184239 9.25876 6.26982
  569 4.12194 -0.760459 3.37440
  570 5.28963 -24.1561 -5.20710
  571 -20.3617 -84.6102 -13.8213
  572 -46.9007 -135.229 -10.3009
  573 -68.5387 -154.179 -1.67160
  574 -64.9549 -150.893 2.72229
  575 -68.7370 -140.028 8.71085
  576 -16.9225 -92.8696 10.4436
  577 2.70851 -28.6951 7.17896
  578 4.85523 -0.825415 -5.92288
  579 2.28445 6.59834 -6.17574
  580 -0.814801 11.2822 -4.22838
  581 -0.609685 9.98797 3.53501
  582 0.865544 6.03524 5.51215
  583 4.82181 -2.86546 3.38029
  584 5.84773 -11.5267 -1.06041
  585 -8.66030 -70.3334 -20.5670
  586 -68.7689 -147.621 -18.5365
  587 -81.7544 -173.855 -8.41091
  588 -89.1008 -180.321 7.47158
  589 -42.3332 -141.567 22.9877
  590 -10.5117 -58.2727 22.9091
  591 7.02217 -8.89201 0.606035
  592 6.41529 -0.263502 -5.36292
  593 1.08189 7.12803 -6.31980
  594 -0.714390 11.2807 -3.82929
</Section>

newXOutput 43

<Section columns = "stress_xx | stress_yy | stress_xy">
  1 660.341 6.46591 -6.69607
  2 660.357 6.46726 6.69746
  3 1226.07 0.139259 0.195945
  4 1226.05 0.137939 -0.197318
  5 -1.35925 -882.120 28.8500
  6 2459.25 -18.5201 -1.51834
  7 -1.48377 -882.759 -29.0219
  8 2794.64 -77.4655 -17.6128
  9 671.896 3.53339 -2.88238
  10 689.658 7.03155 -10.4292
  11 727.786 10.0142 -25.8188
  12 793.589 6.52725 -48.0051
  13 885.506 6.62233 -50.8370
  14 1000.42 16.3852 -84.0165
  15 1190.30 3.41183 -108.115
  16 1402.58 -5.04663 -114.210
  17 1679.98 -38.6942 -64.0047
  18 1780.32 -35.2401 -33.5117
  19 1863.98 -2.84298 1.83407
  20 1967.70 25.0430 -15.5745
  21 2072.30 38.2231 -24.2223
  22 2146.38 -22.5518 -1.01955
  23 1966.86 17.9374 12.2009
  24 1864.86 -2.14211 -0.487993
  25 1780.69 -34.9111 33.6542
  26 1680.38 -38.7170 64.0281
  27 1402.86 -5.04849 114.257
  28 1190.51 3.41339 108.156
  29 1000.57 16.3888 84.0457
  30 885.620 6.62060 50.8560
  31 793.657 6.52714 48.0244
  32 727.832 10.0170 25.8298
  33 689.685 7.03331 10.4361
  34 671.915 3.53489 2.88556
  35 718.387 3.44145 7.67093
  36 765.628 21.2847 12.8163
  37 803.425 35.6629 10.7502
  38 855.741 46.5999 7.25943
  39 902.649 53.9272 3.37759
  40 954.924 52.1424 -0.00753698
  41 1009.69 43.5621 -1.30520
  42 1085.90 27.9443 -5.10547
  43 1139.69 17.3562 1.46231
  44 1182.47 11.3242 -2.59078
  45 1225.55 -0.701013 -7.49928
  46 1251.10 -3.90285 -8.46584
  47 1258.39 3.47019 -15.9147
  48 1301.37 0.955192 -23.0656
  49 1364.37 -8.37647 -21.3093
  50 1414.97 -8.73977 -25.2963
  51 1454.18 -11.0217 -19.3187
  52 1476.90 -18.0021 -3.55802
  53 1459.93 -22.7089 29.8841
  54 1396.62 -9.81773 48.4861
  55 1272.92 7.70742 60.4528
  56 1147.73 31.2435 47.3710
  57 1083.13 36.1329 24.4428
  58 1071.52 36.7030 -26.6276
  59 1160.21 20.5783 -44.3334
  60 1270.22 3.34773 -49.3416
  61 1397.85 -8.62455 -45.6619
  62 1460.24 -22.0727 -29.2404
  63 1476.67 -17.8957 3.52106
  64 1453.98 -11.0285 19.2674
  65 1414.83 -8.74134 25.2662
  66 1364.27 -8.37393 21.2922
  67 1301.31 0.953441 23.0509
  68 1258.35 3.46744 15.9046
  69 1251.07 -3.90325 8.46064
  70 1225.54 -0.701596 7.49615
  71 1182.45 11.3198 2.58836
  72 1139.69 17.3466 -1.46452
  73 1085.91 27.9285 5.10198
  74 1009.70 43.5397 1.30338
  75 954.939 52.1161 0.00669409
  76 902.665 53.9007 -3.37693
  77 855.753 46.5769 -7.25758
  78 803.427 35.6466 -10.7463
  79 765.621 21.2744 -12.8139
  80 718.375 3.43680 -7.66845
  81 116.993 -717.025 -3.52161
  82 459.826 -249.692 155.153
  83 935.010 77.6694 360.911
  84 1406.96 214.154 457.570
  85 1846.03 183.275 491.102
  86 2247.71 40.5674 432.038
  87 2443.84 -44.6186 210.179
  88 2448.48 -42.2165 -212.022
  89 2249.43 30.8951 -432.397
  90 1843.47 185.119 -489.509
  91 1406.02 215.036 -456.853
  92 934.235 77.6821 -360.971
  93 459.647 -249.825 -155.170
  94 116.953 -717.431 3.49937
  95 60.9614 -770.646 -61.2275
  96 346.247 -338.228 91.3089
  97 766.312 -59.2487 221.202
  98 1322.25 121.452 328.895
  99 1880.81 148.227 348.890
  100 2350.47 36.5409 337.563
  101 2706.98 -55.2777 236.697
  102 2668.00 -58.9782 -213.403
  103 2355.83 55.7805 -332.400
  104 1882.02 144.945 -349.377
  105 1322.68 121.653 -329.670
  106 767.063 -58.7108 -221.728
  107 346.754 -337.596 -91.7202
  108 61.2179 -769.834 60.8495
  109 796.843 127.752 -27.0680
  110 796.897 127.738 27.0639
  111 1093.35 -78.9405 166.766
  112 1093.36 -79.1432 -166.736
  113 548.944 152.949 136.489
  114 549.049 152.955 -136.499
  115 1072.21 44.9240 50.9265
  116 1072.20 44.9440 -50.9478
  117 787.731 63.3668 52.8711
  118 787.741 63.3457 -52.8498
  119 1470.17 -60.1596 37.1145
  120 1470.58 -58.7331 -38.2482
  121 598.920 26.5233 198.288
  122 598.877 26.3621 -198.362
  123 1642.79 77.2607 -27.9515
  124 1637.15 72.8456 31.4044
  125 904.952 75.6575 8.00616
  126 904.926 75.6868 -8.00691
  127 1124.18 24.7778 -103.038
  128 1124.19 24.7728 103.012
  129 741.394 -9.22927 308.857
  130 741.515 -9.21517 -308.835
  131 1093.01 -207.625 223.651
  132 1093.13 -208.052 -223.867
  133 775.593 81.3102 -124.718
  134 775.596 81.3307 124.758
  135 1356.80 -69.8424 -17.8288
  136 1356.91 -69.4739 18.0672
  137 943.646 60.1197 119.146
  138 943.603 60.0988 -119.160
  139 280.540 51.0022 18.5489
  140 280.669 51.1411 -18.6563
  141 694.774 146.755 -72.9448
  142 694.716 146.774 72.9592
  143 1295.45 -28.3503 -74.1677
  144 1295.46 -28.3399 74.1665
  145 1169.13 11.8841 21.1505
  146 1169.15 11.8915 -21.1625
  147 863.033 61.3299 -216.974
  148 863.060 61.3482 217.032
  149 755.116 22.7148 28.9639
  150 755.104 22.7059 -28.9520
  151 1904.40 88.3453 5.69761
  152 949.535 74.9237 68.9262
  153 949.499 74.9416 -68.9438
  154 1011.09 47.4570 20.4238
  155 1011.08 47.4801 -20.4323
  156 839.389 58.4688 18.1691
  157 839.404 58.4442 -18.1607
  158 819.509 95.3761 -24.6307
  159 819.477 95.4047 24.6420
  160 1195.02 16.6212 -50.7894
  161 1195.00 16.6111 50.7630
  162 1276.84 -83.1070 -185.324
  163 1276.85 -83.2104 185.302
  164 656.213 137.293 51.1455
  165 656.141 137.258 -51.1717
  166 1378.42 -75.7463 155.830
  167 1378.92 -75.9882 -156.730
  168 639.376 -199.792 300.337
  169 639.378 -200.045 -300.448
  170 1685.25 49.6923 100.526
  171 1689.10 58.5471 -104.654
  172 776.367 34.7138 -67.9351
  173 776.391 34.7255 67.9615
  174 1429.70 57.2696 27.6652
  175 1429.50 11.2098 98.8018
  176 1404.46 13.4997 -96.1714
  177 1334.54 -156.210 66.0885
  178 1334.86 -157.025 -66.0484
  179 863.812 19.6667 178.092
  180 863.787 19.5586 -178.114
  181 1413.11 -50.3688 -58.1776
  182 1412.94 -53.2320 58.3815
  183 867.267 -107.339 256.659
  184 867.279 -107.603 -256.715
  185 880.526 96.3777 -24.0288
  186 880.565 96.3508 24.0245
  187 2006.43 102.322 134.205
  188 2014.11 90.2555 -137.087
  189 770.865 90.5731 -73.9215
  190 770.846 90.5979 73.9485
  191 968.637 69.3623 35.9048
  192 968.611 69.3889 -35.9165
  193 1113.30 3.28430 125.923
  194 1113.27 3.25372 -125.931
  195 1362.95 39.6019 -59.1338
  196 1062.79 47.8060 80.2115
  197 1062.77 47.8215 -80.2371
  198 234.815 -170.804 -196.722
  199 234.554 -171.036 196.580
  200 1560.56 -34.0061 -98.8657
  201 1560.69 -33.7041 98.6516
  202 924.043 57.0607 -1.95329
  203 924.060 57.0331 1.95307
  204 214.735 -159.898 -138.595
  205 214.816 -159.635 138.464
  206 1288.61 -2.47125 -64.5586
  207 1288.57 -2.48194 64.5253
  208 477.431 137.483 -11.1071
  209 477.330 137.426 11.0552
  210 1198.11 -18.2026 -199.369
  211 1198.25 -18.2059 199.436
  212 887.125 25.7423 -128.336
  213 887.197 25.7519 128.380
  214 816.837 -163.736 272.908
  215 816.724 -163.842 -273.095
  216 801.034 38.6891 19.1904
  217 801.037 38.6716 -19.1804
  218 735.518 110.184 -189.483
  219 735.491 110.208 189.529
  220 797.955 103.022 103.131
  221 797.900 102.994 -103.150
  222 1076.82 32.7135 18.7126
  223 1076.81 32.7304 -18.7212
  224 511.919 111.373 218.148
  225 512.050 111.382 -218.161
  226 1174.23 -136.768 -152.460
  227 1174.16 -136.400 152.505
  228 510.708 -132.891 251.127
  229 510.991 -132.703 -251.240
  230 1205.68 8.13918 -29.2152
  231 1205.66 8.13420 29.1993
  232 1409.92 -15.7126 22.2376
  233 1409.98 -15.7040 -22.2622
  234 809.548 38.1169 -91.7908
  235 809.590 38.1292 91.8222
  236 1442.65 53.2667 61.8479
  237 1965.18 26.6832 157.841
  238 1966.59 26.4593 -157.603
  239 1568.02 96.5638 302.641
  240 1566.42 99.9456 -302.988
  241 757.206 134.171 -27.4215
  242 757.155 134.193 27.4307
  243 1276.61 -72.2004 -82.4739
  244 1276.66 -72.0100 82.5853
  245 737.950 12.7530 -31.4912
  246 737.977 12.7575 31.5049
  247 2200.36 23.9858 -87.0257
  248 1274.96 7.70313 -43.9866
  249 1274.91 7.69549 43.9612
  250 853.816 78.6260 -12.7281
  251 853.791 78.6547 12.7352
  252 616.380 163.140 -54.4441
  253 616.298 163.140 54.4373
  254 1564.86 22.9531 39.2098
  255 1557.10 23.0291 -39.9345
  256 2192.99 20.8971 85.0645
  257 873.662 99.0475 76.3814
  258 873.614 99.0515 -76.3949
  259 1032.44 44.7568 -111.112
  260 1032.47 44.7565 111.089
  261 1193.11 6.57971 9.53037
  262 1193.12 6.58296 -9.53526
  263 2267.01 -48.8512 139.890
  264 2260.41 -9.09784 -126.570
  265 1581.45 84.7196 -25.5327
  266 725.839 75.7770 147.763
  267 725.791 75.6907 -147.799
  268 706.040 64.6687 -278.817
  269 705.964 64.6806 278.854
  270 1136.81 24.0302 41.5947
  271 1136.82 24.0434 -41.6153
  272 772.916 38.8621 -50.9373
  273 772.926 38.8760 50.9585
  274 714.502 5.44302 8.55779
  275 714.487 5.43975 -8.55296
  276 710.885 151.699 -5.77537
  277 710.820 151.705 5.77298
  278 1420.25 -31.9520 -12.8629
  279 1420.15 -32.2729 12.9561
  280 77.7999 -244.242 36.6620
  281 77.9476 -243.945 -36.8102
  282 982.218 50.9127 -7.45150
  283 982.232 50.8870 7.44859
  284 1071.35 39.0239 33.6276
  285 1071.35 39.0429 -33.6429
  286 1184.48 28.9214 320.508
  287 1183.94 29.1279 -320.999
  288 1394.61 -92.8668 -18.7516
  289 1394.72 -93.9291 18.9171
  290 874.022 56.1480 -4.16938
  291 874.007 56.1743 4.17199
  292 1131.75 15.1645 -171.615
  293 1131.90 15.1738 171.674
  294 1381.44 -4.20677 37.8915
  295 1381.54 -4.19762 -37.9278
  296 1909.45 73.4760 -292.418
  297 1907.17 73.3609 290.212
  298 796.029 -126.476 -231.555
  299 795.674 -126.779 231.345
  300 1380.08 -13.6070 75.0297
  301 1380.48 -7.81612 -74.8847
  302 778.666 68.7510 -97.4809
  303 778.672 68.7710 97.5156
  304 403.255 40.3107 129.780
  305 403.174 40.1565 -129.880
  306 805.125 55.9257 34.5280
  307 805.134 55.9037 -34.5129
  308 999.581 -1.11789 156.939
  309 999.552 -1.19964 -156.941
  310 1643.89 105.621 8.90035
  311 727.519 113.671 -131.861
  312 727.488 113.694 131.897
  313 1510.58 -18.8554 -55.7123
  314 1508.91 -20.0936 54.6518
  315 943.672 61.2542 -10.1204
  316 943.692 61.2266 10.1172
  317 2409.29 -41.6343 -41.8021
  318 2520.78 -75.6231 84.0072
  319 1033.29 17.8230 -138.871
  320 1033.42 17.8289 138.919
  321 1605.37 47.8821 -239.157
  322 1605.12 49.4727 238.362
  323 1139.95 18.2491 8.94477
  324 1139.96 18.2593 -8.95067
  325 889.834 64.8751 -3.06759
  326 889.814 64.9032 3.07023
  327 835.338 47.1557 -8.77809
  328 835.329 47.1776 8.78252
  329 1199.75 -4.80494 -96.3394
  330 1199.76 -4.80253 96.3192
  331 1843.21 82.1915 20.1898
  332 1035.59 38.8471 -9.69590
  333 1035.60 38.8263 9.69151
  334 762.101 20.8750 13.6841
  335 762.094 20.8648 -13.6788
  336 793.232 90.8536 -47.1530
  337 793.208 90.8802 47.1719
  338 1316.99 13.0041 -70.1006
  339 1168.77 -15.8903 -244.695
  340 1168.47 -16.1579 244.405
  341 1256.82 8.26375 -27.6877
  342 1256.77 8.25908 27.6713
  343 1285.32 -173.922 128.688
  344 1285.66 -174.743 -129.019
  345 1168.49 23.9537 73.5935
  346 1168.50 23.9683 -73.6261
  347 1127.54 33.0365 62.7661
  348 1127.54 33.0532 -62.7940
  349 1286.73 -137.100 83.3151
  350 1286.82 -137.605 -83.1605
  351 316.913 -305.609 196.367
  352 316.887 -305.850 -196.442
  353 864.201 89.6635 2.79163
  354 864.168 89.6923 -2.78955
  355 1223.15 0.609833 13.0463
  356 1223.17 0.611918 -13.0540
  357 658.421 148.264 -141.012
  358 658.356 148.284 141.034
  359 979.796 -83.9418 -270.593
  360 979.730 -84.0037 270.624
  361 1004.28 62.5728 55.3675
  362 1004.26 62.5958 -55.3856
  363 1442.76 -36.2157 85.3769
  364 1441.45 -31.4172 -87.5414
  365 821.026 109.849 1.62675
  366 820.982 109.875 -1.62342
  367 687.357 -100.796 -270.911
  368 687.360 -100.555 270.828
  369 1170.50 -39.3411 -122.299
  370 1170.53 -39.2531 122.327
  371 1855.19 89.1700 -33.4565
  372 1415.14 -101.249 37.4259
  373 1415.84 -102.285 -37.5851
  374 404.796 124.851 121.105
  375 404.935 124.903 -121.160
  376 953.050 -50.0395 205.097
  377 953.052 -50.2217 -205.110
  378 1602.34 -43.4023 79.6806
  379 1602.03 -43.4228 -79.6871
  380 1313.79 18.4566 74.5822
  381 1246.59 40.5468 -4.90008
  382 865.714 -180.141 270.432
  383 865.748 -180.446 -270.545
  384 817.200 74.7780 32.7968
  385 817.220 74.7519 -32.7820
  386 1487.95 39.1776 -67.2496
  387 977.446 64.0732 92.6962
  388 977.409 64.0807 -92.7157
  389 1185.70 -172.965 206.250
  390 1185.80 -173.201 -206.787
  391 761.151 9.35726 -42.4147
  392 761.194 9.36097 42.4320
  393 1770.00 97.7133 74.0681
  394 1779.94 99.4301 -76.9662
  395 1418.74 -45.5375 138.184
  396 1418.51 -45.5091 -138.141
  397 1048.79 -151.344 214.384
  398 1048.86 -151.679 -214.426
  399 942.925 16.1551 -264.575
  400 942.934 16.1608 264.637
  401 658.589 126.667 -216.164
  402 658.520 126.693 216.197
  403 561.398 102.976 106.481
  404 561.329 102.883 -106.539
  405 1241.35 27.7782 36.8816
  406 871.482 100.772 -42.5265
  407 871.527 100.752 42.5182
  408 860.283 56.3417 152.525
  409 860.239 56.2772 -152.544
  410 771.283 -18.1350 -221.646
  411 771.304 -17.9617 221.600
  412 706.053 8.99534 15.5962
  413 706.032 8.99236 -15.5887
  414 929.156 84.1614 -42.7136
  415 929.191 84.1364 42.7019
  416 920.781 83.5487 23.2195
  417 920.751 83.5775 -23.2252
  418 175.171 -389.829 89.6331
  419 175.499 -389.321 -89.9225
  420 1482.42 17.0385 84.7846
  421 1015.27 53.7871 36.1028
  422 1015.25 53.8109 -36.1169
  423 787.415 39.9277 39.3671
  424 787.415 39.9117 -39.3504
  425 744.683 123.489 76.1060
  426 744.720 123.464 -76.0825
  427 776.221 57.2727 -73.4120
  428 776.222 57.2914 73.4408
  429 1215.83 9.24615 -80.6401
  430 1215.81 9.23265 80.6057
  431 801.090 77.1567 -159.940
  432 801.105 77.1752 159.986
  433 458.709 -90.1993 -238.856
  434 458.741 -89.9597 238.748
  435 1802.05 -7.63735 48.2893
  436 1802.47 -8.50639 -48.1594
  437 2199.74 2.97350 269.088
  438 2205.74 -3.23356 -268.978
  439 756.950 126.109 49.4436
  440 756.888 126.104 -49.4561
  441 30.6708 -557.317 -71.0541
  442 30.7225 -556.920 70.9628
  443 1351.86 -50.7994 42.1597
  444 1351.78 -50.8494 -42.0934
  445 1424.33 -14.9572 48.8071
  446 1424.07 -14.1446 -47.7614
  447 55.3842 -554.593 36.3971
  448 55.5873 -554.076 -36.6359
  449 1220.65 -174.840 -139.588
  450 1220.47 -174.299 139.544
  451 1356.13 -0.251677 -30.3870
  452 1356.03 -0.254780 30.3630
  453 1288.48 10.7412 -74.4427
  454 1395.12 -64.6670 -29.7623
  455 1394.69 -65.5256 30.2532
  456 1043.04 30.7045 -122.689
  457 1043.08 30.7202 122.675
  458 873.723 13.1222 -67.2783
  459 873.817 13.1246 67.3028
  460 308.404 35.3343 167.468
  461 308.583 35.4344 -167.557
  462 1203.49 -95.4434 124.855
  463 1203.51 -95.6884 -124.770
  464 1118.75 28.7428 24.5378
  465 1118.75 28.7574 -24.5507
  466 779.727 111.103 -42.3777
  467 779.690 111.130 42.3939
  468 1212.93 4.73918 3.89365
  469 1212.94 4.74039 -3.89531
  470 960.882 66.3443 -23.0485
  471 960.904 66.3167 23.0407
  472 678.619 -0.287774 2.16625
  473 678.604 -0.288946 -2.16457
  474 755.568 96.9941 -106.183
  475 755.550 97.0169 106.216
  476 506.107 -2.71548 -268.733
  477 505.920 -2.78128 268.694
  478 1193.63 4.53537 -41.2313
  479 29.1207 -154.545 0.483949
  480 5.37684 -80.6698 -2.89792
  481 5.02356 -66.6517 4.67528
  482 4.09214 -136.136 6.43580
  483 2.94187 -141.402 -19.0505
  484 1.92221 -130.891 -9.41291
  485 3.69798 -124.319 22.4870
  486 3.95796 -73.2384 11.6569
  487 0.492201 -54.0110 -14.6135
  488 -12.9506 -159.987 -0.951091
  489 -18.6786 -184.116 2.07053
  490 -2.69351 -14.3897 -1.46286
  491 1.22705 -63.6899 -10.7165
  492 -3.36403 -42.4639 12.7786
  493 23.1528 -136.055 -2.46975
  494 -2.98723 -10.1401 0.871129
  495 18.7038 -121.792 1.87218
  496 -1.63244 -21.1548 1.11849
  497 -1.23421 -13.7883 -0.900967
  498 21.0145 -155.188 0.333006
  499 25.7478 -163.061 -2.04439
  500 -1.20402 -15.3627 -2.83383
  501 -7.57339 -108.896 12.4361
  502 -7.63433 -95.9288 -29.4817
  503 -27.1633 -148.607 -3.93981
  504 -29.5495 -164.631 14.1543
  505 -22.0224 -155.390 0.732244
  506 -26.4829 -176.630 -7.35870
  507 -3.75477 -86.9831 -12.1361
  508 -5.02261 -66.4166 23.6646
  509 12.1664 -108.283 4.89440
  510 9.10557 -101.802 -15.6155
  511 -1.75505 -8.93632 0.663637
  512 10.1575 -101.515 12.2378
  513 22.7485 -140.165 10.5776
  514 21.5031 -142.333 -1.47730
  515 11.2051 -87.6384 -3.49029
  516 0.0217560 -48.1945 -7.19397
  517 0.622703 -28.8023 5.94618
  518 -1.96049 2.54216 -1.95528
  519 14.3453 -165.119 7.27096
  520 2.28419 -55.1584 4.78935
  521 -0.0477631 -65.7673 12.5467
  522 -2.82826 -44.2598 -16.3695
  523 22.1105 -145.732 -9.39193
  524 -1.98935 -37.9226 5.23998
  525 -2.25836 0.609968 1.99848
  526 -48.4126 -159.422 -0.0165047
  527 -64.8309 -189.999 2.35860
  528 -1.65544 3.33495 0.617018
  529 -1.15358 -17.8440 -1.50643
  530 1.10349 -43.5833 -3.90847
  531 0.774216 -17.4649 -4.93406
  532 8.12935 -152.654 -3.09948
  533 21.1980 -146.988 2.35905
  534 2.13451 -10.1748 1.03006
  535 1.11156 -101.783 14.0594
  536 -3.24297 -93.3117 -26.6052
  537 9.44178 -153.426 1.88755
  538 12.3264 -169.661 -5.68712
  539 0.433241 -37.9572 -7.27942
  540 -2.53624 -41.0595 -1.43962
  541 -2.69493 4.70642 0.201646
  542 0.452324 -82.9187 21.1873
  543 -1.79512 3.43464 -2.68270
  544 28.5918 -153.118 -1.77196
  545 19.2078 -117.032 -6.45714
  546 5.64391 -101.151 -11.0134
  547 -49.3567 -160.861 1.17174
  548 -66.3862 -191.225 -3.14206
  549 -38.6672 -140.505 9.21844
  550 -37.4421 -147.363 -23.1485
  551 -0.692983 -3.26032 -1.78373
  552 -23.4807 -121.488 -11.4847
  553 -16.8804 -114.213 29.0537
  554 -2.28187 -33.4096 0.977179
  555 -1.38291 -24.7140 9.98882
  556 12.6520 -95.9765 3.73880
  557 28.1200 -146.862 3.61267
  558 14.7705 -120.192 -5.00435
  559 -2.73646 6.48590 -0.945188
  560 -1.87531 1.63302 1.71034
  561 3.44490 -62.7468 12.4555
  562 27.3433 -159.381 3.67235
  563 -1.46265 11.8890 -0.589330
  564 -72.6686 -160.526 2.03839
  565 -1.76802 10.0070 0.0131502
  566 -100.951 -191.901 -2.04425
  567 -0.931008 11.2074 3.67324
  568 0.194908 9.49400 6.42691
  569 4.23785 -0.724811 3.50032
  570 5.49632 -24.5130 -5.19803
  571 -20.6263 -86.1682 -14.1248
  572 -47.8723 -138.258 -10.5160
  573 -70.4990 -157.825 -1.66868
  574 -66.7625 -154.465 2.76027
  575 -70.2584 -143.186 8.84722
  576 -17.1145 -94.6353 10.6783
  577 2.83328 -29.1269 7.23521
  578 4.97954 -0.780566 -6.09270
  579 2.34186 6.78581 -6.33028
  580 -0.831204 11.5566 -4.32726
  581 -0.624300 10.2376 3.61932
  582 0.886230 6.20451 5.65114
  583 4.95213 -2.86276 3.49775
  584 6.02248 -11.5647 -0.986542
  585 -8.64967 -71.5673 -21.0973
  586 -70.1227 -150.958 -19.0094
  587 -83.7501 -177.969 -8.61629
  588 -91.3235 -184.597 7.64188
  589 -43.0859 -144.740 23.5806
  590 -10.5499 -59.1867 23.4741
  591 7.24695 -8.93486 0.511772
  592 6.58164 -0.220460 -5.52071
  593 1.10929 7.31681 -6.47516
  594 -0.729780 11.5555 -3.91980
</Section>

newXOutput 44

<Section columns = "stress_xx | stress_yy | stress_xy">
  1 671.352 6.60835 -6.84376
  2 671.368 6.60970 6.84516
  3 1249.06 0.114710 0.229341
  4 1249.04 0.113382 -0.230723
  5 -1.57590 -901.602 29.1946
  6 2500.76 -19.7644 -1.53913
  7 -1.70120 -902.248 -29.3697
  8 2839.78 -80.6980 -17.7632
  9 683.118 3.59479 -2.88700
  10 701.160 7.17555 -10.5498
  11 739.849 10.2132 -26.2344
  12 806.803 6.67116 -48.8013
  13 900.094 6.80456 -51.6898
  14 1017.21 16.7330 -85.5061
  15 1210.50 3.48690 -110.072
  16 1427.00 -5.13669 -116.424
  17 1709.54 -39.4265 -65.3934
  18 1812.47 -35.9338 -34.6592
  19 1898.84 -2.70009 1.02810
  20 2005.97 25.5450 -16.8729
  21 2113.89 38.7354 -25.1830
  22 2188.65 -23.1386 -0.684152
  23 2005.19 18.4252 13.5559
  24 1899.73 -1.97581 0.346474
  25 1812.84 -35.5974 34.8015
  26 1709.95 -39.4502 65.4156
  27 1427.27 -5.13881 116.470
  28 1210.71 3.48839 110.114
  29 1017.36 16.7365 85.5353
  30 900.209 6.80280 51.7088
  31 806.872 6.67102 48.8206
  32 739.895 10.2160 26.2454
  33 701.187 7.17732 10.5567
  34 683.137 3.59630 2.89020
  35 730.798 3.42964 7.81573
  36 779.229 21.6072 13.0947
  37 818.050 36.2114 10.9398
  38 871.722 47.2760 7.40684
  39 919.720 54.7300 3.45517
  40 973.092 52.9225 0.0171415
  41 1028.92 44.2220 -1.29663
  42 1106.47 28.3410 -5.16106
  43 1161.18 17.6043 1.55106
  44 1204.70 11.5232 -2.60833
  45 1248.52 -0.737111 -7.62850
  46 1274.45 -4.01241 -8.58158
  47 1281.84 3.53130 -16.1487
  48 1325.55 0.969889 -23.4724
  49 1389.66 -8.56914 -21.7143
  50 1441.29 -8.94236 -25.8328
  51 1481.53 -11.2671 -19.8305
  52 1505.04 -18.4447 -3.85931
  53 1488.21 -23.3032 30.2806
  54 1423.97 -10.1249 49.2864
  55 1298.08 7.91857 61.6378
  56 1170.49 32.0972 48.3566
  57 1104.60 37.1504 25.0329
  58 1092.77 37.6437 -27.1901
  59 1183.20 21.0924 -45.2050
  60 1295.33 3.39778 -50.2864
  61 1425.21 -8.90938 -46.4171
  62 1488.53 -22.6528 -29.6282
  63 1504.81 -18.3377 3.81970
  64 1481.33 -11.2744 19.7779
  65 1441.14 -8.94405 25.8022
  66 1389.55 -8.56659 21.6970
  67 1325.49 0.968106 23.4576
  68 1281.80 3.52852 16.1386
  69 1274.42 -4.01282 8.57635
  70 1248.50 -0.737695 7.62536
  71 1204.69 11.5188 2.60590
  72 1161.18 17.5946 -1.55329
  73 1106.47 28.3251 5.15755
  74 1028.93 44.1995 1.29480
  75 973.107 52.8960 -0.0179879
  76 919.736 54.7033 -3.45451
  77 871.734 47.2529 -7.40498
  78 818.052 36.1950 -10.9359
  79 779.222 21.5968 -13.0923
  80 730.786 3.42497 -7.81324
  81 118.865 -733.562 -4.06280
  82 467.969 -255.940 157.655
  83 951.448 78.3830 367.249
  84 1431.45 217.977 465.688
  85 1877.69 186.570 499.860
  86 2284.90 40.6150 439.743
  87 2484.33 -46.4711 213.988
  88 2488.96 -43.9696 -215.873
  89 2286.61 30.6694 -440.113
  90 1875.08 188.472 -498.225
  91 1430.49 218.880 -464.965
  92 950.662 78.3998 -367.315
  93 467.791 -256.072 -157.676
  94 118.827 -733.970 4.03760
  95 62.1193 -787.585 -62.4770
  96 352.601 -345.564 93.0102
  97 780.003 -60.8473 225.118
  98 1345.30 123.745 334.775
  99 1913.19 151.588 355.387
  100 2389.98 36.9862 344.157
  101 2750.86 -57.7588 241.112
  102 2711.94 -61.3788 -217.509
  103 2395.40 56.6183 -338.947
  104 1914.42 148.201 -355.892
  105 1345.73 123.946 -335.557
  106 780.760 -60.3035 -225.648
  107 353.112 -344.924 -93.4254
  108 62.3783 -786.763 62.0944
  109 812.185 130.457 -27.4541
  110 812.239 130.444 27.4503
  111 1113.66 -80.0447 170.217
  112 1113.68 -80.2497 -170.185
  113 559.455 156.374 139.319
  114 559.560 156.381 -139.329
  115 1092.56 45.8114 51.7791
  116 1092.55 45.8315 -51.8006
  117 802.160 64.4946 53.7468
  118 802.170 64.4735 -53.7254
  119 1497.83 -61.5718 37.3999
  120 1498.24 -60.0994 -38.5617
  121 610.336 27.7626 201.813
  122 610.295 27.5987 -201.888
  123 1674.44 78.6861 -28.0604
  124 1668.70 74.1799 31.5738
  125 922.205 76.9897 8.12987
  126 922.179 77.0193 -8.13059
  127 1145.38 25.5637 -105.031
  128 1145.39 25.5581 105.004
  129 755.038 -8.88017 315.146
  130 755.159 -8.86579 -315.124
  131 1113.02 -212.006 228.197
  132 1113.14 -212.444 -228.416
  133 789.506 82.9004 -126.936
  134 789.508 82.9208 126.976
  135 1382.39 -71.1431 -18.6440
  136 1382.52 -70.7707 18.8868
  137 961.576 61.7442 121.308
  138 961.533 61.7234 -121.322
  139 286.165 52.8066 19.3041
  140 286.294 52.9470 -19.4128
  141 707.981 149.779 -74.3872
  142 707.923 149.798 74.4017
  143 1319.84 -28.7196 -75.9161
  144 1319.84 -28.7102 75.9143
  145 1191.13 12.0688 21.4731
  146 1191.14 12.0762 -21.4852
  147 878.368 62.6369 -221.107
  148 878.395 62.6551 221.165
  149 768.377 23.0974 29.4322
  150 768.365 23.0884 -29.4202
  151 1940.30 89.6118 5.84156
  152 967.703 76.5645 70.1120
  153 967.667 76.5827 -70.1296
  154 1030.36 48.2362 20.7487
  155 1030.34 48.2595 -20.7571
  156 855.066 59.4199 18.4619
  157 855.082 59.3953 -18.4534
  158 835.022 97.1493 -25.0690
  159 834.990 97.1780 25.0805
  160 1217.47 16.9947 -51.6784
  161 1217.44 16.9845 51.6518
  162 1300.12 -84.5218 -189.325
  163 1300.13 -84.6278 189.304
  164 668.939 140.489 51.8537
  165 668.867 140.454 -51.8797
  166 1403.53 -77.4789 159.104
  167 1404.04 -77.7297 -160.024
  168 651.109 -203.836 306.128
  169 651.114 -204.093 -306.241
  170 1716.24 50.6366 103.079
  171 1720.15 59.7282 -107.290
  172 789.921 35.3340 -69.0733
  173 789.945 35.3457 69.0998
  174 1457.97 58.2973 28.2075
  175 1457.17 11.3223 100.473
  176 1431.74 13.7123 -97.8455
  177 1359.26 -159.577 67.8109
  178 1359.58 -160.414 -67.7681
  179 880.068 20.7255 181.376
  180 880.043 20.6161 -181.397
  181 1440.23 -51.5810 -58.9764
  182 1440.05 -54.5099 59.1822
  183 883.301 -109.003 261.628
  184 883.313 -109.272 -261.683
  185 897.407 98.2624 -24.4019
  186 897.446 98.2353 24.3977
  187 2043.03 103.895 137.237
  188 2050.78 91.4949 -140.217
  189 785.080 92.2869 -75.2000
  190 785.061 92.3118 75.2272
  191 987.152 70.6624 36.4851
  192 987.126 70.6893 -36.4969
  193 1134.24 3.77103 128.449
  194 1134.21 3.74081 -128.457
  195 1389.86 40.3967 -60.2504
  196 1082.95 48.9153 81.6600
  197 1082.94 48.9312 -81.6857
  198 239.324 -173.619 -201.092
  199 239.062 -173.853 200.948
  200 1589.05 -34.3987 -101.237
  201 1589.18 -34.0904 101.019
  202 941.594 57.9364 -1.98493
  203 941.611 57.9086 1.98471
  204 218.919 -162.565 -141.057
  205 218.999 -162.299 140.924
  206 1312.79 -2.39316 -65.9273
  207 1312.75 -2.40432 65.8933
  208 486.803 140.778 -11.6590
  209 486.702 140.721 11.6069
  210 1219.51 -18.3961 -203.338
  211 1219.65 -18.3998 203.404
  212 902.445 26.2046 -130.630
  213 902.516 26.2141 130.674
  214 831.632 -167.488 278.128
  215 831.520 -167.596 -278.319
  216 815.618 39.2870 19.4622
  217 815.620 39.2693 -19.4522
  218 748.920 112.461 -193.056
  219 748.893 112.485 193.102
  220 813.273 105.537 104.882
  221 813.218 105.509 -104.901
  222 1097.24 33.2340 19.0083
  223 1097.24 33.2510 -19.0169
  224 521.586 114.082 222.617
  225 521.717 114.092 -222.630
  226 1195.96 -139.265 -155.780
  227 1195.89 -138.891 155.828
  228 520.242 -135.076 256.407
  229 520.526 -134.887 -256.521
  230 1228.28 8.29948 -29.6883
  231 1228.26 8.29444 29.6723
  232 1436.62 -15.9201 22.9279
  233 1436.69 -15.9102 -22.9540
  234 823.567 38.8308 -93.4036
  235 823.609 38.8430 93.4351
  236 1470.94 54.3121 62.8799
  237 2000.82 27.3909 161.556
  238 2002.26 27.1327 -161.306
  239 1596.12 98.4961 308.520
  240 1594.49 101.966 -308.873
  241 771.676 136.890 -27.9915
  242 771.625 136.912 28.0009
  243 1300.54 -73.4195 -84.4988
  244 1300.59 -73.2277 84.6117
  245 750.568 12.9712 -31.9911
  246 750.595 12.9757 32.0049
  247 2239.45 23.7957 -88.8358
  248 1298.79 7.92602 -44.8119
  249 1298.73 7.91820 44.7861
  250 869.971 80.0114 -12.9448
  251 869.946 80.0402 12.9520
  252 628.272 166.682 -55.6712
  253 628.190 166.681 55.6644
  254 1594.56 23.3131 39.4786
  255 1586.67 23.3775 -40.2196
  256 2232.04 20.5948 86.8363
  257 890.415 101.285 77.6743
  258 890.367 101.289 -77.6876
  259 1052.02 45.9910 -113.187
  260 1052.05 45.9903 113.165
  261 1215.52 6.68272 9.68036
  262 1215.53 6.68599 -9.68528
  263 2308.11 -50.2827 143.185
  264 2301.50 -9.78264 -129.661
  265 1612.34 86.3082 -25.8980
  266 739.707 77.9336 150.330
  267 739.659 77.8460 -150.366
  268 718.957 66.2931 -284.385
  269 718.882 66.3049 284.422
  270 1158.27 24.4623 42.2803
  271 1158.27 24.4757 -42.3010
  272 786.622 39.5413 -51.7577
  273 786.633 39.5553 51.7790
  274 726.775 5.50676 8.66716
  275 726.760 5.50348 -8.66231
  276 724.603 154.934 -6.03974
  277 724.537 154.940 6.03761
  278 1447.42 -32.5754 -12.7759
  279 1447.32 -32.8994 12.8687
  280 79.3950 -248.511 37.7760
  281 79.5432 -248.212 -37.9265
  282 1000.93 51.6882 -7.56902
  283 1000.94 51.6624 7.56610
  284 1091.70 39.7023 34.1663
  285 1091.69 39.7214 -34.1817
  286 1205.65 29.2032 326.570
  287 1205.10 29.4132 -327.076
  288 1420.90 -94.9016 -18.6848
  289 1421.00 -95.9896 18.8555
  290 890.459 57.0144 -4.22764
  291 890.444 57.0408 4.23028
  292 1151.50 15.5345 -174.869
  293 1151.65 15.5437 174.927
  294 1407.37 -4.20112 38.7688
  295 1407.47 -4.19149 -38.8059
  296 1943.34 74.6300 -298.256
  297 1941.06 74.5357 296.011
  298 810.687 -128.970 -236.236
  299 810.331 -129.276 236.025
  300 1406.96 -13.9862 76.3224
  301 1407.38 -8.05296 -76.1957
  302 792.593 70.0427 -99.1620
  303 792.599 70.0628 99.1969
  304 411.130 41.8323 131.941
  305 411.050 41.6759 -132.041
  306 819.931 56.8636 35.0803
  307 819.940 56.8415 -35.0651
  308 1018.36 -0.580350 159.988
  309 1018.33 -0.662529 -159.989
  310 1675.86 107.703 8.85269
  311 740.924 115.955 -134.299
  312 740.893 115.978 134.334
  313 1538.59 -19.2968 -57.2695
  314 1536.90 -20.5650 56.1816
  315 961.661 62.2604 -10.2792
  316 961.681 62.2326 10.2760
  317 2453.17 -43.0233 -42.7558
  318 2564.96 -77.9487 85.7693
  319 1051.01 18.1792 -141.407
  320 1051.15 18.1850 141.454
  321 1634.26 49.0234 -244.022
  322 1634.02 50.6616 243.215
  323 1161.45 18.5212 9.05830
  324 1161.46 18.5314 -9.06424
  325 906.699 65.9342 -3.11736
  326 906.679 65.9625 3.12003
  327 850.822 47.8757 -8.90807
  328 850.813 47.8977 8.91252
  329 1222.32 -4.61854 -98.3572
  330 1222.32 -4.61687 98.3365
  331 1878.10 83.3278 20.9613
  332 1055.28 39.4220 -9.84448
  333 1055.29 39.4010 9.84006
  334 775.614 21.1874 13.9151
  335 775.606 21.1772 -13.9098
  336 808.051 92.5431 -47.9639
  337 808.026 92.5697 47.9830
  338 1342.91 13.1597 -71.3912
  339 1189.99 -16.1965 -249.584
  340 1189.69 -16.4676 249.292
  341 1280.27 8.45968 -28.1468
  342 1280.22 8.45494 28.1302
  343 1308.91 -177.717 131.492
  344 1309.26 -178.561 -131.829
  345 1190.50 24.5659 74.9598
  346 1190.51 24.5809 -74.9928
  347 1148.85 33.7555 63.8720
  348 1148.86 33.7724 -63.9002
  349 1310.70 -139.883 85.4029
  350 1310.79 -140.398 -85.2438
  351 322.680 -312.162 200.068
  352 322.656 -312.406 -200.146
  353 880.701 91.3311 2.81268
  354 880.667 91.3601 -2.81050
  355 1246.04 0.588135 13.2363
  356 1246.06 0.590235 -13.2440
  357 670.789 151.381 -143.763
  358 670.725 151.400 143.785
  359 997.700 -85.2418 -276.154
  360 997.635 -85.3049 276.186
  361 1023.45 63.8379 56.3110
  362 1023.42 63.8611 -56.3292
  363 1470.29 -37.1358 86.7049
  364 1468.99 -32.2081 -88.9225
  365 836.746 112.017 1.60687
  366 836.703 112.043 -1.60337
  367 700.098 -102.344 -276.048
  368 700.099 -102.098 275.965
  369 1192.42 -39.7205 -124.912
  370 1192.45 -39.6324 124.941
  371 1890.22 90.5193 -34.5723
  372 1441.35 -103.481 38.5412
  373 1442.06 -104.551 -38.7050
  374 412.723 127.945 123.786
  375 412.862 127.997 -123.841
  376 970.785 -50.4447 209.063
  377 970.787 -50.6294 -209.075
  378 1631.15 -43.9907 81.5880
  379 1630.84 -44.0102 -81.5962
  380 1339.59 18.8071 75.9474
  381 1271.32 41.4187 -4.97063
  382 881.560 -183.597 275.746
  383 881.596 -183.909 -275.859
  384 832.458 76.0911 33.3325
  385 832.478 76.0649 -33.3176
  386 1516.95 39.8323 -68.2802
  387 996.065 65.6116 94.3447
  388 996.028 65.6194 -94.3642
  389 1207.23 -176.822 210.401
  390 1207.34 -177.067 -210.950
  391 774.035 9.50223 -43.1110
  392 774.078 9.50594 43.1284
  393 1803.18 99.6746 76.1856
  394 1813.27 101.375 -79.1682
  395 1444.13 -46.2438 141.067
  396 1443.90 -46.2144 -141.024
  397 1068.07 -154.136 218.717
  398 1068.14 -154.477 -218.757
  399 959.917 16.7865 -269.805
  400 959.927 16.7920 269.867
  401 670.771 129.411 -220.394
  402 670.703 129.436 220.426
  403 572.305 105.693 108.180
  404 572.237 105.598 -108.238
  405 1265.93 28.3432 37.5692
  406 888.232 102.858 -43.2101
  407 888.277 102.837 43.2019
  408 876.623 58.0579 155.290
  409 876.578 57.9928 -155.309
  410 785.757 -17.8233 -225.763
  411 785.777 -17.6473 225.717
  412 718.020 9.15922 15.8296
  413 717.998 9.15622 -15.8220
  414 946.966 85.8555 -43.4177
  415 947.001 85.8302 43.4060
  416 938.393 85.1113 23.5883
  417 938.362 85.1404 -23.5940
  418 178.537 -397.672 91.6935
  419 178.867 -397.159 -91.9858
  420 1511.15 17.1107 86.1876
  421 1034.62 54.7712 36.6859
  422 1034.61 54.7952 -36.7000
  423 801.645 40.5800 39.9970
  424 801.645 40.5640 -39.9801
  425 758.633 125.942 77.5008
  426 758.670 125.916 -77.4772
  427 790.191 58.3025 -74.6330
  428 790.192 58.3212 74.6619
  429 1238.67 9.60869 -82.2374
  430 1238.66 9.59469 82.2025
  431 815.333 78.7005 -162.872
  432 815.349 78.7189 162.919
  433 467.373 -91.4389 -243.263
  434 467.404 -91.1956 243.154
  435 1834.98 -7.72084 49.7776
  436 1835.41 -8.61237 -49.6459
  437 2237.79 2.40950 274.230
  438 2243.81 -3.96742 -274.131
  439 771.575 128.931 50.1818
  440 771.513 128.926 -50.1940
  441 31.0996 -569.221 -72.2637
  442 31.1505 -568.821 72.1696
  443 1377.44 -51.7076 43.4199
  444 1377.36 -51.7562 -43.3538
  445 1451.97 -15.2836 49.5534
  446 1451.70 -14.4510 -48.4908
  447 56.5284 -565.951 37.4573
  448 56.7331 -565.429 -37.6989
  449 1243.12 -178.369 -142.619
  450 1242.94 -177.816 142.578
  451 1381.41 -0.205389 -30.9973
  452 1381.31 -0.208606 30.9728
  453 1313.83 10.9710 -75.8812
  454 1421.66 -66.0696 -29.9149
  455 1421.22 -66.9411 30.4156
  456 1062.72 31.7385 -125.027
  457 1062.75 31.7538 125.013
  458 888.378 13.3980 -68.4429
  459 888.472 13.4004 68.4674
  460 314.442 36.8061 171.108
  461 314.622 36.9068 -171.198
  462 1225.91 -97.0383 127.646
  463 1225.93 -97.2859 -127.559
  464 1139.90 29.2184 24.9111
  465 1139.90 29.2332 -24.9241
  466 794.461 113.251 -43.1467
  467 794.424 113.278 43.1631
  468 1235.69 4.83268 3.95936
  469 1235.71 4.83390 -3.96103
  470 979.231 67.5202 -23.4119
  471 979.254 67.4924 23.4041
  472 690.064 -0.321112 2.18741
  473 690.049 -0.322289 -2.18573
  474 769.400 98.8934 -108.078
  475 769.382 98.9162 108.112
  476 515.603 -2.18292 -274.308
  477 515.416 -2.24917 274.269
  478 1217.29 4.46404 -42.0844
  479 29.8275 -158.008 0.488102
  480 5.44893 -82.3327 -2.96118
  481 5.09191 -67.9909 4.77938
  482 4.17957 -139.122 6.65935
  483 3.04643 -144.502 -19.5805
  484 1.95662 -133.724 -9.72048
  485 3.80753 -126.974 23.0917
  486 4.01860 -74.6455 11.9137
  487 0.492512 -54.9965 -14.9296
  488 -13.2817 -163.683 -0.982737
  489 -19.0527 -188.392 2.13106
  490 -2.76917 -14.6203 -1.48740
  491 1.20589 -64.9066 -10.9425
  492 -3.46690 -43.2060 13.0358
  493 23.6885 -139.039 -2.51776
  494 -3.06855 -10.2859 0.882639
  495 19.1154 -124.421 1.90061
  496 -1.68811 -21.5185 1.12352
  497 -1.28113 -14.0049 -0.907063
  498 21.5281 -158.702 0.339331
  499 26.4033 -166.737 -2.09950
  500 -1.23556 -15.6139 -2.86559
  501 -7.69979 -111.073 12.8189
  502 -7.72506 -97.7880 -30.2837
  503 -27.8286 -151.970 -4.06290
  504 -30.1502 -168.353 14.5393
  505 -22.5846 -158.950 0.767730
  506 -27.0477 -180.693 -7.56555
  507 -3.82734 -88.6105 -12.4612
  508 -5.10174 -67.5512 24.2718
  509 12.4141 -110.575 5.03845
  510 9.28815 -103.941 -16.0036
  511 -1.79649 -9.05407 0.646624
  512 10.3562 -103.644 12.5373
  513 23.2957 -143.246 10.8503
  514 22.0163 -145.482 -1.54956
  515 11.4178 -89.4377 -3.58681
  516 -0.00924918 -49.1159 -7.34755
  517 0.632932 -29.3074 6.02707
  518 -2.00714 2.64244 -2.00674
  519 14.7434 -168.854 7.47798
  520 2.29226 -56.2267 4.88636
  521 -0.0234950 -66.9153 12.8020
  522 -2.85921 -44.9009 -16.7224
  523 22.6486 -148.961 -9.63815
  524 -2.06275 -38.6275 5.34246
  525 -2.30798 0.673706 2.05474
  526 -49.7967 -163.125 -0.00722280
  527 -66.4595 -194.441 2.41344
  528 -1.69813 3.45263 0.637131
  529 -1.18023 -18.1316 -1.50534
  530 1.09038 -44.4097 -3.98605
  531 0.802012 -17.7130 -4.98026
  532 8.33544 -156.114 -3.22870
  533 21.7007 -150.264 2.44898
  534 2.20363 -10.2864 0.982499
  535 1.09640 -103.856 14.4382
  536 -3.33498 -95.1767 -27.2814
  537 9.67981 -156.906 1.97331
  538 12.6880 -173.531 -5.85480
  539 0.471582 -38.5517 -7.37376
  540 -2.62741 -41.8284 -1.47253
  541 -2.75786 4.84751 0.210573
  542 0.433699 -84.5599 21.7019
  543 -1.83395 3.55485 -2.75377
  544 29.2871 -156.540 -1.81237
  545 19.6336 -119.538 -6.60763
  546 5.73419 -103.215 -11.3139
  547 -50.7561 -164.602 1.19107
  548 -68.0605 -195.702 -3.21430
  549 -39.4809 -143.583 9.46814
  550 -38.1259 -150.593 -23.7713
  551 -0.706635 -3.27214 -1.85108
  552 -23.8735 -124.008 -11.8150
  553 -17.0912 -116.557 29.8410
  554 -2.36117 -34.0268 0.997365
  555 -1.36736 -24.9306 10.1309
  556 12.9030 -97.9738 3.81866
  557 28.7906 -150.119 3.69337
  558 15.0864 -122.764 -5.17297
  559 -2.79952 6.66271 -0.970074
  560 -1.91541 1.71827 1.76471
  561 3.47986 -63.9700 12.7364
  562 28.0127 -162.960 3.76797
  563 -1.49661 12.1685 -0.599759
  564 -74.8103 -164.236 2.09526
  565 -1.80828 10.2493 0.0115921
  566 -103.586 -196.375 -2.09916
  567 -0.949425 11.4766 3.76033
  568 0.205768 9.72837 6.58346
  569 4.35383 -0.687795 3.62693
  570 5.70451 -24.8594 -5.18446
  571 -20.8820 -87.7019 -14.4313
  572 -48.8356 -141.274 -10.7371
  573 -72.4636 -161.466 -1.67162
  574 -68.5374 -158.024 2.79806
  575 -71.7511 -146.333 8.99515
  576 -17.2989 -96.3832 10.9210
  577 2.95745 -29.5497 7.28996
  578 5.10306 -0.735828 -6.26127
  579 2.39892 6.97194 -6.48373
  580 -0.847401 11.8288 -4.42544
  581 -0.638853 10.4859 3.70302
  582 0.906683 6.37333 5.78937
  583 5.08194 -2.85823 3.61528
  584 6.19676 -11.5943 -0.910256
  585 -8.63276 -72.7821 -21.6295
  586 -71.4675 -154.282 -19.4848
  587 -85.7424 -182.074 -8.82288
  588 -93.5427 -188.863 7.81394
  589 -43.8278 -147.897 24.1774
  590 -10.5791 -60.0756 24.0407
  591 7.47299 -8.96976 0.413288
  592 6.74775 -0.175807 -5.67887
  593 1.13660 7.50536 -6.62997
  594 -0.745058 11.8292 -4.00985
</Section>

newXOutput 45

<Section columns = "stress_xx | stress_yy | stress_xy">
  1 682.188 6.75048 -6.99115
  2 682.203 6.75174 6.99245
  3 1271.82 0.0890202 0.263933
  4 1271.81 0.0877724 -0.265231
  5 -1.80094 -921.027 29.5237
  6 2541.62 -21.0471 -1.59682
  7 -1.92004 -921.637 -29.7028
  8 2884.17 -83.9803 -17.9089
  9 694.164 3.65549 -2.88952
  10 712.481 7.31883 -10.6662
  11 751.720 10.4109 -26.6435
  12 819.812 6.81488 -49.5859
  13 914.450 6.98757 -52.5308
  14 1033.75 17.0790 -86.9779
  15 1230.41 3.56134 -112.008
  16 1451.08 -5.22758 -118.615
  17 1738.72 -40.1531 -66.7703
  18 1844.22 -36.6242 -35.8073
  19 1933.30 -2.54293 0.202726
  20 2043.86 26.0506 -18.2044
  21 2155.13 39.2307 -26.1614
  22 2230.53 -23.7242 -0.342652
  23 2043.17 18.9106 14.9451
  24 1934.21 -1.80147 1.21202
  25 1844.58 -36.2773 35.9598
  26 1739.11 -40.1746 66.7949
  27 1451.34 -5.22909 118.661
  28 1230.61 3.56317 112.047
  29 1033.89 17.0824 87.0055
  30 914.558 6.98590 52.5486
  31 819.877 6.81472 49.6040
  32 751.763 10.4135 26.6538
  33 712.507 7.32047 10.6728
  34 694.182 3.65691 2.89253
  35 743.035 3.41439 7.95916
  36 792.658 21.9229 13.3721
  37 832.507 36.7487 11.1270
  38 887.538 47.9358 7.55321
  39 936.625 55.5143 3.53256
  40 991.089 53.6846 0.0427301
  41 1047.97 44.8672 -1.28650
  42 1126.85 28.7271 -5.21400
  43 1182.47 17.8460 1.64204
  44 1226.72 11.7195 -2.62410
  45 1271.26 -0.773944 -7.75586
  46 1297.57 -4.12274 -8.69396
  47 1305.04 3.59125 -16.3767
  48 1349.49 0.983892 -23.8727
  49 1414.67 -8.76165 -22.1136
  50 1467.33 -9.14497 -26.3641
  51 1508.59 -11.5123 -20.3407
  52 1532.90 -18.8878 -4.16538
  53 1516.23 -23.8980 30.6655
  54 1451.08 -10.4325 50.0709
  55 1323.03 8.13278 62.8061
  56 1193.08 32.9532 49.3303
  57 1125.92 38.1717 25.6226
  58 1113.87 38.5857 -27.7445
  59 1206.02 21.6093 -46.0650
  60 1320.24 3.44768 -51.2211
  61 1452.34 -9.19715 -47.1604
  62 1516.56 -23.2353 -30.0056
  63 1532.68 -18.7812 4.12424
  64 1508.40 -11.5203 20.2882
  65 1467.19 -9.14691 26.3343
  66 1414.57 -8.75920 22.0971
  67 1349.43 0.982167 23.8586
  68 1305.01 3.58861 16.3672
  69 1297.54 -4.12310 8.68903
  70 1271.24 -0.774486 7.75290
  71 1226.71 11.7154 2.62181
  72 1182.46 17.8368 -1.64412
  73 1126.85 28.7121 5.21072
  74 1047.99 44.8461 1.28480
  75 991.103 53.6598 -0.0435113
  76 936.640 55.4893 -3.53193
  77 887.549 47.9141 -7.55147
  78 832.508 36.7334 -11.1233
  79 792.652 21.9131 -13.3699
  80 743.023 3.41000 -7.95683
  81 120.702 -750.084 -4.62510
  82 476.011 -262.206 160.110
  83 967.683 79.0484 373.502
  84 1455.63 221.750 473.702
  85 1908.95 189.839 508.503
  86 2321.57 40.6394 447.343
  87 2524.25 -48.3391 217.730
  88 2528.66 -45.7808 -219.663
  89 2323.20 30.3899 -447.670
  90 1906.38 191.825 -506.814
  91 1454.69 222.692 -472.981
  92 966.915 79.0905 -373.590
  93 475.853 -262.307 -160.152
  94 120.677 -750.452 4.58431
  95 63.2698 -804.432 -63.7097
  96 358.889 -352.850 94.7002
  97 793.530 -62.4393 228.988
  98 1368.04 126.020 340.585
  99 1945.12 154.932 361.816
  100 2428.89 37.4101 350.684
  101 2794.01 -60.2811 245.467
  102 2755.21 -63.8099 -221.580
  103 2434.40 57.4511 -345.443
  104 1946.40 151.466 -362.334
  105 1368.50 126.216 -341.369
  106 794.298 -61.9049 -229.515
  107 359.401 -352.227 -95.1106
  108 63.5264 -803.638 63.3315
  109 827.393 133.144 -27.8334
  110 827.443 133.133 27.8297
  111 1133.78 -81.1210 173.645
  112 1133.79 -81.3263 -173.607
  113 569.869 159.785 142.127
  114 569.968 159.791 -142.141
  115 1112.73 46.6905 52.6184
  116 1112.72 46.7094 -52.6384
  117 816.427 65.6073 54.6071
  118 816.437 65.5877 -54.5871
  119 1525.21 -62.9653 37.6655
  120 1525.64 -61.4612 -38.8596
  121 621.649 29.0198 205.295
  122 621.617 28.8572 -205.370
  123 1705.80 80.1108 -28.1482
  124 1699.96 75.4798 31.7058
  125 939.296 78.3044 8.25197
  126 939.271 78.3318 -8.25256
  127 1166.37 26.3528 -107.001
  128 1166.39 26.3480 106.977
  129 768.527 -8.51241 321.387
  130 768.650 -8.50404 -321.367
  131 1132.81 -216.368 232.711
  132 1132.94 -216.806 -232.932
  133 803.246 84.4771 -129.127
  134 803.248 84.4961 129.164
  135 1407.74 -72.4256 -19.4674
  136 1407.87 -72.0526 19.7161
  137 979.341 63.3716 123.445
  138 979.301 63.3490 -123.456
  139 291.753 54.6330 20.0667
  140 291.874 54.7667 -20.1791
  141 721.058 152.782 -75.8161
  142 721.004 152.800 75.8285
  143 1343.98 -29.0779 -77.6562
  144 1343.99 -29.0699 77.6571
  145 1212.91 12.2496 21.7890
  146 1212.92 12.2566 -21.8004
  147 893.507 63.9349 -225.201
  148 893.531 63.9535 225.255
  149 781.463 23.4741 29.8921
  150 781.452 23.4657 -29.8809
  151 1975.81 90.8255 5.99399
  152 985.706 78.1970 71.2820
  153 985.672 78.2132 -71.2979
  154 1049.44 49.0023 21.0679
  155 1049.43 49.0242 -21.0759
  156 870.582 60.3539 18.7487
  157 870.596 60.3309 -18.7409
  158 850.382 98.9036 -25.5008
  159 850.353 98.9299 25.5114
  160 1239.69 17.3659 -52.5528
  161 1239.67 17.3562 52.5278
  162 1323.13 -85.9213 -193.301
  163 1323.13 -86.0195 193.286
  164 681.554 143.678 52.5463
  165 681.489 143.641 -52.5727
  166 1428.37 -79.2113 162.354
  167 1428.90 -79.4552 -163.293
  168 662.718 -207.853 311.867
  169 662.737 -208.101 -311.984
  170 1746.90 51.5821 105.626
  171 1750.86 60.9332 -109.922
  172 803.293 35.9469 -70.1949
  173 803.315 35.9579 70.2196
  174 1486.01 59.2963 28.7470
  175 1484.58 11.4374 102.106
  176 1458.79 13.9266 -99.4950
  177 1383.73 -162.930 69.5328
  178 1384.05 -163.779 -69.4856
  179 896.169 21.8022 184.624
  180 896.150 21.6919 -184.643
  181 1467.10 -52.7928 -59.7560
  182 1466.90 -55.7816 59.9608
  183 899.171 -110.636 266.553
  184 899.193 -110.904 -266.605
  185 914.137 100.127 -24.7690
  186 914.173 100.103 24.7652
  187 2079.22 105.449 140.246
  188 2086.98 92.6494 -143.342
  189 799.139 93.9841 -76.4605
  190 799.121 94.0071 76.4856
  191 1005.50 71.9481 37.0562
  192 1005.47 71.9730 -37.0670
  193 1154.98 4.27007 130.954
  194 1154.95 4.23942 -130.958
  195 1416.55 41.1877 -61.3466
  196 1102.93 50.0209 83.0907
  197 1102.91 50.0354 -83.1143
  198 243.790 -176.395 -205.447
  199 243.531 -176.614 205.301
  200 1617.21 -34.7782 -103.596
  201 1617.34 -34.4570 103.386
  202 958.977 58.7932 -2.01623
  203 958.994 58.7672 2.01605
  204 223.077 -165.177 -143.490
  205 223.146 -164.924 143.352
  206 1336.72 -2.31124 -67.2840
  207 1336.68 -2.32255 67.2521
  208 496.094 144.068 -12.2185
  209 496.002 144.011 12.1639
  210 1240.65 -18.5850 -207.272
  211 1240.78 -18.5862 207.338
  212 917.550 26.6608 -132.896
  213 917.617 26.6701 132.938
  214 846.262 -171.239 283.297
  215 846.166 -171.331 -283.501
  216 830.034 39.8726 19.7269
  217 830.037 39.8561 -19.7175
  218 762.165 114.722 -196.593
  219 762.139 114.746 196.635
  220 828.453 108.050 106.610
  221 828.404 108.020 -106.627
  222 1117.48 33.7449 19.2987
  223 1117.48 33.7609 -19.3068
  224 531.156 116.789 227.051
  225 531.283 116.795 -227.068
  226 1217.47 -141.728 -159.081
  227 1217.40 -141.353 159.135
  228 529.676 -137.218 261.657
  229 529.960 -137.041 -261.770
  230 1250.66 8.45798 -30.1519
  231 1250.63 8.45321 30.1368
  232 1463.07 -16.1211 23.6210
  233 1463.13 -16.1097 -23.6467
  234 837.392 39.5375 -94.9964
  235 837.431 39.5490 95.0258
  236 1498.99 55.3362 63.8835
  237 2036.03 28.0940 165.264
  238 2037.51 27.8174 -164.999
  239 1623.91 100.419 314.340
  240 1622.27 103.995 -314.696
  241 786.009 139.589 -28.5562
  242 785.961 139.609 28.5644
  243 1324.24 -74.6179 -86.5180
  244 1324.29 -74.4268 86.6356
  245 763.005 13.1865 -32.4827
  246 763.030 13.1907 32.4956
  247 2277.96 23.5342 -90.6409
  248 1322.37 8.14931 -45.6258
  249 1322.32 8.14172 45.6014
  250 885.967 81.3790 -13.1577
  251 885.944 81.4057 13.1645
  252 640.054 170.206 -56.8923
  253 639.978 170.204 56.8833
  254 1623.95 23.6810 39.7146
  255 1615.96 23.7272 -40.4847
  256 2270.61 20.2740 88.5765
  257 907.017 103.514 78.9496
  258 906.972 103.516 -78.9614
  259 1071.42 47.2259 -115.238
  260 1071.45 47.2266 115.218
  261 1237.71 6.78385 9.82762
  262 1237.72 6.78694 -9.83226
  263 2348.72 -51.7255 146.468
  264 2342.10 -10.4828 -132.754
  265 1642.96 87.8789 -26.2451
  266 753.449 80.0979 152.864
  267 753.408 80.0091 -152.899
  268 731.724 67.9131 -289.909
  269 731.649 67.9278 289.942
  270 1179.52 24.8883 42.9543
  271 1179.53 24.9009 -42.9737
  272 800.155 40.2121 -52.5646
  273 800.164 40.2251 52.5844
  274 738.872 5.56816 8.77306
  275 738.858 5.56509 -8.76852
  276 738.196 158.151 -6.30573
  277 738.136 158.155 6.30265
  278 1474.34 -33.1927 -12.6771
  279 1474.22 -33.5179 12.7700
  280 80.9841 -252.708 38.8976
  281 81.1252 -252.426 -39.0519
  282 1019.46 52.4464 -7.68436
  283 1019.47 52.4222 7.68164
  284 1111.85 40.3709 34.6955
  285 1111.85 40.3888 -34.7098
  286 1226.58 29.4650 332.570
  287 1226.04 29.6916 -333.099
  288 1446.94 -96.9283 -18.6039
  289 1447.03 -98.0330 18.7792
  290 906.731 57.8644 -4.28426
  291 906.717 57.8891 4.28675
  292 1170.98 15.9023 -178.089
  293 1171.12 15.9121 178.145
  294 1433.04 -4.19190 39.6424
  295 1433.14 -4.18193 -39.6784
  296 1976.84 75.7706 -304.026
  297 1974.54 75.7035 301.754
  298 825.187 -131.449 -240.879
  299 824.825 -131.744 240.673
  300 1433.60 -14.3627 77.5902
  301 1434.05 -8.29031 -77.4894
  302 806.347 71.3217 -100.820
  303 806.353 71.3404 100.853
  304 418.938 43.3691 134.068
  305 418.868 43.2163 -134.171
  306 834.573 57.7861 35.6219
  307 834.582 57.7655 -35.6077
  308 1036.95 -0.0249455 163.010
  309 1036.93 -0.107870 -163.007
  310 1707.54 109.736 8.79545
  311 754.177 118.222 -136.709
  312 754.148 118.243 136.742
  313 1566.32 -19.7141 -58.8248
  314 1564.61 -21.0323 57.7094
  315 979.482 63.2481 -10.4352
  316 979.501 63.2221 10.4323
  317 2496.53 -44.4243 -43.7128
  318 2608.54 -80.2895 87.5117
  319 1068.48 18.5319 -143.914
  320 1068.61 18.5379 143.960
  321 1662.82 50.1676 -248.844
  322 1662.55 51.8482 248.038
  323 1182.74 18.7873 9.16820
  324 1182.75 18.7970 -9.17378
  325 923.400 66.9760 -3.16581
  326 923.381 67.0024 3.16835
  327 866.141 48.5819 -9.03518
  328 866.132 48.6025 9.03935
  329 1244.66 -4.42339 -100.358
  330 1244.67 -4.42189 100.340
  331 1912.63 84.4489 21.7406
  332 1074.79 39.9829 -9.98987
  333 1074.80 39.9632 9.98574
  334 788.954 21.4930 14.1426
  335 788.947 21.4835 -14.1376
  336 822.715 94.2150 -48.7628
  337 822.692 94.2395 48.7804
  338 1368.61 13.3120 -72.6617
  339 1210.98 -16.5048 -254.429
  340 1210.67 -16.7673 254.144
  341 1303.48 8.65502 -28.5969
  342 1303.43 8.65049 28.5813
  343 1332.26 -181.500 134.281
  344 1332.62 -182.356 -134.622
  345 1212.30 25.1780 76.3103
  346 1212.31 25.1923 -76.3410
  347 1169.96 34.4703 64.9628
  348 1169.97 34.4862 -64.9891
  349 1334.44 -142.647 87.4895
  350 1334.52 -143.166 -87.3235
  351 328.381 -318.690 203.730
  352 328.371 -318.913 -203.818
  353 897.045 92.9806 2.83335
  354 897.014 93.0073 -2.83125
  355 1268.70 0.564972 13.4219
  356 1268.72 0.566940 -13.4291
  357 683.028 154.477 -146.489
  358 682.967 154.496 146.507
  359 1015.40 -86.5222 -281.675
  360 1015.33 -86.5779 281.707
  361 1042.43 65.0926 57.2412
  362 1042.41 65.1140 -57.2579
  363 1497.55 -38.0465 88.0018
  364 1496.26 -32.9967 -90.2802
  365 852.321 114.166 1.58669
  366 852.280 114.189 -1.58345
  367 712.720 -103.854 -281.136
  368 712.709 -103.611 281.052
  369 1214.12 -40.0802 -127.506
  370 1214.15 -39.9927 127.540
  371 1924.87 91.7858 -35.7063
  372 1467.30 -105.707 39.6574
  373 1468.02 -106.798 -39.8252
  374 420.585 131.039 126.452
  375 420.717 131.088 -126.512
  376 988.343 -50.8230 212.992
  377 988.351 -51.0079 -213.000
  378 1659.59 -44.5601 83.4926
  379 1659.29 -44.5833 -83.4958
  380 1365.18 19.1536 77.2856
  381 1295.87 42.2834 -5.03422
  382 897.237 -187.022 281.015
  383 897.286 -187.332 -281.129
  384 847.558 77.3853 33.8577
  385 847.577 77.3610 -33.8438
  386 1545.71 40.4833 -69.2842
  387 1014.51 67.1468 95.9729
  388 1014.48 67.1528 -95.9901
  389 1228.53 -180.673 214.520
  390 1228.66 -180.912 -215.083
  391 786.727 9.64453 -43.7969
  392 786.767 9.64800 43.8131
  393 1836.02 101.638 78.3064
  394 1846.24 103.304 -81.3910
  395 1469.19 -46.9355 143.930
  396 1468.98 -46.9092 -143.885
  397 1087.15 -156.897 223.018
  398 1087.22 -157.238 -223.055
  399 976.703 17.4212 -274.990
  400 976.708 17.4296 275.049
  401 682.817 132.139 -224.586
  402 682.751 132.164 224.614
  403 583.117 108.414 109.850
  404 583.058 108.319 -109.909
  405 1290.33 28.8978 38.2451
  406 904.834 104.926 -43.8826
  407 904.876 104.907 43.8753
  408 892.811 59.7833 158.024
  409 892.771 59.7166 -158.040
  410 800.099 -17.4847 -229.835
  411 800.110 -17.3087 229.792
  412 729.807 9.32126 16.0579
  413 729.787 9.31847 -16.0509
  414 964.617 87.5335 -44.1105
  415 964.650 87.5104 44.0998
  416 955.842 86.6569 23.9515
  417 955.813 86.6837 -23.9566
  418 181.875 -405.439 93.7540
  419 182.203 -404.945 -94.0437
  420 1539.62 17.1684 87.5501
  421 1053.80 55.7434 37.2592
  422 1053.78 55.7658 -37.2723
  423 815.707 41.2209 40.6149
  424 815.707 41.2060 -40.5992
  425 772.440 128.372 78.8765
  426 772.475 128.349 -78.8550
  427 803.992 59.3203 -75.8353
  428 803.993 59.3377 75.8623
  429 1261.29 9.97414 -83.8171
  430 1261.28 9.96039 83.7847
  431 829.394 80.2321 -165.773
  432 829.408 80.2496 165.816
  433 475.966 -92.6366 -247.624
  434 475.984 -92.4002 247.511
  435 1867.53 -7.79974 51.2783
  436 1867.97 -8.71545 -51.1314
  437 2275.34 1.83241 279.306
  438 2281.27 -4.77679 -279.200
  439 786.071 131.742 50.9065
  440 786.014 131.734 -50.9184
  441 31.5238 -581.045 -73.4572
  442 31.5657 -580.673 73.3548
  443 1402.77 -52.6043 44.6853
  444 1402.69 -52.6498 -44.6168
  445 1479.35 -15.6067 50.2832
  446 1479.09 -14.7555 -49.2063
  447 57.6691 -577.213 38.5276
  448 57.8698 -576.714 -38.7689
  449 1265.36 -181.866 -145.634
  450 1265.17 -181.308 145.595
  451 1406.43 -0.157490 -31.6002
  452 1406.34 -0.160685 31.5768
  453 1338.97 11.2024 -77.3047
  454 1447.95 -67.4660 -30.0507
  455 1447.50 -68.3443 30.5610
  456 1082.21 32.7789 -127.338
  457 1082.24 32.7952 127.328
  458 902.810 13.6725 -69.5926
  459 902.899 13.6748 69.6155
  460 320.431 38.3002 174.729
  461 320.605 38.3931 -174.823
  462 1248.10 -98.6082 130.425
  463 1248.12 -98.8558 -130.332
  464 1160.85 29.6860 25.2767
  465 1160.86 29.6999 -25.2889
  466 809.048 115.379 -43.9056
  467 809.013 115.404 43.9206
  468 1258.24 4.92564 4.02413
  469 1258.25 4.92680 -4.02571
  470 997.411 68.6785 -23.7685
  471 997.433 68.6526 23.7613
  472 701.335 -0.355371 2.20748
  473 701.320 -0.356480 -2.20589
  474 783.073 100.777 -109.949
  475 783.056 100.798 109.981
  476 524.998 -1.63701 -279.849
  477 524.813 -1.69546 279.806
  478 1240.77 4.38470 -42.9257
  479 30.5405 -161.448 0.501159
  480 5.52632 -83.9877 -3.02860
  481 5.16063 -69.3170 4.88675
  482 4.29782 -142.079 6.88932
  483 3.14818 -147.590 -20.1093
  484 2.00491 -136.546 -10.0322
  485 3.91646 -129.604 23.7069
  486 4.09006 -76.0484 12.1703
  487 0.491296 -55.9798 -15.2489
  488 -13.5702 -167.357 -1.00973
  489 -19.4277 -192.653 2.19712
  490 -2.84190 -14.8558 -1.51451
  491 1.18555 -66.1120 -11.1684
  492 -3.57252 -43.9304 13.2933
  493 24.2281 -142.002 -2.56402
  494 -3.14911 -10.4293 0.894711
  495 19.5312 -127.030 1.93617
  496 -1.73894 -21.8886 1.12841
  497 -1.32708 -14.2190 -0.912498
  498 22.0554 -162.192 0.354173
  499 27.0589 -170.393 -2.14786
  500 -1.26799 -15.8679 -2.90128
  501 -7.79840 -113.231 13.2157
  502 -7.82116 -99.6422 -31.0860
  503 -28.4721 -155.328 -4.20010
  504 -30.7485 -172.056 14.9327
  505 -23.0710 -162.473 0.806247
  506 -27.6161 -184.743 -7.77026
  507 -3.89363 -90.2187 -12.7951
  508 -5.18099 -68.6529 24.8867
  509 12.6723 -112.850 5.18007
  510 9.47114 -106.069 -16.3930
  511 -1.83816 -9.16816 0.629688
  512 10.5544 -105.752 12.8437
  513 23.8438 -146.305 11.1323
  514 22.5417 -148.612 -1.61455
  515 11.6338 -91.2230 -3.68065
  516 -0.0377062 -50.0358 -7.50498
  517 0.646538 -29.8193 6.11279
  518 -2.05199 2.73454 -2.05701
  519 15.1411 -172.570 7.69394
  520 2.30855 -57.2944 4.98059
  521 0.00472521 -68.0596 13.0689
  522 -2.89533 -45.5420 -17.0782
  523 23.1870 -152.173 -9.88152
  524 -2.13606 -39.3219 5.44646
  525 -2.35726 0.731715 2.10800
  526 -51.1635 -166.833 -0.0224462
  527 -68.0911 -198.870 2.47204
  528 -1.74026 3.56895 0.657268
  529 -1.20615 -18.4160 -1.50432
  530 1.07852 -45.2281 -4.06187
  531 0.825720 -17.9630 -5.03077
  532 8.56616 -159.559 -3.35422
  533 22.2135 -153.511 2.54322
  534 2.27190 -10.3906 0.932764
  535 1.10077 -105.912 14.8183
  536 -3.42927 -97.0351 -27.9584
  537 9.94132 -160.355 2.06919
  538 13.0480 -177.385 -6.01746
  539 0.509160 -39.1332 -7.46955
  540 -2.71242 -42.5985 -1.50893
  541 -2.81950 4.98174 0.218046
  542 0.412300 -86.1775 22.2224
  543 -1.87240 3.67431 -2.82399
  544 29.9861 -159.939 -1.84625
  545 20.0624 -122.028 -6.75928
  546 5.83219 -105.263 -11.6161
  547 -52.0282 -168.311 1.18825
  548 -69.7392 -200.168 -3.28397
  549 -40.2013 -146.645 9.74701
  550 -38.8162 -153.814 -24.3942
  551 -0.718539 -3.29344 -1.91371
  552 -24.2556 -126.515 -12.1638
  553 -17.2931 -118.874 30.6403
  554 -2.43924 -34.6370 1.01908
  555 -1.35203 -25.1209 10.2696
  556 13.1560 -99.9539 3.90367
  557 29.4651 -153.353 3.78327
  558 15.4100 -125.321 -5.33890
  559 -2.86195 6.83766 -0.994517
  560 -1.95479 1.80219 1.81856
  561 3.51283 -65.1760 13.0207
  562 28.6837 -166.518 3.87226
  563 -1.53017 12.4446 -0.609958
  564 -76.8604 -167.938 2.09796
  565 -1.84742 10.4844 0.00988996
  566 -106.227 -200.838 -2.15139
  567 -0.967546 11.7423 3.84643
  568 0.216641 9.95924 6.73803
  569 4.46866 -0.651950 3.75142
  570 5.90960 -25.1976 -5.17074
  571 -21.1337 -89.2124 -14.7505
  572 -49.7935 -144.283 -10.9822
  573 -74.4478 -165.111 -1.70728
  574 -70.0955 -161.534 2.82783
  575 -73.1016 -149.485 9.21091
  576 -17.4872 -98.1475 11.2063
  577 3.06859 -29.9824 7.36023
  578 5.22235 -0.704082 -6.41965
  579 2.45425 7.14720 -6.63181
  580 -0.863229 12.0923 -4.52148
  581 -0.653230 10.7277 3.78448
  582 0.926129 6.53720 5.92378
  583 5.20777 -2.85696 3.72803
  584 6.36460 -11.6266 -0.838789
  585 -8.62414 -73.9953 -22.1636
  586 -72.8195 -157.598 -19.9616
  587 -87.7400 -186.169 -9.02883
  588 -95.7637 -193.115 7.99087
  589 -44.5575 -151.033 24.7826
  590 -10.5976 -60.9259 24.6124
  591 7.69900 -8.99323 0.309915
  592 6.91250 -0.130008 -5.83613
  593 1.16352 7.69220 -6.78309
  594 -0.760188 12.0999 -4.09880
</Section>

newXOutput 46

<Section columns = "stress_xx | stress_yy | stress_xy">
  1 692.853 6.89223 -7.13813
  2 692.868 6.89351 7.13945
  3 1294.37 0.0622992 0.299608
  4 1294.35 0.0610359 -0.300922
  5 -2.02721 -940.352 29.8382
  6 2581.84 -22.3725 -1.60983
  7 -2.14751 -940.972 -30.0200
  8 2927.85 -87.3123 -18.0374
  9 705.035 3.71542 -2.88978
  10 723.622 7.46127 -10.7782
  11 763.399 10.6072 -27.0455
  12 832.613 6.95843 -50.3578
  13 928.570 7.17145 -53.3590
  14 1050.03 17.4232 -88.4307
  15 1250.01 3.63559 -113.919
  16 1474.82 -5.31845 -120.784
  17 1767.50 -40.8708 -68.1391
  18 1875.58 -37.3081 -36.9665
  19 1967.40 -2.37774 -0.654186
  20 2081.41 26.5476 -19.5653
  21 2196.03 39.7038 -27.1423
  22 2272.03 -24.3041 0.0212703
  23 2080.78 19.4060 16.3706
  24 1968.31 -1.61263 2.09473
  25 1875.93 -36.9543 37.1171
  26 1767.89 -40.8936 68.1618
  27 1475.09 -5.32037 120.830
  28 1250.22 3.63729 113.958
  29 1050.17 17.4266 88.4583
  30 928.678 7.16975 53.3770
  31 832.678 6.95825 50.3761
  32 763.442 10.6099 27.0560
  33 723.648 7.46293 10.7848
  34 705.053 3.71685 2.89282
  35 755.101 3.39610 8.10143
  36 805.919 22.2327 13.6489
  37 846.797 37.2762 11.3119
  38 903.190 48.5811 7.69870
  39 953.365 56.2823 3.60981
  40 1008.92 54.4309 0.0691405
  41 1066.85 45.4995 -1.27499
  42 1147.03 29.1039 -5.26461
  43 1203.55 18.0819 1.73503
  44 1248.53 11.9135 -2.63828
  45 1293.78 -0.811453 -7.88160
  46 1320.46 -4.23378 -8.80340
  47 1328.02 3.65022 -16.5994
  48 1373.18 0.997290 -24.2674
  49 1439.42 -8.95412 -22.5084
  50 1493.10 -9.34775 -26.8917
  51 1535.39 -11.7575 -20.8508
  52 1560.50 -19.3322 -4.47739
  53 1544.01 -24.4953 31.0400
  54 1477.96 -10.7427 50.8427
  55 1347.78 8.35050 63.9634
  56 1215.50 33.8159 50.2942
  57 1147.09 39.1991 26.2079
  58 1134.82 39.5267 -28.2950
  59 1228.67 22.1256 -46.9112
  60 1344.96 3.49799 -52.1414
  61 1479.22 -9.48608 -47.8892
  62 1544.33 -23.8184 -30.3718
  63 1560.27 -19.2252 4.43335
  64 1535.19 -11.7661 20.7969
  65 1492.96 -9.34981 26.8612
  66 1439.33 -8.95166 22.4915
  67 1373.12 0.995524 24.2531
  68 1327.98 3.64754 16.5897
  69 1320.43 -4.23415 8.79841
  70 1293.76 -0.811999 7.87861
  71 1248.52 11.9092 2.63596
  72 1203.54 18.0727 -1.73714
  73 1147.03 29.0887 5.26128
  74 1066.86 45.4781 1.27327
  75 1008.93 54.4058 -0.0699312
  76 953.380 56.2570 -3.60917
  77 903.201 48.5592 -7.69694
  78 846.799 37.2607 -11.3082
  79 805.912 22.2228 -13.6466
  80 755.089 3.39166 -8.09907
  81 122.515 -766.548 -5.19550
  82 483.971 -268.460 162.535
  83 983.748 79.6877 379.687
  84 1479.56 225.491 481.621
  85 1939.89 193.105 517.020
  86 2357.66 40.6147 454.782
  87 2563.39 -50.2558 221.415
  88 2567.81 -47.6000 -223.388
  89 2359.27 30.0859 -455.129
  90 1937.27 195.150 -515.292
  91 1478.60 226.453 -480.893
  92 982.967 79.7318 -379.779
  93 483.812 -268.561 -162.578
  94 122.491 -766.922 5.15307
  95 64.4083 -821.227 -64.9346
  96 365.109 -360.112 96.3704
  97 806.903 -64.0398 232.807
  98 1390.51 128.272 346.321
  99 1976.65 158.287 368.173
  100 2467.25 37.8347 357.158
  101 2836.48 -62.8367 249.778
  102 2797.79 -66.2779 -225.601
  103 2472.81 58.2572 -351.872
  104 1977.93 154.712 -368.707
  105 1390.96 128.467 -347.111
  106 807.674 -63.4994 -233.338
  107 365.623 -359.480 -96.7847
  108 64.6671 -820.420 64.5518
  109 842.464 135.816 -28.2059
  110 842.515 135.805 28.2024
  111 1153.69 -82.1678 177.046
  112 1153.70 -82.3752 -177.008
  113 580.179 163.181 144.917
  114 580.279 163.187 -144.930
  115 1132.71 47.5600 53.4428
  116 1132.70 47.5792 -53.4631
  117 830.533 66.7067 55.4539
  118 830.543 66.6869 -55.4337
  119 1552.32 -64.3561 37.9158
  120 1552.75 -62.8042 -39.1380
  121 632.867 30.2985 208.733
  122 632.836 30.1329 -208.808
  123 1736.85 81.5016 -28.1999
  124 1730.92 76.7808 31.8174
  125 956.227 79.5993 8.37241
  126 956.203 79.6272 -8.37297
  127 1187.17 27.1464 -108.952
  128 1187.18 27.1409 108.928
  129 781.864 -8.13347 327.583
  130 781.986 -8.12398 -327.564
  131 1152.40 -220.699 237.193
  132 1152.54 -221.150 -237.416
  133 816.817 86.0391 -131.288
  134 816.819 86.0582 131.325
  135 1432.84 -73.6933 -20.3005
  136 1432.97 -73.3166 20.5531
  137 996.946 64.9997 125.555
  138 996.904 64.9775 -125.566
  139 297.296 56.4722 20.8394
  140 297.417 56.6081 -20.9525
  141 734.010 155.763 -77.2292
  142 733.955 155.781 77.2421
  143 1367.89 -29.4256 -79.3917
  144 1367.90 -29.4186 79.3915
  145 1234.48 12.4262 22.0975
  146 1234.50 12.4333 -22.1091
  147 908.449 65.2244 -229.251
  148 908.473 65.2427 229.305
  149 794.378 23.8457 30.3448
  150 794.366 23.8373 -30.3334
  151 2010.94 91.9902 6.13844
  152 1003.55 79.8188 72.4345
  153 1003.51 79.8355 -72.4506
  154 1068.35 49.7540 21.3811
  155 1068.34 49.7762 -21.3892
  156 885.936 61.2728 19.0305
  157 885.951 61.2495 -19.0225
  158 865.594 100.637 -25.9252
  159 865.564 100.663 25.9360
  160 1261.70 17.7354 -53.4149
  161 1261.68 17.7255 53.3895
  162 1345.87 -87.2950 -197.259
  163 1345.87 -87.3972 197.242
  164 694.066 146.857 53.2243
  165 694.000 146.819 -53.2502
  166 1452.96 -80.9279 165.580
  167 1453.50 -81.1820 -166.539
  168 674.215 -211.831 317.556
  169 674.236 -212.084 -317.675
  170 1777.23 52.5497 108.167
  171 1781.24 62.1391 -112.545
  172 816.483 36.5519 -71.2984
  173 816.506 36.5629 71.3234
  174 1513.82 60.2770 29.2726
  175 1511.75 11.5522 103.714
  176 1485.60 14.1430 -101.108
  177 1407.95 -166.259 71.2525
  178 1408.26 -167.132 -71.2028
  179 912.124 22.8968 187.836
  180 912.104 22.7853 -187.854
  181 1493.72 -53.9988 -60.5139
  182 1493.51 -57.0534 60.7203
  183 914.888 -112.232 271.433
  184 914.909 -112.505 -271.484
  185 930.714 101.976 -25.1304
  186 930.750 101.951 25.1267
  187 2114.93 106.923 143.248
  188 2122.76 93.7869 -146.445
  189 813.043 95.6630 -77.7009
  190 813.025 95.6861 77.7264
  191 1023.67 73.2172 37.6172
  192 1023.65 73.2426 -37.6280
  193 1175.52 4.78030 133.435
  194 1175.49 4.75019 -133.440
  195 1443.03 41.9629 -62.4236
  196 1122.72 51.1207 84.5016
  197 1122.71 51.1358 -84.5256
  198 248.216 -179.115 -209.786
  199 247.956 -179.337 209.640
  200 1645.04 -35.1378 -105.956
  201 1645.17 -34.8113 105.740
  202 976.195 59.6334 -2.04725
  203 976.211 59.6071 2.04707
  204 227.197 -167.752 -145.889
  205 227.266 -167.495 145.749
  206 1360.42 -2.22522 -68.6316
  207 1360.38 -2.23705 68.5988
  208 505.314 147.353 -12.7831
  209 505.221 147.295 12.7285
  210 1261.51 -18.7665 -211.172
  211 1261.65 -18.7684 211.238
  212 932.440 27.1109 -135.133
  213 932.508 27.1201 135.175
  214 860.745 -174.970 288.425
  215 860.649 -175.065 -288.633
  216 844.285 40.4475 19.9852
  217 844.287 40.4308 -19.9757
  218 775.254 116.966 -200.090
  219 775.228 116.990 200.132
  220 843.505 110.558 108.312
  221 843.455 110.527 -108.329
  222 1137.53 34.2454 19.5832
  223 1137.52 34.2616 -19.5914
  224 540.625 119.488 231.455
  225 540.753 119.495 -231.472
  226 1238.76 -144.163 -162.367
  227 1238.69 -143.782 162.423
  228 539.011 -139.332 266.875
  229 539.296 -139.151 -266.989
  230 1272.81 8.61506 -30.6073
  231 1272.79 8.61021 30.5920
  232 1489.26 -16.3155 24.3149
  233 1489.32 -16.3028 -24.3423
  234 851.023 40.2363 -96.5672
  235 851.062 40.2479 96.5969
  236 1526.80 56.3581 64.8637
  237 2070.83 28.8098 168.961
  238 2072.34 28.4962 -168.684
  239 1651.39 102.348 320.099
  240 1649.72 106.014 -320.461
  241 800.210 142.266 -29.1140
  242 800.162 142.286 29.1227
  243 1347.70 -75.7978 -88.5347
  244 1347.76 -75.6053 88.6533
  245 775.260 13.3986 -32.9652
  246 775.285 13.4029 32.9782
  247 2315.99 23.2571 -92.4129
  248 1345.72 8.37340 -46.4302
  249 1345.67 8.36560 46.4055
  250 901.809 82.7266 -13.3662
  251 901.785 82.7536 13.3731
  252 651.733 173.711 -58.1050
  253 651.656 173.708 58.0964
  254 1653.06 24.0506 39.9323
  255 1644.95 24.0829 -40.7178
  256 2308.60 19.8812 90.3165
  257 923.474 105.732 80.2062
  258 923.428 105.734 -80.2180
  259 1090.64 48.4633 -117.267
  260 1090.67 48.4634 117.247
  261 1259.68 6.88295 9.97190
  262 1259.69 6.88607 -9.97659
  263 2388.84 -53.1702 149.749
  264 2382.21 -11.2068 -135.839
  265 1673.31 89.4101 -26.5828
  266 767.074 82.2698 155.364
  267 767.033 82.1798 -155.398
  268 744.342 69.5314 -295.385
  269 744.267 69.5454 295.418
  270 1200.57 25.3073 43.6155
  271 1200.58 25.3201 -43.6352
  272 813.514 40.8735 -53.3566
  273 813.524 40.8866 53.3766
  274 750.797 5.62751 8.87591
  275 750.783 5.62440 -8.87132
  276 751.672 161.348 -6.57191
  277 751.611 161.352 6.56928
  278 1501.00 -33.8022 -12.5672
  279 1500.88 -34.1303 12.6594
  280 82.5593 -256.854 40.0287
  281 82.7013 -256.569 -40.1846
  282 1037.82 53.1893 -7.79779
  283 1037.83 53.1648 7.79503
  284 1131.82 41.0284 35.2142
  285 1131.81 41.0467 -35.2287
  286 1247.29 29.7202 338.517
  287 1246.74 29.9487 -339.059
  288 1472.72 -98.9381 -18.5087
  289 1472.80 -100.069 18.6891
  290 922.841 58.6965 -4.33907
  291 922.827 58.7216 4.34159
  292 1190.19 16.2686 -181.275
  293 1190.34 16.2782 181.331
  294 1458.45 -4.17933 40.5103
  295 1458.55 -4.16886 -40.5474
  296 2009.93 76.9024 -309.743
  297 2007.62 76.8596 307.429
  298 839.525 -133.898 -245.492
  299 839.163 -134.197 245.283
  300 1460.01 -14.7398 78.8401
  301 1460.48 -8.52596 -78.7600
  302 819.930 72.5866 -102.453
  303 819.936 72.6054 102.486
  304 426.689 44.9265 136.163
  305 426.620 44.7710 -136.267
  306 849.053 58.6953 36.1541
  307 849.062 58.6744 -36.1397
  308 1055.37 0.547581 166.001
  309 1055.34 0.464423 -165.998
  310 1738.94 111.757 8.72032
  311 767.284 120.469 -139.089
  312 767.254 120.490 139.122
  313 1593.76 -20.1287 -60.3782
  314 1592.03 -21.4764 59.2352
  315 997.136 64.2198 -10.5889
  316 997.155 64.1934 10.5859
  317 2539.37 -45.8384 -44.6587
  318 2651.54 -82.6422 89.2477
  319 1085.70 18.8814 -146.391
  320 1085.83 18.8873 146.437
  321 1691.02 51.3092 -253.637
  322 1690.76 53.0386 252.818
  323 1203.83 19.0470 9.27413
  324 1203.84 19.0567 -9.27977
  325 939.941 67.9986 -3.21278
  326 939.921 68.0253 3.21537
  327 881.296 49.2731 -9.15917
  328 881.287 49.2940 9.16339
  329 1266.79 -4.21902 -102.345
  330 1266.80 -4.21838 102.326
  331 1946.78 85.4882 22.5376
  332 1094.12 40.5317 -10.1325
  333 1094.13 40.5117 10.1283
  334 802.125 21.7927 14.3670
  335 802.118 21.7830 -14.3620
  336 837.227 95.8672 -49.5481
  337 837.204 95.8920 49.5661
  338 1394.11 13.4555 -73.9063
  339 1231.72 -16.8030 -259.239
  340 1231.41 -17.0697 258.953
  341 1326.45 8.85007 -29.0394
  342 1326.41 8.84544 29.0235
  343 1355.37 -185.259 137.055
  344 1355.73 -186.139 -137.400
  345 1233.88 25.7888 77.6424
  346 1233.89 25.8035 -77.6737
  347 1190.87 35.1795 66.0366
  348 1190.88 35.1958 -66.0633
  349 1357.94 -145.387 89.5722
  350 1358.02 -145.915 -89.4021
  351 334.029 -325.170 207.361
  352 334.020 -325.397 -207.451
  353 913.239 94.6096 2.85386
  354 913.207 94.6367 -2.85165
  355 1291.14 0.540211 13.6027
  356 1291.16 0.542208 -13.6100
  357 695.142 157.554 -149.186
  358 695.080 157.572 149.205
  359 1032.89 -87.7744 -287.156
  360 1032.82 -87.8323 287.188
  361 1061.24 66.3347 58.1567
  362 1061.22 66.3566 -58.1736
  363 1524.57 -38.9563 89.2761
  364 1523.28 -33.7758 -91.6072
  365 867.754 116.295 1.56674
  366 867.712 116.318 -1.56326
  367 725.213 -105.335 -286.174
  368 725.202 -105.087 286.090
  369 1235.61 -40.4210 -130.086
  370 1235.64 -40.3336 130.120
  371 1959.16 93.0442 -36.8463
  372 1492.99 -107.913 40.7740
  373 1493.71 -109.040 -40.9464
  374 428.375 134.128 129.108
  375 428.508 134.179 -129.168
  376 1005.73 -51.1725 216.884
  377 1005.74 -51.3598 -216.890
  378 1687.69 -45.1161 85.3869
  379 1687.39 -45.1374 -85.3928
  380 1390.56 19.5006 78.6050
  381 1320.24 43.1373 -5.09868
  382 912.758 -190.408 286.241
  383 912.808 -190.724 -286.356
  384 862.501 78.6629 34.3738
  385 862.520 78.6383 -34.3597
  386 1574.21 41.1184 -70.2522
  387 1032.79 68.6765 97.5787
  388 1032.76 68.6831 -97.5961
  389 1249.61 -184.504 218.609
  390 1249.74 -184.753 -219.184
  391 799.227 9.78399 -44.4711
  392 799.268 9.78748 44.4875
  393 1868.50 103.591 80.4453
  394 1878.86 105.232 -83.6151
  395 1493.95 -47.6172 146.770
  396 1493.73 -47.5893 -146.726
  397 1106.03 -159.622 227.285
  398 1106.11 -159.970 -227.321
  399 993.281 18.0622 -280.128
  400 993.286 18.0699 280.187
  401 694.729 134.851 -228.737
  402 694.663 134.876 228.766
  403 593.846 111.139 111.493
  404 593.787 111.042 -111.552
  405 1314.53 29.4492 38.9070
  406 921.287 106.980 -44.5450
  407 921.329 106.961 44.5378
  408 908.856 61.5166 160.725
  409 908.815 61.4495 -160.740
  410 814.302 -17.1223 -233.864
  411 814.314 -16.9435 233.822
  412 741.418 9.48173 16.2819
  413 741.398 9.47891 -16.2747
  414 982.107 89.1981 -44.7932
  415 982.141 89.1745 44.7825
  416 973.132 88.1831 24.3086
  417 973.103 88.2104 -24.3137
  418 185.182 -413.157 95.8092
  419 185.512 -412.657 -96.1016
  420 1567.83 17.2211 88.8886
  421 1072.79 56.7020 37.8218
  422 1072.78 56.7248 -37.8351
  423 829.602 41.8519 41.2225
  424 829.602 41.8368 -41.2067
  425 786.103 130.783 80.2356
  426 786.138 130.760 -80.2138
  427 817.627 60.3249 -77.0172
  428 817.627 60.3425 77.0445
  429 1283.69 10.3432 -85.3825
  430 1283.68 10.3289 85.3493
  431 843.274 81.7509 -168.638
  432 843.288 81.7684 168.681
  433 484.477 -93.8042 -251.936
  434 484.494 -93.5631 251.823
  435 1899.69 -7.87585 52.7766
  436 1900.14 -8.81391 -52.6296
  437 2312.29 1.18887 284.295
  438 2318.24 -5.59516 -284.206
  439 800.445 134.540 51.6182
  440 800.388 134.532 -51.6297
  441 31.9348 -592.822 -74.6286
  442 31.9767 -592.443 74.5242
  443 1427.86 -53.4880 45.9529
  444 1427.78 -53.5319 -45.8851
  445 1506.49 -15.9280 50.9990
  446 1506.22 -15.0566 -49.9059
  447 58.8005 -588.409 39.6049
  448 59.0028 -587.903 -39.8488
  449 1287.37 -185.339 -148.633
  450 1287.18 -184.768 148.596
  451 1431.19 -0.107861 -32.1974
  452 1431.10 -0.111185 32.1735
  453 1363.92 11.4345 -78.7058
  454 1473.99 -68.8504 -30.1701
  455 1473.53 -69.7412 30.6899
  456 1101.52 33.8269 -129.627
  457 1101.55 33.8427 129.617
  458 917.018 13.9456 -70.7262
  459 917.106 13.9479 70.7493
  460 326.365 39.8069 178.334
  461 326.539 39.9013 -178.429
  462 1270.07 -100.151 133.189
  463 1270.09 -100.401 -133.095
  464 1181.60 30.1447 25.6338
  465 1181.61 30.1587 -25.6461
  466 823.492 117.486 -44.6527
  467 823.457 117.511 44.6681
  468 1280.56 5.01802 4.08789
  469 1280.58 5.01918 -4.08949
  470 1015.42 69.8217 -24.1192
  471 1015.44 69.7954 24.1119
  472 712.434 -0.390454 2.22659
  473 712.419 -0.391575 -2.22498
  474 796.590 102.643 -111.795
  475 796.573 102.664 111.826
  476 534.296 -1.06985 -285.352
  477 534.110 -1.12969 285.309
  478 1264.09 4.29400 -43.7572
  479 31.2577 -164.862 0.506184
  480 5.60401 -85.6275 -3.10010
  481 5.23416 -70.6394 4.99762
  482 4.43207 -145.026 7.12214
  483 3.25024 -150.656 -20.6497
  484 2.08232 -139.343 -10.3443
  485 4.02291 -132.225 24.3208
  486 4.16519 -77.4366 12.4270
  487 0.488605 -56.9413 -15.5700
  488 -13.8109 -171.003 -1.04468
  489 -19.8042 -196.899 2.25786
  490 -2.91393 -15.0872 -1.54209
  491 1.17287 -67.3180 -11.3967
  492 -3.67934 -44.6551 13.5543
  493 24.7728 -144.945 -2.61928
  494 -3.22711 -10.5781 0.909048
  495 19.9523 -129.622 1.97254
  496 -1.78868 -22.2540 1.13240
  497 -1.36911 -14.4395 -0.917765
  498 22.5964 -165.655 0.357757
  499 27.7145 -174.029 -2.20521
  500 -1.30092 -16.1161 -2.93672
  501 -7.89056 -115.372 13.6252
  502 -7.91395 -101.463 -31.9012
  503 -29.0173 -158.649 -4.34499
  504 -31.3514 -175.749 15.3242
  505 -23.5336 -165.996 0.854367
  506 -28.1835 -188.777 -7.98283
  507 -3.94391 -91.8239 -13.1442
  508 -5.26441 -69.7537 25.5028
  509 12.9360 -115.110 5.31817
  510 9.65259 -108.177 -16.7898
  511 -1.88048 -9.28607 0.616575
  512 10.7548 -107.850 13.1518
  513 24.3923 -149.347 11.4117
  514 23.0764 -151.714 -1.68382
  515 11.8586 -92.9992 -3.77117
  516 -0.0665283 -50.9418 -7.66468
  517 0.660233 -30.3250 6.19772
  518 -2.09624 2.82581 -2.10687
  519 15.5373 -176.270 7.90429
  520 2.32660 -58.3509 5.07252
  521 0.0338919 -69.1843 13.3391
  522 -2.93204 -46.1514 -17.4351
  523 23.7265 -155.364 -10.1350
  524 -2.20668 -40.0173 5.55423
  525 -2.40608 0.790147 2.16060
  526 -52.3929 -170.507 -0.0229172
  527 -69.7272 -203.288 2.52809
  528 -1.78077 3.67801 0.677223
  529 -1.22981 -18.7070 -1.50712
  530 1.07308 -46.0492 -4.13583
  531 0.848001 -18.2019 -5.07881
  532 8.82032 -162.964 -3.48853
  533 22.7385 -156.740 2.62832
  534 2.33628 -10.4975 0.887718
  535 1.11197 -107.952 15.2029
  536 -3.52693 -98.8663 -28.6440
  537 10.2303 -163.788 2.15672
  538 13.4076 -181.220 -6.18924
  539 0.542542 -39.7155 -7.57726
  540 -2.79617 -43.3584 -1.54745
  541 -2.88048 5.11488 0.225279
  542 0.390389 -87.7903 22.7445
  543 -1.91071 3.78802 -2.89146
  544 30.6892 -163.315 -1.88993
  545 20.4925 -124.500 -6.91801
  546 5.94955 -107.299 -11.9177
  547 -53.2857 -172.022 1.21110
  548 -71.4214 -204.622 -3.35764
  549 -40.9180 -149.699 10.0428
  550 -39.4971 -157.012 -25.0282
  551 -0.730151 -3.31452 -1.97568
  552 -24.6182 -129.025 -12.5461
  553 -17.5021 -121.184 31.4390
  554 -2.51246 -35.2507 1.04363
  555 -1.34229 -25.3143 10.4123
  556 13.4137 -101.924 3.99158
  557 30.1427 -156.564 3.86891
  558 15.7450 -127.856 -5.50233
  559 -2.92336 7.00619 -1.01751
  560 -1.99268 1.87784 1.87021
  561 3.54737 -66.3791 13.3081
  562 29.3556 -170.055 3.96961
  563 -1.56296 12.7140 -0.619845
  564 -78.8149 -171.626 2.15384
  565 -1.88606 10.7169 0.00811442
  566 -108.874 -205.288 -2.20676
  567 -0.985269 11.9994 3.93052
  568 0.227311 10.1804 6.88765
  569 4.57946 -0.625251 3.86579
  570 6.09810 -25.5408 -5.17231
  571 -21.3994 -90.7224 -15.1082
  572 -50.6610 -147.281 -11.2725
  573 -76.1816 -168.717 -1.73294
  574 -71.6833 -165.051 2.89009
  575 -74.4616 -152.627 9.44541
  576 -17.6688 -99.8857 11.5027
  577 3.17793 -30.4032 7.42897
  578 5.34023 -0.672519 -6.57606
  579 2.50892 7.32034 -6.77811
  580 -0.878788 12.3526 -4.61639
  581 -0.667477 10.9672 3.86493
  582 0.945187 6.70019 6.05686
  583 5.33270 -2.85239 3.84073
  584 6.53122 -11.6407 -0.762563
  585 -8.60343 -75.1692 -22.7046
  586 -74.1571 -160.892 -20.4459
  587 -89.7377 -190.248 -9.24056
  588 -97.9893 -197.357 8.16647
  589 -45.2954 -154.162 25.3882
  590 -10.6247 -61.7775 25.1859
  591 7.91828 -9.01979 0.211716
  592 7.07332 -0.0876909 -5.98865
  593 1.18938 7.87417 -6.93267
  594 -0.775360 12.3646 -4.18567
</Section>

newXOutput 47

<Section columns = "stress_xx | stress_yy | stress_xy">
  1 703.345 7.03366 -7.28480
  2 703.361 7.03496 7.28614
  3 1316.69 0.0345451 0.336366
  4 1316.68 0.0332670 -0.337697
  5 -2.25948 -959.604 30.1351
  6 2621.47 -23.7300 -1.62192
  7 -2.38086 -960.234 -30.3195
  8 2970.81 -90.6941 -18.1556
  9 715.733 3.77466 -2.88798
  10 734.586 7.60298 -10.8861
  11 774.889 10.8022 -27.4412
  12 845.211 7.10182 -51.1183
  13 942.461 7.35611 -54.1756
  14 1066.06 17.7657 -89.8658
  15 1269.33 3.70933 -115.807
  16 1498.24 -5.40997 -122.932
  17 1795.90 -41.5816 -69.4974
  18 1906.54 -37.9871 -38.1300
  19 2001.11 -2.20046 -1.53501
  20 2118.60 27.0431 -20.9576
  21 2236.60 40.1568 -28.1339
  22 2313.15 -24.8806 0.399487
  23 2118.04 19.9053 17.8312
  24 2002.02 -1.41190 3.00063
  25 1906.89 -37.6265 38.2783
  26 1796.29 -41.6056 69.5181
  27 1498.51 -5.41231 122.977
  28 1269.54 3.71089 115.847
  29 1066.20 17.7691 89.8934
  30 942.570 7.35437 54.1936
  31 845.277 7.10161 51.1366
  32 774.932 10.8049 27.4517
  33 734.611 7.60465 10.8928
  34 715.751 3.77610 2.89105
  35 766.996 3.37472 8.24250
  36 819.010 22.5365 13.9248
  37 860.922 37.7939 11.4946
  38 918.679 49.2119 7.84328
  39 969.939 57.0339 3.68690
  40 1026.57 55.1613 0.0963743
  41 1085.54 46.1187 -1.26209
  42 1167.01 29.4712 -5.31284
  43 1224.42 18.3120 1.83003
  44 1270.12 12.1049 -2.65086
  45 1316.08 -0.849626 -8.00568
  46 1343.12 -4.34550 -8.90985
  47 1350.76 3.70820 -16.8167
  48 1396.62 1.01008 -24.6564
  49 1463.92 -9.14645 -22.8985
  50 1518.61 -9.55056 -27.4153
  51 1561.92 -12.0025 -21.3608
  52 1587.84 -19.7777 -4.79578
  53 1571.54 -25.0949 31.4030
  54 1504.62 -11.0559 51.6005
  55 1372.34 8.57014 65.1095
  56 1237.76 34.6839 51.2509
  57 1168.10 40.2338 26.7931
  58 1155.62 40.4703 -28.8418
  59 1251.15 22.6430 -47.7488
  60 1369.48 3.54721 -53.0518
  61 1505.89 -9.77829 -48.6049
  62 1571.86 -24.4038 -30.7269
  63 1587.60 -19.6703 4.74878
  64 1561.72 -12.0116 21.3055
  65 1518.46 -9.55274 27.3843
  66 1463.82 -9.14398 22.8814
  67 1396.57 1.00828 24.6419
  68 1350.72 3.70547 16.8070
  69 1343.09 -4.34588 8.90481
  70 1316.06 -0.850176 8.00266
  71 1270.11 12.1006 2.64852
  72 1224.41 18.3027 -1.83217
  73 1167.01 29.4559 5.30947
  74 1085.55 46.0971 1.26034
  75 1026.59 55.1359 -0.0971741
  76 969.954 57.0083 -3.68626
  77 918.690 49.1897 -7.84150
  78 860.924 37.7782 -11.4909
  79 819.003 22.5265 -13.9225
  80 766.984 3.37024 -8.24012
  81 124.295 -782.983 -5.78568
  82 491.831 -274.724 164.914
  83 999.612 80.2818 385.788
  84 1503.18 229.183 489.439
  85 1970.42 196.339 525.428
  86 2393.21 40.5621 462.126
  87 2601.95 -52.1970 225.059
  88 2606.37 -49.4419 -227.071
  89 2394.82 29.7520 -462.494
  90 1967.75 198.444 -523.661
  91 1502.19 230.166 -488.704
  92 998.817 80.3278 -385.885
  93 491.672 -274.827 -164.960
  94 124.272 -783.364 5.74157
  95 65.5376 -837.949 -66.1459
  96 371.263 -367.335 98.0265
  97 820.123 -65.6398 236.580
  98 1412.69 130.506 351.988
  99 2007.75 161.642 374.462
  100 2505.06 38.2501 363.574
  101 2878.26 -65.4294 254.040
  102 2839.71 -68.7792 -229.583
  103 2510.66 59.0497 -358.246
  104 2009.04 157.958 -375.012
  105 1413.14 130.700 -352.783
  106 820.895 -65.0937 -237.114
  107 371.780 -366.696 -98.4442
  108 65.7984 -837.131 65.7589
  109 857.398 138.471 -28.5714
  110 857.449 138.460 28.5683
  111 1173.40 -83.1847 180.425
  112 1173.41 -83.3942 -180.385
  113 590.389 166.561 147.687
  114 590.489 166.569 -147.700
  115 1152.49 48.4212 54.2539
  116 1152.48 48.4408 -54.2745
  117 844.478 67.7926 56.2869
  118 844.488 67.7726 -56.2665
  119 1579.16 -65.7440 38.1467
  120 1579.60 -64.1439 -39.3970
  121 643.983 31.5967 212.128
  122 643.952 31.4282 -212.202
  123 1767.62 82.8774 -28.2310
  124 1761.60 78.0673 31.9077
  125 972.998 80.8768 8.49129
  126 972.973 80.9050 -8.49182
  127 1207.77 27.9445 -110.884
  128 1207.78 27.9383 110.859
  129 795.049 -7.74114 333.734
  130 795.171 -7.73043 -333.714
  131 1171.78 -225.006 241.643
  132 1171.92 -225.469 -241.868
  133 830.218 87.5876 -133.421
  134 830.220 87.6066 133.459
  135 1457.70 -74.9445 -21.1451
  136 1457.84 -74.5643 21.4015
  137 1014.39 66.6308 127.640
  138 1014.34 66.6089 -127.651
  139 302.796 58.3270 21.6228
  140 302.918 58.4651 -21.7367
  141 746.834 158.724 -78.6290
  142 746.779 158.741 78.6422
  143 1391.56 -29.7620 -81.1224
  144 1391.57 -29.7562 81.1212
  145 1255.85 12.5991 22.3995
  146 1255.86 12.6063 -22.4111
  147 923.197 66.5048 -233.261
  148 923.222 66.5229 233.315
  149 807.120 24.2122 30.7900
  150 807.108 24.2037 -30.7786
  151 2045.71 93.1215 6.28331
  152 1021.23 81.4321 73.5712
  153 1021.19 81.4493 -73.5874
  154 1087.08 50.4928 21.6888
  155 1087.07 50.5152 -21.6970
  156 901.130 62.1763 19.3070
  157 901.144 62.1528 -19.2989
  158 880.655 102.351 -26.3430
  159 880.625 102.378 26.3541
  160 1283.50 18.1032 -54.2643
  161 1283.47 18.0930 54.2385
  162 1368.34 -88.6493 -201.193
  163 1368.35 -88.7555 201.175
  164 706.468 150.028 53.8865
  165 706.402 149.989 -53.9120
  166 1477.27 -82.6428 168.785
  167 1477.82 -82.9073 -169.764
  168 685.590 -215.777 323.192
  169 685.611 -216.036 -323.311
  170 1807.22 53.5109 110.708
  171 1811.28 63.3399 -115.166
  172 829.494 37.1496 -72.3855
  173 829.517 37.1607 72.4107
  174 1541.42 61.2415 29.7932
  175 1538.69 11.6622 105.294
  176 1512.18 14.3565 -102.697
  177 1431.91 -169.572 72.9742
  178 1432.23 -170.468 -72.9219
  179 927.925 24.0102 191.011
  180 927.904 23.8977 -191.028
  181 1520.10 -55.2042 -61.2504
  182 1519.88 -58.3245 61.4584
  183 930.443 -113.792 276.267
  184 930.463 -114.070 -276.317
  185 947.137 103.807 -25.4863
  186 947.174 103.781 25.4827
  187 2150.24 108.363 146.238
  188 2158.13 94.8892 -149.537
  189 826.791 97.3251 -78.9234
  190 826.774 97.3484 78.9492
  191 1041.68 74.4718 38.1689
  192 1041.66 74.4976 -38.1799
  193 1195.87 5.30319 135.896
  194 1195.83 5.27368 -135.901
  195 1469.31 42.7319 -63.4876
  196 1142.33 52.2166 85.8949
  197 1142.31 52.2323 -85.9193
  198 252.600 -181.791 -214.112
  199 252.340 -182.016 213.965
  200 1672.54 -35.4816 -108.308
  201 1672.67 -35.1499 108.086
  202 993.246 60.4568 -2.07798
  203 993.262 60.4302 2.07780
  204 231.282 -170.284 -148.254
  205 231.351 -170.022 148.113
  206 1383.89 -2.13499 -69.9700
  207 1383.85 -2.14735 69.9362
  208 514.456 150.631 -13.3554
  209 514.363 150.572 13.3010
  210 1282.11 -18.9428 -215.037
  211 1282.25 -18.9456 215.102
  212 947.120 27.5549 -137.343
  213 947.187 27.5641 137.385
  214 875.063 -178.694 293.502
  215 874.967 -178.792 -293.714
  216 858.370 41.0115 20.2372
  217 858.372 40.9947 -20.2276
  218 788.187 119.195 -203.550
  219 788.161 119.218 203.593
  220 858.421 113.063 109.991
  221 858.370 113.033 -110.008
  222 1157.38 34.7366 19.8623
  223 1157.38 34.7530 -19.8706
  224 549.996 122.181 235.828
  225 550.123 122.189 -235.845
  226 1259.83 -146.566 -165.637
  227 1259.76 -146.180 165.695
  228 548.248 -141.411 272.063
  229 548.533 -141.227 -272.178
  230 1294.75 8.77066 -31.0543
  231 1294.72 8.76572 31.0388
  232 1515.19 -16.5032 25.0120
  233 1515.25 -16.4890 -25.0411
  234 864.462 40.9280 -98.1181
  235 864.502 40.9395 98.1480
  236 1554.38 57.3712 65.8252
  237 2105.21 29.5305 172.649
  238 2106.74 29.1796 -172.361
  239 1678.55 104.264 325.803
  240 1676.85 108.019 -326.171
  241 814.276 144.922 -29.6665
  242 814.227 144.942 29.6756
  243 1370.93 -76.9575 -90.5497
  244 1371.00 -76.7638 90.6693
  245 787.336 13.6080 -33.4394
  246 787.361 13.6122 33.4525
  247 2353.55 22.9522 -94.1734
  248 1368.83 8.59822 -47.2251
  249 1368.78 8.59021 47.1999
  250 917.493 84.0563 -13.5708
  251 917.469 84.0837 13.5778
  252 663.303 177.197 -59.3118
  253 663.226 177.194 59.3036
  254 1681.89 24.4154 40.1273
  255 1673.67 24.4328 -40.9281
  256 2346.13 19.4586 92.0456
  257 939.781 107.941 81.4453
  258 939.735 107.943 -81.4569
  259 1109.67 49.7032 -119.274
  260 1109.70 49.7026 119.254
  261 1281.44 6.98020 10.1135
  262 1281.45 6.98335 -10.1182
  263 2428.48 -54.6219 153.023
  264 2421.84 -11.9506 -138.922
  265 1703.41 90.9229 -26.9104
  266 780.575 84.4501 157.830
  267 780.534 84.3590 -157.864
  268 756.811 71.1454 -300.818
  269 756.736 71.1588 300.851
  270 1221.42 25.7203 44.2652
  271 1221.42 25.7333 -44.2852
  272 826.702 41.5264 -54.1351
  273 826.712 41.5396 54.1554
  274 762.550 5.68477 8.97567
  275 762.536 5.68163 -8.97102
  276 765.025 164.526 -6.83965
  277 764.964 164.530 6.83747
  278 1527.41 -34.4051 -12.4444
  279 1527.29 -34.7357 12.5359
  280 84.1232 -260.942 41.1704
  281 84.2658 -260.653 -41.3278
  282 1056.01 53.9168 -7.90928
  283 1056.02 53.8920 7.90649
  284 1151.60 41.6762 35.7235
  285 1151.59 41.6947 -35.7382
  286 1267.75 29.9576 344.403
  287 1267.20 30.1879 -344.959
  288 1498.24 -100.939 -18.3968
  289 1498.32 -102.096 18.5823
  290 938.787 59.5125 -4.39225
  291 938.773 59.5379 4.39480
  292 1209.14 16.6327 -184.428
  293 1209.29 16.6421 184.484
  294 1483.61 -4.16310 41.3747
  295 1483.71 -4.15213 -41.4129
  296 2042.62 78.0160 -315.411
  297 2040.30 77.9990 313.056
  298 853.707 -136.325 -250.071
  299 853.346 -136.629 249.861
  300 1486.20 -15.1182 80.0705
  301 1486.68 -8.76287 -80.0120
  302 833.343 73.8387 -104.064
  303 833.349 73.8576 104.097
  304 434.376 46.5009 138.225
  305 434.306 46.3425 -138.328
  306 863.371 59.5908 36.6767
  307 863.380 59.5697 -36.6621
  308 1073.61 1.13871 168.965
  309 1073.59 1.05539 -168.962
  310 1770.06 113.760 8.63536
  311 780.241 122.699 -141.443
  312 780.212 122.720 141.476
  313 1620.91 -20.5418 -61.9343
  314 1619.16 -21.9191 60.7636
  315 1014.62 65.1751 -10.7400
  316 1014.64 65.1484 10.7371
  317 2581.69 -47.2660 -45.6015
  318 2693.96 -85.0093 90.9705
  319 1102.67 19.2276 -148.840
  320 1102.80 19.2333 148.886
  321 1718.88 52.4524 -258.393
  322 1718.63 54.2310 257.561
  323 1224.71 19.3007 9.37647
  324 1224.72 19.3106 -9.38218
  325 956.319 69.0040 -3.25843
  326 956.299 69.0310 3.26106
  327 896.288 49.9509 -9.28032
  328 896.279 49.9719 9.28460
  329 1288.70 -4.00506 -104.318
  330 1288.71 -4.00531 104.299
  331 1980.59 86.4938 23.3438
  332 1113.26 41.0680 -10.2722
  333 1113.27 41.0478 10.2680
  334 815.127 22.0863 14.5883
  335 815.120 22.0766 -14.5832
  336 851.586 97.5018 -50.3214
  337 851.563 97.5268 50.3396
  338 1419.40 13.5923 -75.1345
  339 1252.22 -17.0974 -264.011
  340 1251.92 -17.3681 263.724
  341 1349.20 9.04475 -29.4740
  342 1349.16 9.04003 29.4579
  343 1378.23 -189.003 139.815
  344 1378.60 -189.907 -140.165
  345 1255.26 26.3993 78.9586
  346 1255.27 26.4145 -78.9906
  347 1211.58 35.8844 67.0953
  348 1211.58 35.9011 -67.1225
  349 1381.19 -148.105 91.6550
  350 1381.27 -148.644 -91.4808
  351 339.613 -331.618 210.951
  352 339.605 -331.849 -211.043
  353 929.279 96.2204 2.87404
  354 929.247 96.2479 -2.87171
  355 1313.36 0.514008 13.7792
  356 1313.38 0.516033 -13.7866
  357 707.127 160.610 -151.858
  358 707.065 160.628 151.877
  359 1050.18 -89.0043 -292.596
  360 1050.11 -89.0643 292.627
  361 1079.88 67.5663 59.0589
  362 1079.86 67.5887 -59.0761
  363 1551.32 -39.8663 90.5243
  364 1550.04 -34.5545 -92.9082
  365 883.042 118.404 1.54655
  366 883.000 118.428 -1.54285
  367 737.578 -106.783 -291.161
  368 737.567 -106.530 291.077
  369 1256.89 -40.7416 -132.651
  370 1256.92 -40.6545 132.685
  371 1993.11 94.2715 -37.9959
  372 1518.40 -110.111 41.8949
  373 1519.13 -111.274 -42.0719
  374 436.096 137.213 131.754
  375 436.229 137.265 -131.813
  376 1022.95 -51.4931 220.739
  377 1022.95 -51.6828 -220.744
  378 1715.43 -45.6563 87.2740
  379 1715.13 -45.6755 -87.2828
  380 1415.74 19.8447 79.9068
  381 1344.42 43.9867 -5.16101
  382 928.112 -193.758 291.422
  383 928.162 -194.082 -291.537
  384 877.287 79.9237 34.8806
  385 877.306 79.8988 -34.8663
  386 1602.47 41.7423 -71.1971
  387 1050.91 70.2030 99.1642
  388 1050.87 70.2102 -99.1817
  389 1270.46 -188.324 222.667
  390 1270.58 -188.584 -223.253
  391 811.539 9.92081 -45.1350
  392 811.580 9.92431 45.1515
  393 1900.64 105.533 82.5923
  394 1911.15 107.147 -85.8476
  395 1518.39 -48.2872 149.589
  396 1518.17 -48.2577 -149.546
  397 1124.72 -162.314 231.521
  398 1124.79 -162.669 -231.555
  399 1009.65 18.7068 -285.221
  400 1009.66 18.7138 285.280
  401 706.507 137.546 -232.852
  402 706.441 137.571 232.881
  403 604.483 113.869 113.108
  404 604.423 113.771 -113.166
  405 1338.56 29.9961 39.5602
  406 937.590 109.019 -45.1972
  407 937.633 109.000 45.1901
  408 924.752 63.2596 163.394
  409 924.710 63.1921 -163.409
  410 828.367 -16.7337 -237.850
  411 828.380 -16.5522 237.808
  412 752.854 9.64060 16.5014
  413 752.834 9.63774 -16.4942
  414 999.438 90.8490 -45.4657
  415 999.471 90.8249 45.4549
  416 990.262 89.6923 24.6601
  417 990.233 89.7199 -24.6653
  418 188.460 -420.814 97.8627
  419 188.792 -420.306 -98.1575
  420 1595.80 17.2608 90.2025
  421 1091.61 57.6487 38.3748
  422 1091.60 57.6719 -38.3883
  423 843.331 42.4727 41.8196
  424 843.331 42.4575 -41.8035
  425 799.622 133.174 81.5780
  426 799.657 133.151 -81.5557
  427 831.094 61.3176 -78.1806
  428 831.095 61.3353 78.2082
  429 1305.87 10.7159 -86.9334
  430 1305.86 10.7009 86.8994
  431 856.974 83.2575 -171.470
  432 856.988 83.2748 171.514
  433 492.906 -94.9367 -256.198
  434 492.923 -94.6910 256.084
  435 1931.47 -7.94796 54.2791
  436 1931.93 -8.90834 -54.1323
  437 2348.74 0.526754 289.234
  438 2354.72 -6.43338 -289.163
  439 814.692 137.326 52.3166
  440 814.634 137.318 -52.3277
  441 32.3345 -604.539 -75.7776
  442 32.3763 -604.154 75.6714
  443 1452.71 -54.3592 47.2265
  444 1452.62 -54.4013 -47.1594
  445 1533.39 -16.2470 51.6993
  446 1533.12 -15.3554 -50.5903
  447 59.9255 -599.526 40.6920
  448 60.1291 -599.013 -40.9383
  449 1309.14 -188.784 -151.618
  450 1308.95 -188.201 151.583
  451 1455.70 -0.0564705 -32.7888
  452 1455.61 -0.0599269 32.7643
  453 1388.66 11.6663 -80.0925
  454 1499.78 -70.2278 -30.2707
  455 1499.31 -71.1308 30.7998
  456 1120.64 34.8828 -131.893
  457 1120.67 34.8980 131.883
  458 931.005 14.2175 -71.8450
  459 931.095 14.2197 71.8682
  460 332.245 41.3290 181.924
  461 332.419 41.4249 -182.019
  462 1291.82 -101.667 135.943
  463 1291.83 -101.919 -135.846
  464 1202.16 30.5953 25.9832
  465 1202.16 30.6095 -25.9957
  466 837.791 119.573 -45.3897
  467 837.756 119.598 45.4054
  468 1302.67 5.10986 4.15073
  469 1302.69 5.11103 -4.15234
  470 1033.27 70.9495 -24.4639
  471 1033.29 70.9228 24.4565
  472 723.362 -0.426366 2.24472
  473 723.347 -0.427498 -2.24310
  474 809.952 104.492 -113.616
  475 809.935 104.513 113.648
  476 543.495 -0.487665 -290.820
  477 543.309 -0.548904 290.778
  478 1287.23 4.19445 -44.5826
  479 31.9758 -168.262 0.510836
  480 5.67997 -87.2548 -3.17139
  481 5.30609 -71.9502 5.10819
  482 4.56880 -147.959 7.35860
  483 3.35448 -153.706 -21.1930
  484 2.16172 -142.126 -10.6606
  485 4.13067 -134.831 24.9372
  486 4.23974 -78.8090 12.6831
  487 0.485613 -57.8894 -15.8898
  488 -14.0468 -174.639 -1.08008
  489 -20.1756 -201.134 2.31886
  490 -2.98607 -15.3142 -1.56935
  491 1.15845 -68.5103 -11.6242
  492 -3.78698 -45.3681 13.8134
  493 25.3172 -147.873 -2.67410
  494 -3.30520 -10.7233 0.923136
  495 20.3726 -132.199 2.00819
  496 -1.83868 -22.6137 1.13563
  497 -1.41150 -14.6558 -0.922468
  498 23.1391 -169.106 0.361114
  499 28.3716 -177.651 -2.26281
  500 -1.33392 -16.3598 -2.97101
  501 -7.97886 -117.492 14.0406
  502 -8.00302 -103.264 -32.7207
  503 -29.5570 -161.961 -4.49310
  504 -31.9488 -179.430 15.7181
  505 -23.9915 -169.511 0.904527
  506 -28.7459 -192.800 -8.19716
  507 -3.99232 -93.4083 -13.4967
  508 -5.34609 -70.8347 26.1207
  509 13.1988 -117.356 5.45742
  510 9.83301 -110.270 -17.1871
  511 -1.92274 -9.40040 0.602473
  512 10.9537 -109.934 13.4600
  513 24.9412 -152.375 11.6915
  514 23.6122 -154.801 -1.75466
  515 12.0817 -94.7614 -3.86231
  516 -0.0962065 -51.8376 -7.82374
  517 0.673788 -30.8231 6.28056
  518 -2.14029 2.91795 -2.15674
  519 15.9360 -179.956 8.11569
  520 2.34339 -59.3962 5.16374
  521 0.0640985 -70.2893 13.6088
  522 -2.96764 -46.7429 -17.7908
  523 24.2665 -158.539 -10.3891
  524 -2.27795 -40.7041 5.66123
  525 -2.45464 0.849984 2.21326
  526 -53.6190 -174.175 -0.0239809
  527 -71.3593 -207.696 2.58444
  528 -1.82124 3.78789 0.697338
  529 -1.25330 -18.9924 -1.50877
  530 1.06649 -46.8610 -4.20917
  531 0.870296 -18.4339 -5.12436
  532 9.07765 -166.356 -3.62534
  533 23.2646 -159.955 2.71466
  534 2.40104 -10.5992 0.840243
  535 1.12290 -109.976 15.5902
  536 -3.62479 -100.681 -29.3311
  537 10.5225 -167.210 2.24590
  538 13.7703 -185.043 -6.36209
  539 0.576607 -40.2836 -7.68260
  540 -2.88054 -44.1091 -1.58598
  541 -2.94122 5.24847 0.232576
  542 0.367647 -89.3876 23.2668
  543 -1.94879 3.90263 -2.95891
  544 31.3931 -166.677 -1.93358
  545 20.9216 -126.956 -7.07650
  546 6.06653 -109.318 -12.2213
  547 -54.5399 -175.725 1.23419
  548 -73.1000 -209.066 -3.43159
  549 -41.6263 -152.740 10.3434
  550 -40.1695 -160.196 -25.6660
  551 -0.741570 -3.33356 -2.03819
  552 -24.9719 -131.516 -12.9345
  553 -17.7031 -123.477 32.2421
  554 -2.58618 -35.8567 1.06811
  555 -1.33112 -25.4921 10.5515
  556 13.6698 -103.880 4.07907
  557 30.8203 -159.760 3.95420
  558 16.0796 -130.375 -5.66794
  559 -2.98452 7.17487 -1.04046
  560 -2.03023 1.95464 1.92215
  561 3.58037 -67.5699 13.5948
  562 30.0282 -173.578 4.06710
  563 -1.59561 12.9824 -0.629556
  564 -80.7682 -175.307 2.20977
  565 -1.92450 10.9487 0.00626612
  566 -111.517 -209.729 -2.26222
  567 -1.00279 12.2556 4.01433
  568 0.238190 10.4010 7.03683
  569 4.69043 -0.597011 3.98106
  570 6.28841 -25.8736 -5.16910
  571 -21.6557 -92.2081 -15.4681
  572 -51.5181 -150.267 -11.5670
  573 -77.9123 -172.314 -1.76014
  574 -73.2670 -168.559 2.95400
  575 -75.8106 -155.758 9.68321
  576 -17.8409 -101.601 11.8021
  577 3.28849 -30.8121 7.49365
  578 5.45783 -0.639147 -6.73252
  579 2.56343 7.49351 -6.92393
  580 -0.894162 12.6118 -4.71080
  581 -0.681673 11.2060 3.94501
  582 0.964124 6.86337 6.18959
  583 5.45760 -2.84523 3.95421
  584 6.69824 -11.6448 -0.682843
  585 -8.57423 -76.3210 -23.2476
  586 -75.4829 -164.171 -20.9328
  587 -91.7303 -194.318 -9.45377
  588 -100.210 -201.590 8.34318
  589 -46.0230 -157.276 25.9969
  590 -10.6435 -62.6066 25.7605
  591 8.13882 -9.03922 0.109640
  592 7.23396 -0.0438132 -6.14159
  593 1.21516 8.05603 -7.08179
  594 -0.790428 12.6283 -4.27214
</Section>

newXOutput 48

<Section columns = "stress_xx | stress_yy | stress_xy">
  1 713.669 7.17480 -7.43117
  2 713.684 7.17611 7.43252
  3 1338.80 0.00577265 0.374193
  4 1338.79 0.00448064 -0.375539
  5 -2.49767 -978.782 30.4145
  6 2660.54 -25.1191 -1.63310
  7 -2.61999 -979.422 -30.6013
  8 3013.08 -94.1247 -18.2636
  9 726.260 3.83323 -2.88416
  10 745.373 7.74398 -10.9901
  11 786.192 10.9960 -27.8306
  12 857.609 7.24506 -51.8674
  13 956.125 7.54152 -54.9807
  14 1081.85 18.1065 -91.2835
  15 1288.36 3.78254 -117.673
  16 1521.34 -5.50219 -125.058
  17 1823.91 -42.2855 -70.8449
  18 1937.12 -38.6616 -39.2971
  19 2034.45 -2.01102 -2.43891
  20 2155.44 27.5373 -22.3806
  21 2276.83 40.5895 -29.1358
  22 2353.90 -25.4535 0.791799
  23 2154.94 20.4085 19.3259
  24 2035.35 -1.19924 3.92890
  25 1937.46 -38.2942 39.4428
  26 1824.30 -42.3108 70.8635
  27 1521.61 -5.50497 125.102
  28 1288.57 3.78396 117.713
  29 1081.99 18.1098 91.3112
  30 956.235 7.53974 54.9988
  31 857.675 7.24481 51.8859
  32 786.236 10.9986 27.8412
  33 745.399 7.74566 10.9968
  34 726.278 3.83469 2.88727
  35 778.723 3.35033 8.38241
  36 831.935 22.8344 14.2001
  37 874.883 38.3018 11.6752
  38 934.005 49.8283 7.98696
  39 986.350 57.7693 3.76384
  40 1044.06 55.8760 0.124417
  41 1104.06 46.7251 -1.24781
  42 1186.81 29.8292 -5.35873
  43 1245.10 18.5364 1.92702
  44 1291.51 12.2940 -2.66186
  45 1338.16 -0.888453 -8.12813
  46 1365.56 -4.45791 -9.01338
  47 1373.28 3.76519 -17.0288
  48 1419.83 1.02227 -25.0398
  49 1488.16 -9.33864 -23.2840
  50 1543.85 -9.75341 -27.9351
  51 1588.18 -12.2472 -21.8708
  52 1614.92 -20.2242 -5.12037
  53 1598.83 -25.6968 31.7548
  54 1531.05 -11.3720 52.3444
  55 1396.70 8.79173 66.2445
  56 1259.85 35.5571 52.2006
  57 1188.96 41.2761 27.3781
  58 1176.27 41.4166 -29.3849
  59 1273.46 23.1617 -48.5780
  60 1393.81 3.59534 -53.9525
  61 1532.33 -10.0738 -49.3078
  62 1599.14 -24.9914 -31.0709
  63 1614.67 -20.1166 5.07036
  64 1587.98 -12.2569 21.8139
  65 1543.70 -9.75570 27.9034
  66 1488.06 -9.33616 23.2666
  67 1419.77 1.02042 25.0251
  68 1373.24 3.76241 17.0189
  69 1365.53 -4.45830 9.00829
  70 1338.14 -0.889006 8.12508
  71 1291.50 12.2897 2.65950
  72 1245.09 18.5270 -1.92918
  73 1186.81 29.8137 5.35533
  74 1104.07 46.7032 1.24604
  75 1044.07 55.8503 -0.125225
  76 986.365 57.7434 -3.76319
  77 934.017 49.8059 -7.98516
  78 874.885 38.2859 -11.6714
  79 831.928 22.8244 -14.1977
  80 778.711 3.34580 -8.38000
  81 126.042 -799.390 -6.39560
  82 499.592 -281.000 167.247
  83 1015.28 80.8310 391.807
  84 1526.50 232.827 497.155
  85 2000.55 199.539 533.730
  86 2428.25 40.4824 469.377
  87 2639.92 -54.1621 228.662
  88 2644.36 -51.3060 -230.713
  89 2429.83 29.3889 -469.767
  90 1997.82 201.705 -531.923
  91 1525.49 233.830 -496.414
  92 1014.47 80.8790 -391.909
  93 499.433 -281.104 -167.295
  94 126.019 -799.776 6.34981
  95 66.6581 -854.599 -67.3433
  96 377.354 -374.521 99.6687
  97 833.192 -67.2386 240.308
  98 1434.60 132.720 357.587
  99 2038.44 164.996 380.683
  100 2542.31 38.6567 369.932
  101 2919.38 -68.0581 258.252
  102 2880.97 -71.3129 -233.526
  103 2547.95 59.8290 -364.563
  104 2039.74 161.202 -381.249
  105 1435.05 132.913 -358.386
  106 833.966 -66.6876 -240.844
  107 377.872 -373.873 -100.089
  108 66.9206 -853.769 66.9525
  109 872.197 141.110 -28.9303
  110 872.249 141.098 28.9275
  111 1192.92 -84.1721 183.781
  112 1192.93 -84.3835 -183.739
  113 600.499 169.927 150.439
  114 600.598 169.935 -150.452
  115 1172.09 49.2742 55.0520
  116 1172.08 49.2942 -55.0728
  117 858.264 68.8651 57.1065
  118 858.274 68.8449 -57.0858
  119 1605.74 -67.1293 38.3585
  120 1606.18 -65.4803 -39.6370
  121 654.998 32.9141 215.479
  122 654.966 32.7427 -215.552
  123 1798.11 84.2384 -28.2420
  124 1792.00 79.3393 31.9768
  125 989.610 82.1369 8.60865
  126 989.585 82.1655 -8.60915
  127 1228.16 28.7470 -112.797
  128 1228.18 28.7400 112.771
  129 808.085 -7.33604 339.839
  130 808.206 -7.32406 -339.819
  131 1190.95 -229.289 246.061
  132 1191.09 -229.764 -246.288
  133 843.452 89.1226 -135.527
  134 843.455 89.1416 135.565
  135 1482.31 -76.1793 -22.0008
  136 1482.46 -75.7958 22.2609
  137 1031.67 68.2646 129.701
  138 1031.62 68.2430 -129.712
  139 308.253 60.1969 22.4169
  140 308.375 60.3371 -22.5313
  141 759.530 161.663 -80.0153
  142 759.475 161.680 80.0290
  143 1415.01 -30.0873 -82.8484
  144 1415.02 -30.0827 82.8460
  145 1277.00 12.7682 22.6949
  146 1277.01 12.7755 -22.7067
  147 937.754 67.7762 -237.231
  148 937.779 67.7939 237.286
  149 819.693 24.5736 31.2280
  150 819.681 24.5650 -31.2165
  151 2080.13 94.2198 6.42860
  152 1038.75 83.0368 74.6924
  153 1038.71 83.0546 -74.7087
  154 1105.64 51.2188 21.9912
  155 1105.62 51.2416 -21.9994
  156 916.164 63.0648 19.5783
  157 916.179 63.0410 -19.5701
  158 895.567 104.046 -26.7544
  159 895.536 104.073 26.7657
  160 1305.08 18.4691 -55.1011
  161 1305.05 18.4587 55.0749
  162 1390.56 -89.9846 -205.104
  163 1390.56 -90.0950 205.084
  164 718.761 153.190 54.5335
  165 718.695 153.151 -54.5585
  166 1501.31 -84.3562 171.970
  167 1501.87 -84.6311 -172.968
  168 696.842 -219.692 328.774
  169 696.865 -219.957 -328.895
  170 1836.89 54.4661 113.246
  171 1841.00 64.5357 -117.785
  172 842.328 37.7402 -73.4565
  173 842.351 37.7513 73.4819
  174 1568.80 62.1897 30.3089
  175 1565.38 11.7675 106.848
  176 1538.53 14.5672 -104.261
  177 1455.63 -172.869 74.6977
  178 1455.94 -173.788 -74.6427
  179 943.576 25.1420 194.151
  180 943.553 25.0285 -194.168
  181 1546.24 -56.4090 -61.9658
  182 1546.01 -59.5949 62.1751
  183 945.838 -115.317 281.057
  184 945.857 -115.600 -281.106
  185 963.410 105.621 -25.8366
  186 963.447 105.595 25.8331
  187 2185.13 109.770 149.215
  188 2193.09 95.9566 -152.618
  189 840.387 98.9708 -80.1281
  190 840.369 98.9941 80.1543
  191 1059.53 75.7120 38.7117
  192 1059.50 75.7383 -38.7228
  193 1216.01 5.83844 138.336
  194 1215.98 5.80957 -138.341
  195 1495.38 43.4949 -64.5387
  196 1161.75 53.3085 87.2708
  197 1161.73 53.3247 -87.2955
  198 256.944 -184.423 -218.423
  199 256.682 -184.651 218.276
  200 1699.72 -35.8097 -110.652
  201 1699.86 -35.4730 110.425
  202 1010.13 61.2637 -2.10843
  203 1010.15 61.2368 2.10825
  204 235.332 -172.772 -150.585
  205 235.401 -172.507 150.442
  206 1407.12 -2.04064 -71.2991
  207 1407.08 -2.05353 71.2643
  208 523.519 153.904 -13.9353
  209 523.426 153.844 13.8811
  210 1302.45 -19.1140 -218.869
  211 1302.59 -19.1177 218.933
  212 961.591 27.9930 -139.526
  213 961.659 28.0021 139.568
  214 889.220 -182.412 298.530
  215 889.122 -182.512 -298.746
  216 872.291 41.5649 20.4830
  217 872.294 41.5479 -20.4732
  218 800.966 121.407 -206.974
  219 800.941 121.430 207.018
  220 873.204 115.566 111.647
  221 873.152 115.535 -111.663
  222 1177.05 35.2185 20.1363
  223 1177.04 35.2351 -20.1447
  224 559.269 124.867 240.171
  225 559.396 124.876 -240.188
  226 1280.68 -148.937 -168.891
  227 1280.61 -148.545 168.952
  228 557.390 -143.456 277.221
  229 557.674 -143.270 -277.336
  230 1316.47 8.92477 -31.4930
  231 1316.44 8.91977 31.4773
  232 1540.87 -16.6841 25.7121
  233 1540.94 -16.6685 -25.7430
  234 877.713 41.6125 -99.6495
  235 877.753 41.6240 99.6795
  236 1581.74 58.3755 66.7683
  237 2139.18 30.2563 176.328
  238 2140.74 29.8676 -176.028
  239 1705.39 106.167 331.452
  240 1703.66 110.012 -331.826
  241 828.207 147.558 -30.2135
  242 828.158 147.578 30.2230
  243 1393.94 -78.0972 -92.5627
  244 1394.00 -77.9024 92.6832
  245 799.235 13.8145 -33.9056
  246 799.260 13.8188 33.9189
  247 2390.63 22.6200 -95.9226
  248 1391.71 8.82374 -48.0105
  249 1391.66 8.81552 47.9847
  250 933.023 85.3685 -13.7716
  251 932.999 85.3962 13.7787
  252 674.766 180.666 -60.5126
  253 674.689 180.662 60.5049
  254 1710.44 24.7757 40.2999
  255 1702.11 24.7772 -41.1159
  256 2383.18 19.0065 93.7641
  257 955.942 110.141 82.6672
  258 955.895 110.144 -82.6785
  259 1128.53 50.9453 -121.259
  260 1128.56 50.9440 121.238
  261 1302.99 7.07563 10.2524
  262 1303.00 7.07881 -10.2572
  263 2467.63 -56.0803 156.291
  264 2460.99 -12.7141 -142.003
  265 1733.24 92.4177 -27.2280
  266 793.954 86.6385 160.263
  267 793.912 86.5462 -160.296
  268 769.134 72.7548 -306.206
  269 769.060 72.7674 306.239
  270 1242.06 26.1272 44.9037
  271 1242.07 26.1404 -44.9239
  272 839.720 42.1710 -54.9005
  273 839.730 42.1843 54.9210
  274 774.133 5.74000 9.07239
  275 774.119 5.73683 -9.06770
  276 778.257 167.686 -7.10876
  277 778.195 167.690 7.10706
  278 1553.58 -35.0013 -12.3089
  279 1553.46 -35.3343 12.3995
  280 85.6758 -264.972 42.3226
  281 85.8189 -264.679 -42.4814
  282 1074.02 54.6291 -8.01886
  283 1074.04 54.6040 8.01604
  284 1171.19 42.3142 36.2235
  285 1171.18 42.3330 -36.2384
  286 1287.97 30.1771 350.228
  287 1287.41 30.4091 -350.799
  288 1523.52 -102.931 -18.2684
  289 1523.59 -104.114 18.4590
  290 954.572 60.3127 -4.44381
  291 954.558 60.3383 4.44640
  292 1227.83 16.9945 -187.549
  293 1227.98 17.0036 187.604
  294 1508.52 -4.14329 42.2354
  295 1508.62 -4.13180 -42.2747
  296 2074.90 79.1121 -321.031
  297 2072.58 79.1221 318.636
  298 867.736 -138.731 -254.616
  299 867.377 -139.039 254.405
  300 1512.16 -15.4978 81.2814
  301 1512.67 -9.00099 -81.2455
  302 846.587 75.0781 -105.652
  303 846.593 75.0970 105.685
  304 441.997 48.0917 140.252
  305 441.928 47.9306 -140.356
  306 877.529 60.4728 37.1898
  307 877.538 60.4516 -37.1751
  308 1091.68 1.74806 171.902
  309 1091.65 1.66465 -171.898
  310 1800.90 115.745 8.54072
  311 793.052 124.911 -143.769
  312 793.023 124.932 143.803
  313 1647.78 -20.9535 -63.4928
  314 1646.01 -22.3604 62.2943
  315 1031.94 66.1143 -10.8888
  316 1031.96 66.0873 10.8858
  317 2623.51 -48.7069 -46.5412
  318 2735.80 -87.3901 92.6803
  319 1119.40 19.5703 -151.261
  320 1119.53 19.5759 151.307
  321 1746.42 53.5972 -263.113
  322 1746.17 55.4253 262.270
  323 1245.39 19.5487 9.47528
  324 1245.40 19.5587 -9.48106
  325 972.538 69.9924 -3.30276
  326 972.518 70.0198 3.30544
  327 911.119 50.6153 -9.39869
  328 911.110 50.6366 9.40302
  329 1310.40 -3.78171 -106.278
  330 1310.41 -3.78288 106.258
  331 2014.06 87.4661 24.1588
  332 1132.22 41.5922 -10.4092
  333 1132.23 41.5718 10.4049
  334 827.962 22.3740 14.8065
  335 827.956 22.3642 -14.8014
  336 865.794 99.1190 -51.0828
  337 865.771 99.1442 51.1013
  338 1444.50 13.7225 -76.3464
  339 1272.49 -17.3878 -268.745
  340 1272.19 -17.6625 268.456
  341 1371.72 9.23906 -29.9009
  342 1371.68 9.23425 29.8846
  343 1400.85 -192.731 142.561
  344 1401.21 -193.661 -142.917
  345 1276.42 27.0094 80.2591
  346 1276.43 27.0250 -80.2916
  347 1232.09 36.5849 68.1392
  348 1232.10 36.6020 -68.1667
  349 1404.22 -150.803 93.7378
  350 1404.29 -151.351 -93.5594
  351 345.133 -338.033 214.503
  352 345.127 -338.269 -214.596
  353 945.168 97.8132 2.89396
  354 945.136 97.8411 -2.89151
  355 1335.36 0.486380 13.9514
  356 1335.38 0.488432 -13.9589
  357 718.986 163.646 -154.505
  358 718.924 163.664 154.525
  359 1067.27 -90.2123 -297.996
  360 1067.20 -90.2746 298.027
  361 1098.35 68.7873 59.9481
  362 1098.33 68.8102 -59.9655
  363 1577.83 -40.7765 91.7468
  364 1576.56 -35.3326 -94.1835
  365 898.188 120.495 1.52621
  366 898.146 120.520 -1.52228
  367 749.816 -108.198 -296.097
  368 749.805 -107.940 296.014
  369 1277.96 -41.0423 -135.201
  370 1277.99 -40.9555 135.235
  371 2026.71 95.4681 -39.1551
  372 1543.55 -112.301 43.0198
  373 1544.29 -113.500 -43.2014
  374 443.748 140.295 134.389
  375 443.881 140.348 -134.448
  376 1039.99 -51.7853 224.558
  377 1040.00 -51.9773 -224.562
  378 1742.83 -46.1810 89.1535
  379 1742.53 -46.1981 -89.1653
  380 1440.71 20.1859 81.1910
  381 1368.43 44.8316 -5.22121
  382 943.300 -197.073 296.559
  383 943.350 -197.404 -296.674
  384 891.918 81.1678 35.3782
  385 891.936 81.1427 -35.3637
  386 1630.48 42.3553 -72.1192
  387 1068.85 71.7261 100.730
  388 1068.82 71.7338 -100.747
  389 1291.07 -192.134 226.695
  390 1291.20 -192.404 -227.292
  391 823.664 10.0550 -45.7887
  392 823.706 10.0586 45.8053
  393 1932.45 107.465 84.7468
  394 1943.10 109.047 -88.0881
  395 1542.53 -48.9458 152.386
  396 1542.31 -48.9146 -152.345
  397 1143.21 -164.972 235.725
  398 1143.28 -165.333 -235.758
  399 1025.83 19.3547 -290.270
  400 1025.83 19.3611 290.329
  401 718.151 140.226 -236.930
  402 718.085 140.250 236.959
  403 615.028 116.603 114.694
  404 614.968 116.503 -114.752
  405 1362.40 30.5384 40.2046
  406 953.746 111.044 -45.8394
  407 953.790 111.024 45.8324
  408 940.501 65.0118 166.033
  409 940.458 64.9441 -166.047
  410 842.296 -16.3193 -241.791
  411 842.309 -16.1352 241.751
  412 764.117 9.79788 16.7166
  413 764.097 9.79500 -16.7093
  414 1016.61 92.4862 -46.1281
  415 1016.64 92.4616 46.1173
  416 1007.23 91.1846 25.0062
  417 1007.20 91.2126 -25.0114
  418 191.710 -428.408 99.9146
  419 192.043 -427.895 -100.212
  420 1623.53 17.2875 91.4922
  421 1110.26 58.5836 38.9183
  422 1110.24 58.6072 -38.9319
  423 856.895 43.0835 42.4062
  424 856.896 43.0682 -42.3900
  425 812.999 135.546 82.9036
  426 813.034 135.522 -82.8809
  427 844.397 62.2985 -79.3259
  428 844.397 62.3163 79.3537
  429 1327.84 11.0921 -88.4696
  430 1327.82 11.0765 88.4349
  431 870.496 84.7520 -174.271
  432 870.511 84.7692 174.315
  433 501.255 -96.0346 -260.411
  434 501.271 -95.7844 260.296
  435 1962.87 -8.01615 55.7854
  436 1963.34 -8.99883 -55.6389
  437 2384.70 -0.153317 294.124
  438 2390.70 -7.29084 -294.071
  439 828.812 140.101 53.0019
  440 828.754 140.093 -53.0126
  441 32.7231 -616.197 -76.9042
  442 32.7648 -615.806 76.7962
  443 1477.31 -55.2179 48.5057
  444 1477.23 -55.2582 -48.4395
  445 1560.07 -16.5638 52.3842
  446 1559.79 -15.6519 -51.2597
  447 61.0441 -610.565 41.7889
  448 61.2488 -610.045 -42.0374
  449 1330.69 -192.201 -154.588
  450 1330.50 -191.606 154.555
  451 1479.96 -0.00335060 -33.3743
  452 1479.87 -0.00694033 33.3494
  453 1413.20 11.8979 -81.4649
  454 1525.33 -71.5982 -30.3527
  455 1524.85 -72.5129 30.8910
  456 1139.57 35.9463 -134.136
  457 1139.61 35.9608 134.125
  458 944.777 14.4880 -72.9494
  459 944.867 14.4902 72.9727
  460 338.072 42.8657 185.499
  461 338.247 42.9632 -185.594
  462 1313.35 -103.155 138.685
  463 1313.36 -103.410 -138.587
  464 1222.51 31.0380 26.3251
  465 1222.52 31.0524 -26.3377
  466 851.946 121.640 -46.1166
  467 851.911 121.666 46.1326
  468 1324.57 5.20118 4.21265
  469 1324.58 5.20235 -4.21427
  470 1050.94 72.0620 -24.8026
  471 1050.97 72.0350 24.7952
  472 734.120 -0.463087 2.26191
  473 734.106 -0.464229 -2.26027
  474 823.159 106.326 -115.415
  475 823.142 106.347 115.447
  476 552.597 0.108899 -296.254
  477 552.411 0.0462329 296.211
  478 1310.20 4.08605 -45.4020
  479 32.6946 -171.649 0.515107
  480 5.75420 -88.8693 -3.24246
  481 5.37642 -73.2493 5.21845
  482 4.70803 -150.878 7.59872
  483 3.46091 -156.742 -21.7390
  484 2.24309 -144.894 -10.9811
  485 4.23976 -137.421 25.5560
  486 4.31369 -80.1655 12.9388
  487 0.482326 -58.8240 -16.2084
  488 -14.2778 -178.265 -1.11592
  489 -20.5420 -205.358 2.38010
  490 -3.05831 -15.5368 -1.59630
  491 1.14229 -69.6889 -11.8508
  492 -3.89541 -46.0695 14.0707
  493 25.8613 -150.786 -2.72846
  494 -3.38337 -10.8650 0.936972
  495 20.7920 -134.761 2.04309
  496 -1.88894 -22.9678 1.13808
  497 -1.45425 -14.8677 -0.926609
  498 23.6836 -172.544 0.364244
  499 29.0300 -181.258 -2.32065
  500 -1.36700 -16.5989 -3.00416
  501 -8.06329 -119.592 14.4619
  502 -8.08838 -105.046 -33.5445
  503 -30.0911 -165.261 -4.64445
  504 -32.5407 -183.098 16.1143
  505 -24.4446 -173.016 0.956740
  506 -29.3032 -196.811 -8.41323
  507 -4.03887 -94.9717 -13.8525
  508 -5.42604 -71.8961 26.7406
  509 13.4608 -119.587 5.59784
  510 10.0124 -112.349 -17.5847
  511 -1.96494 -9.51114 0.587385
  512 11.1513 -112.004 13.7684
  513 25.4904 -155.387 11.9718
  514 24.1490 -157.874 -1.82707
  515 12.3033 -96.5095 -3.95409
  516 -0.126737 -52.7232 -7.98212
  517 0.687197 -31.3134 6.36128
  518 -2.18416 3.01096 -2.20661
  519 16.3372 -183.629 8.32812
  520 2.35892 -60.4303 5.25427
  521 0.0953413 -71.3747 13.8779
  522 -3.00211 -47.3166 -18.1452
  523 24.8071 -161.701 -10.6439
  524 -2.34987 -41.3822 5.76746
  525 -2.50292 0.911221 2.26597
  526 -54.8417 -177.835 -0.0256380
  527 -72.9875 -212.095 2.64109
  528 -1.86167 3.89858 0.717612
  529 -1.27661 -19.2722 -1.50926
  530 1.05876 -47.6635 -4.28190
  531 0.892608 -18.6590 -5.16742
  532 9.33816 -169.736 -3.76468
  533 23.7916 -163.156 2.80226
  534 2.46616 -10.6958 0.790350
  535 1.13353 -111.982 15.9801
  536 -3.72283 -102.478 -30.0198
  537 10.8181 -170.619 2.33676
  538 14.1359 -188.854 -6.53600
  539 0.611353 -40.8375 -7.78559
  540 -2.96552 -44.8505 -1.62452
  541 -3.00170 5.38249 0.239937
  542 0.344084 -90.9692 23.7893
  543 -1.98664 4.01812 -3.02635
  544 32.0976 -170.024 -1.97717
  545 21.3496 -129.398 -7.23471
  546 6.18312 -111.320 -12.5270
  547 -55.7910 -179.422 1.25753
  548 -74.7746 -213.500 -3.50581
  549 -42.3262 -155.769 10.6489
  550 -40.8335 -163.364 -26.3075
  551 -0.752795 -3.35055 -2.10125
  552 -25.3169 -133.990 -13.3290
  553 -17.8961 -125.752 33.0494
  554 -2.66041 -36.4550 1.09253
  555 -1.31850 -25.6544 10.6872
  556 13.9243 -105.821 4.16609
  557 31.4981 -162.942 4.03912
  558 16.4136 -132.880 -5.83575
  559 -3.04542 7.34369 -1.06337
  560 -2.06745 2.03259 1.97438
  561 3.61184 -68.7481 13.8808
  562 30.7015 -177.086 4.16471
  563 -1.62812 13.2497 -0.639091
  564 -82.7203 -178.981 2.26574
  565 -1.96272 11.1798 0.00434514
  566 -114.159 -214.161 -2.31777
  567 -1.02011 12.5109 4.09785
  568 0.249278 10.6208 7.18557
  569 4.80155 -0.567226 4.09720
  570 6.48053 -26.1959 -5.16109
  571 -21.9028 -93.6696 -15.8301
  572 -52.3647 -153.241 -11.8657
  573 -79.6398 -175.905 -1.78890
  574 -74.8467 -172.059 3.01956
  575 -77.1484 -158.877 9.92435
  576 -18.0037 -103.292 12.1045
  577 3.40027 -31.2091 7.55427
  578 5.57513 -0.603962 -6.88905
  579 2.61778 7.66671 -7.06927
  580 -0.909351 12.8699 -4.80472
  581 -0.695819 11.4442 4.02470
  582 0.982940 7.02672 6.32199
  583 5.58246 -2.83549 4.06846
  584 6.86564 -11.6387 -0.599647
  585 -8.53659 -77.4510 -23.7924
  586 -76.7970 -167.435 -21.4222
  587 -93.7177 -198.377 -9.66844
  588 -102.427 -205.812 8.52097
  589 -46.7401 -160.376 26.6085
  590 -10.6541 -63.4133 26.3360
  591 8.36060 -9.05155 0.00370640
  592 7.39443 0.00161849 -6.29495
  593 1.24086 8.23776 -7.23043
  594 -0.805389 12.8911 -4.35819
</Section>

newXOutput 49

<Section columns = "stress_xx | stress_yy | stress_xy">
  1 723.826 7.31564 -7.57724
  2 723.841 7.31697 7.57860
  3 1360.69 -0.0240034 0.413075
  4 1360.68 -0.0253084 -0.414436
  5 -2.74167 -997.887 30.6762
  6 2699.03 -26.5396 -1.64336
  7 -2.86482 -998.535 -30.8654
  8 3054.66 -97.6030 -18.3615
  9 736.618 3.89114 -2.87837
  10 755.987 7.88428 -11.0901
  11 797.311 11.1885 -28.2139
  12 869.810 7.38817 -52.6055
  13 969.568 7.72768 -55.7746
  14 1097.40 18.4456 -92.6842
  15 1307.12 3.85524 -119.517
  16 1544.12 -5.59519 -127.162
  17 1851.55 -42.9826 -72.1817
  18 1967.31 -39.3315 -40.4673
  19 2067.41 -1.80937 -3.36509
  20 2191.93 28.0302 -23.8335
  21 2316.72 41.0021 -30.1476
  22 2394.27 -26.0225 1.19800
  23 2191.50 20.9156 20.8539
  24 2068.31 -0.974620 4.87872
  25 1967.65 -38.9575 40.6102
  26 1851.94 -43.0093 72.1980
  27 1544.39 -5.59842 127.206
  28 1307.32 3.85650 119.557
  29 1097.53 18.4488 92.7119
  30 969.678 7.72586 55.7927
  31 869.876 7.38788 52.6241
  32 797.355 11.1912 28.2246
  33 756.014 7.88598 11.0969
  34 736.637 3.89261 2.88150
  35 790.283 3.32298 8.52117
  36 844.695 23.1267 14.4746
  37 888.683 38.8001 11.8536
  38 949.173 50.4306 8.12976
  39 1002.60 58.4888 3.84063
  40 1061.38 56.5752 0.153255
  41 1122.41 47.3188 -1.23218
  42 1206.42 30.1781 -5.40233
  43 1265.57 18.7552 2.02596
  44 1312.69 12.4807 -2.67132
  45 1360.03 -0.927919 -8.24898
  46 1387.77 -4.57099 -9.11403
  47 1395.56 3.82119 -17.2356
  48 1442.81 1.03383 -25.4177
  49 1512.15 -9.53069 -23.6649
  50 1568.83 -9.95630 -28.4509
  51 1614.19 -12.4918 -22.3805
  52 1641.74 -20.6719 -5.45101
  53 1625.87 -26.3009 32.0953
  54 1557.27 -11.6910 53.0747
  55 1420.88 9.01529 67.3685
  56 1281.78 36.4356 53.1432
  57 1209.67 42.3258 27.9630
  58 1196.77 42.3655 -29.9243
  59 1295.61 23.6816 -49.3986
  60 1417.95 3.64239 -54.8436
  61 1558.55 -10.3725 -49.9980
  62 1626.18 -25.5813 -31.4040
  63 1641.49 -20.5640 5.39792
  64 1613.98 -12.5020 22.3222
  65 1568.68 -9.95872 28.4187
  66 1512.05 -9.52821 23.6472
  67 1442.75 1.03194 25.4028
  68 1395.53 3.81837 17.2256
  69 1387.75 -4.57139 9.10889
  70 1360.01 -0.928476 8.24592
  71 1312.68 12.4763 2.66893
  72 1265.56 18.7457 -2.02815
  73 1206.42 30.1625 5.39889
  74 1122.42 47.2968 1.23039
  75 1061.39 56.5493 -0.154071
  76 1002.61 58.4627 -3.83997
  77 949.184 50.4080 -8.12794
  78 888.684 38.7842 -11.8498
  79 844.688 23.1165 -14.4722
  80 790.272 3.31841 -8.51874
  81 127.755 -815.767 -7.02527
  82 507.256 -287.287 169.535
  83 1030.75 81.3356 397.744
  84 1549.53 236.422 504.772
  85 2030.28 202.708 541.925
  86 2462.77 40.3762 476.538
  87 2677.34 -56.1503 232.225
  88 2681.77 -53.1917 -234.316
  89 2464.33 28.9974 -476.949
  90 2027.49 204.935 -540.080
  91 1548.49 237.447 -504.024
  92 1029.93 81.3857 -397.850
  93 507.097 -287.392 -169.586
  94 127.734 -816.159 6.97776
  95 67.7699 -871.176 -68.5268
  96 383.382 -381.668 101.297
  97 846.113 -68.8361 243.991
  98 1456.24 134.917 363.118
  99 2068.74 168.351 386.837
  100 2579.02 39.0550 376.234
  101 2959.83 -70.7217 262.414
  102 2921.60 -73.8781 -237.429
  103 2584.71 60.5955 -370.826
  104 2070.03 164.447 -387.419
  105 1456.68 135.108 -363.921
  106 846.886 -68.2806 -244.529
  107 383.901 -381.013 -101.721
  108 68.0339 -870.335 68.1325
  109 886.862 143.733 -29.2827
  110 886.914 143.721 29.2802
  111 1212.23 -85.1304 187.115
  112 1212.24 -85.3436 -187.071
  113 610.510 173.277 153.172
  114 610.609 173.286 -153.185
  115 1191.51 50.1190 55.8371
  116 1191.50 50.1394 -55.8582
  117 871.893 69.9245 57.9127
  118 871.902 69.9042 -57.8918
  119 1632.06 -68.5118 38.5516
  120 1632.50 -66.8134 -39.8584
  121 665.912 34.2502 218.786
  122 665.880 34.0760 -218.859
  123 1828.32 85.5849 -28.2332
  124 1822.13 80.5972 32.0253
  125 1006.06 83.3799 8.72456
  126 1006.04 83.4089 -8.72502
  127 1248.37 29.5535 -114.690
  128 1248.38 29.5458 114.665
  129 820.973 -6.91883 345.898
  130 821.093 -6.90548 -345.879
  131 1209.91 -233.547 250.448
  132 1210.05 -234.035 -250.676
  133 856.521 90.6443 -137.607
  134 856.524 90.6633 137.645
  135 1506.69 -77.3977 -22.8673
  136 1506.84 -77.0112 23.1311
  137 1048.79 69.9007 131.738
  138 1048.74 69.8795 -131.749
  139 313.668 62.0812 23.2214
  140 313.789 62.2235 -23.3362
  141 772.101 164.582 -81.3884
  142 772.046 164.599 81.4025
  143 1438.22 -30.4016 -84.5693
  144 1438.23 -30.3983 84.5658
  145 1297.95 12.9336 22.9839
  146 1297.96 12.9410 -22.9958
  147 952.122 69.0385 -241.163
  148 952.148 69.0558 241.217
  149 832.098 24.9301 31.6589
  150 832.087 24.9214 -31.6472
  151 2114.20 95.2856 6.57430
  152 1056.10 84.6330 75.7982
  153 1056.07 84.6513 -75.8146
  154 1124.02 51.9323 22.2882
  155 1124.00 51.9553 -22.2965
  156 931.042 63.9385 19.8446
  157 931.057 63.9145 -19.8363
  158 910.331 105.723 -27.1594
  159 910.301 105.751 27.1709
  160 1326.45 18.8332 -55.9256
  161 1326.42 18.8225 55.8990
  162 1412.51 -91.3012 -208.993
  163 1412.52 -91.4159 208.971
  164 730.948 156.344 55.1655
  165 730.880 156.304 -55.1899
  166 1525.09 -86.0682 175.135
  167 1525.65 -86.3537 -176.151
  168 707.974 -223.576 334.305
  169 707.999 -223.847 -334.426
  170 1866.23 55.4153 115.782
  171 1870.39 65.7268 -120.400
  172 854.987 38.3237 -74.5117
  173 855.010 38.3349 74.5373
  174 1595.97 63.1218 30.8197
  175 1591.85 11.8681 108.376
  176 1564.66 14.7753 -105.800
  177 1479.10 -176.149 76.4227
  178 1479.41 -177.092 -76.3650
  179 959.077 26.2918 197.257
  180 959.054 26.1774 -197.272
  181 1572.15 -57.6133 -62.6604
  182 1571.90 -60.8647 62.8709
  183 961.074 -116.808 285.803
  184 961.094 -117.096 -285.851
  185 979.534 107.419 -26.1817
  186 979.571 107.392 26.1782
  187 2219.62 111.145 152.181
  188 2227.63 96.9896 -155.689
  189 853.831 100.600 -81.3154
  190 853.813 100.624 81.3419
  191 1077.21 76.9380 39.2457
  192 1077.18 76.9646 -39.2568
  193 1235.96 6.38573 140.757
  194 1235.93 6.35754 -140.762
  195 1521.24 44.2519 -65.5771
  196 1180.99 54.3963 88.6295
  197 1180.97 54.4130 -88.6546
  198 261.246 -187.012 -222.721
  199 260.984 -187.243 222.573
  200 1726.59 -36.1225 -112.989
  201 1726.73 -35.7809 112.755
  202 1026.86 62.0543 -2.13861
  203 1026.87 62.0271 2.13844
  204 239.348 -175.218 -152.882
  205 239.416 -174.949 152.738
  206 1430.12 -1.94227 -72.6189
  207 1430.08 -1.95571 72.5832
  208 532.505 157.170 -14.5225
  209 532.412 157.109 14.4686
  210 1322.53 -19.2806 -222.666
  211 1322.67 -19.2853 222.730
  212 975.857 28.4251 -141.682
  213 975.926 28.4341 141.724
  214 903.216 -186.122 303.509
  215 903.118 -186.226 -303.729
  216 886.051 42.1077 20.7225
  217 886.054 42.0906 -20.7127
  218 813.593 123.603 -210.363
  219 813.568 123.625 210.407
  220 887.855 118.065 113.279
  221 887.803 118.034 -113.294
  222 1196.53 35.6913 20.4051
  223 1196.53 35.7081 -20.4136
  224 568.444 127.546 244.484
  225 568.571 127.555 -244.501
  226 1301.32 -151.276 -172.131
  227 1301.25 -150.879 172.194
  228 566.436 -145.467 282.349
  229 566.719 -145.279 -282.465
  230 1337.97 9.07743 -31.9236
  231 1337.95 9.07235 31.9077
  232 1566.31 -16.8583 26.4151
  233 1566.38 -16.8413 -26.4477
  234 890.777 42.2899 -101.162
  235 890.818 42.3014 101.192
  236 1608.87 59.3712 67.6932
  237 2172.74 30.9870 179.998
  238 2174.33 30.5604 -179.685
  239 1731.92 108.057 337.047
  240 1730.16 111.992 -337.426
  241 842.006 150.174 -30.7551
  242 841.957 150.194 30.7649
  243 1416.71 -79.2170 -94.5736
  244 1416.78 -79.0213 94.6948
  245 810.959 14.0184 -34.3639
  246 810.985 14.0227 34.3773
  247 2427.25 22.2611 -97.6606
  248 1414.37 9.04989 -48.7863
  249 1414.31 9.04147 48.7601
  250 948.400 86.6634 -13.9685
  251 948.376 86.6914 13.9758
  252 686.122 184.116 -61.7073
  253 686.045 184.112 61.7001
  254 1738.72 25.1315 40.4507
  255 1730.28 25.1160 -41.2817
  256 2419.78 18.5256 95.4720
  257 971.957 112.333 83.8721
  258 971.909 112.336 -83.8832
  259 1147.22 52.1894 -123.222
  260 1147.25 52.1874 123.202
  261 1324.33 7.16928 10.3887
  262 1324.34 7.17249 -10.3935
  263 2506.32 -57.5454 159.553
  264 2499.68 -13.4972 -145.083
  265 1762.83 93.8946 -27.5357
  266 807.212 88.8345 162.664
  267 807.169 88.7412 -162.696
  268 781.312 74.3592 -311.551
  269 781.238 74.3709 311.585
  270 1262.51 26.5281 45.5310
  271 1262.52 26.5416 -45.5515
  272 852.571 42.8075 -55.6529
  273 852.581 42.8208 55.6736
  274 785.549 5.79323 9.16613
  275 785.534 5.79004 -9.16140
  276 791.369 170.828 -7.37907
  277 791.307 170.832 7.37787
  278 1579.51 -35.5908 -12.1611
  279 1579.39 -35.9260 12.2506
  280 87.2170 -268.945 43.4852
  281 87.3605 -268.648 -43.6452
  282 1091.87 55.3264 -8.12658
  283 1091.88 55.3011 8.12374
  284 1190.59 42.9427 36.7144
  285 1190.59 42.9617 -36.7295
  286 1307.95 30.3786 355.994
  287 1307.38 30.6123 -356.580
  288 1548.56 -104.913 -18.1239
  289 1548.62 -106.123 18.3197
  290 970.197 61.0974 -4.49378
  291 970.183 61.1232 4.49640
  292 1246.27 17.3540 -190.637
  293 1246.42 17.3628 190.693
  294 1533.18 -4.11996 43.0925
  295 1533.28 -4.10794 -43.1328
  296 2106.78 80.1909 -326.604
  297 2104.46 80.2293 324.168
  298 881.613 -141.115 -259.128
  299 881.256 -141.427 258.916
  300 1537.91 -15.8786 82.4732
  301 1538.44 -9.24029 -82.4607
  302 859.665 76.3051 -107.218
  303 859.672 76.3240 107.251
  304 449.555 49.6983 142.245
  305 449.486 49.5346 -142.350
  306 891.529 61.3417 37.6937
  307 891.538 61.3202 -37.6788
  308 1109.57 2.37524 174.812
  309 1109.54 2.29182 -174.808
  310 1831.48 117.713 8.43653
  311 805.718 127.106 -146.069
  312 805.688 127.127 146.103
  313 1674.36 -21.3638 -65.0535
  314 1672.58 -22.8005 63.8271
  315 1049.10 67.0376 -11.0353
  316 1049.12 67.0103 11.0323
  317 2664.83 -50.1607 -47.4778
  318 2777.09 -89.7841 94.3769
  319 1135.88 19.9096 -153.655
  320 1136.01 19.9151 153.700
  321 1773.63 54.7437 -267.798
  322 1773.39 56.6216 266.942
  323 1265.88 19.7910 9.57063
  324 1265.88 19.8010 -9.57646
  325 988.598 70.9642 -3.34577
  326 988.578 70.9918 3.34850
  327 925.790 51.2667 -9.51433
  328 925.781 51.2882 9.51870
  329 1331.89 -3.54919 -108.224
  330 1331.90 -3.55132 108.203
  331 2047.20 88.4054 24.9824
  332 1151.01 42.1043 -10.5434
  333 1151.01 42.0838 10.5391
  334 840.633 22.6560 15.0217
  335 840.626 22.6460 -15.0165
  336 879.853 100.719 -51.8325
  337 879.830 100.744 51.8512
  338 1469.39 13.8461 -77.5422
  339 1292.53 -17.6745 -273.440
  340 1292.23 -17.9529 273.151
  341 1394.01 9.43299 -30.3202
  342 1393.97 9.42809 30.3036
  343 1423.22 -196.444 145.295
  344 1423.59 -197.399 -145.655
  345 1297.39 27.6190 81.5441
  346 1297.40 27.6351 -81.5771
  347 1252.41 37.2810 69.1683
  348 1252.41 37.2985 -69.1963
  349 1427.01 -153.479 95.8204
  350 1427.08 -154.037 -95.6379
  351 350.591 -344.418 218.014
  352 350.586 -344.657 -218.110
  353 960.908 99.3883 2.91366
  354 960.875 99.4165 -2.91109
  355 1357.14 0.457343 14.1195
  356 1357.17 0.459420 -14.1271
  357 730.719 166.663 -157.128
  358 730.658 166.680 157.148
  359 1084.16 -91.3991 -303.356
  360 1084.09 -91.4637 303.386
  361 1116.64 69.9979 60.8245
  362 1116.62 70.0212 -60.8421
  363 1604.10 -41.6867 92.9439
  364 1602.83 -36.1101 -95.4334
  365 913.192 122.568 1.50583
  366 913.150 122.593 -1.50166
  367 761.931 -109.581 -300.983
  368 761.919 -109.318 300.901
  369 1298.82 -41.3234 -137.736
  370 1298.85 -41.2370 137.770
  371 2059.96 96.6342 -40.3234
  372 1568.44 -114.483 44.1484
  373 1569.18 -115.718 -44.3347
  374 451.332 143.372 137.013
  375 451.464 143.426 -137.072
  376 1056.86 -52.0495 228.342
  377 1056.87 -52.2437 -228.345
  378 1769.88 -46.6905 91.0251
  379 1769.59 -46.7053 -91.0402
  380 1465.49 20.5242 82.4577
  381 1392.25 45.6720 -5.27930
  382 958.325 -200.354 301.651
  383 958.376 -200.692 -301.767
  384 906.394 82.3955 35.8668
  385 906.413 82.3702 -35.8521
  386 1658.26 42.9574 -73.0188
  387 1086.63 73.2456 102.276
  388 1086.60 73.2539 -102.293
  389 1311.45 -195.935 230.692
  390 1311.58 -196.215 -231.300
  391 835.606 10.1867 -46.4323
  392 835.647 10.1903 46.4490
  393 1963.93 109.387 86.9087
  394 1974.72 110.935 -90.3363
  395 1566.36 -49.5933 155.161
  396 1566.14 -49.5603 -155.122
  397 1161.50 -167.597 239.898
  398 1161.58 -167.964 -239.929
  399 1041.80 20.0057 -295.275
  400 1041.81 20.0112 295.333
  401 729.663 142.888 -240.972
  402 729.598 142.912 241.001
  403 625.482 119.340 116.252
  404 625.422 119.239 -116.309
  405 1386.07 31.0763 40.8403
  406 969.757 113.054 -46.4718
  407 969.801 113.034 46.4649
  408 956.105 66.7730 168.640
  409 956.061 66.7050 -168.654
  410 856.091 -15.8797 -245.690
  411 856.105 -15.6931 245.651
  412 775.209 9.95363 16.9275
  413 775.189 9.95073 -16.9202
  414 1033.63 94.1097 -46.7808
  415 1033.66 94.0847 46.7699
  416 1024.05 92.6601 25.3470
  417 1024.02 92.6886 -25.3522
  418 194.932 -435.942 101.965
  419 195.266 -435.423 -102.264
  420 1651.01 17.3014 92.7578
  421 1128.73 59.5069 39.4525
  422 1128.71 59.5308 -39.4663
  423 870.298 43.6846 42.9827
  424 870.298 43.6691 -42.9663
  425 826.235 137.898 84.2127
  426 826.270 137.875 -84.1896
  427 857.537 63.2679 -80.4533
  428 857.538 63.2857 80.4813
  429 1349.58 11.4717 -89.9914
  430 1349.57 11.4555 89.9559
  431 883.844 86.2344 -177.040
  432 883.859 86.2514 177.084
  433 509.525 -97.0984 -264.574
  434 509.540 -96.8438 264.458
  435 1993.90 -8.08049 57.2948
  436 1994.38 -9.08546 -57.1489
  437 2420.18 -0.850732 298.965
  438 2426.20 -8.16693 -298.932
  439 842.809 142.864 53.6747
  440 842.749 142.856 -53.6849
  441 33.1008 -627.795 -78.0085
  442 33.1422 -627.399 77.8987
  443 1501.69 -56.0643 49.7904
  444 1501.60 -56.1025 -49.7251
  445 1586.51 -16.8782 53.0539
  446 1586.23 -15.9461 -51.9143
  447 62.1562 -621.525 42.8956
  448 62.3618 -620.999 -43.1460
  449 1352.00 -195.591 -157.544
  450 1351.81 -194.983 157.513
  451 1503.98 0.0514682 -33.9541
  452 1503.88 0.0477440 33.9287
  453 1437.56 12.1294 -82.8231
  454 1550.64 -72.9615 -30.4164
  455 1550.16 -73.8877 30.9638
  456 1158.33 37.0170 -136.356
  457 1158.37 37.0309 136.345
  458 958.335 14.7573 -74.0396
  459 958.426 14.7594 74.0630
  460 343.847 44.4164 189.058
  461 344.022 44.5154 -189.154
  462 1334.67 -104.617 141.417
  463 1334.67 -104.874 -141.316
  464 1242.68 31.4729 26.6595
  465 1242.68 31.4875 -26.6723
  466 865.960 123.689 -46.8334
  467 865.924 123.714 46.8498
  468 1346.25 5.29201 4.27368
  469 1346.26 5.29318 -4.27531
  470 1068.46 73.1595 -25.1356
  471 1068.48 73.1320 25.1282
  472 744.712 -0.500601 2.27815
  473 744.698 -0.501753 -2.27650
  474 836.213 108.144 -117.190
  475 836.196 108.165 117.223
  476 561.602 0.719192 -301.653
  477 561.417 0.655075 301.610
  478 1332.99 3.96876 -46.2153
  479 33.4141 -175.021 0.518989
  480 5.82670 -90.4711 -3.31329
  481 5.44514 -74.5367 5.32836
  482 4.84973 -153.783 7.84251
  483 3.56952 -159.763 -22.2877
  484 2.32645 -147.646 -11.3057
  485 4.35016 -139.995 26.1772
  486 4.38704 -81.5060 13.1939
  487 0.478749 -59.7452 -16.5258
  488 -14.5039 -181.881 -1.15222
  489 -20.9033 -209.570 2.44157
  490 -3.13065 -15.7550 -1.62293
  491 1.12438 -70.8536 -12.0766
  492 -4.00463 -46.7591 14.3262
  493 26.4051 -153.684 -2.78234
  494 -3.46162 -11.0030 0.950554
  495 21.2105 -137.309 2.07720
  496 -1.93946 -23.3162 1.13977
  497 -1.49736 -15.0753 -0.930192
  498 24.2300 -175.969 0.367147
  499 29.6899 -184.852 -2.37873
  500 -1.40015 -16.8334 -3.03615
  501 -8.14386 -121.672 14.8890
  502 -8.17003 -106.808 -34.3723
  503 -30.6197 -168.551 -4.79905
  504 -33.1270 -186.753 16.5127
  505 -24.8929 -176.511 1.01102
  506 -29.8555 -200.811 -8.63100
  507 -4.08354 -96.5141 -14.2116
  508 -5.50424 -72.9379 27.3622
  509 13.7219 -121.802 5.73945
  510 10.1907 -114.413 -17.9826
  511 -2.00708 -9.61830 0.571313
  512 11.3474 -114.059 14.0769
  513 26.0398 -158.385 12.2526
  514 24.6869 -160.932 -1.90109
  515 12.5233 -98.2434 -4.04653
  516 -0.158114 -53.5985 -8.13982
  517 0.700459 -31.7961 6.43990
  518 -2.22784 3.10485 -2.25648
  519 16.7407 -187.288 8.54153
  520 2.37319 -61.4530 5.34412
  521 0.127616 -72.4403 14.1464
  522 -3.03547 -47.8725 -18.4985
  523 25.3481 -164.847 -10.8993
  524 -2.42243 -42.0517 5.87289
  525 -2.55093 0.973851 2.31872
  526 -56.0611 -181.487 -0.0278876
  527 -74.6115 -216.484 2.69801
  528 -1.90205 4.01010 0.738044
  529 -1.29974 -19.5464 -1.50861
  530 1.04989 -48.4566 -4.35402
  531 0.914939 -18.8773 -5.20800
  532 9.60182 -173.105 -3.90655
  533 24.3196 -166.343 2.89113
  534 2.53166 -10.7872 0.738048
  535 1.14387 -113.971 16.3727
  536 -3.82103 -104.259 -30.7099
  537 11.1170 -174.017 2.42930
  538 14.5045 -192.651 -6.71094
  539 0.646777 -41.3772 -7.88620
  540 -3.05113 -45.5827 -1.66304
  541 -3.06194 5.51694 0.247361
  542 0.319712 -92.5352 24.3120
  543 -2.02426 4.13450 -3.09377
  544 32.8028 -173.357 -2.02069
  545 21.7766 -131.824 -7.39262
  546 6.29931 -113.304 -12.8349
  547 -57.0388 -183.110 1.28112
  548 -76.4453 -217.924 -3.58030
  549 -43.0176 -158.784 10.9592
  550 -41.4891 -166.518 -26.9526
  551 -0.763827 -3.36549 -2.16483
  552 -25.6530 -136.447 -13.7297
  553 -18.0812 -128.010 33.8610
  554 -2.73513 -37.0457 1.11687
  555 -1.30445 -25.8013 10.8195
  556 14.1773 -107.748 4.25264
  557 32.1760 -166.109 4.12364
  558 16.7471 -135.368 -6.00579
  559 -3.10607 7.51266 -1.08625
  560 -2.10432 2.11169 2.02691
  561 3.64179 -69.9139 14.1660
  562 31.3753 -180.580 4.26243
  563 -1.66049 13.5159 -0.648448
  564 -84.6712 -182.647 2.32176
  565 -2.00073 11.4101 0.00235161
  566 -116.797 -218.582 -2.37341
  567 -1.03722 12.7652 4.18108
  568 0.260575 10.8399 7.33385
  569 4.91283 -0.535895 4.21423
  570 6.67446 -26.5078 -5.14827
  571 -22.1407 -95.1066 -16.1942
  572 -53.2009 -156.201 -12.1687
  573 -81.3641 -179.487 -1.81923
  574 -76.4223 -175.552 3.08679
  575 -78.4750 -161.983 10.1688
  576 -18.1571 -104.960 12.4100
  577 3.51327 -31.5939 7.61081
  578 5.69214 -0.566964 -7.04562
  579 2.67196 7.83993 -7.21412
  580 -0.924355 13.1269 -4.89813
  581 -0.709915 11.6816 4.10401
  582 1.00163 7.19024 6.45403
  583 5.70729 -2.82319 4.18346
  584 7.03342 -11.6227 -0.512996
  585 -8.49054 -78.5590 -24.3391
  586 -78.0993 -170.684 -21.9140
  587 -95.6997 -202.426 -9.88451
  588 -104.638 -210.024 8.69979
  589 -47.4469 -163.462 27.2229
  590 -10.6564 -64.1976 26.9124
  591 8.58360 -9.05681 -0.106065
  592 7.55471 0.0485979 -6.44872
  593 1.26649 8.41937 -7.37861
  594 -0.820245 13.1530 -4.44383
</Section>

newXOutput 50

<Section columns = "stress_xx | stress_yy | stress_xy">
  1 733.817 7.45621 -7.72302
  2 733.833 7.45755 7.72440
  3 1382.38 -0.0547683 0.452997
  4 1382.36 -0.0560856 -0.454371
  5 -2.99141 -1016.92 30.9202
  6 2736.98 -27.9912 -1.65273
  7 -3.11525 -1017.58 -31.1115
  8 3095.58 -101.128 -18.4496
  9 746.810 3.94841 -2.87065
  10 766.431 8.02391 -11.1864
  11 808.249 11.3798 -28.5912
  12 881.815 7.53115 -53.3328
  13 982.791 7.91455 -56.5575
  14 1112.70 18.7829 -94.0681
  15 1325.59 3.92741 -121.340
  16 1566.59 -5.68902 -129.245
  17 1878.83 -43.6731 -73.5075
  18 1997.13 -39.9971 -41.6401
  19 2100.00 -1.59544 -4.31274
  20 2228.07 28.5220 -25.3156
  21 2356.27 41.3943 -31.1688
  22 2434.28 -26.5872 1.61791
  23 2227.70 21.4266 22.4142
  24 2100.90 -0.737998 5.84927
  25 1997.46 -39.6164 41.7799
  26 1879.20 -43.7011 73.5216
  27 1566.85 -5.69271 129.288
  28 1325.80 3.92851 121.379
  29 1112.84 18.7860 94.0958
  30 982.902 7.91270 56.5757
  31 881.882 7.53083 53.3514
  32 808.293 11.3825 28.6020
  33 766.457 8.02562 11.1932
  34 746.828 3.94990 2.87380
  35 801.680 3.29273 8.65882
  36 857.293 23.4133 14.7484
  37 902.322 39.2892 12.0300
  38 964.182 51.0192 8.27170
  39 1018.69 59.1927 3.91727
  40 1078.54 57.2593 0.182873
  41 1140.58 47.9002 -1.21522
  42 1225.84 30.5180 -5.44367
  43 1285.85 18.9685 2.12684
  44 1333.67 12.6650 -2.67925
  45 1381.68 -0.968014 -8.36828
  46 1409.77 -4.68475 -9.21185
  47 1417.63 3.87621 -17.4373
  48 1465.55 1.04476 -25.7900
  49 1535.90 -9.72262 -24.0412
  50 1593.55 -10.1593 -28.9628
  51 1639.93 -12.7362 -22.8899
  52 1668.31 -21.1207 -5.78752
  53 1652.68 -26.9073 32.4249
  54 1583.27 -12.0129 53.7914
  55 1444.87 9.24085 68.4815
  56 1303.54 37.3193 54.0788
  57 1230.23 43.3831 28.5477
  58 1217.12 43.3170 -30.4600
  59 1317.60 24.2026 -50.2109
  60 1441.91 3.68836 -55.7251
  61 1584.56 -10.6745 -50.6756
  62 1652.99 -26.1736 -31.7264
  63 1668.05 -21.0127 5.73131
  64 1639.72 -12.7470 22.8301
  65 1593.40 -10.1618 28.9300
  66 1535.79 -9.72013 24.0232
  67 1465.49 1.04283 25.7749
  68 1417.59 3.87335 17.4272
  69 1409.74 -4.68516 9.20668
  70 1381.66 -0.968574 8.36519
  71 1333.66 12.6607 2.67683
  72 1285.84 18.9589 -2.12905
  73 1225.84 30.5023 5.44020
  74 1140.59 47.8779 1.21342
  75 1078.55 57.2331 -0.183696
  76 1018.71 59.1664 -3.91660
  77 964.194 50.9964 -8.26985
  78 902.324 39.2731 -12.0261
  79 857.286 23.4030 -14.7460
  80 801.668 3.28812 -8.65637
  81 129.436 -832.116 -7.67466
  82 514.824 -293.584 171.779
  83 1046.03 81.7959 403.600
  84 1572.26 239.971 512.290
  85 2059.61 205.847 550.016
  86 2496.78 40.2443 483.608
  87 2714.19 -58.1612 235.749
  88 2718.63 -55.0984 -237.878
  89 2498.33 28.5782 -484.042
  90 2056.78 208.135 -548.132
  91 1571.19 241.016 -511.537
  92 1045.19 81.8481 -403.711
  93 514.665 -293.690 -171.832
  94 129.416 -832.513 7.62541
  95 68.8732 -887.681 -69.6963
  96 389.348 -388.776 102.913
  97 858.888 -70.4319 247.630
  98 1477.61 137.095 368.583
  99 2098.63 171.705 392.926
  100 2615.21 39.4455 382.479
  101 2999.64 -73.4192 266.528
  102 2961.59 -76.4741 -241.293
  103 2620.93 61.3497 -377.033
  104 2099.93 167.690 -393.522
  105 1478.04 137.284 -369.389
  106 859.660 -69.8723 -248.170
  107 389.867 -388.115 -103.338
  108 69.1383 -886.829 69.2989
  109 901.395 146.340 -29.6288
  110 901.448 146.328 29.6267
  111 1231.35 -86.0598 190.426
  112 1231.36 -86.2746 -190.381
  113 620.422 176.612 155.887
  114 620.521 176.622 -155.899
  115 1210.75 50.9557 56.6096
  116 1210.74 50.9764 -56.6309
  117 885.367 70.9710 58.7059
  118 885.376 70.9505 -58.6847
  119 1658.12 -69.8916 38.7264
  120 1658.56 -68.1431 -40.0615
  121 676.726 35.6044 222.051
  122 676.694 35.4275 -222.124
  123 1858.25 86.9171 -28.2049
  124 1851.98 81.8413 32.0532
  125 1022.36 84.6061 8.83906
  126 1022.34 84.6354 -8.83950
  127 1268.38 30.3640 -116.565
  128 1268.39 30.3555 116.539
  129 833.714 -6.49011 351.913
  130 833.833 -6.47532 -351.894
  131 1228.67 -237.782 254.803
  132 1228.81 -238.282 -255.033
  133 869.426 92.1529 -139.661
  134 869.429 92.1717 139.700
  135 1530.84 -78.5997 -23.7443
  136 1530.99 -78.2105 24.0117
  137 1065.75 71.5389 133.751
  138 1065.70 71.5181 -133.762
  139 319.039 63.9793 24.0360
  140 319.160 64.1237 -24.1512
  141 784.547 167.480 -82.7482
  142 784.492 167.497 82.7628
  143 1461.21 -30.7052 -86.2852
  144 1461.22 -30.7032 86.2805
  145 1318.70 13.0954 23.2665
  146 1318.71 13.1029 -23.2786
  147 966.303 70.2916 -245.055
  148 966.330 70.3085 245.110
  149 844.339 25.2816 32.0828
  150 844.327 25.2729 -32.0710
  151 2147.92 96.3193 6.72042
  152 1073.31 86.2205 76.8890
  153 1073.27 86.2393 -76.9054
  154 1142.23 52.6335 22.5800
  155 1142.21 52.6567 -22.5884
  156 945.765 64.7976 20.1059
  157 945.780 64.7733 -20.0975
  158 924.950 107.382 -27.5580
  159 924.920 107.409 27.5697
  160 1347.61 19.1954 -56.7377
  161 1347.58 19.1846 56.7108
  162 1434.21 -92.5997 -212.857
  163 1434.22 -92.7187 212.833
  164 743.027 159.489 55.7829
  165 742.960 159.449 -55.8067
  166 1548.60 -87.7789 178.278
  167 1549.17 -88.0751 -179.314
  168 718.988 -227.430 339.783
  169 719.014 -227.705 -339.905
  170 1895.26 56.3586 118.316
  171 1899.46 66.9131 -123.012
  172 867.474 38.9004 -75.5514
  173 867.497 38.9116 75.5771
  174 1622.92 64.0377 31.3256
  175 1618.08 11.9641 109.877
  176 1590.56 14.9807 -107.316
  177 1502.33 -179.413 78.1490
  178 1502.64 -180.379 -78.0886
  179 974.431 27.4591 200.328
  180 974.407 27.3439 -200.342
  181 1597.82 -58.8170 -63.3345
  182 1597.56 -62.1337 63.5459
  183 976.156 -118.265 290.506
  184 976.174 -118.557 -290.552
  185 995.510 109.199 -26.5215
  186 995.548 109.173 26.5182
  187 2253.72 112.487 155.133
  188 2261.78 97.9887 -158.749
  189 867.125 102.213 -82.4854
  190 867.107 102.237 82.5122
  191 1094.72 78.1498 39.7709
  192 1094.70 78.1768 -39.7822
  193 1255.72 6.94477 143.157
  194 1255.69 6.91731 -143.163
  195 1546.91 45.0030 -66.6027
  196 1200.05 55.4798 89.9713
  197 1200.03 55.4971 -89.9967
  198 265.508 -189.560 -227.005
  199 265.246 -189.792 226.857
  200 1753.14 -36.4201 -115.316
  201 1753.28 -36.0738 115.077
  202 1043.42 62.8289 -2.16855
  203 1043.44 62.8015 2.16837
  204 243.329 -177.622 -155.146
  205 243.397 -177.349 155.001
  206 1452.89 -1.84000 -73.9293
  207 1452.85 -1.85398 73.8927
  208 541.414 160.430 -15.1168
  209 541.321 160.367 15.0632
  210 1342.36 -19.4427 -226.429
  211 1342.50 -19.4484 226.492
  212 989.920 28.8514 -143.812
  213 989.990 28.8604 143.855
  214 917.055 -189.826 308.439
  215 916.956 -189.933 -308.663
  216 899.652 42.6403 20.9560
  217 899.655 42.6230 -20.9461
  218 826.070 125.782 -213.717
  219 826.045 125.805 213.760
  220 902.376 120.561 114.888
  221 902.323 120.530 -114.903
  222 1215.83 36.1552 20.6689
  223 1215.82 36.1721 -20.6775
  224 577.524 130.217 248.767
  225 577.650 130.227 -248.784
  226 1321.74 -153.584 -175.354
  227 1321.68 -153.182 175.421
  228 575.387 -147.446 287.447
  229 575.670 -147.255 -287.563
  230 1359.27 9.22864 -32.3461
  231 1359.25 9.22349 32.3300
  232 1591.50 -17.0260 27.1207
  233 1591.57 -17.0074 -27.1551
  234 903.658 42.9604 -102.655
  235 903.699 42.9719 102.685
  236 1635.78 60.3583 68.6000
  237 2205.90 31.7227 183.659
  238 2207.52 31.2579 -183.333
  239 1758.14 109.935 342.589
  240 1756.34 113.960 -342.973
  241 855.674 152.770 -31.2912
  242 855.624 152.791 31.3014
  243 1439.27 -80.3171 -96.5821
  244 1439.34 -80.1207 96.7041
  245 822.511 14.2195 -34.8145
  246 822.537 14.2239 34.8280
  247 2463.40 21.8758 -99.3875
  248 1436.79 9.27665 -49.5527
  249 1436.74 9.26802 49.5262
  250 963.626 87.9412 -14.1617
  251 963.601 87.9695 14.1690
  252 697.373 187.548 -62.8958
  253 697.296 187.544 62.8891
  254 1766.72 25.4829 40.5801
  255 1758.17 25.4496 -41.4260
  256 2455.92 18.0163 97.1694
  257 987.828 114.515 85.0604
  258 987.780 114.519 -85.0713
  259 1165.73 53.4353 -125.164
  260 1165.76 53.4326 125.143
  261 1345.46 7.26119 10.5225
  262 1345.47 7.26442 -10.5274
  263 2544.54 -59.0168 162.807
  264 2537.90 -14.2998 -148.160
  265 1792.16 95.3537 -27.8337
  266 820.350 91.0378 165.032
  267 820.307 90.9434 -165.063
  268 793.346 75.9583 -316.854
  269 793.273 75.9691 316.887
  270 1282.76 26.9230 46.1473
  271 1282.77 26.9367 -46.1680
  272 865.257 43.4359 -56.3927
  273 865.267 43.4493 56.4135
  274 796.799 5.84451 9.25696
  275 796.784 5.84130 -9.25219
  276 804.362 173.952 -7.65043
  277 804.300 173.956 7.64974
  278 1605.20 -36.1736 -12.0010
  279 1605.08 -36.5108 12.0894
  280 88.7469 -272.861 44.6582
  281 88.8906 -272.562 -44.8193
  282 1109.54 56.0090 -8.23248
  283 1109.56 55.9835 8.22960
  284 1209.82 43.5617 37.1963
  285 1209.81 43.5809 -37.2116
  286 1327.70 30.5623 361.702
  287 1327.11 30.7975 -362.301
  288 1573.35 -106.887 -17.9636
  289 1573.41 -108.123 18.1645
  290 985.665 61.8667 -4.54217
  291 985.651 61.8928 4.54482
  292 1264.46 17.7111 -193.694
  293 1264.60 17.7196 193.749
  294 1557.59 -4.09317 43.9457
  295 1557.69 -4.08062 -43.9872
  296 2138.28 81.2530 -332.130
  297 2135.95 81.3212 329.653
  298 895.341 -143.478 -263.607
  299 894.985 -143.794 263.394
  300 1563.44 -16.2605 83.6460
  301 1563.99 -9.48072 -83.6579
  302 872.580 77.5196 -108.762
  303 872.586 77.5386 108.796
  304 457.050 51.3204 144.206
  305 456.981 51.1541 -144.311
  306 905.373 62.1975 38.1885
  307 905.382 62.1759 -38.1734
  308 1127.29 3.01988 177.696
  309 1127.26 2.93652 -177.691
  310 1861.79 119.664 8.32296
  311 818.239 129.283 -148.343
  312 818.210 129.304 148.378
  313 1700.67 -21.7728 -66.6158
  314 1698.88 -23.2393 65.3615
  315 1066.10 67.9454 -11.1795
  316 1066.12 67.9178 11.1765
  317 2705.65 -51.6271 -48.4112
  318 2817.82 -92.1906 96.0603
  319 1152.13 20.2455 -156.021
  320 1152.26 20.2509 156.067
  321 1800.51 55.8918 -272.446
  322 1800.28 57.8198 271.579
  323 1286.16 20.0276 9.66256
  324 1286.17 20.0378 -9.66845
  325 1004.50 71.9195 -3.38748
  326 1004.48 71.9474 3.39024
  327 940.303 51.9053 -9.62727
  328 940.294 51.9270 9.63168
  329 1353.17 -3.30773 -110.157
  330 1353.18 -3.31084 110.135
  331 2080.00 89.3120 25.8145
  332 1169.61 42.6047 -10.6749
  333 1169.62 42.5840 10.6705
  334 853.140 22.9322 15.2340
  335 853.133 22.9222 -15.2288
  336 893.764 102.302 -52.5705
  337 893.741 102.328 52.5895
  338 1494.09 13.9631 -78.7220
  339 1312.34 -17.9574 -278.098
  340 1312.05 -18.2393 277.809
  341 1416.08 9.62652 -30.7319
  342 1416.04 9.62154 30.7152
  343 1445.36 -200.142 148.015
  344 1445.73 -201.121 -148.380
  345 1318.15 28.2281 82.8136
  346 1318.16 28.2447 -82.8472
  347 1272.53 37.9726 70.1830
  348 1272.53 37.9905 -70.2113
  349 1449.57 -156.135 97.9026
  350 1449.64 -156.702 -97.7159
  351 355.986 -350.771 221.487
  352 355.983 -351.014 -221.584
  353 976.499 100.946 2.93320
  354 976.466 100.974 -2.93052
  355 1378.72 0.426912 14.2835
  356 1378.74 0.429013 -14.2911
  357 742.328 169.659 -159.726
  358 742.267 169.676 159.746
  359 1100.86 -92.5651 -308.676
  360 1100.79 -92.6321 308.705
  361 1134.77 71.1980 61.6883
  362 1134.75 71.2218 -61.7060
  363 1630.12 -42.5969 94.1160
  364 1628.86 -36.8870 -96.6584
  365 928.057 124.623 1.48547
  366 928.014 124.648 -1.48107
  367 773.922 -110.931 -305.821
  368 773.911 -110.664 305.739
  369 1319.47 -41.5851 -140.256
  370 1319.51 -41.4993 140.290
  371 2092.88 97.7703 -41.5008
  372 1593.07 -116.656 45.2806
  373 1593.82 -117.929 -45.4716
  374 458.847 146.444 139.627
  375 458.979 146.500 -139.686
  376 1073.57 -52.2861 232.091
  377 1073.57 -52.4824 -232.092
  378 1796.60 -47.1852 92.8885
  379 1796.31 -47.1976 -92.9070
  380 1490.07 20.8598 83.7071
  381 1415.90 46.5079 -5.33528
  382 973.189 -203.600 306.700
  383 973.241 -203.946 -306.816
  384 920.720 83.6071 36.3465
  385 920.739 83.5815 -36.3316
  386 1685.81 43.5486 -73.8961
  387 1104.25 74.7613 103.802
  388 1104.21 74.7702 -103.820
  389 1331.60 -199.725 234.659
  390 1331.74 -200.016 -235.278
  391 847.366 10.3160 -47.0661
  392 847.408 10.3195 47.0829
  393 1995.08 111.299 89.0773
  394 2006.01 112.809 -92.5916
  395 1589.89 -50.2299 157.914
  396 1589.67 -50.1951 -157.877
  397 1179.60 -170.189 244.040
  398 1179.68 -170.562 -244.069
  399 1057.58 20.6593 -300.236
  400 1057.59 20.6640 300.293
  401 741.045 145.534 -244.978
  402 740.980 145.557 245.007
  403 635.848 122.081 117.782
  404 635.787 121.978 -117.839
  405 1409.55 31.6096 41.4674
  406 985.624 115.050 -47.0947
  407 985.668 115.029 47.0879
  408 971.566 68.5427 171.218
  409 971.521 68.4745 -171.230
  410 869.753 -15.4153 -249.546
  411 869.767 -15.2262 249.508
  412 786.133 10.1079 17.1343
  413 786.112 10.1049 -17.1269
  414 1050.49 95.7197 -47.4238
  415 1050.52 95.6942 47.4129
  416 1040.71 94.1191 25.6826
  417 1040.68 94.1479 -25.6878
  418 198.126 -443.415 104.013
  419 198.461 -442.890 -104.314
  420 1678.25 17.3026 93.9996
  421 1147.03 60.4186 39.9775
  422 1147.01 60.4429 -39.9914
  423 883.540 44.2760 43.5492
  424 883.540 44.2604 -43.5326
  425 839.333 140.231 85.5054
  426 839.368 140.208 -85.4820
  427 870.516 64.2258 -81.5631
  428 870.517 64.2437 81.5914
  429 1371.12 11.8544 -91.4988
  430 1371.10 11.8376 91.4626
  431 897.019 87.7049 -179.778
  432 897.034 87.7217 179.822
  433 517.717 -98.1284 -268.689
  434 517.731 -97.8695 268.573
  435 2024.56 -8.14107 58.8070
  436 2025.06 -9.16830 -58.6618
  437 2455.18 -1.56488 303.758
  438 2461.22 -9.06108 -303.746
  439 856.681 145.615 54.3350
  440 856.622 145.608 -54.3448
  441 33.4676 -639.335 -79.0905
  442 33.5087 -638.933 78.9790
  443 1525.83 -56.8984 51.0803
  444 1525.74 -56.9346 -51.0160
  445 1612.72 -17.1904 53.7086
  446 1612.43 -16.2378 -52.5542
  447 63.2619 -632.408 44.0121
  448 63.4683 -631.876 -44.2642
  449 1373.10 -198.953 -160.485
  450 1372.91 -198.332 160.457
  451 1527.75 0.107956 -34.5280
  452 1527.65 0.104096 34.5021
  453 1461.71 12.3607 -84.1672
  454 1575.72 -74.3177 -30.4623
  455 1575.22 -75.2550 31.0186
  456 1176.92 38.0948 -138.553
  457 1176.95 38.1080 138.543
  458 971.684 15.0253 -75.1159
  459 971.775 15.0273 75.1393
  460 349.570 45.9804 192.603
  461 349.744 46.0809 -192.699
  462 1355.77 -106.053 144.137
  463 1355.77 -106.312 -144.035
  464 1262.65 31.9000 26.9866
  465 1262.65 31.9148 -26.9996
  466 879.833 125.718 -47.5403
  467 879.797 125.744 47.5570
  468 1367.72 5.38235 4.33383
  469 1367.74 5.38353 -4.33548
  470 1085.81 74.2421 -25.4629
  471 1085.83 74.2143 25.4554
  472 755.139 -0.538891 2.29349
  473 755.125 -0.540053 -2.29182
  474 849.117 109.947 -118.943
  475 849.100 109.968 118.976
  476 570.512 1.34258 -307.019
  477 570.328 1.27698 306.975
  478 1355.62 3.84257 -47.0227
  479 34.1343 -178.379 0.522472
  480 5.89746 -92.0601 -3.38384
  481 5.51225 -75.8124 5.43793
  482 4.99391 -156.674 8.09000
  483 3.68028 -162.769 -22.8390
  484 2.41177 -150.384 -11.6345
  485 4.46187 -142.553 26.8007
  486 4.45979 -82.8306 13.4486
  487 0.474887 -60.6529 -16.8419
  488 -14.7252 -185.488 -1.18896
  489 -21.2594 -213.771 2.50326
  490 -3.20308 -15.9688 -1.64924
  491 1.10471 -72.0044 -12.3016
  492 -4.11462 -47.4371 14.5799
  493 26.9487 -156.568 -2.83570
  494 -3.53994 -11.1375 0.963881
  495 21.6281 -139.841 2.11051
  496 -1.99025 -23.6588 1.14069
  497 -1.54083 -15.2786 -0.933218
  498 24.7780 -179.381 0.369821
  499 30.3511 -188.431 -2.43704
  500 -1.43336 -17.0632 -3.06698
  501 -8.22056 -123.732 15.3221
  502 -8.24797 -108.550 -35.2042
  503 -31.1427 -171.830 -4.95693
  504 -33.7078 -190.396 16.9133
  505 -25.3364 -179.997 1.06737
  506 -30.4027 -204.799 -8.85043
  507 -4.12635 -98.0353 -14.5741
  508 -5.58070 -73.9600 27.9856
  509 13.9822 -124.003 5.88227
  510 10.3680 -116.463 -18.3809
  511 -2.04916 -9.72189 0.554258
  512 11.5422 -116.099 14.3854
  513 26.5896 -161.367 12.5337
  514 25.2259 -163.976 -1.97672
  515 12.7417 -99.9630 -4.13965
  516 -0.190335 -54.4636 -8.29682
  517 0.713569 -32.2709 6.51641
  518 -2.27133 3.19960 -2.30634
  519 17.1466 -190.934 8.75591
  520 2.38619 -62.4643 5.43329
  521 0.160920 -73.4860 14.4143
  522 -3.06770 -48.4107 -18.8505
  523 25.8896 -167.979 -11.1552
  524 -2.49562 -42.7126 5.97752
  525 -2.59865 1.03787 2.37152
  526 -57.2771 -185.132 -0.0307369
  527 -76.2314 -220.863 2.75519
  528 -1.94238 4.12242 0.758633
  529 -1.32269 -19.8150 -1.50681
  530 1.03987 -49.2402 -4.42554
  531 0.937292 -19.0886 -5.24610
  532 9.86865 -176.461 -4.05097
  533 24.8486 -169.516 2.98128
  534 2.59752 -10.8735 0.683349
  535 1.15390 -115.943 16.7679
  536 -3.91939 -106.023 -31.4015
  537 11.4192 -177.403 2.52353
  538 14.8759 -196.435 -6.88690
  539 0.682875 -41.9025 -7.98445
  540 -3.13734 -46.3055 -1.70154
  541 -3.12192 5.65182 0.254849
  542 0.294541 -94.0856 24.8349
  543 -2.06165 4.25176 -3.16116
  544 33.5087 -176.676 -2.06415
  545 22.2025 -134.236 -7.55019
  546 6.41509 -115.272 -13.1448
  547 -58.2834 -186.791 1.30497
  548 -78.1119 -222.339 -3.65504
  549 -43.7004 -161.786 11.2744
  550 -42.1362 -169.657 -27.6013
  551 -0.774665 -3.37837 -2.22896
  552 -25.9803 -138.886 -14.1365
  553 -18.2583 -130.249 34.6768
  554 -2.81034 -37.6288 1.14112
  555 -1.28896 -25.9327 10.9482
  556 14.4286 -109.661 4.33867
  557 32.8539 -169.261 4.20774
  558 17.0801 -137.842 -6.17806
  559 -3.16645 7.68175 -1.10908
  560 -2.14085 2.19194 2.07973
  561 3.67022 -71.0673 14.4505
  562 32.0497 -184.060 4.36024
  563 -1.69273 13.7810 -0.657628
  564 -86.6209 -186.306 2.37783
  565 -2.03853 11.6397 0.000285579
  566 -119.432 -222.994 -2.42913
  567 -1.05413 13.0187 4.26400
  568 0.272082 11.0584 7.48168
  569 5.02426 -0.503016 4.33214
  570 6.87020 -26.8091 -5.13063
  571 -22.3692 -96.5192 -16.5605
  572 -54.0266 -159.148 -12.4759
  573 -83.0853 -183.062 -1.85113
  574 -77.9938 -179.035 3.15569
  575 -79.7905 -165.077 10.4167
  576 -18.3011 -106.604 12.7186
  577 3.62747 -31.9667 7.66326
  578 5.80884 -0.528148 -7.20223
  579 2.72598 8.01317 -7.35847
  580 -0.939173 13.3828 -4.99104
  581 -0.723960 11.9184 4.18292
  582 1.02021 7.35392 6.58571
  583 5.83208 -2.80834 4.29922
  584 7.20157 -11.5966 -0.422908
  585 -8.43611 -79.6452 -24.8875
  586 -79.3898 -173.919 -22.4083
  587 -97.6762 -206.464 -10.1020
  588 -106.844 -214.226 8.87961
  589 -48.1432 -166.533 27.8402
  590 -10.6505 -64.9596 27.4896
  591 8.80781 -9.05503 -0.219651
  592 7.71481 0.0971174 -6.60289
  593 1.29203 8.60084 -7.52630
  594 -0.834994 13.4139 -4.52905
</Section>

newXOutput 51

<Section columns = "stress_xx | stress_yy | stress_xy">
  1 743.645 7.59651 -7.86855
  2 743.660 7.59778 7.86985
  3 1403.85 -0.0865867 0.494029
  4 1403.84 -0.0878419 -0.495338
  5 -3.24616 -1035.87 31.1445
  6 2774.38 -29.4791 -1.65399
  7 -3.36444 -1036.49 -31.3400
  8 3135.84 -104.698 -18.5294
  9 756.835 4.00506 -2.86102
  10 776.704 8.16288 -11.2789
  11 819.006 11.5700 -28.9626
  12 893.628 7.67403 -54.0493
  13 995.796 8.10216 -57.3297
  14 1127.77 19.1186 -95.4355
  15 1343.79 3.99903 -123.141
  16 1588.75 -5.78375 -131.307
  17 1905.73 -44.3567 -74.8223
  18 2026.57 -40.6579 -42.8153
  19 2132.23 -1.36984 -5.28127
  20 2263.87 29.0122 -26.8248
  21 2395.49 41.7676 -32.1971
  22 2473.91 -27.1391 2.04756
  23 2263.57 21.9401 23.9885
  24 2133.15 -0.505859 6.84215
  25 2026.91 -40.2716 42.9661
  26 1906.10 -44.3824 74.8401
  27 1589.00 -5.78655 131.350
  28 1343.99 4.00053 123.179
  29 1127.91 19.1217 95.4619
  30 995.902 8.10039 57.3469
  31 893.692 7.67371 54.0670
  32 819.048 11.5725 28.9728
  33 776.729 8.16449 11.2854
  34 756.853 4.00647 2.86401
  35 812.913 3.25934 8.79524
  36 869.729 23.6937 15.0214
  37 915.804 39.7681 12.2040
  38 979.036 51.5928 8.41269
  39 1034.62 59.8798 3.99373
  40 1095.53 57.9270 0.213326
  41 1158.58 48.4681 -1.19683
  42 1245.08 30.8482 -5.48258
  43 1305.94 19.1759 2.22976
  44 1354.45 12.8469 -2.68554
  45 1403.12 -1.00876 -8.48589
  46 1431.55 -4.79921 -9.30665
  47 1439.48 3.93012 -17.6334
  48 1488.05 1.05500 -26.1563
  49 1559.39 -9.91430 -24.4123
  50 1618.01 -10.3621 -29.4699
  51 1665.41 -12.9803 -23.3980
  52 1694.62 -21.5702 -6.12920
  53 1679.25 -27.5149 32.7432
  54 1609.05 -12.3368 54.4938
  55 1468.68 9.46898 69.5816
  56 1325.15 38.2083 55.0050
  57 1250.64 44.4474 29.1302
  58 1237.34 44.2702 -30.9929
  59 1339.43 24.7241 -51.0147
  60 1465.69 3.73286 -56.5963
  61 1610.36 -10.9800 -51.3395
  62 1679.57 -26.7682 -32.0374
  63 1694.37 -21.4625 6.07104
  64 1665.21 -12.9917 23.3380
  65 1617.87 -10.3649 29.4376
  66 1559.29 -9.91192 24.3948
  67 1488.00 1.05310 26.1417
  68 1439.44 3.92737 17.6238
  69 1431.53 -4.79959 9.30170
  70 1403.11 -1.00929 8.48294
  71 1354.43 12.8427 2.68324
  72 1305.93 19.1668 -2.23186
  73 1245.08 30.8333 5.47928
  74 1158.59 48.4469 1.19513
  75 1095.55 57.9021 -0.214096
  76 1034.64 59.8548 -3.99308
  77 979.047 51.5712 -8.41094
  78 915.805 39.7528 -12.2004
  79 869.723 23.6840 -15.0191
  80 812.902 3.25496 -8.79291
  81 131.084 -848.435 -8.34520
  82 522.294 -299.893 173.976
  83 1061.11 82.2104 409.374
  84 1594.69 243.471 519.709
  85 2088.56 208.951 558.002
  86 2530.29 40.0837 490.588
  87 2750.49 -60.1994 239.237
  88 2754.95 -57.0310 -241.400
  89 2531.84 28.1214 -491.051
  90 2085.69 211.297 -556.091
  91 1593.62 244.548 -518.965
  92 1060.28 82.2862 -409.506
  93 522.151 -299.969 -174.049
  94 131.075 -848.793 8.28121
  95 69.9722 -904.070 -70.8428
  96 395.253 -395.820 104.523
  97 871.508 -72.0105 251.232
  98 1498.68 139.257 373.988
  99 2128.09 174.975 398.947
  100 2650.88 39.8485 388.632
  101 3038.83 -76.1358 270.593
  102 3000.98 -79.1015 -245.119
  103 2656.64 62.0892 -383.185
  104 2129.43 170.931 -399.562
  105 1499.14 139.445 -374.794
  106 872.294 -71.4581 -251.770
  107 395.775 -395.174 -104.945
  108 70.2359 -903.245 70.4484
  109 915.801 148.929 -29.9688
  110 915.851 148.919 29.9669
  111 1250.29 -86.9592 193.715
  112 1250.29 -87.1739 -193.666
  113 630.241 179.933 158.580
  114 630.336 179.942 -158.595
  115 1229.81 51.7845 57.3695
  116 1229.80 51.8042 -57.3897
  117 898.687 72.0034 59.4848
  118 898.696 71.9842 -59.4648
  119 1683.92 -71.2644 38.8771
  120 1684.37 -69.4695 -40.2446
  121 687.443 36.9778 225.273
  122 687.419 36.8023 -225.346
  123 1887.91 88.2302 -28.1567
  124 1881.56 83.0705 32.0563
  125 1038.51 85.8158 8.95220
  126 1038.49 85.8434 -8.95251
  127 1288.20 31.1776 -118.419
  128 1288.22 31.1694 118.395
  129 846.308 -6.04222 357.882
  130 846.429 -6.03409 -357.864
  131 1247.23 -241.992 259.127
  132 1247.37 -242.493 -259.361
  133 882.170 93.6484 -141.689
  134 882.173 93.6662 141.725
  135 1554.75 -79.7834 -24.6317
  136 1554.91 -79.3927 24.9042
  137 1082.56 73.1797 135.741
  138 1082.51 73.1579 -135.749
  139 324.377 65.8999 24.8592
  140 324.490 66.0379 -24.9776
  141 796.870 170.359 -84.0951
  142 796.818 170.374 84.1081
  143 1483.98 -30.9976 -87.9939
  144 1483.99 -30.9970 87.9909
  145 1339.25 13.2537 23.5430
  146 1339.26 13.2608 -23.5545
  147 980.300 71.5353 -248.909
  148 980.324 71.5529 248.961
  149 856.415 25.6279 32.4991
  150 856.403 25.6197 -32.4880
  151 2181.29 97.3172 6.86478
  152 1090.35 87.7997 77.9650
  153 1090.32 87.8171 -77.9800
  154 1160.27 53.3225 22.8667
  155 1160.26 53.3446 -22.8746
  156 960.335 65.6409 20.3617
  157 960.349 65.6180 -20.3537
  158 939.425 109.022 -27.9504
  159 939.396 109.048 27.9615
  160 1368.56 19.5553 -57.5364
  161 1368.54 19.5448 57.5106
  162 1455.66 -93.8792 -216.699
  163 1455.67 -93.9891 216.682
  164 755.002 162.625 56.3854
  165 754.940 162.584 -56.4093
  166 1571.85 -89.4884 181.401
  167 1572.44 -89.7853 -182.463
  168 729.884 -231.251 345.208
  169 729.921 -231.518 -345.334
  170 1923.96 57.2938 120.848
  171 1928.22 68.0932 -125.629
  172 879.789 39.4702 -76.5758
  173 879.811 39.4808 76.6001
  174 1649.67 64.9362 31.8226
  175 1644.09 12.0566 111.347
  176 1616.25 15.1823 -108.805
  177 1525.32 -182.659 79.8781
  178 1525.63 -183.642 -79.8159
  179 989.640 28.6448 203.365
  180 989.620 28.5293 -203.377
  181 1623.26 -60.0198 -63.9861
  182 1622.98 -63.3999 64.1985
  183 991.082 -119.686 295.164
  184 991.107 -119.978 -295.209
  185 1011.34 110.962 -26.8559
  186 1011.38 110.937 26.8530
  187 2287.41 113.791 158.075
  188 2295.54 98.9494 -161.799
  189 880.270 103.811 -83.6386
  190 880.253 103.833 83.6638
  191 1112.08 79.3477 40.2877
  192 1112.05 79.3733 -40.2982
  193 1275.30 7.51602 145.538
  194 1275.26 7.48868 -145.541
  195 1572.38 45.7463 -67.6167
  196 1218.93 56.5593 91.2964
  197 1218.92 56.5757 -91.3201
  198 269.731 -192.064 -231.276
  199 269.472 -192.283 231.126
  200 1779.38 -36.7023 -117.637
  201 1779.52 -36.3471 117.409
  202 1059.83 63.5863 -2.19820
  203 1059.84 63.5602 2.19806
  204 247.286 -179.967 -157.378
  205 247.343 -179.706 157.228
  206 1475.44 -1.73396 -75.2285
  207 1475.40 -1.74823 75.1933
  208 550.247 163.683 -15.7189
  209 550.161 163.621 15.6634
  210 1361.93 -19.6006 -230.159
  211 1362.06 -19.6032 230.222
  212 1003.78 29.2719 -145.917
  213 1003.85 29.2807 145.957
  214 930.735 -193.523 313.320
  215 930.648 -193.615 -313.556
  216 913.096 43.1618 21.1830
  217 913.098 43.1454 -21.1736
  218 838.398 127.946 -217.036
  219 838.374 127.968 217.076
  220 916.768 123.054 116.475
  221 916.719 123.022 -116.489
  222 1234.94 36.6103 20.9278
  223 1234.94 36.6265 -20.9359
  224 586.510 132.884 253.017
  225 586.634 132.892 -253.038
  226 1341.96 -155.856 -178.562
  227 1341.89 -155.453 178.633
  228 584.245 -149.377 292.518
  229 584.530 -149.198 -292.633
  230 1380.36 9.37817 -32.7599
  231 1380.34 9.37321 32.7445
  232 1616.46 -17.1867 27.8295
  233 1616.52 -17.1666 -27.8641
  234 916.357 43.6239 -104.129
  235 916.395 43.6349 104.158
  236 1662.47 61.3366 69.4841
  237 2238.68 32.4341 187.296
  238 2240.31 31.9580 -186.970
  239 1784.04 111.798 348.076
  240 1782.23 115.918 -348.477
  241 869.211 155.347 -31.8219
  242 869.165 155.365 31.8314
  243 1461.60 -81.3956 -98.5868
  244 1461.67 -81.1997 98.7121
  245 833.893 14.4181 -35.2575
  246 833.917 14.4222 35.2702
  247 2499.11 21.4609 -101.101
  248 1459.00 9.50372 -50.3086
  249 1458.95 9.49521 50.2830
  250 978.701 89.2023 -14.3511
  251 978.678 89.2289 14.3581
  252 708.520 190.962 -64.0787
  253 708.447 190.957 64.0703
  254 1794.46 25.8308 40.6818
  255 1785.80 25.7758 -41.5473
  256 2491.60 17.4718 98.8596
  257 1003.56 116.689 86.2323
  258 1003.51 116.691 -86.2420
  259 1184.07 54.6818 -127.083
  260 1184.10 54.6798 127.064
  261 1366.39 7.35139 10.6538
  262 1366.40 7.35448 -10.6584
  263 2582.31 -60.4650 166.039
  264 2575.67 -15.1220 -151.232
  265 1821.25 96.7913 -28.1240
  266 833.370 93.2490 167.368
  267 833.332 93.1540 -167.398
  268 805.238 77.5517 -322.113
  269 805.165 77.5658 322.143
  270 1302.82 27.3121 46.7528
  271 1302.83 27.3252 -46.7726
  272 877.779 44.0564 -57.1199
  273 877.789 44.0691 57.1396
  274 807.884 5.89369 9.34465
  275 807.870 5.89064 -9.34012
  276 817.238 177.058 -7.92304
  277 817.179 177.060 7.92175
  278 1630.66 -36.7495 -11.8276
  279 1630.53 -37.0880 11.9160
  280 90.2724 -276.702 45.8403
  281 90.4100 -276.418 -46.0052
  282 1127.06 56.6757 -8.33639
  283 1127.07 56.6514 8.33369
  284 1228.86 44.1715 37.6695
  285 1228.86 44.1898 -37.6839
  286 1347.20 30.7275 367.349
  287 1346.63 30.9777 -367.974
  288 1597.90 -108.851 -17.7856
  289 1597.95 -110.110 17.9911
  290 1000.98 62.6212 -4.58902
  291 1000.96 62.6459 4.59155
  292 1282.39 18.0655 -196.719
  293 1282.53 18.0749 196.773
  294 1581.76 -4.06282 44.7955
  295 1581.86 -4.04987 -44.8364
  296 2169.39 82.2895 -337.616
  297 2167.04 82.3939 335.092
  298 908.923 -145.818 -268.055
  299 908.560 -146.122 267.846
  300 1588.75 -16.6426 84.7973
  301 1589.33 -9.72233 -84.8354
  302 885.331 78.7220 -110.285
  303 885.337 78.7399 110.317
  304 464.481 52.9586 146.133
  305 464.421 52.7957 -146.239
  306 919.062 63.0393 38.6734
  307 919.071 63.0189 -38.6591
  308 1144.84 3.68269 180.554
  309 1144.81 3.59924 -180.546
  310 1891.84 121.597 8.19614
  311 830.619 131.443 -150.591
  312 830.591 131.463 150.624
  313 1726.71 -22.1764 -68.1880
  314 1724.89 -23.6779 66.8987
  315 1082.94 68.8361 -11.3212
  316 1082.96 68.8099 11.3184
  317 2745.99 -53.1038 -49.3401
  318 2858.02 -94.6071 97.7295
  319 1168.14 20.5780 -158.361
  320 1168.27 20.5836 158.404
  321 1827.08 57.0415 -277.061
  322 1826.83 58.9842 276.201
  323 1306.26 20.2588 9.75113
  324 1306.27 20.2685 -9.75674
  325 1020.25 72.8587 -3.42788
  326 1020.23 72.8851 3.43055
  327 954.660 52.5314 -9.73756
  328 954.652 52.5519 9.74176
  329 1374.24 -3.05749 -112.073
  330 1374.25 -3.06111 112.054
  331 2112.47 90.1789 26.6552
  332 1188.05 43.0924 -10.8035
  333 1188.06 43.0726 10.7994
  334 865.486 23.2023 15.4431
  335 865.480 23.1928 -15.4381
  336 907.529 103.868 -53.2972
  337 907.507 103.892 53.3152
  338 1518.61 14.0727 -79.8854
  339 1331.93 -18.2340 -282.721
  340 1331.62 -18.5081 282.437
  341 1437.93 9.81946 -31.1353
  342 1437.89 9.81463 31.1193
  343 1467.26 -203.823 150.723
  344 1467.64 -204.819 -151.095
  345 1338.71 28.8368 84.0680
  346 1338.72 28.8530 -84.0999
  347 1292.46 38.6600 71.1834
  348 1292.47 38.6772 -71.2104
  349 1471.91 -158.768 99.9857
  350 1471.97 -159.341 -99.7937
  351 361.319 -357.091 224.920
  352 361.327 -357.315 -225.026
  353 991.944 102.486 2.95259
  354 991.913 102.513 -2.94992
  355 1400.08 0.395102 14.4435
  356 1400.10 0.397105 -14.4508
  357 753.815 172.636 -162.300
  358 753.756 172.652 162.318
  359 1117.36 -93.7102 -313.957
  360 1117.29 -93.7690 313.987
  361 1152.73 72.3879 62.5397
  362 1152.71 72.4104 -62.5563
  363 1655.90 -43.5051 95.2588
  364 1654.65 -37.6631 -97.8562
  365 942.783 126.660 1.46510
  366 942.743 126.683 -1.46082
  367 785.801 -112.241 -310.608
  368 785.780 -111.976 310.527
  369 1339.93 -41.8266 -142.759
  370 1339.97 -41.7416 142.796
  371 2125.48 98.8755 -42.6892
  372 1617.44 -118.821 46.4177
  373 1618.20 -120.125 -46.6175
  374 466.300 149.516 142.227
  375 466.427 149.568 -142.290
  376 1090.11 -52.4940 235.805
  377 1090.12 -52.6900 -235.803
  378 1822.98 -47.6583 94.7542
  379 1822.69 -47.6748 -94.7656
  380 1514.45 21.1929 84.9359
  381 1439.38 47.3381 -5.39135
  382 987.892 -206.811 311.706
  383 987.953 -207.154 -311.822
  384 934.896 84.8011 36.8165
  385 934.914 84.7771 -36.8024
  386 1713.12 44.1266 -74.7509
  387 1121.71 76.2737 105.309
  388 1121.67 76.2814 -105.325
  389 1351.53 -203.505 238.595
  390 1351.68 -203.793 -239.231
  391 858.947 10.4427 -47.6902
  392 858.986 10.4461 47.7061
  393 2025.91 113.197 91.2533
  394 2036.98 114.666 -94.8589
  395 1613.12 -50.8500 160.651
  396 1612.91 -50.8192 -160.610
  397 1197.52 -172.746 248.151
  398 1197.59 -173.120 -248.178
  399 1073.16 21.3152 -305.153
  400 1073.16 21.3232 305.210
  401 752.297 148.162 -248.948
  402 752.234 148.186 248.975
  403 646.124 124.825 119.285
  404 646.071 124.722 -119.343
  405 1432.87 32.1383 42.0827
  406 1001.35 117.029 -47.7075
  407 1001.39 117.010 47.7015
  408 986.885 70.3216 173.765
  409 986.844 70.2525 -173.776
  410 883.291 -14.9222 -253.359
  411 883.299 -14.7336 253.323
  412 796.888 10.2605 17.3365
  413 796.868 10.2577 -17.3295
  414 1067.20 97.3144 -48.0565
  415 1067.23 97.2906 48.0464
  416 1057.21 95.5618 26.0132
  417 1057.18 95.5889 -26.0179
  418 201.297 -450.801 106.066
  419 201.631 -450.294 -106.365
  420 1705.26 17.2916 95.2126
  421 1165.16 61.3191 40.4935
  422 1165.14 61.3421 -40.5066
  423 896.624 44.8570 44.1048
  424 896.624 44.8423 -44.0892
  425 852.295 142.543 86.7802
  426 852.328 142.522 -86.7584
  427 883.337 65.1724 -82.6556
  428 883.337 65.1893 82.6823
  429 1392.45 12.2400 -92.9897
  430 1392.43 12.2232 92.9552
  431 910.022 89.1635 -182.485
  432 910.037 89.1798 182.527
  433 525.840 -99.1132 -272.756
  434 525.844 -98.8604 272.638
  435 2054.87 -8.20868 60.3368
  436 2055.37 -9.24716 -60.1783
  437 2489.71 -2.29987 308.505
  438 2495.78 -9.98084 -308.515
  439 870.432 148.356 54.9830
  440 870.377 148.346 -54.9923
  441 33.8312 -650.782 -80.1548
  442 33.8641 -650.407 80.0354
  443 1549.74 -57.7197 52.3765
  444 1549.65 -57.7530 -52.3108
  445 1638.70 -17.4997 54.3475
  446 1638.42 -16.5269 -53.1783
  447 64.3664 -643.182 45.1417
  448 64.5695 -642.672 -45.3940
  449 1393.97 -202.280 -163.414
  450 1393.78 -201.653 163.387
  451 1551.27 0.166038 -35.0952
  452 1551.18 0.162150 35.0700
  453 1485.69 12.5914 -85.4961
  454 1600.56 -75.6664 -30.4884
  455 1600.05 -76.6126 31.0545
  456 1195.32 39.1788 -140.726
  457 1195.36 39.1924 140.718
  458 984.824 15.2921 -76.1785
  459 984.911 15.2940 76.2007
  460 355.247 47.5666 196.130
  461 355.416 47.6594 -196.229
  462 1376.66 -107.462 146.847
  463 1376.66 -107.720 -146.741
  464 1282.43 32.3196 27.3066
  465 1282.44 32.3337 -27.3189
  466 893.567 127.729 -48.2375
  467 893.533 127.753 48.2532
  468 1388.99 5.47223 4.39313
  469 1389.01 5.47336 -4.39470
  470 1103.00 75.3083 -25.7841
  471 1103.02 75.2819 25.7771
  472 765.402 -0.578015 2.30783
  473 765.388 -0.579120 -2.30624
  474 861.871 111.734 -120.673
  475 861.855 111.754 120.704
  476 579.328 1.97880 -312.350
  477 579.145 1.92117 312.305
  478 1378.09 3.70706 -47.8248
  479 34.8510 -181.724 0.526665
  480 5.97122 -93.6527 -3.44677
  481 5.57680 -77.0762 5.54644
  482 5.13628 -159.565 8.34406
  483 3.78341 -165.752 -23.3765
  484 2.49717 -153.107 -11.9658
  485 4.57432 -145.096 27.4230
  486 4.53175 -84.1552 13.7086
  487 0.472037 -61.5839 -17.1518
  488 -14.9461 -189.088 -1.22417
  489 -21.6116 -217.953 2.55993
  490 -3.27432 -16.1881 -1.67524
  491 1.08287 -73.1412 -12.5250
  492 -4.22489 -48.1048 14.8308
  493 27.4906 -159.445 -2.88172
  494 -3.61866 -11.2679 0.976735
  495 22.0423 -142.359 2.14235
  496 -2.04012 -24.0056 1.14381
  497 -1.58509 -15.4770 -0.935593
  498 25.3242 -182.786 0.373940
  499 31.0084 -191.994 -2.49311
  500 -1.46579 -17.3006 -3.09937
  501 -8.30038 -125.789 15.7629
  502 -8.34456 -110.310 -35.9944
  503 -31.6605 -175.100 -5.11445
  504 -34.2816 -194.024 17.3115
  505 -25.7840 -183.484 1.12906
  506 -30.9491 -208.760 -9.07789
  507 -4.16762 -99.5365 -14.9382
  508 -5.65492 -74.9663 28.6081
  509 14.2418 -126.204 6.03225
  510 10.5461 -118.515 -18.7658
  511 -2.09112 -9.82170 0.535819
  512 11.7344 -118.125 14.6923
  513 27.1369 -164.334 12.8135
  514 25.7623 -167.006 -2.05341
  515 12.9568 -101.668 -4.23340
  516 -0.219818 -55.3401 -8.44922
  517 0.725666 -32.7475 6.59574
  518 -2.31451 3.29174 -2.35558
  519 17.5511 -194.563 8.96911
  520 2.40019 -63.4788 5.52743
  521 0.191546 -74.5291 14.6867
  522 -3.10252 -48.9985 -19.1930
  523 26.4264 -171.099 -11.4031
  524 -2.56986 -43.3650 6.08071
  525 -2.64643 1.09834 2.42347
  526 -58.4869 -188.771 -0.0281106
  527 -77.8408 -225.227 2.80681
  528 -1.98285 4.23629 0.779454
  529 -1.34555 -20.0774 -1.50337
  530 1.02798 -50.0141 -4.49641
  531 0.959895 -19.3166 -5.28946
  532 10.1348 -179.807 -4.19654
  533 25.3762 -172.685 3.07647
  534 2.66415 -10.9552 0.626012
  535 1.16160 -117.914 17.1701
  536 -4.01576 -107.800 -32.0687
  537 11.7208 -180.785 2.62122
  538 15.2429 -200.199 -7.06235
  539 0.720218 -42.4139 -8.07932
  540 -3.22150 -47.0355 -1.73633
  541 -3.18161 5.78424 0.262053
  542 0.268575 -95.6218 25.3556
  543 -2.09885 4.37052 -3.22882
  544 34.2111 -179.984 -2.10398
  545 22.6263 -136.646 -7.69800
  546 6.52886 -117.223 -13.4558
  547 -59.5380 -190.474 1.33552
  548 -79.7685 -226.733 -3.73753
  549 -44.3896 -164.789 11.5969
  550 -42.7909 -172.745 -28.2347
  551 -0.785654 -3.39379 -2.29141
  552 -26.2982 -141.309 -14.5465
  553 -18.4272 -132.473 35.4926
  554 -2.88669 -38.2038 1.16501
  555 -1.27135 -26.0522 11.0730
  556 14.6766 -111.558 4.42339
  557 33.5280 -172.399 4.29099
  558 17.4101 -140.299 -6.35204
  559 -3.22672 7.85168 -1.13201
  560 -2.17714 2.27410 2.13314
  561 3.69673 -72.2089 14.7330
  562 32.7210 -187.524 4.45821
  563 -1.72491 14.0459 -0.666640
  564 -88.5750 -189.963 2.44457
  565 -2.07618 11.8677 -0.00172148
  566 -122.054 -227.390 -2.49175
  567 -1.07086 13.2720 4.34688
  568 0.283887 11.2769 7.62957
  569 5.13631 -0.467897 4.45178
  570 7.06903 -27.0998 -5.10718
  571 -22.5871 -97.9086 -16.9268
  572 -54.8387 -162.084 -12.7835
  573 -84.7935 -186.630 -1.87826
  574 -79.5817 -182.522 3.23230
  575 -81.1158 -168.172 10.6711
  576 -18.4482 -108.244 13.0330
  577 3.73881 -32.3383 7.71777
  578 5.92450 -0.490950 -7.35697
  579 2.77961 8.18435 -7.50178
  580 -0.954069 13.6372 -5.08366
  581 -0.738003 12.1535 4.26149
  582 1.03867 7.51532 6.71643
  583 5.95520 -2.79997 4.41194
  584 7.36738 -11.6055 -0.343548
  585 -8.41467 -80.7546 -25.4023
  586 -80.6590 -177.057 -22.8967
  587 -99.6296 -210.470 -10.3367
  588 -109.038 -218.415 9.05603
  589 -48.8286 -169.592 28.4569
  590 -10.6367 -65.7045 28.0656
  591 9.03380 -9.04747 -0.336941
  592 7.87514 0.147495 -6.75800
  593 1.31760 8.78278 -7.67393
  594 -0.849653 13.6746 -4.61408
</Section>

