newXOutput 1

<Section columns = "stress_xx | stress_yy | stress_xy">
  1 0.00000 0.00000 0.00000
  2 0.00000 0.00000 0.00000
  3 0.00000 0.00000 0.00000
  4 0.00000 0.00000 0.00000
  5 0.00000 0.00000 0.00000
  6 0.00000 0.00000 0.00000
  7 0.00000 0.00000 0.00000
  8 0.00000 0.00000 0.00000
</Section>

newXOutput 2

<Section columns = "stress_xx | stress_yy | stress_xy">
  1 20.7481 0.00000 -3.99697e-14
  2 20.7481 0.00000 -3.93586e-14
  3 20.7481 0.00000 -1.64430e-15
  4 20.7481 0.00000 -1.36666e-15
  5 20.7481 0.00000 5.06448e-15
  6 20.7481 0.00000 5.00163e-15
  7 20.7481 0.00000 -2.47543e-14
  8 20.7481 0.00000 -2.50410e-14
</Section>

newXOutput 3

<Section columns = "stress_xx | stress_yy | stress_xy">
  1 41.5045 0.00000 -4.73831e-14
  2 41.5045 0.00000 -4.59709e-14
  3 41.5045 0.00000 -5.33141e-15
  4 41.5045 0.00000 -4.49280e-15
  5 41.5045 0.00000 1.58327e-15
  6 41.5045 0.00000 1.81123e-15
  7 41.5045 0.00000 -4.64722e-14
  8 41.5045 0.00000 -4.67147e-14
</Section>

newXOutput 4

<Section columns = "stress_xx | stress_yy | stress_xy">
  1 62.2691 0.00000 -1.06476e-14
  2 62.2691 0.00000 -8.99791e-15
  3 62.2691 0.00000 5.64293e-15
  4 62.2691 0.00000 6.89843e-15
  5 62.2691 0.00000 -1.63732e-14
  6 62.2691 0.00000 -1.64808e-14
  7 62.2691 0.00000 -1.74826e-14
  8 62.2691 0.00000 -1.94254e-14
</Section>

newXOutput 5

<Section columns = "stress_xx | stress_yy | stress_xy">
  1 83.0421 0.00000 1.55636e-14
  2 83.0421 0.00000 1.73571e-14
  3 83.0421 0.00000 7.17834e-15
  4 83.0421 0.00000 8.38858e-15
  5 83.0421 0.00000 1.72613e-14
  6 83.0421 0.00000 1.73305e-14
  7 83.0421 0.00000 2.10465e-14
  8 83.0421 0.00000 2.14241e-14
</Section>

newXOutput 6

<Section columns = "stress_xx | stress_yy | stress_xy">
  1 103.823 0.00000 8.12498e-15
  2 103.823 0.00000 9.44827e-15
  3 103.823 0.00000 -2.73103e-15
  4 103.823 0.00000 -1.70795e-15
  5 103.823 0.00000 1.51693e-14
  6 103.823 0.00000 1.74105e-14
  7 103.823 0.00000 -8.01984e-16
  8 103.823 0.00000 1.59428e-14
</Section>

newXOutput 7

<Section columns = "stress_xx | stress_yy | stress_xy">
  1 124.613 0.00000 1.52003e-14
  2 124.613 0.00000 1.65254e-14
  3 124.613 0.00000 2.24698e-15
  4 124.613 0.00000 3.71399e-15
  5 124.613 0.00000 -2.63156e-14
  6 124.613 0.00000 -2.37527e-14
  7 124.613 0.00000 -2.01381e-14
  8 124.613 0.00000 -6.23692e-15
</Section>

newXOutput 8

<Section columns = "stress_xx | stress_yy | stress_xy">
  1 145.411 0.00000 1.40656e-14
  2 145.411 0.00000 1.58663e-14
  3 145.411 0.00000 -1.25339e-14
  4 145.411 0.00000 -1.11447e-14
  5 145.411 0.00000 -7.28388e-15
  6 145.411 0.00000 -8.48273e-15
  7 145.411 0.00000 1.79395e-14
  8 145.411 0.00000 1.28339e-14
</Section>

newXOutput 9

<Section columns = "stress_xx | stress_yy | stress_xy">
  1 166.217 0.00000 -1.95210e-14
  2 166.217 0.00000 -1.66742e-14
  3 166.217 0.00000 -2.28212e-14
  4 166.217 0.00000 -2.09550e-14
  5 166.217 0.00000 -2.66688e-14
  6 166.217 0.00000 -2.74704e-14
  7 166.217 0.00000 -6.25273e-14
  8 166.217 0.00000 -6.32864e-14
</Section>

newXOutput 10

<Section columns = "stress_xx | stress_yy | stress_xy">
  1 187.032 0.00000 1.51231e-14
  2 187.032 0.00000 1.70236e-14
  3 187.032 0.00000 6.92889e-15
  4 187.032 0.00000 8.51295e-15
  5 187.032 0.00000 -6.50035e-15
  6 187.032 0.00000 -3.06185e-15
  7 187.032 0.00000 -8.23256e-15
  8 187.032 0.00000 2.33068e-14
</Section>

newXOutput 11

<Section columns = "stress_xx | stress_yy | stress_xy">
  1 207.855 0.00000 1.01173e-14
  2 207.855 0.00000 1.16397e-14
  3 207.855 0.00000 -3.12872e-15
  4 207.855 0.00000 -1.63718e-15
  5 207.855 0.00000 1.11091e-14
  6 207.855 0.00000 1.43563e-14
  7 207.855 0.00000 -2.80012e-15
  8 207.855 0.00000 2.81534e-14
</Section>

newXOutput 12

<Section columns = "stress_xx | stress_yy | stress_xy">
  1 228.686 0.00000 7.40457e-15
  2 228.686 0.00000 9.88163e-15
  3 228.686 0.00000 -1.75636e-15
  4 228.686 0.00000 4.04589e-16
  5 228.686 0.00000 -8.06269e-15
  6 228.686 0.00000 -5.44903e-15
  7 228.686 0.00000 -1.79315e-14
  8 228.686 0.00000 7.90604e-15
</Section>

newXOutput 13

<Section columns = "stress_xx | stress_yy | stress_xy">
  1 249.526 0.00000 -5.25001e-15
  2 249.526 0.00000 -3.34207e-15
  3 249.526 0.00000 -2.89902e-15
  4 249.526 0.00000 -3.23300e-16
  5 249.526 0.00000 6.16368e-14
  6 249.526 0.00000 6.11360e-14
  7 249.526 0.00000 3.75564e-14
  8 249.526 0.00000 2.64048e-14
</Section>

newXOutput 14

<Section columns = "stress_xx | stress_yy | stress_xy">
  1 270.375 0.00000 1.36132e-14
  2 270.375 0.00000 1.62878e-14
  3 270.375 0.00000 4.03734e-14
  4 270.375 0.00000 4.27983e-14
  5 270.375 0.00000 5.92087e-14
  6 270.375 0.00000 5.57786e-14
  7 270.375 0.00000 2.01261e-14
  8 270.375 0.00000 7.63864e-15
</Section>

newXOutput 15

<Section columns = "stress_xx | stress_yy | stress_xy">
  1 291.231 0.00000 2.15578e-14
  2 291.231 0.00000 2.34708e-14
  3 291.231 0.00000 -1.53013e-15
  4 291.231 0.00000 6.12149e-16
  5 291.231 0.00000 -8.46782e-15
  6 291.231 0.00000 -1.06333e-14
  7 291.231 0.00000 -1.49606e-14
  8 291.231 0.00000 -1.82126e-14
</Section>

newXOutput 16

<Section columns = "stress_xx | stress_yy | stress_xy">
  1 312.097 0.00000 2.03380e-15
  2 312.097 0.00000 3.56616e-15
  3 312.097 0.00000 2.50063e-15
  4 312.097 0.00000 4.60763e-15
  5 312.097 0.00000 1.03043e-14
  6 312.097 0.00000 9.61648e-15
  7 312.097 0.00000 -2.07285e-14
  8 312.097 0.00000 -3.16842e-14
</Section>

newXOutput 17

<Section columns = "stress_xx | stress_yy | stress_xy">
  1 332.970 0.00000 -1.94280e-14
  2 332.970 0.00000 -1.82773e-14
  3 332.970 0.00000 -5.88966e-14
  4 332.970 0.00000 -5.81850e-14
  5 332.970 0.00000 -3.46306e-14
  6 332.970 0.00000 -2.87270e-14
  7 332.970 0.00000 -5.94579e-14
  8 332.970 0.00000 3.79380e-15
</Section>

newXOutput 18

<Section columns = "stress_xx | stress_yy | stress_xy">
  1 353.853 0.00000 1.66881e-14
  2 353.853 0.00000 1.93767e-14
  3 353.853 0.00000 -2.78117e-14
  4 353.853 0.00000 -2.55618e-14
  5 353.853 0.00000 -2.44002e-15
  6 353.853 0.00000 -6.63159e-15
  7 353.853 0.00000 -4.12787e-14
  8 353.853 0.00000 -5.49195e-14
</Section>

newXOutput 19

<Section columns = "stress_xx | stress_yy | stress_xy">
  1 374.743 0.00000 8.40608e-15
  2 374.743 0.00000 1.07136e-14
  3 374.743 0.00000 3.29105e-14
  4 374.743 0.00000 3.51645e-14
  5 374.743 0.00000 1.06528e-14
  6 374.743 0.00000 1.65498e-14
  7 374.743 0.00000 -4.10626e-14
  8 374.743 0.00000 2.02065e-14
</Section>

newXOutput 20

<Section columns = "stress_xx | stress_yy | stress_xy">
  1 395.642 0.00000 -5.10777e-14
  2 395.642 0.00000 -3.83696e-14
  3 395.642 0.00000 -2.08738e-16
  4 395.642 0.00000 1.26393e-14
  5 395.642 0.00000 4.24178e-14
  6 395.642 0.00000 4.20785e-14
  7 395.642 0.00000 -3.26957e-14
  8 395.642 0.00000 -4.98059e-14
</Section>

newXOutput 21

<Section columns = "stress_xx | stress_yy | stress_xy">
  1 416.550 0.00000 -4.14540e-14
  2 416.550 0.00000 -7.76998e-14
  3 416.550 0.00000 -1.75591e-14
  4 416.550 0.00000 -3.03353e-14
  5 416.550 0.00000 -4.15315e-15
  6 416.550 0.00000 1.92274e-14
  7 416.550 0.00000 -6.35997e-14
  8 416.550 0.00000 -3.09745e-14
</Section>

newXOutput 22

<Section columns = "stress_xx | stress_yy | stress_xy">
  1 437.466 0.00000 -2.88482e-15
  2 437.466 0.00000 1.21729e-14
  3 437.466 0.00000 5.81233e-14
  4 437.466 0.00000 7.17791e-14
  5 437.466 0.00000 5.87831e-14
  6 437.466 0.00000 6.96892e-14
  7 437.466 0.00000 -6.61107e-14
  8 437.466 0.00000 -4.93890e-15
</Section>

newXOutput 23

<Section columns = "stress_xx | stress_yy | stress_xy">
  1 458.391 0.00000 -8.28704e-16
  2 458.391 0.00000 1.15424e-14
  3 458.391 0.00000 -1.89856e-14
  4 458.391 0.00000 -5.89093e-15
  5 458.391 0.00000 4.26464e-15
  6 458.391 0.00000 5.10231e-15
  7 458.391 0.00000 -9.20385e-15
  8 458.391 0.00000 -2.47863e-14
</Section>

newXOutput 24

<Section columns = "stress_xx | stress_yy | stress_xy">
  1 479.325 0.00000 1.63896e-14
  2 479.325 0.00000 -2.30943e-14
  3 479.325 0.00000 7.22474e-15
  4 479.325 0.00000 -2.65498e-14
  5 479.325 0.00000 -9.56052e-14
  6 479.325 0.00000 -1.12690e-13
  7 479.325 0.00000 -1.08417e-13
  8 479.325 0.00000 -1.21397e-13
</Section>

newXOutput 25

<Section columns = "stress_xx | stress_yy | stress_xy">
  1 500.267 0.00000 -3.21102e-14
  2 500.267 0.00000 -2.62962e-14
  3 500.267 0.00000 -6.19043e-14
  4 500.267 0.00000 -5.73483e-14
  5 500.267 0.00000 8.27011e-15
  6 500.267 0.00000 1.64098e-15
  7 500.267 0.00000 -1.42393e-15
  8 500.267 0.00000 -2.48537e-14
</Section>

newXOutput 26

<Section columns = "stress_xx | stress_yy | stress_xy">
  1 521.217 0.00000 -1.22316e-14
  2 521.217 0.00000 -5.24579e-15
  3 521.217 0.00000 2.56963e-14
  4 521.217 0.00000 3.20999e-14
  5 521.217 0.00000 6.08836e-15
  6 521.217 0.00000 4.54376e-15
  7 521.217 0.00000 -2.07760e-14
  8 521.217 0.00000 -4.34280e-14
</Section>

newXOutput 27

<Section columns = "stress_xx | stress_yy | stress_xy">
  1 542.176 0.00000 4.35258e-14
  2 542.176 0.00000 -1.59298e-14
  3 542.176 0.00000 5.99041e-15
  4 542.176 0.00000 -2.09140e-14
  5 542.176 0.00000 2.22578e-15
  6 542.176 0.00000 3.05779e-14
  7 542.176 0.00000 3.34827e-14
  8 542.176 0.00000 7.76723e-14
</Section>

newXOutput 28

<Section columns = "stress_xx | stress_yy | stress_xy">
  1 563.144 0.00000 -8.69512e-15
  2 563.144 0.00000 -1.21970e-14
  3 563.144 0.00000 -1.49995e-14
  4 563.144 0.00000 -1.30540e-14
  5 563.144 0.00000 -2.55308e-14
  6 563.144 0.00000 -1.67760e-14
  7 563.144 0.00000 -1.84337e-13
  8 563.144 0.00000 -1.74220e-13
</Section>

newXOutput 29

<Section columns = "stress_xx | stress_yy | stress_xy">
  1 584.120 0.00000 7.30583e-15
  2 584.120 0.00000 3.02022e-15
  3 584.120 0.00000 -1.30691e-14
  4 584.120 0.00000 -1.25718e-14
  5 584.120 0.00000 7.66589e-14
  6 584.120 0.00000 7.74469e-14
  7 584.120 0.00000 6.53918e-14
  8 584.120 0.00000 5.48253e-14
</Section>

newXOutput 30

<Section columns = "stress_xx | stress_yy | stress_xy">
  1 605.105 0.00000 -1.01631e-14
  2 605.105 0.00000 -4.70172e-15
  3 605.105 0.00000 -1.47537e-14
  4 605.105 0.00000 -2.57616e-14
  5 605.105 0.00000 4.95028e-14
  6 605.105 0.00000 1.20741e-14
  7 605.105 0.00000 6.83151e-14
  8 605.105 0.00000 1.40755e-14
</Section>

newXOutput 31

<Section columns = "stress_xx | stress_yy | stress_xy">
  1 626.099 0.00000 6.75874e-15
  2 626.099 0.00000 -1.83450e-15
  3 626.099 0.00000 -3.81670e-14
  4 626.099 0.00000 -3.12192e-14
  5 626.099 0.00000 -1.15956e-13
  6 626.099 0.00000 -9.25161e-14
  7 626.099 0.00000 -2.53195e-13
  8 626.099 0.00000 -2.21947e-13
</Section>

newXOutput 32

<Section columns = "stress_xx | stress_yy | stress_xy">
  1 647.101 0.00000 6.53874e-15
  2 647.101 0.00000 8.10315e-15
  3 647.101 0.00000 -9.15468e-14
  4 647.101 0.00000 -9.38934e-14
  5 647.101 0.00000 -4.20029e-14
  6 647.101 0.00000 -3.38286e-14
  7 647.101 0.00000 -1.70652e-15
  8 647.101 0.00000 1.16854e-13
</Section>

newXOutput 33

<Section columns = "stress_xx | stress_yy | stress_xy">
  1 668.112 0.00000 1.82648e-14
  2 668.112 0.00000 8.86630e-15
  3 668.112 0.00000 6.22365e-15
  4 668.112 0.00000 1.43683e-14
  5 668.112 0.00000 -1.37640e-13
  6 668.112 0.00000 -1.17024e-13
  7 668.112 0.00000 -1.65174e-13
  8 668.112 0.00000 -1.56479e-13
</Section>

newXOutput 34

<Section columns = "stress_xx | stress_yy | stress_xy">
  1 689.132 0.00000 1.40031e-14
  2 689.132 0.00000 7.72947e-15
  3 689.132 0.00000 5.22755e-14
  4 689.132 0.00000 6.23932e-14
  5 689.132 0.00000 -1.79363e-14
  6 689.132 0.00000 3.11117e-15
  7 689.132 0.00000 -4.58970e-14
  8 689.132 0.00000 -3.71594e-14
</Section>

newXOutput 35

<Section columns = "stress_xx | stress_yy | stress_xy">
  1 710.161 0.00000 1.63973e-14
  2 710.161 0.00000 2.03233e-14
  3 710.161 0.00000 -5.32081e-15
  4 710.161 0.00000 -5.78839e-15
  5 710.161 0.00000 8.44807e-14
  6 710.161 0.00000 6.63067e-14
  7 710.161 0.00000 3.93598e-14
  8 710.161 0.00000 1.02762e-15
</Section>

newXOutput 36

<Section columns = "stress_xx | stress_yy | stress_xy">
  1 731.198 0.00000 4.58617e-14
  2 731.198 0.00000 3.95720e-14
  3 731.198 0.00000 1.16215e-14
  4 731.198 0.00000 2.09831e-14
  5 731.198 0.00000 -4.03023e-14
  6 731.198 0.00000 7.33827e-17
  7 731.198 0.00000 -1.74489e-13
  8 731.198 0.00000 -1.61123e-14
</Section>

newXOutput 37

<Section columns = "stress_xx | stress_yy | stress_xy">
  1 752.244 0.00000 -1.14005e-13
  2 752.244 0.00000 -1.42344e-13
  3 752.244 0.00000 3.75145e-14
  4 752.244 0.00000 2.79970e-14
  5 752.244 0.00000 3.07429e-14
  6 752.244 0.00000 4.44290e-14
  7 752.244 0.00000 5.94957e-14
  8 752.244 0.00000 7.07234e-14
</Section>

newXOutput 38

<Section columns = "stress_xx | stress_yy | stress_xy">
  1 773.298 0.00000 4.24119e-14
  2 773.298 0.00000 1.24597e-14
  3 773.298 0.00000 1.20602e-13
  4 773.298 0.00000 1.11074e-13
  5 773.298 0.00000 -1.22512e-13
  6 773.298 0.00000 -1.07220e-13
  7 773.298 0.00000 -2.56851e-13
  8 773.298 0.00000 -2.44001e-13
</Section>

newXOutput 39

<Section columns = "stress_xx | stress_yy | stress_xy">
  1 794.361 0.00000 1.18530e-13
  2 794.361 0.00000 1.31946e-13
  3 794.361 0.00000 -1.34039e-13
  4 794.361 0.00000 -1.32527e-13
  5 794.361 0.00000 2.82392e-14
  6 794.361 0.00000 1.55841e-16
  7 794.361 0.00000 -2.10516e-14
  8 794.361 0.00000 -7.36587e-14
</Section>

newXOutput 40

<Section columns = "stress_xx | stress_yy | stress_xy">
  1 815.433 0.00000 2.77769e-14
  2 815.433 0.00000 3.40986e-14
  3 815.433 0.00000 -7.68899e-14
  4 815.433 0.00000 -6.19406e-14
  5 815.433 0.00000 -7.58055e-14
  6 815.433 0.00000 -6.40065e-14
  7 815.433 0.00000 7.47726e-14
  8 815.433 0.00000 6.79629e-14
</Section>

newXOutput 41

<Section columns = "stress_xx | stress_yy | stress_xy">
  1 836.514 0.00000 -4.10855e-14
  2 836.514 0.00000 -3.00084e-14
  3 836.514 0.00000 -1.10534e-14
  4 836.514 0.00000 -3.26685e-15
  5 836.514 0.00000 1.37392e-13
  6 836.514 0.00000 1.24774e-13
  7 836.514 0.00000 -1.58137e-13
  8 836.514 0.00000 -1.87869e-13
</Section>

newXOutput 42

<Section columns = "stress_xx | stress_yy | stress_xy">
  1 857.604 0.00000 7.09590e-16
  2 857.604 0.00000 -1.43426e-14
  3 857.604 0.00000 3.02836e-13
  4 857.604 0.00000 2.90892e-13
  5 857.604 0.00000 6.94177e-15
  6 857.604 0.00000 -8.14055e-15
  7 857.604 0.00000 1.63028e-13
  8 857.604 0.00000 1.34874e-13
</Section>

newXOutput 43

<Section columns = "stress_xx | stress_yy | stress_xy">
  1 878.702 0.00000 -2.76336e-14
  2 878.702 0.00000 -3.55658e-14
  3 878.702 0.00000 -4.40376e-14
  4 878.702 0.00000 -5.60535e-14
  5 878.702 0.00000 8.79938e-14
  6 878.702 0.00000 6.50717e-14
  7 878.702 0.00000 2.37236e-14
  8 878.702 0.00000 -6.02107e-15
</Section>

newXOutput 44

<Section columns = "stress_xx | stress_yy | stress_xy">
  1 899.809 0.00000 4.26238e-14
  2 899.809 0.00000 2.75336e-14
  3 899.809 0.00000 4.01129e-14
  4 899.809 0.00000 2.33775e-14
  5 899.809 0.00000 7.38086e-14
  6 899.809 0.00000 5.31527e-14
  7 899.809 0.00000 -2.24131e-14
  8 899.809 0.00000 -5.21639e-14
</Section>

newXOutput 45

<Section columns = "stress_xx | stress_yy | stress_xy">
  1 920.925 0.00000 2.50684e-14
  2 920.925 0.00000 6.72154e-14
  3 920.925 0.00000 5.42925e-14
  4 920.925 0.00000 1.08736e-13
  5 920.925 0.00000 6.54630e-14
  6 920.925 0.00000 1.31332e-13
  7 920.925 0.00000 7.83296e-14
  8 920.925 0.00000 3.42586e-14
</Section>

newXOutput 46

<Section columns = "stress_xx | stress_yy | stress_xy">
  1 942.050 0.00000 -5.43833e-15
  2 942.050 0.00000 -1.45720e-15
  3 942.050 0.00000 -5.60888e-14
  4 942.050 0.00000 -5.76813e-14
  5 942.050 0.00000 1.51810e-14
  6 942.050 0.00000 1.43436e-15
  7 942.050 0.00000 -1.32519e-13
  8 942.050 0.00000 -1.80102e-13
</Section>

newXOutput 47

<Section columns = "stress_xx | stress_yy | stress_xy">
  1 963.184 0.00000 -2.22235e-14
  2 963.184 0.00000 -1.82373e-14
  3 963.184 0.00000 2.47266e-14
  4 963.184 0.00000 2.18350e-14
  5 963.184 0.00000 -2.26524e-13
  6 963.184 0.00000 -2.44996e-13
  7 963.184 0.00000 -1.42235e-13
  8 963.184 0.00000 -1.55788e-13
</Section>

newXOutput 48

<Section columns = "stress_xx | stress_yy | stress_xy">
  1 984.326 0.00000 5.31184e-14
  2 984.326 0.00000 9.14334e-14
  3 984.326 0.00000 9.90405e-14
  4 984.326 0.00000 1.28575e-13
  5 984.326 0.00000 7.14490e-14
  6 984.326 0.00000 6.60660e-14
  7 984.326 0.00000 -3.56163e-14
  8 984.326 0.00000 -9.43687e-14
</Section>

newXOutput 49

<Section columns = "stress_xx | stress_yy | stress_xy">
  1 1005.48 0.00000 -3.68907e-14
  2 1005.48 0.00000 -5.44738e-14
  3 1005.48 0.00000 -5.78951e-14
  4 1005.48 0.00000 -7.94743e-14
  5 1005.48 0.00000 -2.53443e-15
  6 1005.48 0.00000 -2.50993e-14
  7 1005.48 0.00000 4.02932e-14
  8 1005.48 0.00000 -6.48186e-15
</Section>

newXOutput 50

<Section columns = "stress_xx | stress_yy | stress_xy">
  1 1026.64 0.00000 2.05326e-14
  2 1026.64 0.00000 1.32701e-15
  3 1026.64 0.00000 2.20059e-14
  4 1026.64 0.00000 1.67171e-14
  5 1026.64 0.00000 3.06470e-14
  6 1026.64 0.00000 7.79978e-14
  7 1026.64 0.00000 1.15823e-14
  8 1026.64 0.00000 -3.83899e-14
</Section>

newXOutput 51

<Section columns = "stress_xx | stress_yy | stress_xy">
  1 1047.81 0.00000 -5.65175e-14
  2 1047.81 0.00000 -5.25113e-14
  3 1047.81 0.00000 2.59975e-14
  4 1047.81 0.00000 2.31081e-14
  5 1047.81 0.00000 -1.37195e-13
  6 1047.81 0.00000 -1.53464e-13
  7 1047.81 0.00000 5.96411e-14
  8 1047.81 0.00000 2.32898e-14
</Section>

newXOutput 52

<Section columns = "stress_xx | stress_yy | stress_xy">
  1 1068.98 0.00000 2.67992e-14
  2 1068.98 0.00000 3.24148e-14
  3 1068.98 0.00000 1.56562e-13
  4 1068.98 0.00000 1.55760e-13
  5 1068.98 0.00000 8.75097e-14
  6 1068.98 0.00000 9.76223e-14
  7 1068.98 0.00000 -1.52085e-13
  8 1068.98 0.00000 -4.30817e-14
</Section>

newXOutput 53

<Section columns = "stress_xx | stress_yy | stress_xy">
  1 1090.17 0.00000 6.34882e-14
  2 1090.17 0.00000 6.58979e-14
  3 1090.17 0.00000 -1.50883e-14
  4 1090.17 0.00000 -1.83781e-14
  5 1090.17 0.00000 -2.88987e-13
  6 1090.17 0.00000 -3.01481e-13
  7 1090.17 0.00000 -1.96935e-13
  8 1090.17 0.00000 -1.99344e-13
</Section>

newXOutput 54

<Section columns = "stress_xx | stress_yy | stress_xy">
  1 1111.37 0.00000 -4.81023e-14
  2 1111.37 0.00000 -6.52149e-16
  3 1111.37 0.00000 -2.08896e-14
  4 1111.37 0.00000 1.68368e-14
  5 1111.37 0.00000 2.31232e-13
  6 1111.37 0.00000 2.32813e-13
  7 1111.37 0.00000 6.12146e-14
  8 1111.37 0.00000 4.99553e-14
</Section>

newXOutput 55

<Section columns = "stress_xx | stress_yy | stress_xy">
  1 1132.57 0.00000 1.48587e-14
  2 1132.57 0.00000 1.24430e-14
  3 1132.57 0.00000 -8.52169e-15
  4 1132.57 0.00000 -8.11907e-15
  5 1132.57 0.00000 -1.13328e-13
  6 1132.57 0.00000 -1.14673e-13
  7 1132.57 0.00000 -2.75231e-13
  8 1132.57 0.00000 -3.08293e-13
</Section>

newXOutput 56

<Section columns = "stress_xx | stress_yy | stress_xy">
  1 1153.79 0.00000 -1.28612e-14
  2 1153.79 0.00000 -1.12487e-14
  3 1153.79 0.00000 -1.55912e-13
  4 1153.79 0.00000 -1.56380e-13
  5 1153.79 0.00000 5.56220e-14
  6 1153.79 0.00000 4.46120e-14
  7 1153.79 0.00000 -4.13184e-14
  8 1153.79 0.00000 -7.43597e-14
</Section>

newXOutput 57

<Section columns = "stress_xx | stress_yy | stress_xy">
  1 1175.01 0.00000 6.76590e-14
  2 1175.01 0.00000 6.36228e-14
  3 1175.01 0.00000 1.42318e-13
  4 1175.01 0.00000 1.50733e-13
  5 1175.01 0.00000 5.01069e-14
  6 1175.01 0.00000 1.07602e-13
  7 1175.01 0.00000 1.46212e-14
  8 1175.01 0.00000 3.39327e-13
</Section>

newXOutput 58

<Section columns = "stress_xx | stress_yy | stress_xy">
  1 1196.24 0.00000 1.02481e-15
  2 1196.24 0.00000 -3.82466e-15
  3 1196.24 0.00000 -6.00139e-14
  4 1196.24 0.00000 -5.19879e-14
  5 1196.24 0.00000 4.92393e-14
  6 1196.24 0.00000 5.96682e-14
  7 1196.24 0.00000 2.14569e-13
  8 1196.24 0.00000 2.00967e-13
</Section>

newXOutput 59

<Section columns = "stress_xx | stress_yy | stress_xy">
  1 1217.48 0.00000 4.24270e-15
  2 1217.48 0.00000 7.47969e-15
  3 1217.48 0.00000 1.80038e-13
  4 1217.48 0.00000 1.81604e-13
  5 1217.48 0.00000 -8.44251e-14
  6 1217.48 0.00000 -9.86415e-14
  7 1217.48 0.00000 -3.41864e-13
  8 1217.48 0.00000 -3.83744e-13
</Section>

newXOutput 60

<Section columns = "stress_xx | stress_yy | stress_xy">
  1 1238.73 0.00000 1.82865e-13
  2 1238.73 0.00000 2.16896e-13
  3 1238.73 0.00000 -8.92282e-14
  4 1238.73 0.00000 -6.73998e-14
  5 1238.73 0.00000 -1.67385e-13
  6 1238.73 0.00000 -1.92939e-13
  7 1238.73 0.00000 1.85829e-13
  8 1238.73 0.00000 1.11549e-13
</Section>

newXOutput 61

<Section columns = "stress_xx | stress_yy | stress_xy">
  1 1259.99 0.00000 -1.84062e-13
  2 1259.99 0.00000 -1.74327e-13
  3 1259.99 0.00000 -9.50009e-14
  4 1259.99 0.00000 -9.58564e-14
  5 1259.99 0.00000 -4.04875e-14
  6 1259.99 0.00000 -7.17277e-14
  7 1259.99 0.00000 -3.30870e-14
  8 1259.99 0.00000 -9.76613e-14
</Section>

newXOutput 62

<Section columns = "stress_xx | stress_yy | stress_xy">
  1 1281.25 0.00000 5.31874e-14
  2 1281.25 0.00000 7.10570e-14
  3 1281.25 0.00000 1.30817e-13
  4 1281.25 0.00000 1.30777e-13
  5 1281.25 0.00000 -2.05405e-13
  6 1281.25 0.00000 -2.35767e-13
  7 1281.25 0.00000 -4.50210e-13
  8 1281.25 0.00000 -4.79451e-13
</Section>

newXOutput 63

<Section columns = "stress_xx | stress_yy | stress_xy">
  1 1302.53 0.00000 -4.01318e-14
  2 1302.53 0.00000 -4.33848e-14
  3 1302.53 0.00000 3.90758e-14
  4 1302.53 0.00000 5.37144e-14
  5 1302.53 0.00000 1.86966e-13
  6 1302.53 0.00000 2.12918e-13
  7 1302.53 0.00000 -1.19997e-14
  8 1302.53 0.00000 -1.96820e-14
</Section>

newXOutput 64

<Section columns = "stress_xx | stress_yy | stress_xy">
  1 1323.82 0.00000 1.41200e-14
  2 1323.82 0.00000 -2.82212e-14
  3 1323.82 0.00000 -1.09526e-13
  4 1323.82 0.00000 -1.13373e-13
  5 1323.82 0.00000 -2.28453e-13
  6 1323.82 0.00000 -1.16128e-13
  7 1323.82 0.00000 -3.29614e-13
  8 1323.82 0.00000 -4.49561e-14
</Section>

newXOutput 65

<Section columns = "stress_xx | stress_yy | stress_xy">
  1 1345.11 0.00000 -3.02689e-15
  2 1345.11 0.00000 -4.21592e-14
  3 1345.11 0.00000 1.03055e-13
  4 1345.11 0.00000 7.85698e-14
  5 1345.11 0.00000 1.34188e-13
  6 1345.11 0.00000 1.33053e-13
  7 1345.11 0.00000 3.08803e-14
  8 1345.11 0.00000 2.49332e-14
</Section>

newXOutput 66

<Section columns = "stress_xx | stress_yy | stress_xy">
  1 1366.41 0.00000 3.63123e-14
  2 1366.41 0.00000 5.91675e-14
  3 1366.41 0.00000 -1.02078e-13
  4 1366.41 0.00000 -7.74239e-14
  5 1366.41 0.00000 -1.22090e-14
  6 1366.41 0.00000 3.02979e-14
  7 1366.41 0.00000 1.01344e-13
  8 1366.41 0.00000 3.83128e-14
</Section>

newXOutput 67

<Section columns = "stress_xx | stress_yy | stress_xy">
  1 1387.72 0.00000 -9.10779e-14
  2 1387.72 0.00000 -8.94434e-14
  3 1387.72 0.00000 -9.23718e-14
  4 1387.72 0.00000 -6.95082e-14
  5 1387.72 0.00000 -6.39604e-14
  6 1387.72 0.00000 -3.31775e-14
  7 1387.72 0.00000 -2.49707e-13
  8 1387.72 0.00000 -2.45739e-13
</Section>

newXOutput 68

<Section columns = "stress_xx | stress_yy | stress_xy">
  1 1409.05 0.00000 2.03880e-14
  2 1409.05 0.00000 4.00263e-14
  3 1409.05 0.00000 6.43650e-14
  4 1409.05 0.00000 8.15329e-14
  5 1409.05 0.00000 2.34990e-13
  6 1409.05 0.00000 2.29830e-13
  7 1409.05 0.00000 9.95214e-14
  8 1409.05 0.00000 6.10071e-14
</Section>

newXOutput 69

<Section columns = "stress_xx | stress_yy | stress_xy">
  1 1430.38 0.00000 7.87164e-14
  2 1430.38 0.00000 4.75844e-14
  3 1430.38 0.00000 1.21694e-13
  4 1430.38 0.00000 1.16858e-13
  5 1430.38 0.00000 1.72303e-13
  6 1430.38 0.00000 2.26137e-13
  7 1430.38 0.00000 1.86431e-14
  8 1430.38 0.00000 -1.65797e-14
</Section>

newXOutput 70

<Section columns = "stress_xx | stress_yy | stress_xy">
  1 1451.71 0.00000 -1.04863e-13
  2 1451.71 0.00000 -1.29471e-13
  3 1451.71 0.00000 1.83046e-14
  4 1451.71 0.00000 -4.67009e-15
  5 1451.71 0.00000 -3.09178e-13
  6 1451.71 0.00000 -3.27427e-13
  7 1451.71 0.00000 7.61502e-14
  8 1451.71 0.00000 4.75079e-14
</Section>

newXOutput 71

<Section columns = "stress_xx | stress_yy | stress_xy">
  1 1473.06 0.00000 -3.89490e-14
  2 1473.06 0.00000 -5.20893e-14
  3 1473.06 0.00000 -8.27409e-14
  4 1473.06 0.00000 -1.03276e-13
  5 1473.06 0.00000 -3.81369e-13
  6 1473.06 0.00000 -4.02901e-13
  7 1473.06 0.00000 -5.01049e-13
  8 1473.06 0.00000 -5.29665e-13
</Section>

newXOutput 72

<Section columns = "stress_xx | stress_yy | stress_xy">
  1 1494.42 0.00000 -1.78105e-14
  2 1494.42 0.00000 3.56843e-15
  3 1494.42 0.00000 1.90534e-14
  4 1494.42 0.00000 3.22106e-14
  5 1494.42 0.00000 2.44363e-13
  6 1494.42 0.00000 2.32695e-13
  7 1494.42 0.00000 3.57863e-13
  8 1494.42 0.00000 3.16117e-13
</Section>

newXOutput 73

<Section columns = "stress_xx | stress_yy | stress_xy">
  1 1515.79 0.00000 1.86245e-14
  2 1515.79 0.00000 4.49690e-14
  3 1515.79 0.00000 1.27335e-13
  4 1515.79 0.00000 1.43805e-13
  5 1515.79 0.00000 -3.64517e-14
  6 1515.79 0.00000 -4.31708e-14
  7 1515.79 0.00000 -2.20569e-13
  8 1515.79 0.00000 -2.54071e-13
</Section>

newXOutput 74

<Section columns = "stress_xx | stress_yy | stress_xy">
  1 1537.16 0.00000 7.40257e-15
  2 1537.16 0.00000 3.54278e-14
  3 1537.16 0.00000 2.75606e-14
  4 1537.16 0.00000 4.57036e-14
  5 1537.16 0.00000 7.12884e-14
  6 1537.16 0.00000 6.37604e-14
  7 1537.16 0.00000 -2.13188e-13
  8 1537.16 0.00000 -2.49967e-13
</Section>

newXOutput 75

<Section columns = "stress_xx | stress_yy | stress_xy">
  1 1558.55 0.00000 -3.39971e-14
  2 1558.55 0.00000 -5.54542e-14
  3 1558.55 0.00000 -2.38228e-13
  4 1558.55 0.00000 -2.62147e-13
  5 1558.55 0.00000 -2.31323e-13
  6 1558.55 0.00000 -2.53692e-13
  7 1558.55 0.00000 -2.58177e-13
  8 1558.55 0.00000 -2.89988e-13
</Section>

newXOutput 76

<Section columns = "stress_xx | stress_yy | stress_xy">
  1 1579.94 0.00000 2.43454e-14
  2 1579.94 0.00000 -1.86208e-14
  3 1579.94 0.00000 6.63412e-14
  4 1579.94 0.00000 4.81805e-14
  5 1579.94 0.00000 1.28398e-13
  6 1579.94 0.00000 1.46513e-13
  7 1579.94 0.00000 5.03531e-14
  8 1579.94 0.00000 6.64889e-14
</Section>

newXOutput 77

<Section columns = "stress_xx | stress_yy | stress_xy">
  1 1601.34 0.00000 2.66351e-14
  2 1601.34 0.00000 -1.80378e-14
  3 1601.34 0.00000 -6.99744e-14
  4 1601.34 0.00000 -9.14621e-14
  5 1601.34 0.00000 3.35110e-14
  6 1601.34 0.00000 5.08444e-14
  7 1601.34 0.00000 -2.37020e-13
  8 1601.34 0.00000 -2.17494e-13
</Section>

newXOutput 78

<Section columns = "stress_xx | stress_yy | stress_xy">
  1 1622.75 0.00000 7.27608e-15
  2 1622.75 0.00000 2.71547e-14
  3 1622.75 0.00000 1.29065e-13
  4 1622.75 0.00000 1.40687e-13
  5 1622.75 0.00000 1.74736e-13
  6 1622.75 0.00000 1.61468e-13
  7 1622.75 0.00000 -4.59489e-14
  8 1622.75 0.00000 -8.92874e-14
</Section>

newXOutput 79

<Section columns = "stress_xx | stress_yy | stress_xy">
  1 1645.09 0.00000 -3.03664e-14
  2 1645.09 0.00000 -2.04151e-14
  3 1645.09 0.00000 -8.12258e-14
  4 1645.09 0.00000 -6.95862e-14
  5 1645.09 0.00000 1.83997e-13
  6 1645.09 0.00000 1.77367e-13
  7 1645.09 0.00000 -6.31818e-14
  8 1645.09 0.00000 -1.03220e-13
</Section>

newXOutput 80

<Section columns = "stress_xx | stress_yy | stress_xy">
  1 1669.30 0.00000 4.05357e-14
  2 1669.30 0.00000 6.39117e-14
  3 1669.30 0.00000 -1.36400e-13
  4 1669.30 0.00000 -1.20495e-13
  5 1669.30 0.00000 -4.01225e-13
  6 1669.30 0.00000 -4.16937e-13
  7 1669.30 0.00000 -9.84628e-14
  8 1669.30 0.00000 -1.51747e-13
</Section>

newXOutput 81

<Section columns = "stress_xx | stress_yy | stress_xy">
  1 1693.53 0.00000 2.32818e-14
  2 1693.53 0.00000 -1.66196e-14
  3 1693.53 0.00000 -1.50747e-14
  4 1693.53 0.00000 -2.94721e-14
  5 1693.53 0.00000 6.63996e-14
  6 1693.53 0.00000 1.14009e-13
  7 1693.53 0.00000 1.65267e-13
  8 1693.53 0.00000 1.28605e-13
</Section>

newXOutput 82

<Section columns = "stress_xx | stress_yy | stress_xy">
  1 1717.79 0.00000 -7.72547e-14
  2 1717.79 0.00000 -1.33850e-13
  3 1717.79 0.00000 -2.96035e-13
  4 1717.79 0.00000 -3.20961e-13
  5 1717.79 0.00000 -2.82292e-13
  6 1717.79 0.00000 -2.61407e-13
  7 1717.79 0.00000 -3.80315e-13
  8 1717.79 0.00000 -3.58701e-13
</Section>

newXOutput 83

<Section columns = "stress_xx | stress_yy | stress_xy">
  1 1742.08 0.00000 2.19485e-14
  2 1742.08 0.00000 -3.63814e-14
  3 1742.08 0.00000 1.04136e-13
  4 1742.08 0.00000 8.16837e-14
  5 1742.08 0.00000 1.80238e-13
  6 1742.08 0.00000 2.03671e-13
  7 1742.08 0.00000 2.62003e-13
  8 1742.08 0.00000 2.82038e-13
</Section>

newXOutput 84

<Section columns = "stress_xx | stress_yy | stress_xy">
  1 1766.39 0.00000 -4.91198e-15
  2 1766.39 0.00000 -6.58055e-15
  3 1766.39 0.00000 -1.95620e-13
  4 1766.39 0.00000 -1.88061e-13
  5 1766.39 0.00000 -8.85527e-14
  6 1766.39 0.00000 -9.26534e-14
  7 1766.39 0.00000 -3.52852e-13
  8 1766.39 0.00000 -3.91536e-13
</Section>

newXOutput 85

<Section columns = "stress_xx | stress_yy | stress_xy">
  1 1790.73 0.00000 8.10185e-14
  2 1790.73 0.00000 8.10185e-14
  3 1790.73 0.00000 8.03829e-14
  4 1790.73 0.00000 1.28902e-13
  5 1790.73 0.00000 -3.03573e-13
  6 1790.73 0.00000 -1.63653e-13
  7 1790.73 0.00000 -7.33168e-14
  8 1790.73 0.00000 -1.18521e-13
</Section>

newXOutput 86

<Section columns = "stress_xx | stress_yy | stress_xy">
  1 1815.10 0.00000 -6.85435e-15
  2 1815.10 0.00000 -1.83662e-15
  3 1815.10 0.00000 -4.40977e-14
  4 1815.10 0.00000 -3.44553e-14
  5 1815.10 0.00000 1.62948e-13
  6 1815.10 0.00000 1.56815e-13
  7 1815.10 0.00000 -6.14522e-14
  8 1815.10 0.00000 -1.01375e-13
</Section>

newXOutput 87

<Section columns = "stress_xx | stress_yy | stress_xy">
  1 1839.49 0.00000 1.61769e-14
  2 1839.49 0.00000 1.28277e-14
  3 1839.49 0.00000 6.35560e-14
  4 1839.49 0.00000 1.09978e-13
  5 1839.49 0.00000 1.03432e-13
  6 1839.49 0.00000 1.55011e-13
  7 1839.49 0.00000 1.14210e-13
  8 1839.49 0.00000 1.07791e-13
</Section>

newXOutput 88

<Section columns = "stress_xx | stress_yy | stress_xy">
  1 1863.91 0.00000 3.01022e-14
  2 1863.91 0.00000 2.50724e-14
  3 1863.91 0.00000 1.58885e-13
  4 1863.91 0.00000 1.79327e-13
  5 1863.91 0.00000 1.69838e-13
  6 1863.91 0.00000 2.00566e-13
  7 1863.91 0.00000 -1.84676e-13
  8 1863.91 0.00000 -1.82806e-13
</Section>

newXOutput 89

<Section columns = "stress_xx | stress_yy | stress_xy">
  1 1888.36 0.00000 1.14650e-14
  2 1888.36 0.00000 3.07203e-15
  3 1888.36 0.00000 -1.20546e-13
  4 1888.36 0.00000 -1.00332e-13
  5 1888.36 0.00000 -7.89365e-14
  6 1888.36 0.00000 -7.54288e-15
  7 1888.36 0.00000 -1.10606e-13
  8 1888.36 0.00000 1.84500e-13
</Section>

newXOutput 90

<Section columns = "stress_xx | stress_yy | stress_xy">
  1 1912.83 0.00000 -2.54178e-14
  2 1912.83 0.00000 -1.53343e-14
  3 1912.83 0.00000 3.79720e-14
  4 1912.83 0.00000 4.76220e-14
  5 1912.83 0.00000 5.35300e-14
  6 1912.83 0.00000 3.07903e-14
  7 1912.83 0.00000 1.81087e-13
  8 1912.83 0.00000 9.96637e-14
</Section>

newXOutput 91

<Section columns = "stress_xx | stress_yy | stress_xy">
  1 1937.33 0.00000 4.92579e-14
  2 1937.33 0.00000 6.44012e-14
  3 1937.33 0.00000 9.82569e-14
  4 1937.33 0.00000 1.10194e-13
  5 1937.33 0.00000 4.37324e-13
  6 1937.33 0.00000 4.24125e-13
  7 1937.33 0.00000 -1.44035e-13
  8 1937.33 0.00000 -1.52448e-13
</Section>

newXOutput 92

<Section columns = "stress_xx | stress_yy | stress_xy">
  1 1961.86 0.00000 -3.00808e-14
  2 1961.86 0.00000 -1.66041e-14
  3 1961.86 0.00000 -5.98084e-14
  4 1961.86 0.00000 -4.70070e-14
  5 1961.86 0.00000 -2.59615e-13
  6 1961.86 0.00000 -2.72214e-13
  7 1961.86 0.00000 -3.27935e-13
  8 1961.86 0.00000 -3.38555e-13
</Section>

newXOutput 93

<Section columns = "stress_xx | stress_yy | stress_xy">
  1 1986.42 0.00000 2.94549e-14
  2 1986.42 0.00000 -1.77698e-14
  3 1986.42 0.00000 6.24633e-14
  4 1986.42 0.00000 4.31885e-14
  5 1986.42 0.00000 6.30571e-13
  6 1986.42 0.00000 6.37054e-13
  7 1986.42 0.00000 4.26537e-14
  8 1986.42 0.00000 2.11429e-14
</Section>

newXOutput 94

<Section columns = "stress_xx | stress_yy | stress_xy">
  1 2011.00 0.00000 -1.49163e-13
  2 2011.00 0.00000 -1.44097e-13
  3 2011.00 0.00000 1.97030e-13
  4 2011.00 0.00000 2.08006e-13
  5 2011.00 0.00000 -1.03219e-14
  6 2011.00 0.00000 -1.00090e-14
  7 2011.00 0.00000 1.56821e-13
  8 2011.00 0.00000 8.69100e-14
</Section>

newXOutput 95

<Section columns = "stress_xx | stress_yy | stress_xy">
  1 2035.61 0.00000 -6.92823e-15
  2 2035.61 0.00000 -1.85641e-15
  3 2035.61 0.00000 -8.50489e-14
  4 2035.61 0.00000 -7.24455e-14
  5 2035.61 0.00000 -3.80056e-13
  6 2035.61 0.00000 -3.78166e-13
  7 2035.61 0.00000 -3.84730e-13
  8 2035.61 0.00000 -4.55007e-13
</Section>

newXOutput 96

<Section columns = "stress_xx | stress_yy | stress_xy">
  1 2060.25 0.00000 4.83890e-14
  2 2060.25 0.00000 4.38124e-15
  3 2060.25 0.00000 3.14008e-14
  4 2060.25 0.00000 -5.30290e-15
  5 2060.25 0.00000 -6.79582e-14
  6 2060.25 0.00000 -9.73847e-14
  7 2060.25 0.00000 -2.52626e-13
  8 2060.25 0.00000 -3.09324e-13
</Section>

newXOutput 97

<Section columns = "stress_xx | stress_yy | stress_xy">
  1 2084.91 0.00000 -1.75704e-14
  2 2084.91 0.00000 -7.45182e-14
  3 2084.91 0.00000 -3.06442e-13
  4 2084.91 0.00000 -3.17457e-13
  5 2084.91 0.00000 2.61246e-13
  6 2084.91 0.00000 3.07728e-13
  7 2084.91 0.00000 3.09917e-13
  8 2084.91 0.00000 3.14980e-13
</Section>

newXOutput 98

<Section columns = "stress_xx | stress_yy | stress_xy">
  1 2109.60 0.00000 3.21139e-14
  2 2109.60 0.00000 -8.60488e-15
  3 2109.60 0.00000 1.33230e-13
  4 2109.60 0.00000 1.13087e-13
  5 2109.60 0.00000 -3.38062e-13
  6 2109.60 0.00000 -3.26124e-13
  7 2109.60 0.00000 -5.30233e-13
  8 2109.60 0.00000 -4.80164e-13
</Section>

newXOutput 99

<Section columns = "stress_xx | stress_yy | stress_xy">
  1 2134.32 0.00000 -1.35889e-14
  2 2134.32 0.00000 1.35889e-14
  3 2134.32 0.00000 -3.43865e-14
  4 2134.32 0.00000 -5.33373e-15
  5 2134.32 0.00000 -4.33536e-13
  6 2134.32 0.00000 -4.38456e-13
  7 2134.32 0.00000 -2.55648e-13
  8 2134.32 0.00000 -2.96415e-13
</Section>

newXOutput 100

<Section columns = "stress_xx | stress_yy | stress_xy">
  1 2159.07 0.00000 5.20968e-14
  2 2159.07 0.00000 -5.50423e-14
  3 2159.07 0.00000 -7.12809e-14
  4 2159.07 0.00000 -1.26889e-13
  5 2159.07 0.00000 1.60578e-13
  6 2159.07 0.00000 1.97446e-13
  7 2159.07 0.00000 -1.96837e-13
  8 2159.07 0.00000 -1.72228e-13
</Section>

newXOutput 101

<Section columns = "stress_xx | stress_yy | stress_xy">
  1 2183.85 0.00000 6.60367e-15
  2 2183.85 0.00000 -8.71994e-15
  3 2183.85 0.00000 3.73613e-13
  4 2183.85 0.00000 3.83219e-13
  5 2183.85 0.00000 -2.15188e-13
  6 2183.85 0.00000 -1.87378e-13
  7 2183.85 0.00000 -2.81130e-13
  8 2183.85 0.00000 -2.33457e-13
</Section>

newXOutput 102

<Section columns = "stress_xx | stress_yy | stress_xy">
  1 2208.65 0.00000 6.97699e-14
  2 2208.65 0.00000 2.88589e-14
  3 2208.65 0.00000 -4.29225e-13
  4 2208.65 0.00000 -4.53692e-13
  5 2208.65 0.00000 -3.25878e-13
  6 2208.65 0.00000 -3.45342e-13
  7 2208.65 0.00000 -3.82017e-13
  8 2208.65 0.00000 -4.40092e-13
</Section>

newXOutput 103

<Section columns = "stress_xx | stress_yy | stress_xy">
  1 2233.48 0.00000 -4.82811e-14
  2 2233.48 0.00000 -9.09468e-14
  3 2233.48 0.00000 -6.16856e-14
  4 2233.48 0.00000 -7.36320e-14
  5 2233.48 0.00000 1.58356e-13
  6 2233.48 0.00000 1.91808e-13
  7 2233.48 0.00000 -2.33036e-14
  8 2233.48 0.00000 2.48265e-14
</Section>

newXOutput 104

<Section columns = "stress_xx | stress_yy | stress_xy">
  1 2258.34 0.00000 -5.51245e-14
  2 2258.34 0.00000 -9.27144e-14
  3 2258.34 0.00000 -2.30387e-13
  4 2258.34 0.00000 -2.09188e-13
  5 2258.34 0.00000 -3.49426e-13
  6 2258.34 0.00000 -2.09946e-13
  7 2258.34 0.00000 -1.02260e-13
  8 2258.34 0.00000 -1.41058e-13
</Section>

newXOutput 105

<Section columns = "stress_xx | stress_yy | stress_xy">
  1 2283.23 0.00000 -4.87367e-14
  2 2283.23 0.00000 4.29304e-15
  3 2283.23 0.00000 -2.99296e-13
  4 2283.23 0.00000 -2.60998e-13
  5 2283.23 0.00000 1.51647e-14
  6 2283.23 0.00000 -3.14017e-15
  7 2283.23 0.00000 -2.60404e-13
  8 2283.23 0.00000 -3.48302e-13
</Section>

newXOutput 106

<Section columns = "stress_xx | stress_yy | stress_xy">
  1 2308.14 0.00000 -1.26220e-13
  2 2308.14 0.00000 -1.84450e-13
  3 2308.14 0.00000 1.40281e-13
  4 2308.14 0.00000 1.39726e-13
  5 2308.14 0.00000 7.85236e-14
  6 2308.14 0.00000 2.63078e-13
  7 2308.14 0.00000 -1.78886e-13
  8 2308.14 0.00000 8.12375e-14
</Section>

newXOutput 107

<Section columns = "stress_xx | stress_yy | stress_xy">
  1 2333.09 0.00000 2.84433e-14
  2 2333.09 0.00000 2.50140e-14
  3 2333.09 0.00000 -7.30336e-15
  4 2333.09 0.00000 -1.52923e-16
  5 2333.09 0.00000 3.43255e-15
  6 2333.09 0.00000 4.99689e-14
  7 2333.09 0.00000 -3.22760e-13
  8 2333.09 0.00000 -8.21657e-15
</Section>

newXOutput 108

<Section columns = "stress_xx | stress_yy | stress_xy">
  1 2358.06 0.00000 -6.72637e-14
  2 2358.06 0.00000 -8.44302e-14
  3 2358.06 0.00000 2.25724e-13
  4 2358.06 0.00000 2.01133e-13
  5 2358.06 0.00000 -1.01132e-13
  6 2358.06 0.00000 -1.45239e-13
  7 2358.06 0.00000 -1.29897e-13
  8 2358.06 0.00000 -2.12594e-13
</Section>

newXOutput 109

<Section columns = "stress_xx | stress_yy | stress_xy">
  1 2383.06 0.00000 6.72768e-14
  2 2383.06 0.00000 3.46225e-14
  3 2383.06 0.00000 1.92872e-13
  4 2383.06 0.00000 1.88024e-13
  5 2383.06 0.00000 -2.21860e-15
  6 2383.06 0.00000 8.25984e-14
  7 2383.06 0.00000 -3.18563e-13
  8 2383.06 0.00000 2.27184e-13
</Section>

newXOutput 110

<Section columns = "stress_xx | stress_yy | stress_xy">
  1 2408.09 0.00000 -8.26539e-15
  2 2408.09 0.00000 -3.61263e-14
  3 2408.09 0.00000 4.11240e-14
  4 2408.09 0.00000 6.73475e-14
  5 2408.09 0.00000 -5.84556e-14
  6 2408.09 0.00000 6.43975e-14
  7 2408.09 0.00000 2.13423e-13
  8 2408.09 0.00000 1.39375e-13
</Section>

newXOutput 111

<Section columns = "stress_xx | stress_yy | stress_xy">
  1 2433.15 0.00000 -7.54914e-14
  2 2433.15 0.00000 -3.41477e-14
  3 2433.15 0.00000 9.32582e-14
  4 2433.15 0.00000 1.54827e-13
  5 2433.15 0.00000 -4.00029e-13
  6 2433.15 0.00000 -3.03579e-13
  7 2433.15 0.00000 1.81488e-13
  8 2433.15 0.00000 5.32629e-14
</Section>

newXOutput 112

<Section columns = "stress_xx | stress_yy | stress_xy">
  1 2458.23 0.00000 1.78189e-13
  2 2458.23 0.00000 1.19550e-13
  3 2458.23 0.00000 2.87485e-13
  4 2458.23 0.00000 2.27456e-13
  5 2458.23 0.00000 -7.02391e-14
  6 2458.23 0.00000 -1.23854e-13
  7 2458.23 0.00000 -5.92749e-13
  8 2458.23 0.00000 -6.65005e-13
</Section>

newXOutput 113

<Section columns = "stress_xx | stress_yy | stress_xy">
  1 2483.35 0.00000 -2.33460e-13
  2 2483.35 0.00000 -2.26553e-13
  3 2483.35 0.00000 -5.04545e-13
  4 2483.35 0.00000 -4.94482e-13
  5 2483.35 0.00000 1.65276e-13
  6 2483.35 0.00000 2.35246e-13
  7 2483.35 0.00000 -1.83885e-13
  8 2483.35 0.00000 3.12920e-13
</Section>

newXOutput 114

<Section columns = "stress_xx | stress_yy | stress_xy">
  1 2508.49 0.00000 -6.05941e-14
  2 2508.49 0.00000 -7.44234e-14
  3 2508.49 0.00000 1.99992e-13
  4 2508.49 0.00000 1.64744e-13
  5 2508.49 0.00000 3.30824e-13
  6 2508.49 0.00000 2.51733e-13
  7 2508.49 0.00000 2.83517e-13
  8 2508.49 0.00000 1.54397e-13
</Section>

newXOutput 115

<Section columns = "stress_xx | stress_yy | stress_xy">
  1 2533.67 0.00000 3.79193e-14
  2 2533.67 0.00000 1.71513e-14
  3 2533.67 0.00000 1.83268e-13
  4 2533.67 0.00000 1.66321e-13
  5 2533.67 0.00000 -3.66186e-13
  6 2533.67 0.00000 -3.84224e-13
  7 2533.67 0.00000 -3.17412e-13
  8 2533.67 0.00000 -3.13950e-13
</Section>

newXOutput 116

<Section columns = "stress_xx | stress_yy | stress_xy">
  1 2558.87 0.00000 3.09393e-14
  2 2558.87 0.00000 1.70779e-14
  3 2558.87 0.00000 -1.39443e-14
  4 2558.87 0.00000 -2.57057e-14
  5 2558.87 0.00000 6.05656e-14
  6 2558.87 0.00000 2.94101e-14
  7 2558.87 0.00000 2.16016e-13
  8 2558.87 0.00000 1.36971e-13
</Section>

newXOutput 117

<Section columns = "stress_xx | stress_yy | stress_xy">
  1 2584.10 0.00000 -1.83396e-13
  2 2584.10 0.00000 -1.69519e-13
  3 2584.10 0.00000 5.12927e-14
  4 2584.10 0.00000 8.11578e-14
  5 2584.10 0.00000 -4.51209e-14
  6 2584.10 0.00000 5.51737e-14
  7 2584.10 0.00000 -3.54000e-13
  8 2584.10 0.00000 2.52795e-13
</Section>

newXOutput 118

<Section columns = "stress_xx | stress_yy | stress_xy">
  1 2609.36 0.00000 8.81415e-15
  2 2609.36 0.00000 -3.94162e-14
  3 2609.36 0.00000 -6.74167e-14
  4 2609.36 0.00000 -9.14729e-14
  5 2609.36 0.00000 -3.32103e-13
  6 2609.36 0.00000 -2.81485e-13
  7 2609.36 0.00000 -3.76097e-13
  8 2609.36 0.00000 1.25303e-13
</Section>

newXOutput 119

<Section columns = "stress_xx | stress_yy | stress_xy">
  1 2634.65 0.00000 -7.18548e-14
  2 2634.65 0.00000 -9.61963e-14
  3 2634.65 0.00000 -4.09601e-13
  4 2634.65 0.00000 -4.21379e-13
  5 2634.65 0.00000 -1.73298e-13
  6 2634.65 0.00000 -2.00947e-13
  7 2634.65 0.00000 1.60798e-13
  8 2634.65 0.00000 7.83586e-14
</Section>

newXOutput 120

<Section columns = "stress_xx | stress_yy | stress_xy">
  1 2659.97 0.00000 -2.02616e-13
  2 2659.97 0.00000 -1.84183e-13
  3 2659.97 0.00000 -2.18598e-13
  4 2659.97 0.00000 -1.95055e-13
  5 2659.97 0.00000 -3.50195e-13
  6 2659.97 0.00000 -3.69127e-13
  7 2659.97 0.00000 -7.45120e-13
  8 2659.97 0.00000 -8.37980e-13
</Section>

newXOutput 121

<Section columns = "stress_xx | stress_yy | stress_xy">
  1 2685.32 0.00000 1.57477e-13
  2 2685.32 0.00000 1.33079e-13
  3 2685.32 0.00000 6.18468e-13
  4 2685.32 0.00000 6.03193e-13
  5 2685.32 0.00000 4.47058e-13
  6 2685.32 0.00000 4.26306e-13
  7 2685.32 0.00000 5.58084e-13
  8 2685.32 0.00000 5.49062e-13
</Section>

newXOutput 122

<Section columns = "stress_xx | stress_yy | stress_xy">
  1 2710.70 0.00000 -2.78799e-14
  2 2710.70 0.00000 -4.88161e-14
  3 2710.70 0.00000 -1.99928e-13
  4 2710.70 0.00000 -2.09978e-13
  5 2710.70 0.00000 -3.97276e-13
  6 2710.70 0.00000 -4.28373e-13
  7 2710.70 0.00000 -3.38993e-13
  8 2710.70 0.00000 -4.28340e-13
</Section>

newXOutput 123

<Section columns = "stress_xx | stress_yy | stress_xy">
  1 2736.10 0.00000 3.24712e-14
  2 2736.10 0.00000 4.99382e-14
  3 2736.10 0.00000 3.21228e-13
  4 2736.10 0.00000 3.33881e-13
  5 2736.10 0.00000 1.55432e-13
  6 2736.10 0.00000 1.08320e-13
  7 2736.10 0.00000 -3.58410e-13
  8 2736.10 0.00000 -4.86777e-13
</Section>

newXOutput 124

<Section columns = "stress_xx | stress_yy | stress_xy">
  1 2761.54 0.00000 -1.43326e-14
  2 2761.54 0.00000 -3.84040e-15
  3 2761.54 0.00000 -1.89492e-13
  4 2761.54 0.00000 -1.72005e-13
  5 2761.54 0.00000 1.24932e-13
  6 2761.54 0.00000 1.09761e-13
  7 2761.54 0.00000 5.02144e-13
  8 2761.54 0.00000 3.94738e-13
</Section>

newXOutput 125

<Section columns = "stress_xx | stress_yy | stress_xy">
  1 2787.01 0.00000 6.32091e-14
  2 2787.01 0.00000 7.02119e-14
  3 2787.01 0.00000 -5.92548e-14
  4 2787.01 0.00000 -5.39933e-14
  5 2787.01 0.00000 -7.14200e-13
  6 2787.01 0.00000 -7.45134e-13
  7 2787.01 0.00000 -9.34783e-13
  8 2787.01 0.00000 -1.02408e-12
</Section>

newXOutput 126

<Section columns = "stress_xx | stress_yy | stress_xy">
  1 2812.51 0.00000 -8.55060e-14
  2 2812.51 0.00000 -1.09398e-13
  3 2812.51 0.00000 -1.08367e-13
  4 2812.51 0.00000 -1.23071e-13
  5 2812.51 0.00000 7.75202e-13
  6 2812.51 0.00000 7.59919e-13
  7 2812.51 0.00000 -3.59775e-13
  8 2812.51 0.00000 -4.10498e-13
</Section>

newXOutput 127

<Section columns = "stress_xx | stress_yy | stress_xy">
  1 2838.03 0.00000 9.04272e-15
  2 2838.03 0.00000 5.11556e-14
  3 2838.03 0.00000 4.63405e-13
  4 2838.03 0.00000 4.89726e-13
  5 2838.03 0.00000 8.77529e-13
  6 2838.03 0.00000 8.47809e-13
  7 2838.03 0.00000 1.74932e-13
  8 2838.03 0.00000 5.12780e-14
</Section>

newXOutput 128

<Section columns = "stress_xx | stress_yy | stress_xy">
  1 2863.59 0.00000 -1.11420e-13
  2 2863.59 0.00000 -8.33129e-14
  3 2863.59 0.00000 -2.80681e-13
  4 2863.59 0.00000 -2.56088e-13
  5 2863.59 0.00000 -3.15866e-13
  6 2863.59 0.00000 -3.23574e-13
  7 2863.59 0.00000 1.63430e-13
  8 2863.59 0.00000 7.68269e-14
</Section>

newXOutput 129

<Section columns = "stress_xx | stress_yy | stress_xy">
  1 2889.18 0.00000 8.35814e-14
  2 2889.18 0.00000 2.73027e-14
  3 2889.18 0.00000 1.01496e-13
  4 2889.18 0.00000 7.91097e-14
  5 2889.18 0.00000 -5.66677e-14
  6 2889.18 0.00000 -4.19691e-14
  7 2889.18 0.00000 -1.52348e-14
  8 2889.18 0.00000 -2.35678e-14
</Section>

newXOutput 130

<Section columns = "stress_xx | stress_yy | stress_xy">
  1 2914.80 0.00000 2.67767e-14
  2 2914.80 0.00000 6.55123e-14
  3 2914.80 0.00000 1.01896e-13
  4 2914.80 0.00000 1.27031e-13
  5 2914.80 0.00000 -5.26071e-14
  6 2914.80 0.00000 -7.67988e-14
  7 2914.80 0.00000 -4.28453e-13
  8 2914.80 0.00000 -5.15767e-13
</Section>

newXOutput 131

<Section columns = "stress_xx | stress_yy | stress_xy">
  1 2940.44 0.00000 -3.96829e-14
  2 2940.44 0.00000 -2.91066e-14
  3 2940.44 0.00000 1.81006e-13
  4 2940.44 0.00000 1.97364e-13
  5 2940.44 0.00000 -2.12627e-13
  6 2940.44 0.00000 -2.37451e-13
  7 2940.44 0.00000 -5.20641e-13
  8 2940.44 0.00000 -6.23364e-13
</Section>

newXOutput 132

<Section columns = "stress_xx | stress_yy | stress_xy">
  1 2966.12 0.00000 6.49922e-14
  2 2966.12 0.00000 1.29560e-14
  3 2966.12 0.00000 -1.98736e-13
  4 2966.12 0.00000 -2.43664e-13
  5 2966.12 0.00000 5.83965e-13
  6 2966.12 0.00000 5.51963e-13
  7 2966.12 0.00000 5.88662e-13
  8 2966.12 0.00000 5.88662e-13
</Section>

newXOutput 133

<Section columns = "stress_xx | stress_yy | stress_xy">
  1 2991.83 0.00000 -4.69243e-13
  2 2991.83 0.00000 -4.51576e-13
  3 2991.83 0.00000 1.99375e-13
  4 2991.83 0.00000 2.22853e-13
  5 2991.83 0.00000 -3.62004e-13
  6 2991.83 0.00000 -3.59208e-13
  7 2991.83 0.00000 -7.35785e-13
  8 2991.83 0.00000 -7.84467e-13
</Section>

newXOutput 134

<Section columns = "stress_xx | stress_yy | stress_xy">
  1 3017.57 0.00000 1.42789e-13
  2 3017.57 0.00000 1.96415e-13
  3 3017.57 0.00000 1.45519e-13
  4 3017.57 0.00000 1.77941e-13
  5 3017.57 0.00000 1.52883e-13
  6 3017.57 0.00000 1.15790e-13
  7 3017.57 0.00000 5.58182e-13
  8 3017.57 0.00000 4.47806e-13
</Section>

newXOutput 135

<Section columns = "stress_xx | stress_yy | stress_xy">
  1 3043.34 0.00000 7.39551e-14
  2 3043.34 0.00000 9.16624e-14
  3 3043.34 0.00000 -1.14840e-13
  4 3043.34 0.00000 -8.88056e-14
  5 3043.34 0.00000 -6.23487e-13
  6 3043.34 0.00000 -5.34678e-13
  7 3043.34 0.00000 -7.53779e-13
  8 3043.34 0.00000 -8.51742e-13
</Section>

newXOutput 136

<Section columns = "stress_xx | stress_yy | stress_xy">
  1 3069.14 0.00000 -4.13287e-14
  2 3069.14 0.00000 -1.65105e-14
  3 3069.14 0.00000 3.18497e-13
  4 3069.14 0.00000 3.20269e-13
  5 3069.14 0.00000 3.34532e-13
  6 3069.14 0.00000 3.14331e-13
  7 3069.14 0.00000 -4.00720e-13
  8 3069.14 0.00000 -4.72111e-13
</Section>

newXOutput 137

<Section columns = "stress_xx | stress_yy | stress_xy">
  1 3094.97 0.00000 -2.93104e-14
  2 3094.97 0.00000 -1.15631e-14
  3 3094.97 0.00000 -2.59017e-13
  4 3094.97 0.00000 -2.50348e-13
  5 3094.97 0.00000 -3.48958e-14
  6 3094.97 0.00000 -5.70328e-14
  7 3094.97 0.00000 4.77831e-13
  8 3094.97 0.00000 4.60083e-13
</Section>

newXOutput 138

<Section columns = "stress_xx | stress_yy | stress_xy">
  1 3120.83 0.00000 -9.69520e-14
  2 3120.83 0.00000 -1.11166e-13
  3 3120.83 0.00000 -1.13166e-13
  4 3120.83 0.00000 -1.07283e-13
  5 3120.83 0.00000 -2.50867e-13
  6 3120.83 0.00000 -2.23822e-13
  7 3120.83 0.00000 -7.03801e-13
  8 3120.83 0.00000 -7.05348e-13
</Section>

newXOutput 139

<Section columns = "stress_xx | stress_yy | stress_xy">
  1 3146.73 0.00000 -1.76299e-14
  2 3146.73 0.00000 3.47708e-14
  3 3146.73 0.00000 5.51298e-14
  4 3146.73 0.00000 8.72278e-14
  5 3146.73 0.00000 2.57526e-13
  6 3146.73 0.00000 2.42607e-13
  7 3146.73 0.00000 3.77612e-13
  8 3146.73 0.00000 3.09890e-13
</Section>

newXOutput 140

<Section columns = "stress_xx | stress_yy | stress_xy">
  1 3172.65 0.00000 4.51188e-14
  2 3172.65 0.00000 1.05664e-13
  3 3172.65 0.00000 1.08843e-13
  4 3172.65 0.00000 1.55713e-13
  5 3172.65 0.00000 -2.13813e-13
  6 3172.65 0.00000 -2.18019e-13
  7 3172.65 0.00000 -3.36692e-13
  8 3172.65 0.00000 -4.04373e-13
</Section>

newXOutput 141

<Section columns = "stress_xx | stress_yy | stress_xy">
  1 3198.61 0.00000 -2.99227e-14
  2 3198.61 0.00000 -4.41847e-14
  3 3198.61 0.00000 -1.12818e-13
  4 3198.61 0.00000 -1.26502e-13
  5 3198.61 0.00000 -1.10885e-13
  6 3198.61 0.00000 -1.40008e-13
  7 3198.61 0.00000 -3.51592e-13
  8 3198.61 0.00000 -4.22797e-13
</Section>

newXOutput 142

<Section columns = "stress_xx | stress_yy | stress_xy">
  1 3224.60 0.00000 -1.98542e-14
  2 3224.60 0.00000 -2.34237e-14
  3 3224.60 0.00000 9.08391e-14
  4 3224.60 0.00000 7.53632e-14
  5 3224.60 0.00000 4.37861e-13
  6 3224.60 0.00000 4.93645e-13
  7 3224.60 0.00000 1.35694e-14
  8 3224.60 0.00000 6.00094e-13
</Section>

newXOutput 143

<Section columns = "stress_xx | stress_yy | stress_xy">
  1 3250.62 0.00000 1.64131e-14
  2 3250.62 0.00000 1.59026e-15
  3 3250.62 0.00000 -3.48251e-13
  4 3250.62 0.00000 -3.58641e-13
  5 3250.62 0.00000 1.06290e-13
  6 3250.62 0.00000 1.59656e-13
  7 3250.62 0.00000 -7.09049e-13
  8 3250.62 0.00000 -2.01088e-13
</Section>

newXOutput 144

<Section columns = "stress_xx | stress_yy | stress_xy">
  1 3276.67 0.00000 -6.55095e-14
  2 3276.67 0.00000 -3.79823e-14
  3 3276.67 0.00000 3.73373e-13
  4 3276.67 0.00000 3.82967e-13
  5 3276.67 0.00000 -6.64372e-13
  6 3276.67 0.00000 -7.23914e-13
  7 3276.67 0.00000 -1.41897e-13
  8 3276.67 0.00000 -2.76293e-13
</Section>

newXOutput 145

<Section columns = "stress_xx | stress_yy | stress_xy">
  1 3302.75 0.00000 5.16286e-14
  2 3302.75 0.00000 8.02807e-14
  3 3302.75 0.00000 6.79363e-14
  4 3302.75 0.00000 1.10915e-13
  5 3302.75 0.00000 -6.92364e-13
  6 3302.75 0.00000 -6.80395e-13
  7 3302.75 0.00000 -3.47457e-13
  8 3302.75 0.00000 -4.32840e-13
</Section>

newXOutput 146

<Section columns = "stress_xx | stress_yy | stress_xy">
  1 3328.86 0.00000 5.60123e-15
  2 3328.86 0.00000 3.78709e-14
  3 3328.86 0.00000 -4.16419e-14
  4 3328.86 0.00000 -1.41296e-14
  5 3328.86 0.00000 8.11164e-15
  6 3328.86 0.00000 -1.01940e-14
  7 3328.86 0.00000 -3.94788e-14
  8 3328.86 0.00000 -1.24840e-13
</Section>

newXOutput 147

<Section columns = "stress_xx | stress_yy | stress_xy">
  1 3355.01 0.00000 5.39373e-14
  2 3355.01 0.00000 1.44525e-14
  3 3355.01 0.00000 5.14924e-14
  4 3355.01 0.00000 1.08422e-14
  5 3355.01 0.00000 -5.92958e-14
  6 3355.01 0.00000 -9.15017e-14
  7 3355.01 0.00000 -6.81542e-13
  8 3355.01 0.00000 -7.27751e-13
</Section>

newXOutput 148

<Section columns = "stress_xx | stress_yy | stress_xy">
  1 3381.19 0.00000 -8.31444e-14
  2 3381.19 0.00000 -7.95508e-14
  3 3381.19 0.00000 7.83005e-14
  4 3381.19 0.00000 7.53449e-14
  5 3381.19 0.00000 1.30662e-13
  6 3381.19 0.00000 9.98275e-14
  7 3381.19 0.00000 4.65941e-13
  8 3381.19 0.00000 3.87811e-13
</Section>

newXOutput 149

<Section columns = "stress_xx | stress_yy | stress_xy">
  1 3407.40 0.00000 -2.37012e-14
  2 3407.40 0.00000 -1.29085e-14
  3 3407.40 0.00000 2.28968e-13
  4 3407.40 0.00000 2.26017e-13
  5 3407.40 0.00000 1.80279e-14
  6 3407.40 0.00000 -5.60076e-15
  7 3407.40 0.00000 -9.54598e-14
  8 3407.40 0.00000 -1.51976e-13
</Section>

newXOutput 150

<Section columns = "stress_xx | stress_yy | stress_xy">
  1 3433.64 0.00000 3.12850e-14
  2 3433.64 0.00000 9.97144e-14
  3 3433.64 0.00000 -1.08177e-13
  4 3433.64 0.00000 -8.23109e-14
  5 3433.64 0.00000 -3.30517e-13
  6 3433.64 0.00000 -3.88776e-13
  7 3433.64 0.00000 -5.54442e-13
  8 3433.64 0.00000 -6.82569e-13
</Section>

newXOutput 151

<Section columns = "stress_xx | stress_yy | stress_xy">
  1 3459.91 0.00000 1.04492e-13
  2 3459.91 0.00000 8.28584e-14
  3 3459.91 0.00000 1.34772e-13
  4 3459.91 0.00000 9.39397e-14
  5 3459.91 0.00000 -5.39408e-13
  6 3459.91 0.00000 -5.95137e-13
  7 3459.91 0.00000 -3.14227e-13
  8 3459.91 0.00000 -3.92766e-13
</Section>

newXOutput 152

<Section columns = "stress_xx | stress_yy | stress_xy">
  1 3486.22 0.00000 -3.94460e-14
  2 3486.22 0.00000 -1.05695e-14
  3 3486.22 0.00000 -4.03529e-13
  4 3486.22 0.00000 -4.05558e-13
  5 3486.22 0.00000 -9.95254e-13
  6 3486.22 0.00000 -1.03774e-12
  7 3486.22 0.00000 -6.14319e-13
  8 3486.22 0.00000 -6.88722e-13
</Section>

newXOutput 153

<Section columns = "stress_xx | stress_yy | stress_xy">
  1 3512.56 0.00000 1.09541e-13
  2 3512.56 0.00000 1.52319e-13
  3 3512.56 0.00000 2.42800e-13
  4 3512.56 0.00000 2.72097e-13
  5 3512.56 0.00000 3.07899e-13
  6 3512.56 0.00000 3.23443e-13
  7 3512.56 0.00000 -4.96958e-13
  8 3512.56 0.00000 -5.11135e-13
</Section>

newXOutput 154

<Section columns = "stress_xx | stress_yy | stress_xy">
  1 3538.93 0.00000 4.48301e-14
  2 3538.93 0.00000 3.03598e-14
  3 3538.93 0.00000 7.75815e-14
  4 3538.93 0.00000 4.54701e-14
  5 3538.93 0.00000 8.97104e-14
  6 3538.93 0.00000 8.35047e-14
  7 3538.93 0.00000 1.04013e-13
  8 3538.93 0.00000 1.14285e-13
</Section>

newXOutput 155

<Section columns = "stress_xx | stress_yy | stress_xy">
  1 3565.33 0.00000 9.53915e-15
  2 3565.33 0.00000 -1.58119e-14
  3 3565.33 0.00000 -1.69689e-14
  4 3565.33 0.00000 -4.09245e-14
  5 3565.33 0.00000 6.68772e-14
  6 3565.33 0.00000 4.66815e-14
  7 3565.33 0.00000 -4.10253e-13
  8 3565.33 0.00000 -4.30452e-13
</Section>

newXOutput 156

<Section columns = "stress_xx | stress_yy | stress_xy">
  1 3591.77 0.00000 -1.49922e-13
  2 3591.77 0.00000 -1.71676e-13
  3 3591.77 0.00000 -2.53469e-13
  4 3591.77 0.00000 -2.63640e-13
  5 3591.77 0.00000 -3.51453e-14
  6 3591.77 0.00000 -3.42989e-15
  7 3591.77 0.00000 -3.54693e-13
  8 3591.77 0.00000 -3.20900e-13
</Section>

newXOutput 157

<Section columns = "stress_xx | stress_yy | stress_xy">
  1 3618.24 0.00000 -1.13401e-14
  2 3618.24 0.00000 -7.66728e-14
  3 3618.24 0.00000 -1.82923e-13
  4 3618.24 0.00000 -2.13059e-13
  5 3618.24 0.00000 -7.18479e-14
  6 3618.24 0.00000 -3.54005e-14
  7 3618.24 0.00000 -2.51224e-13
  8 3618.24 0.00000 -2.11600e-13
</Section>

newXOutput 158

<Section columns = "stress_xx | stress_yy | stress_xy">
  1 3644.74 0.00000 6.41703e-14
  2 3644.74 0.00000 -1.23450e-15
  3 3644.74 0.00000 2.61333e-13
  4 3644.74 0.00000 2.85338e-13
  5 3644.74 0.00000 1.99821e-13
  6 3644.74 0.00000 3.78610e-13
  7 3644.74 0.00000 -6.00808e-13
  8 3644.74 0.00000 -5.92653e-13
</Section>

newXOutput 159

<Section columns = "stress_xx | stress_yy | stress_xy">
  1 3671.28 0.00000 1.54214e-13
  2 3671.28 0.00000 9.66690e-14
  3 3671.28 0.00000 2.04139e-13
  4 3671.28 0.00000 1.87012e-13
  5 3671.28 0.00000 4.91533e-14
  6 3671.28 0.00000 1.76410e-13
  7 3671.28 0.00000 -5.59093e-13
  8 3671.28 0.00000 6.40852e-14
</Section>

newXOutput 160

<Section columns = "stress_xx | stress_yy | stress_xy">
  1 3697.84 0.00000 -9.85278e-14
  2 3697.84 0.00000 -1.49510e-13
  3 3697.84 0.00000 -5.28789e-13
  4 3697.84 0.00000 -5.30489e-13
  5 3697.84 0.00000 -3.90133e-13
  6 3697.84 0.00000 -3.53784e-13
  7 3697.84 0.00000 -3.16883e-13
  8 3697.84 0.00000 -2.91768e-13
</Section>

newXOutput 161

<Section columns = "stress_xx | stress_yy | stress_xy">
  1 3724.45 0.00000 2.58320e-14
  2 3724.45 0.00000 -5.11826e-14
  3 3724.45 0.00000 2.18665e-13
  4 3724.45 0.00000 2.03238e-13
  5 3724.45 0.00000 9.33445e-14
  6 3724.45 0.00000 1.41942e-13
  7 3724.45 0.00000 8.24981e-14
  8 3724.45 0.00000 1.07748e-13
</Section>

newXOutput 162

<Section columns = "stress_xx | stress_yy | stress_xy">
  1 3751.08 0.00000 6.97967e-14
  2 3751.08 0.00000 1.87020e-14
  3 3751.08 0.00000 -1.87952e-13
  4 3751.08 0.00000 -1.53453e-13
  5 3751.08 0.00000 -1.45647e-12
  6 3751.08 0.00000 -1.25093e-12
  7 3751.08 0.00000 -1.02311e-12
  8 3751.08 0.00000 -1.03513e-12
</Section>

newXOutput 163

<Section columns = "stress_xx | stress_yy | stress_xy">
  1 3777.75 0.00000 -6.74248e-14
  2 3777.75 0.00000 -1.13320e-13
  3 3777.75 0.00000 -1.53894e-14
  4 3777.75 0.00000 1.01706e-15
  5 3777.75 0.00000 3.09019e-14
  6 3777.75 0.00000 1.29361e-13
  7 3777.75 0.00000 1.93985e-14
  8 3777.75 0.00000 1.10667e-13
</Section>

newXOutput 164

<Section columns = "stress_xx | stress_yy | stress_xy">
  1 3804.45 0.00000 1.82187e-13
  2 3804.45 0.00000 1.46772e-13
  3 3804.45 0.00000 -5.55522e-14
  4 3804.45 0.00000 -3.59082e-14
  5 3804.45 0.00000 5.45832e-14
  6 3804.45 0.00000 1.39943e-13
  7 3804.45 0.00000 -3.22894e-13
  8 3804.45 0.00000 -2.53804e-13
</Section>

newXOutput 165

<Section columns = "stress_xx | stress_yy | stress_xy">
  1 3831.19 0.00000 -9.64725e-14
  2 3831.19 0.00000 -1.00134e-13
  3 3831.19 0.00000 3.41355e-14
  4 3831.19 0.00000 4.81754e-14
  5 3831.19 0.00000 1.23127e-13
  6 3831.19 0.00000 1.53332e-13
  7 3831.19 0.00000 7.20937e-14
  8 3831.19 0.00000 7.50307e-14
</Section>

newXOutput 166

<Section columns = "stress_xx | stress_yy | stress_xy">
  1 3857.96 0.00000 -1.10713e-13
  2 3857.96 0.00000 -1.10713e-13
  3 3857.96 0.00000 -2.93309e-13
  4 3857.96 0.00000 -2.25541e-13
  5 3857.96 0.00000 -3.68775e-13
  6 3857.96 0.00000 -1.00412e-13
  7 3857.96 0.00000 -8.27420e-13
  8 3857.96 0.00000 -2.40298e-13
</Section>

newXOutput 167

<Section columns = "stress_xx | stress_yy | stress_xy">
  1 3884.76 0.00000 -1.97616e-13
  2 3884.76 0.00000 -2.01285e-13
  3 3884.76 0.00000 -3.32293e-13
  4 3884.76 0.00000 -3.20267e-13
  5 3884.76 0.00000 1.11213e-15
  6 3884.76 0.00000 8.79468e-15
  7 3884.76 0.00000 -1.68414e-13
  8 3884.76 0.00000 -2.08841e-13
</Section>

newXOutput 168

<Section columns = "stress_xx | stress_yy | stress_xy">
  1 3911.60 0.00000 2.06379e-13
  2 3911.60 0.00000 1.11195e-13
  3 3911.60 0.00000 2.23037e-13
  4 3911.60 0.00000 1.55457e-13
  5 3911.60 0.00000 -2.77093e-13
  6 3911.60 0.00000 -2.10941e-13
  7 3911.60 0.00000 -7.00891e-13
  8 3911.60 0.00000 -1.36195e-13
</Section>

newXOutput 169

<Section columns = "stress_xx | stress_yy | stress_xy">
  1 3938.47 0.00000 -6.22781e-14
  2 3938.47 0.00000 -1.34630e-13
  3 3938.47 0.00000 -5.18202e-13
  4 3938.47 0.00000 -5.38849e-13
  5 3938.47 0.00000 -4.74951e-13
  6 3938.47 0.00000 -4.35526e-13
  7 3938.47 0.00000 -5.46331e-13
  8 3938.47 0.00000 -5.82663e-13
</Section>

newXOutput 170

<Section columns = "stress_xx | stress_yy | stress_xy">
  1 3965.38 0.00000 -2.13546e-13
  2 3965.38 0.00000 -2.79816e-13
  3 3965.38 0.00000 -1.56882e-13
  4 3965.38 0.00000 -1.67114e-13
  5 3965.38 0.00000 2.80892e-13
  6 3965.38 0.00000 4.06133e-13
  7 3965.38 0.00000 -3.71723e-13
  8 3965.38 0.00000 2.27310e-13
</Section>

newXOutput 171

<Section columns = "stress_xx | stress_yy | stress_xy">
  1 3992.32 0.00000 8.66748e-14
  2 3992.32 0.00000 7.93035e-14
  3 3992.32 0.00000 4.52979e-14
  4 3992.32 0.00000 4.69683e-14
  5 3992.32 0.00000 5.09445e-14
  6 3992.32 0.00000 4.15405e-14
  7 3992.32 0.00000 -7.97036e-14
  8 3992.32 0.00000 -1.09224e-13
</Section>

newXOutput 172

<Section columns = "stress_xx | stress_yy | stress_xy">
  1 4019.29 0.00000 7.63268e-14
  2 4019.29 0.00000 5.78784e-14
  3 4019.29 0.00000 2.91038e-14
  4 4019.29 0.00000 3.07915e-14
  5 4019.29 0.00000 -3.74503e-13
  6 4019.29 0.00000 -3.81999e-13
  7 4019.29 0.00000 -6.42101e-13
  8 4019.29 0.00000 -6.78917e-13
</Section>

newXOutput 173

<Section columns = "stress_xx | stress_yy | stress_xy">
  1 4046.30 0.00000 -5.40794e-15
  2 4046.30 0.00000 -2.01827e-14
  3 4046.30 0.00000 5.91428e-14
  4 4046.30 0.00000 6.96382e-14
  5 4046.30 0.00000 -1.71887e-13
  6 4046.30 0.00000 -1.59567e-13
  7 4046.30 0.00000 -6.18154e-13
  8 4046.30 0.00000 -6.54895e-13
</Section>

newXOutput 174

<Section columns = "stress_xx | stress_yy | stress_xy">
  1 4073.35 0.00000 -2.62925e-15
  2 4073.35 0.00000 -3.63131e-14
  3 4073.35 0.00000 -3.14729e-13
  4 4073.35 0.00000 -2.82032e-13
  5 4073.35 0.00000 -7.41648e-14
  6 4073.35 0.00000 -3.21722e-15
  7 4073.35 0.00000 -9.57760e-14
  8 4073.35 0.00000 -1.34499e-13
</Section>

newXOutput 175

<Section columns = "stress_xx | stress_yy | stress_xy">
  1 4100.43 0.00000 7.31849e-15
  2 4100.43 0.00000 -5.23094e-14
  3 4100.43 0.00000 -1.34078e-13
  4 4100.43 0.00000 -7.75403e-14
  5 4100.43 0.00000 -7.06192e-14
  6 4100.43 0.00000 2.37437e-13
  7 4100.43 0.00000 1.20578e-13
  8 4100.43 0.00000 1.52221e-13
</Section>

newXOutput 176

<Section columns = "stress_xx | stress_yy | stress_xy">
  1 4127.54 0.00000 -6.38872e-14
  2 4127.54 0.00000 -1.19869e-13
  3 4127.54 0.00000 -3.86746e-13
  4 4127.54 0.00000 -4.12980e-13
  5 4127.54 0.00000 -3.75152e-13
  6 4127.54 0.00000 -3.73124e-13
  7 4127.54 0.00000 -5.32031e-13
  8 4127.54 0.00000 -5.31489e-13
</Section>

newXOutput 177

<Section columns = "stress_xx | stress_yy | stress_xy">
  1 4154.69 0.00000 1.48389e-14
  2 4154.69 0.00000 -1.48389e-14
  3 4154.69 0.00000 -1.51897e-15
  4 4154.69 0.00000 8.14861e-14
  5 4154.69 0.00000 -3.93017e-14
  6 4154.69 0.00000 2.86978e-13
  7 4154.69 0.00000 1.02708e-13
  8 4154.69 0.00000 1.48275e-13
</Section>

newXOutput 178

<Section columns = "stress_xx | stress_yy | stress_xy">
  1 4181.88 0.00000 -9.16789e-14
  2 4181.88 0.00000 -4.34005e-14
  3 4181.88 0.00000 1.68493e-13
  4 4181.88 0.00000 2.17667e-13
  5 4181.88 0.00000 -4.95753e-14
  6 4181.88 0.00000 -2.10996e-14
  7 4181.88 0.00000 -2.68469e-13
  8 4181.88 0.00000 -2.89500e-13
</Section>

newXOutput 179

<Section columns = "stress_xx | stress_yy | stress_xy">
  1 4209.10 0.00000 -2.02758e-13
  2 4209.10 0.00000 -1.39172e-13
  3 4209.10 0.00000 -4.67120e-13
  4 4209.10 0.00000 -4.22607e-13
  5 4209.10 0.00000 1.00019e-12
  6 4209.10 0.00000 9.97351e-13
  7 4209.10 0.00000 7.50663e-13
  8 4209.10 0.00000 7.72970e-13
</Section>

newXOutput 180

<Section columns = "stress_xx | stress_yy | stress_xy">
  1 4236.35 0.00000 -1.13171e-13
  2 4236.35 0.00000 -1.09449e-13
  3 4236.35 0.00000 -2.95088e-14
  4 4236.35 0.00000 -6.79786e-15
  5 4236.35 0.00000 1.46393e-13
  6 4236.35 0.00000 1.97017e-13
  7 4236.35 0.00000 -1.10768e-12
  8 4236.35 0.00000 -1.04813e-12
</Section>

newXOutput 181

<Section columns = "stress_xx | stress_yy | stress_xy">
  1 4263.64 0.00000 -1.78791e-13
  2 4263.64 0.00000 -1.56436e-13
  3 4263.64 0.00000 -5.04874e-13
  4 4263.64 0.00000 -4.80657e-13
  5 4263.64 0.00000 -1.58393e-14
  6 4263.64 0.00000 1.95552e-14
  7 4263.64 0.00000 8.02810e-14
  8 4263.64 0.00000 1.24990e-13
</Section>

newXOutput 182

<Section columns = "stress_xx | stress_yy | stress_xy">
  1 4290.97 0.00000 5.49998e-15
  2 4290.97 0.00000 4.65272e-14
  3 4290.97 0.00000 -2.33334e-13
  4 4290.97 0.00000 -2.12638e-13
  5 4290.97 0.00000 -3.88728e-13
  6 4290.97 0.00000 -3.95383e-13
  7 4290.97 0.00000 -6.43877e-13
  8 4290.97 0.00000 -6.06580e-13
</Section>

newXOutput 183

<Section columns = "stress_xx | stress_yy | stress_xy">
  1 4318.33 0.00000 -4.73421e-15
  2 4318.33 0.00000 1.76683e-14
  3 4318.33 0.00000 6.48854e-14
  4 4318.33 0.00000 1.36380e-13
  5 4318.33 0.00000 -2.63788e-13
  6 4318.33 0.00000 -8.57141e-14
  7 4318.33 0.00000 -8.19647e-13
  8 4318.33 0.00000 -2.68954e-13
</Section>

newXOutput 184

<Section columns = "stress_xx | stress_yy | stress_xy">
  1 4345.73 0.00000 1.33984e-13
  2 4345.73 0.00000 7.38152e-14
  3 4345.73 0.00000 -1.26221e-13
  4 4345.73 0.00000 -1.40963e-13
  5 4345.73 0.00000 5.73315e-13
  6 4345.73 0.00000 6.17816e-13
  7 4345.73 0.00000 3.51607e-13
  8 4345.73 0.00000 3.59011e-13
</Section>

newXOutput 185

<Section columns = "stress_xx | stress_yy | stress_xy">
  1 4373.16 0.00000 -3.28473e-13
  2 4373.16 0.00000 -3.25453e-13
  3 4373.16 0.00000 1.72520e-13
  4 4373.16 0.00000 1.81376e-13
  5 4373.16 0.00000 6.00744e-14
  6 4373.16 0.00000 1.27216e-13
  7 4373.16 0.00000 -5.16729e-13
  8 4373.16 0.00000 -3.38404e-14
</Section>

newXOutput 186

<Section columns = "stress_xx | stress_yy | stress_xy">
  1 4400.63 0.00000 3.13660e-13
  2 4400.63 0.00000 3.43626e-13
  3 4400.63 0.00000 4.34829e-13
  4 4400.63 0.00000 4.61107e-13
  5 4400.63 0.00000 2.53146e-13
  6 4400.63 0.00000 2.92411e-13
  7 4400.63 0.00000 -2.77344e-13
  8 4400.63 0.00000 1.41686e-13
</Section>

newXOutput 187

<Section columns = "stress_xx | stress_yy | stress_xy">
  1 4428.14 0.00000 -8.78145e-14
  2 4428.14 0.00000 -6.15660e-14
  3 4428.14 0.00000 -8.89051e-14
  4 4428.14 0.00000 -7.38333e-14
  5 4428.14 0.00000 7.07296e-14
  6 4428.14 0.00000 3.01023e-14
  7 4428.14 0.00000 3.59193e-14
  8 4428.14 0.00000 -1.02425e-13
</Section>

newXOutput 188

<Section columns = "stress_xx | stress_yy | stress_xy">
  1 4455.68 0.00000 1.49634e-13
  2 4455.68 0.00000 1.83766e-13
  3 4455.68 0.00000 3.70108e-13
  4 4455.68 0.00000 4.19430e-13
  5 4455.68 0.00000 7.50694e-14
  6 4455.68 0.00000 1.05191e-13
  7 4455.68 0.00000 -3.90515e-13
  8 4455.68 0.00000 -4.98744e-13
</Section>

newXOutput 189

<Section columns = "stress_xx | stress_yy | stress_xy">
  1 4483.26 0.00000 -1.70809e-13
  2 4483.26 0.00000 -4.57681e-14
  3 4483.26 0.00000 -3.91288e-13
  4 4483.26 0.00000 -3.09979e-13
  5 4483.26 0.00000 -7.59727e-13
  6 4483.26 0.00000 -7.78570e-13
  7 4483.26 0.00000 -5.01962e-13
  8 4483.26 0.00000 -6.81129e-13
</Section>

newXOutput 190

<Section columns = "stress_xx | stress_yy | stress_xy">
  1 4510.88 0.00000 -1.94480e-14
  2 4510.88 0.00000 5.20261e-14
  3 4510.88 0.00000 2.60024e-13
  4 4510.88 0.00000 2.99982e-13
  5 4510.88 0.00000 2.11583e-13
  6 4510.88 0.00000 1.79388e-13
  7 4510.88 0.00000 -4.98727e-13
  8 4510.88 0.00000 -6.22297e-13
</Section>

newXOutput 191

<Section columns = "stress_xx | stress_yy | stress_xy">
  1 4538.53 0.00000 -2.09208e-13
  2 4538.53 0.00000 -1.33219e-13
  3 4538.53 0.00000 -5.48563e-13
  4 4538.53 0.00000 -4.97253e-13
  5 4538.53 0.00000 5.14887e-13
  6 4538.53 0.00000 5.04563e-13
  7 4538.53 0.00000 5.06383e-13
  8 4538.53 0.00000 5.09812e-13
</Section>

newXOutput 192

<Section columns = "stress_xx | stress_yy | stress_xy">
  1 4566.22 0.00000 -2.64727e-14
  2 4566.22 0.00000 -5.66311e-14
  3 4566.22 0.00000 1.93865e-13
  4 4566.22 0.00000 1.77067e-13
  5 4566.22 0.00000 -2.58014e-13
  6 4566.22 0.00000 -2.25305e-13
  7 4566.22 0.00000 -3.91260e-13
  8 4566.22 0.00000 -3.22406e-13
</Section>

newXOutput 193

<Section columns = "stress_xx | stress_yy | stress_xy">
  1 4593.95 0.00000 -1.60405e-13
  2 4593.95 0.00000 -1.49084e-13
  3 4593.95 0.00000 -3.04064e-13
  4 4593.95 0.00000 -2.81091e-13
  5 4593.95 0.00000 -1.11029e-13
  6 4593.95 0.00000 -3.73644e-15
  7 4593.95 0.00000 -3.56945e-13
  8 4593.95 0.00000 1.82294e-13
</Section>

newXOutput 194

<Section columns = "stress_xx | stress_yy | stress_xy">
  1 4621.71 0.00000 -4.79008e-15
  2 4621.71 0.00000 1.78768e-14
  3 4621.71 0.00000 6.57507e-14
  4 4621.71 0.00000 7.72648e-14
  5 4621.71 0.00000 1.39174e-13
  6 4621.71 0.00000 1.39250e-13
  7 4621.71 0.00000 -3.73668e-13
  8 4621.71 0.00000 -3.23258e-13
</Section>

newXOutput 195

<Section columns = "stress_xx | stress_yy | stress_xy">
  1 4649.51 0.00000 1.62400e-14
  2 4649.51 0.00000 4.27128e-14
  3 4649.51 0.00000 -1.31861e-13
  4 4649.51 0.00000 -1.16811e-13
  5 4649.51 0.00000 -3.13770e-13
  6 4649.51 0.00000 -2.63972e-13
  7 4649.51 0.00000 -4.92903e-13
  8 4649.51 0.00000 -3.09681e-14
</Section>

newXOutput 196

<Section columns = "stress_xx | stress_yy | stress_xy">
  1 4677.35 0.00000 -2.79255e-13
  2 4677.35 0.00000 -2.30039e-13
  3 4677.35 0.00000 -3.71655e-13
  4 4677.35 0.00000 -3.46836e-13
  5 4677.35 0.00000 4.51598e-13
  6 4677.35 0.00000 4.70806e-13
  7 4677.35 0.00000 -3.82995e-13
  8 4677.35 0.00000 2.07562e-14
</Section>

newXOutput 197

<Section columns = "stress_xx | stress_yy | stress_xy">
  1 4705.23 0.00000 5.32569e-14
  2 4705.23 0.00000 9.11553e-14
  3 4705.23 0.00000 2.75893e-14
  4 4705.23 0.00000 6.79222e-14
  5 4705.23 0.00000 -1.18664e-12
  6 4705.23 0.00000 -1.14488e-12
  7 4705.23 0.00000 -1.43165e-12
  8 4705.23 0.00000 -9.87457e-13
</Section>

newXOutput 198

<Section columns = "stress_xx | stress_yy | stress_xy">
  1 4733.14 0.00000 8.10993e-14
  2 4733.14 0.00000 1.23140e-13
  3 4733.14 0.00000 1.01545e-13
  4 4733.14 0.00000 1.54563e-13
  5 4733.14 0.00000 1.98772e-13
  6 4733.14 0.00000 1.90514e-13
  7 4733.14 0.00000 6.45152e-14
  8 4733.14 0.00000 -1.14626e-13
</Section>

newXOutput 199

<Section columns = "stress_xx | stress_yy | stress_xy">
  1 4761.10 0.00000 4.59467e-14
  2 4761.10 0.00000 -2.62125e-14
  3 4761.10 0.00000 8.92997e-14
  4 4761.10 0.00000 4.58824e-14
  5 4761.10 0.00000 -5.91876e-13
  6 4761.10 0.00000 -6.21131e-13
  7 4761.10 0.00000 -3.38982e-13
  8 4761.10 0.00000 -4.40391e-13
</Section>

newXOutput 200

<Section columns = "stress_xx | stress_yy | stress_xy">
  1 4778.95 0.00000 0.316468
  2 4778.95 0.00000 -0.316468
  3 4776.71 0.00000 0.158241
  4 4776.71 0.00000 -0.158241
  5 4776.71 0.00000 -0.158241
  6 4776.71 0.00000 0.158241
  7 4778.95 0.00000 -0.316468
  8 4778.95 0.00000 0.316468
</Section>

newXOutput 201

<Section columns = "stress_xx | stress_yy | stress_xy">
  1 4782.62 0.00000 0.961963
  2 4782.62 0.00000 -0.961963
  3 4771.18 0.00000 0.481050
  4 4771.18 0.00000 -0.481050
  5 4771.18 0.00000 -0.481050
  6 4771.18 0.00000 0.481050
  7 4782.62 0.00000 -0.961963
  8 4782.62 0.00000 0.961963
</Section>

newXOutput 202

<Section columns = "stress_xx | stress_yy | stress_xy">
  1 4783.47 0.00000 1.59428
  2 4783.47 0.00000 -1.59428
  3 4763.82 0.00000 0.797327
  4 4763.82 0.00000 -0.797327
  5 4763.82 0.00000 -0.797327
  6 4763.82 0.00000 0.797327
  7 4783.47 0.00000 -1.59428
  8 4783.47 0.00000 1.59428
</Section>

newXOutput 203

<Section columns = "stress_xx | stress_yy | stress_xy">
  1 4784.02 0.00000 2.14220
  2 4784.02 0.00000 -2.14220
  3 4756.36 0.00000 1.07144
  4 4756.36 0.00000 -1.07144
  5 4756.36 0.00000 -1.07144
  6 4756.36 0.00000 1.07144
  7 4784.02 0.00000 -2.14220
  8 4784.02 0.00000 2.14220
</Section>

newXOutput 204

<Section columns = "stress_xx | stress_yy | stress_xy">
  1 4784.34 0.00000 2.61423
  2 4784.34 0.00000 -2.61423
  3 4748.83 0.00000 1.30762
  4 4748.83 0.00000 -1.30762
  5 4748.83 0.00000 -1.30762
  6 4748.83 0.00000 1.30762
  7 4784.34 0.00000 -2.61423
  8 4784.34 0.00000 2.61423
</Section>

newXOutput 205

<Section columns = "stress_xx | stress_yy | stress_xy">
  1 4783.06 0.00000 2.83705
  2 4783.06 0.00000 -2.83705
  3 4740.73 0.00000 1.41912
  4 4740.73 0.00000 -1.41912
  5 4740.73 0.00000 -1.41912
  6 4740.73 0.00000 1.41912
  7 4783.06 0.00000 -2.83705
  8 4783.06 0.00000 2.83705
</Section>

newXOutput 206

<Section columns = "stress_xx | stress_yy | stress_xy">
  1 4782.96 0.00000 2.97662
  2 4782.96 0.00000 -2.97662
  3 4733.46 0.00000 1.48896
  4 4733.46 0.00000 -1.48896
  5 4733.46 0.00000 -1.48896
  6 4733.46 0.00000 1.48896
  7 4782.96 0.00000 -2.97662
  8 4782.96 0.00000 2.97662
</Section>

newXOutput 207

<Section columns = "stress_xx | stress_yy | stress_xy">
  1 4782.60 0.00000 3.08697
  2 4782.60 0.00000 -3.08697
  3 4725.98 0.00000 1.54419
  4 4725.98 0.00000 -1.54419
  5 4725.98 0.00000 -1.54419
  6 4725.98 0.00000 1.54419
  7 4782.60 0.00000 -3.08697
  8 4782.60 0.00000 3.08697
</Section>

newXOutput 208

<Section columns = "stress_xx | stress_yy | stress_xy">
  1 4782.27 0.00000 2.92477
  2 4782.27 0.00000 -2.92477
  3 4718.99 0.00000 1.46302
  4 4718.99 0.00000 -1.46302
  5 4718.99 0.00000 -1.46302
  6 4718.99 0.00000 1.46302
  7 4782.27 0.00000 -2.92477
  8 4782.27 0.00000 2.92477
</Section>

newXOutput 209

<Section columns = "stress_xx | stress_yy | stress_xy">
  1 4781.14 0.00000 3.05179
  2 4781.14 0.00000 -3.05179
  3 4710.74 0.00000 1.52659
  4 4710.74 0.00000 -1.52659
  5 4710.74 0.00000 -1.52659
  6 4710.74 0.00000 1.52659
  7 4781.14 0.00000 -3.05179
  8 4781.14 0.00000 3.05179
</Section>

newXOutput 210

<Section columns = "stress_xx | stress_yy | stress_xy">
  1 4780.27 0.00000 2.89568
  2 4780.27 0.00000 -2.89568
  3 4703.16 0.00000 1.44847
  4 4703.16 0.00000 -1.44847
  5 4703.16 0.00000 -1.44847
  6 4703.16 0.00000 1.44847
  7 4780.27 0.00000 -2.89568
  8 4780.27 0.00000 2.89568
</Section>

newXOutput 211

<Section columns = "stress_xx | stress_yy | stress_xy">
  1 4778.60 0.00000 3.02803
  2 4778.60 0.00000 -3.02803
  3 4694.33 0.00000 1.51470
  4 4694.33 0.00000 -1.51470
  5 4694.33 0.00000 -1.51470
  6 4694.33 0.00000 1.51470
  7 4778.60 0.00000 -3.02803
  8 4778.60 0.00000 3.02803
</Section>

newXOutput 212

<Section columns = "stress_xx | stress_yy | stress_xy">
  1 4777.18 0.00000 2.87486
  2 4777.18 0.00000 -2.87486
  3 4686.15 0.00000 1.43805
  4 4686.15 0.00000 -1.43805
  5 4686.15 0.00000 -1.43805
  6 4686.15 0.00000 1.43805
  7 4777.18 0.00000 -2.87486
  8 4777.18 0.00000 2.87486
</Section>

newXOutput 213

<Section columns = "stress_xx | stress_yy | stress_xy">
  1 4774.98 0.00000 3.01068
  2 4774.98 0.00000 -3.01068
  3 4676.74 0.00000 1.50602
  4 4676.74 0.00000 -1.50602
  5 4676.74 0.00000 -1.50602
  6 4676.74 0.00000 1.50602
  7 4774.98 0.00000 -3.01068
  8 4774.98 0.00000 3.01068
</Section>

newXOutput 214

<Section columns = "stress_xx | stress_yy | stress_xy">
  1 4772.74 0.00000 3.11032
  2 4772.74 0.00000 -3.11032
  3 4667.27 0.00000 1.55589
  4 4667.27 0.00000 -1.55589
  5 4667.27 0.00000 -1.55589
  6 4667.27 0.00000 1.55589
  7 4772.74 0.00000 -3.11032
  8 4772.74 0.00000 3.11032
</Section>

newXOutput 215

<Section columns = "stress_xx | stress_yy | stress_xy">
  1 4770.48 0.00000 2.92829
  2 4770.48 0.00000 -2.92829
  3 4658.27 0.00000 1.46479
  4 4658.27 0.00000 -1.46479
  5 4658.27 0.00000 -1.46479
  6 4658.27 0.00000 1.46479
  7 4770.48 0.00000 -2.92829
  8 4770.48 0.00000 2.92829
</Section>

newXOutput 216

<Section columns = "stress_xx | stress_yy | stress_xy">
  1 4767.44 0.00000 3.05050
  2 4767.44 0.00000 -3.05050
  3 4648.00 0.00000 1.52595
  4 4648.00 0.00000 -1.52595
  5 4648.00 0.00000 -1.52595
  6 4648.00 0.00000 1.52595
  7 4767.44 0.00000 -3.05050
  8 4767.44 0.00000 3.05050
</Section>

newXOutput 217

<Section columns = "stress_xx | stress_yy | stress_xy">
  1 4764.60 0.00000 2.88116
  2 4764.60 0.00000 -2.88116
  3 4638.37 0.00000 1.44121
  4 4638.37 0.00000 -1.44121
  5 4638.37 0.00000 -1.44121
  6 4638.37 0.00000 1.44121
  7 4764.60 0.00000 -2.88116
  8 4764.60 0.00000 2.88116
</Section>

newXOutput 218

<Section columns = "stress_xx | stress_yy | stress_xy">
  1 4760.98 0.00000 3.01235
  2 4760.98 0.00000 -3.01235
  3 4627.49 0.00000 1.50686
  4 4627.49 0.00000 -1.50686
  5 4627.49 0.00000 -1.50686
  6 4627.49 0.00000 1.50686
  7 4760.98 0.00000 -3.01235
  8 4760.98 0.00000 3.01235
</Section>

newXOutput 219

<Section columns = "stress_xx | stress_yy | stress_xy">
  1 4757.31 0.00000 3.10766
  2 4757.31 0.00000 -3.10766
  3 4616.54 0.00000 1.55456
  4 4616.54 0.00000 -1.55456
  5 4616.54 0.00000 -1.55456
  6 4616.54 0.00000 1.55456
  7 4757.31 0.00000 -3.10766
  8 4757.31 0.00000 3.10766
</Section>

newXOutput 220

<Section columns = "stress_xx | stress_yy | stress_xy">
  1 4753.57 0.00000 2.91551
  2 4753.57 0.00000 -2.91551
  3 4606.02 0.00000 1.45840
  4 4606.02 0.00000 -1.45840
  5 4606.02 0.00000 -1.45840
  6 4606.02 0.00000 1.45840
  7 4753.57 0.00000 -2.91551
  8 4753.57 0.00000 2.91551
</Section>

newXOutput 221

<Section columns = "stress_xx | stress_yy | stress_xy">
  1 4749.05 0.00000 3.03662
  2 4749.05 0.00000 -3.03662
  3 4594.24 0.00000 1.51901
  4 4594.24 0.00000 -1.51901
  5 4594.24 0.00000 -1.51901
  6 4594.24 0.00000 1.51901
  7 4749.05 0.00000 -3.03662
  8 4749.05 0.00000 3.03662
</Section>

newXOutput 222

<Section columns = "stress_xx | stress_yy | stress_xy">
  1 4744.70 0.00000 2.86054
  2 4744.70 0.00000 -2.86054
  3 4583.05 0.00000 1.43089
  4 4583.05 0.00000 -1.43089
  5 4583.05 0.00000 -1.43089
  6 4583.05 0.00000 1.43089
  7 4744.70 0.00000 -2.86054
  8 4744.70 0.00000 2.86054
</Section>

newXOutput 223

<Section columns = "stress_xx | stress_yy | stress_xy">
  1 4739.56 0.00000 2.99247
  2 4739.56 0.00000 -2.99247
  3 4570.61 0.00000 1.49692
  4 4570.61 0.00000 -1.49692
  5 4570.61 0.00000 -1.49692
  6 4570.61 0.00000 1.49692
  7 4739.56 0.00000 -2.99247
  8 4739.56 0.00000 2.99247
</Section>

newXOutput 224

<Section columns = "stress_xx | stress_yy | stress_xy">
  1 4734.34 0.00000 3.08761
  2 4734.34 0.00000 -3.08761
  3 4558.10 0.00000 1.54453
  4 4558.10 0.00000 -1.54453
  5 4558.10 0.00000 -1.54453
  6 4558.10 0.00000 1.54453
  7 4734.34 0.00000 -3.08761
  8 4734.34 0.00000 3.08761
</Section>

newXOutput 225

<Section columns = "stress_xx | stress_yy | stress_xy">
  1 4729.02 0.00000 2.88991
  2 4729.02 0.00000 -2.88991
  3 4545.97 0.00000 1.44559
  4 4545.97 0.00000 -1.44559
  5 4545.97 0.00000 -1.44559
  6 4545.97 0.00000 1.44559
  7 4729.02 0.00000 -2.88991
  8 4729.02 0.00000 2.88991
</Section>

newXOutput 226

<Section columns = "stress_xx | stress_yy | stress_xy">
  1 4722.89 0.00000 3.01257
  2 4722.89 0.00000 -3.01257
  3 4532.56 0.00000 1.50698
  4 4532.56 0.00000 -1.50698
  5 4532.56 0.00000 -1.50698
  6 4532.56 0.00000 1.50698
  7 4722.89 0.00000 -3.01257
  8 4722.89 0.00000 3.01257
</Section>

newXOutput 227

<Section columns = "stress_xx | stress_yy | stress_xy">
  1 4716.68 0.00000 3.10007
  2 4716.68 0.00000 -3.10007
  3 4519.07 0.00000 1.55077
  4 4519.07 0.00000 -1.55077
  5 4519.07 0.00000 -1.55077
  6 4519.07 0.00000 1.55077
  7 4716.68 0.00000 -3.10007
  8 4716.68 0.00000 3.10007
</Section>

newXOutput 228

<Section columns = "stress_xx | stress_yy | stress_xy">
  1 4710.34 0.00000 2.89177
  2 4710.34 0.00000 -2.89177
  3 4505.93 0.00000 1.44653
  4 4505.93 0.00000 -1.44653
  5 4505.93 0.00000 -1.44653
  6 4505.93 0.00000 1.44653
  7 4710.34 0.00000 -2.89177
  8 4710.34 0.00000 2.89177
</Section>

newXOutput 229

<Section columns = "stress_xx | stress_yy | stress_xy">
  1 4703.17 0.00000 3.01139
  2 4703.17 0.00000 -3.01139
  3 4491.50 0.00000 1.50639
  4 4491.50 0.00000 -1.50639
  5 4491.50 0.00000 -1.50639
  6 4491.50 0.00000 1.50639
  7 4703.17 0.00000 -3.01139
  8 4703.17 0.00000 3.01139
</Section>

newXOutput 230

<Section columns = "stress_xx | stress_yy | stress_xy">
  1 4695.90 0.00000 3.09612
  2 4695.90 0.00000 -3.09612
  3 4476.96 0.00000 1.54879
  4 4476.96 0.00000 -1.54879
  5 4476.96 0.00000 -1.54879
  6 4476.96 0.00000 1.54879
  7 4695.90 0.00000 -3.09612
  8 4695.90 0.00000 3.09612
</Section>

newXOutput 231

<Section columns = "stress_xx | stress_yy | stress_xy">
  1 4688.47 0.00000 2.88211
  2 4688.47 0.00000 -2.88211
  3 4462.76 0.00000 1.44169
  4 4462.76 0.00000 -1.44169
  5 4462.76 0.00000 -1.44169
  6 4462.76 0.00000 1.44169
  7 4688.47 0.00000 -2.88211
  8 4688.47 0.00000 2.88211
</Section>

newXOutput 232

<Section columns = "stress_xx | stress_yy | stress_xy">
  1 4680.19 0.00000 3.00151
  2 4680.19 0.00000 -3.00151
  3 4447.23 0.00000 1.50145
  4 4447.23 0.00000 -1.50145
  5 4447.23 0.00000 -1.50145
  6 4447.23 0.00000 1.50145
  7 4680.19 0.00000 -3.00151
  8 4680.19 0.00000 3.00151
</Section>

newXOutput 233

<Section columns = "stress_xx | stress_yy | stress_xy">
  1 4671.79 0.00000 3.08560
  2 4671.79 0.00000 -3.08560
  3 4431.58 0.00000 1.54353
  4 4431.58 0.00000 -1.54353
  5 4431.58 0.00000 -1.54353
  6 4431.58 0.00000 1.54353
  7 4671.79 0.00000 -3.08560
  8 4671.79 0.00000 3.08560
</Section>

newXOutput 234

<Section columns = "stress_xx | stress_yy | stress_xy">
  1 4663.21 0.00000 2.86807
  2 4663.21 0.00000 -2.86807
  3 4416.25 0.00000 1.43467
  4 4416.25 0.00000 -1.43467
  5 4416.25 0.00000 -1.43467
  6 4416.25 0.00000 1.43467
  7 4663.21 0.00000 -2.86807
  8 4663.21 0.00000 2.86807
</Section>

newXOutput 235

<Section columns = "stress_xx | stress_yy | stress_xy">
  1 4653.73 0.00000 2.98855
  2 4653.73 0.00000 -2.98855
  3 4399.55 0.00000 1.49496
  4 4399.55 0.00000 -1.49496
  5 4399.55 0.00000 -1.49496
  6 4399.55 0.00000 1.49496
  7 4653.73 0.00000 -2.98855
  8 4653.73 0.00000 2.98855
</Section>

newXOutput 236

<Section columns = "stress_xx | stress_yy | stress_xy">
  1 4644.12 0.00000 3.07300
  2 4644.12 0.00000 -3.07300
  3 4382.73 0.00000 1.53723
  4 4382.73 0.00000 -1.53723
  5 4382.73 0.00000 -1.53723
  6 4382.73 0.00000 1.53723
  7 4644.12 0.00000 -3.07300
  8 4644.12 0.00000 3.07300
</Section>

newXOutput 237

<Section columns = "stress_xx | stress_yy | stress_xy">
  1 4634.29 0.00000 2.85291
  2 4634.29 0.00000 -2.85291
  3 4366.18 0.00000 1.42708
  4 4366.18 0.00000 -1.42708
  5 4366.18 0.00000 -1.42708
  6 4366.18 0.00000 1.42708
  7 4634.29 0.00000 -2.85291
  8 4634.29 0.00000 2.85291
</Section>

newXOutput 238

<Section columns = "stress_xx | stress_yy | stress_xy">
  1 4623.51 0.00000 2.97515
  2 4623.51 0.00000 -2.97515
  3 4348.23 0.00000 1.48826
  4 4348.23 0.00000 -1.48826
  5 4348.23 0.00000 -1.48826
  6 4348.23 0.00000 1.48826
  7 4623.51 0.00000 -2.97515
  8 4623.51 0.00000 2.97515
</Section>

newXOutput 239

<Section columns = "stress_xx | stress_yy | stress_xy">
  1 4612.59 0.00000 3.06046
  2 4612.59 0.00000 -3.06046
  3 4330.14 0.00000 1.53095
  4 4330.14 0.00000 -1.53095
  5 4330.14 0.00000 -1.53095
  6 4330.14 0.00000 1.53095
  7 4612.59 0.00000 -3.06046
  8 4612.59 0.00000 3.06046
</Section>

newXOutput 240

<Section columns = "stress_xx | stress_yy | stress_xy">
  1 4601.42 0.00000 2.83825
  2 4601.42 0.00000 -2.83825
  3 4312.29 0.00000 1.41975
  4 4312.29 0.00000 -1.41975
  5 4312.29 0.00000 -1.41975
  6 4312.29 0.00000 1.41975
  7 4601.42 0.00000 -2.83825
  8 4601.42 0.00000 2.83825
</Section>

newXOutput 241

<Section columns = "stress_xx | stress_yy | stress_xy">
  1 4589.22 0.00000 2.96270
  2 4589.22 0.00000 -2.96270
  3 4292.99 0.00000 1.48203
  4 4292.99 0.00000 -1.48203
  5 4292.99 0.00000 -1.48203
  6 4292.99 0.00000 1.48203
  7 4589.22 0.00000 -2.96270
  8 4589.22 0.00000 2.96270
</Section>

newXOutput 242

<Section columns = "stress_xx | stress_yy | stress_xy">
  1 4576.87 0.00000 3.04918
  2 4576.87 0.00000 -3.04918
  3 4273.53 0.00000 1.52531
  4 4273.53 0.00000 -1.52531
  5 4273.53 0.00000 -1.52531
  6 4273.53 0.00000 1.52531
  7 4576.87 0.00000 -3.04918
  8 4576.87 0.00000 3.04918
</Section>

newXOutput 243

<Section columns = "stress_xx | stress_yy | stress_xy">
  1 4564.23 0.00000 2.82506
  2 4564.23 0.00000 -2.82506
  3 4254.27 0.00000 1.41315
  4 4254.27 0.00000 -1.41315
  5 4254.27 0.00000 -1.41315
  6 4254.27 0.00000 1.41315
  7 4564.23 0.00000 -2.82506
  8 4564.23 0.00000 2.82506
</Section>

newXOutput 244

<Section columns = "stress_xx | stress_yy | stress_xy">
  1 4550.49 0.00000 2.95209
  2 4550.49 0.00000 -2.95209
  3 4233.49 0.00000 1.47672
  4 4233.49 0.00000 -1.47672
  5 4233.49 0.00000 -1.47672
  6 4233.49 0.00000 1.47672
  7 4550.49 0.00000 -2.95209
  8 4550.49 0.00000 2.95209
</Section>

newXOutput 245

<Section columns = "stress_xx | stress_yy | stress_xy">
  1 4536.80 0.00000 2.75546
  2 4536.80 0.00000 -2.75546
  3 4213.19 0.00000 1.37832
  4 4213.19 0.00000 -1.37832
  5 4213.19 0.00000 -1.37832
  6 4213.19 0.00000 1.37832
  7 4536.80 0.00000 -2.75546
  8 4536.80 0.00000 2.75546
</Section>

newXOutput 246

<Section columns = "stress_xx | stress_yy | stress_xy">
  1 4521.93 0.00000 2.89992
  2 4521.93 0.00000 -2.89992
  3 4191.32 0.00000 1.45061
  4 4191.32 0.00000 -1.45061
  5 4191.32 0.00000 -1.45061
  6 4191.32 0.00000 1.45061
  7 4521.93 0.00000 -2.89992
  8 4521.93 0.00000 2.89992
</Section>

newXOutput 247

<Section columns = "stress_xx | stress_yy | stress_xy">
  1 4506.87 0.00000 3.00059
  2 4506.87 0.00000 -3.00059
  3 4169.26 0.00000 1.50099
  4 4169.26 0.00000 -1.50099
  5 4169.26 0.00000 -1.50099
  6 4169.26 0.00000 1.50099
  7 4506.87 0.00000 -3.00059
  8 4506.87 0.00000 3.00059
</Section>

newXOutput 248

<Section columns = "stress_xx | stress_yy | stress_xy">
  1 4491.45 0.00000 2.78462
  2 4491.45 0.00000 -2.78462
  3 4147.35 0.00000 1.39291
  4 4147.35 0.00000 -1.39291
  5 4147.35 0.00000 -1.39291
  6 4147.35 0.00000 1.39291
  7 4491.45 0.00000 -2.78462
  8 4491.45 0.00000 2.78462
</Section>

newXOutput 249

<Section columns = "stress_xx | stress_yy | stress_xy">
  1 4474.72 0.00000 2.92291
  2 4474.72 0.00000 -2.92291
  3 4123.74 0.00000 1.46212
  4 4123.74 0.00000 -1.46212
  5 4123.74 0.00000 -1.46212
  6 4123.74 0.00000 1.46212
  7 4474.72 0.00000 -2.92291
  8 4474.72 0.00000 2.92291
</Section>

newXOutput 250

<Section columns = "stress_xx | stress_yy | stress_xy">
  1 4458.05 0.00000 2.72976
  2 4458.05 0.00000 -2.72976
  3 4100.61 0.00000 1.36546
  4 4100.61 0.00000 -1.36546
  5 4100.61 0.00000 -1.36546
  6 4100.61 0.00000 1.36546
  7 4458.05 0.00000 -2.72976
  8 4458.05 0.00000 2.72976
</Section>

newXOutput 251

<Section columns = "stress_xx | stress_yy | stress_xy">
  1 4439.96 0.00000 2.88347
  2 4439.96 0.00000 -2.88347
  3 4075.70 0.00000 1.44238
  4 4075.70 0.00000 -1.44238
  5 4075.70 0.00000 -1.44238
  6 4075.70 0.00000 1.44238
  7 4439.96 0.00000 -2.88347
  8 4439.96 0.00000 2.88347
</Section>

newXOutput 252

<Section columns = "stress_xx | stress_yy | stress_xy">
  1 4421.94 0.00000 2.70166
  2 4421.94 0.00000 -2.70166
  3 4051.27 0.00000 1.35140
  4 4051.27 0.00000 -1.35140
  5 4051.27 0.00000 -1.35140
  6 4051.27 0.00000 1.35140
  7 4421.94 0.00000 -2.70166
  8 4421.94 0.00000 2.70166
</Section>

newXOutput 253

<Section columns = "stress_xx | stress_yy | stress_xy">
  1 4402.35 0.00000 2.86491
  2 4402.35 0.00000 -2.86491
  3 4024.96 0.00000 1.43309
  4 4024.96 0.00000 -1.43309
  5 4024.96 0.00000 -1.43309
  6 4024.96 0.00000 1.43309
  7 4402.35 0.00000 -2.86491
  8 4402.35 0.00000 2.86491
</Section>

newXOutput 254

<Section columns = "stress_xx | stress_yy | stress_xy">
  1 4382.86 0.00000 2.68843
  2 4382.86 0.00000 -2.68843
  3 3999.14 0.00000 1.34478
  4 3999.14 0.00000 -1.34478
  5 3999.14 0.00000 -1.34478
  6 3999.14 0.00000 1.34478
  7 4382.86 0.00000 -2.68843
  8 4382.86 0.00000 2.68843
</Section>

newXOutput 255

<Section columns = "stress_xx | stress_yy | stress_xy">
  1 4361.63 0.00000 2.85842
  2 4361.63 0.00000 -2.85842
  3 3971.30 0.00000 1.42984
  4 3971.30 0.00000 -1.42984
  5 3971.30 0.00000 -1.42984
  6 3971.30 0.00000 1.42984
  7 4361.63 0.00000 -2.85842
  8 4361.63 0.00000 2.85842
</Section>

newXOutput 256

<Section columns = "stress_xx | stress_yy | stress_xy">
  1 4340.51 0.00000 2.68417
  2 4340.51 0.00000 -2.68417
  3 3943.95 0.00000 1.34264
  4 3943.95 0.00000 -1.34264
  5 3943.95 0.00000 -1.34264
  6 3943.95 0.00000 1.34264
  7 4340.51 0.00000 -2.68417
  8 4340.51 0.00000 2.68417
</Section>

newXOutput 257

<Section columns = "stress_xx | stress_yy | stress_xy">
  1 4317.46 0.00000 2.85978
  2 4317.46 0.00000 -2.85978
  3 3914.42 0.00000 1.43052
  4 3914.42 0.00000 -1.43052
  5 3914.42 0.00000 -1.43052
  6 3914.42 0.00000 1.43052
  7 4317.46 0.00000 -2.85978
  8 4317.46 0.00000 2.85978
</Section>

newXOutput 258

<Section columns = "stress_xx | stress_yy | stress_xy">
  1 4294.55 0.00000 2.68611
  2 4294.55 0.00000 -2.68611
  3 3885.41 0.00000 1.34361
  4 3885.41 0.00000 -1.34361
  5 3885.41 0.00000 -1.34361
  6 3885.41 0.00000 1.34361
  7 4294.55 0.00000 -2.68611
  8 4294.55 0.00000 2.68611
</Section>

newXOutput 259

<Section columns = "stress_xx | stress_yy | stress_xy">
  1 4269.47 0.00000 2.86718
  2 4269.47 0.00000 -2.86718
  3 3854.00 0.00000 1.43422
  4 3854.00 0.00000 -1.43422
  5 3854.00 0.00000 -1.43422
  6 3854.00 0.00000 1.43422
  7 4269.47 0.00000 -2.86718
  8 4269.47 0.00000 2.86718
</Section>

newXOutput 260

<Section columns = "stress_xx | stress_yy | stress_xy">
  1 4244.57 0.00000 2.69322
  2 4244.57 0.00000 -2.69322
  3 3823.13 0.00000 1.34717
  4 3823.13 0.00000 -1.34717
  5 3823.13 0.00000 -1.34717
  6 3823.13 0.00000 1.34717
  7 4244.57 0.00000 -2.69322
  8 4244.57 0.00000 2.69322
</Section>

newXOutput 261

<Section columns = "stress_xx | stress_yy | stress_xy">
  1 4217.81 0.00000 2.59021
  2 4217.81 0.00000 -2.59021
  3 3790.54 0.00000 1.29562
  4 3790.54 0.00000 -1.29562
  5 3790.54 0.00000 -1.29562
  6 3790.54 0.00000 1.29562
  7 4217.81 0.00000 -2.59021
  8 4217.81 0.00000 2.59021
</Section>

newXOutput 262

<Section columns = "stress_xx | stress_yy | stress_xy">
  1 4189.18 0.00000 2.80874
  2 4189.18 0.00000 -2.80874
  3 3755.82 0.00000 1.40497
  4 3755.82 0.00000 -1.40497
  5 3755.82 0.00000 -1.40497
  6 3755.82 0.00000 1.40497
  7 4189.18 0.00000 -2.80874
  8 4189.18 0.00000 2.80874
</Section>

newXOutput 263

<Section columns = "stress_xx | stress_yy | stress_xy">
  1 4160.85 0.00000 2.65998
  2 4160.85 0.00000 -2.65998
  3 3721.73 0.00000 1.33053
  4 3721.73 0.00000 -1.33053
  5 3721.73 0.00000 -1.33053
  6 3721.73 0.00000 1.33053
  7 4160.85 0.00000 -2.65998
  8 4160.85 0.00000 2.65998
</Section>

newXOutput 264

<Section columns = "stress_xx | stress_yy | stress_xy">
  1 4130.22 0.00000 2.57769
  2 4130.22 0.00000 -2.57769
  3 3685.55 0.00000 1.28935
  4 3685.55 0.00000 -1.28935
  5 3685.55 0.00000 -1.28935
  6 3685.55 0.00000 1.28935
  7 4130.22 0.00000 -2.57769
  8 4130.22 0.00000 2.57769
</Section>

newXOutput 265

<Section columns = "stress_xx | stress_yy | stress_xy">
  1 4098.12 0.00000 2.52719
  2 4098.12 0.00000 -2.52719
  3 3647.97 0.00000 1.26409
  4 3647.97 0.00000 -1.26409
  5 3647.97 0.00000 -1.26409
  6 3647.97 0.00000 1.26409
  7 4098.12 0.00000 -2.52719
  8 4098.12 0.00000 2.52719
</Section>

newXOutput 266

<Section columns = "stress_xx | stress_yy | stress_xy">
  1 4064.44 0.00000 2.49867
  2 4064.44 0.00000 -2.49867
  3 3608.90 0.00000 1.24981
  4 3608.90 0.00000 -1.24981
  5 3608.90 0.00000 -1.24981
  6 3608.90 0.00000 1.24981
  7 4064.44 0.00000 -2.49867
  8 4064.44 0.00000 2.49867
</Section>

newXOutput 267

<Section columns = "stress_xx | stress_yy | stress_xy">
  1 4029.03 0.00000 2.48566
  2 4029.03 0.00000 -2.48566
  3 3568.22 0.00000 1.24330
  4 3568.22 0.00000 -1.24330
  5 3568.22 0.00000 -1.24330
  6 3568.22 0.00000 1.24330
  7 4029.03 0.00000 -2.48566
  8 4029.03 0.00000 2.48566
</Section>

newXOutput 268

<Section columns = "stress_xx | stress_yy | stress_xy">
  1 3991.73 0.00000 2.48397
  2 3991.73 0.00000 -2.48397
  3 3525.79 0.00000 1.24245
  4 3525.79 0.00000 -1.24245
  5 3525.79 0.00000 -1.24245
  6 3525.79 0.00000 1.24245
  7 3991.73 0.00000 -2.48397
  8 3991.73 0.00000 2.48397
</Section>

newXOutput 269

<Section columns = "stress_xx | stress_yy | stress_xy">
  1 3952.34 0.00000 2.49094
  2 3952.34 0.00000 -2.49094
  3 3481.44 0.00000 1.24594
  4 3481.44 0.00000 -1.24594
  5 3481.44 0.00000 -1.24594
  6 3481.44 0.00000 1.24594
  7 3952.34 0.00000 -2.49094
  8 3952.34 0.00000 2.49094
</Section>

newXOutput 270

<Section columns = "stress_xx | stress_yy | stress_xy">
  1 3910.65 0.00000 2.50499
  2 3910.65 0.00000 -2.50499
  3 3434.98 0.00000 1.25297
  4 3434.98 0.00000 -1.25297
  5 3434.98 0.00000 -1.25297
  6 3434.98 0.00000 1.25297
  7 3910.65 0.00000 -2.50499
  8 3910.65 0.00000 2.50499
</Section>

newXOutput 271

<Section columns = "stress_xx | stress_yy | stress_xy">
  1 3866.40 0.00000 2.52531
  2 3866.40 0.00000 -2.52531
  3 3386.17 0.00000 1.26313
  4 3386.17 0.00000 -1.26313
  5 3386.17 0.00000 -1.26313
  6 3386.17 0.00000 1.26313
  7 3866.40 0.00000 -2.52531
  8 3866.40 0.00000 2.52531
</Section>

newXOutput 272

<Section columns = "stress_xx | stress_yy | stress_xy">
  1 3819.26 0.00000 2.55169
  2 3819.26 0.00000 -2.55169
  3 3334.73 0.00000 1.27633
  4 3334.73 0.00000 -1.27633
  5 3334.73 0.00000 -1.27633
  6 3334.73 0.00000 1.27633
  7 3819.26 0.00000 -2.55169
  8 3819.26 0.00000 2.55169
</Section>

newXOutput 273

<Section columns = "stress_xx | stress_yy | stress_xy">
  1 3767.28 0.00000 2.35503
  2 3767.28 0.00000 -2.35503
  3 3279.36 0.00000 1.17793
  4 3279.36 0.00000 -1.17793
  5 3279.36 0.00000 -1.17793
  6 3279.36 0.00000 1.17793
  7 3767.28 0.00000 -2.35503
  8 3767.28 0.00000 2.35503
</Section>

newXOutput 274

<Section columns = "stress_xx | stress_yy | stress_xy">
  1 3714.42 0.00000 2.45838
  2 3714.42 0.00000 -2.45838
  3 3222.47 0.00000 1.22964
  4 3222.47 0.00000 -1.22964
  5 3222.47 0.00000 -1.22964
  6 3222.47 0.00000 1.22964
  7 3714.42 0.00000 -2.45838
  8 3714.42 0.00000 2.45838
</Section>

newXOutput 275

<Section columns = "stress_xx | stress_yy | stress_xy">
  1 3653.62 0.00000 2.34557
  2 3653.62 0.00000 -2.34557
  3 3159.00 0.00000 1.17319
  4 3159.00 0.00000 -1.17319
  5 3159.00 0.00000 -1.17319
  6 3159.00 0.00000 1.17319
  7 3653.62 0.00000 -2.34557
  8 3653.62 0.00000 2.34557
</Section>

newXOutput 276

<Section columns = "stress_xx | stress_yy | stress_xy">
  1 3589.01 0.00000 2.29186
  2 3589.01 0.00000 -2.29186
  3 3091.85 0.00000 1.14631
  4 3091.85 0.00000 -1.14631
  5 3091.85 0.00000 -1.14631
  6 3091.85 0.00000 1.14631
  7 3589.01 0.00000 -2.29186
  8 3589.01 0.00000 2.29186
</Section>

newXOutput 277

<Section columns = "stress_xx | stress_yy | stress_xy">
  1 3517.81 0.00000 2.29801
  2 3517.81 0.00000 -2.29801
  3 3018.63 0.00000 1.14939
  4 3018.63 0.00000 -1.14939
  5 3018.63 0.00000 -1.14939
  6 3018.63 0.00000 1.14939
  7 3517.81 0.00000 -2.29801
  8 3517.81 0.00000 2.29801
</Section>

newXOutput 278

<Section columns = "stress_xx | stress_yy | stress_xy">
  1 3438.06 0.00000 2.35553
  2 3438.06 0.00000 -2.35553
  3 2937.61 0.00000 1.17816
  4 2937.61 0.00000 -1.17816
  5 2937.61 0.00000 -1.17816
  6 2937.61 0.00000 1.17816
  7 3438.06 0.00000 -2.35553
  8 3438.06 0.00000 2.35553
</Section>

newXOutput 279

<Section columns = "stress_xx | stress_yy | stress_xy">
  1 3352.10 0.00000 2.16762
  2 3352.10 0.00000 -2.16762
  3 2851.10 0.00000 1.08415
  4 2851.10 0.00000 -1.08415
  5 2851.10 0.00000 -1.08415
  6 2851.10 0.00000 1.08415
  7 3352.10 0.00000 -2.16762
  8 3352.10 0.00000 2.16762
</Section>

newXOutput 280

<Section columns = "stress_xx | stress_yy | stress_xy">
  1 3240.01 0.00000 2.07450
  2 3240.01 0.00000 -2.07450
  3 2741.39 0.00000 1.03755
  4 2741.39 0.00000 -1.03755
  5 2741.39 0.00000 -1.03755
  6 2741.39 0.00000 1.03755
  7 3240.01 0.00000 -2.07450
  8 3240.01 0.00000 2.07450
</Section>

newXOutput 281

<Section columns = "stress_xx | stress_yy | stress_xy">
  1 3123.55 0.00000 1.00977
  2 3123.55 0.00000 -1.00977
  3 2628.56 0.00000 0.504955
  4 2628.56 0.00000 -0.504955
  5 2628.56 0.00000 -0.504955
  6 2628.56 0.00000 0.504955
  7 3123.55 0.00000 -1.00977
  8 3123.55 0.00000 1.00977
</Section>

