newXOutput 1

<Section columns = "stress_xx | stress_yy | stress_xy">
  1 0.00000 0.00000 0.00000
  2 0.00000 0.00000 0.00000
  3 0.00000 0.00000 0.00000
  4 0.00000 0.00000 0.00000
  5 0.00000 0.00000 0.00000
  6 0.00000 0.00000 0.00000
  7 0.00000 0.00000 0.00000
  8 0.00000 0.00000 0.00000
  9 0.00000 0.00000 0.00000
  10 0.00000 0.00000 0.00000
  11 0.00000 0.00000 0.00000
  12 0.00000 0.00000 0.00000
</Section>

newXOutput 2

<Section columns = "stress_xx | stress_yy | stress_xy">
  1 24.7761 -0.00562356 1.01077e-14
  2 24.7761 -0.00562356 9.56457e-15
  3 24.7761 -0.00562356 5.61673e-15
  4 24.7761 -0.00562356 5.70198e-15
  5 24.7761 -0.00562356 3.18506e-15
  6 24.7761 -0.00562356 3.05189e-15
  7 24.7761 -0.00562356 -1.52618e-15
  8 24.7761 -0.00562356 -1.94039e-15
  9 24.7761 -0.00562356 -5.33037e-15
  10 24.7761 -0.00562356 -5.01739e-15
  11 24.7761 -0.00562356 -1.97057e-14
  12 24.7761 -0.00562356 -2.20458e-14
</Section>

newXOutput 3

<Section columns = "stress_xx | stress_yy | stress_xy">
  1 49.4160 -0.00560955 4.42469e-14
  2 49.4160 -0.00560955 4.15438e-14
  3 49.4160 -0.00560955 1.16450e-14
  4 49.4160 -0.00560955 1.05731e-14
  5 49.4160 -0.00560955 1.21054e-14
  6 49.4160 -0.00560955 1.25856e-14
  7 49.4160 -0.00560955 1.66753e-14
  8 49.4160 -0.00560955 1.80199e-14
  9 49.4160 -0.00560955 1.05328e-14
  10 49.4160 -0.00560955 1.40802e-14
  11 49.4160 -0.00560955 1.76375e-14
  12 49.4160 -0.00560955 1.25014e-14
</Section>

newXOutput 4

<Section columns = "stress_xx | stress_yy | stress_xy">
  1 73.9189 -0.00559716 -6.55492e-14
  2 73.9189 -0.00559716 1.41869e-13
  3 73.9189 -0.00559716 -4.84628e-14
  4 73.9189 -0.00559716 4.21165e-14
  5 73.9189 -0.00559716 -1.51625e-14
  6 73.9189 -0.00559716 -1.41873e-14
  7 73.9189 -0.00559716 2.72688e-14
  8 73.9189 -0.00559716 -6.39833e-14
  9 73.9189 -0.00559716 -2.24496e-14
  10 73.9189 -0.00559716 -4.63484e-15
  11 73.9189 -0.00559716 -9.77338e-14
  12 73.9189 -0.00559716 1.36093e-13
</Section>

newXOutput 5

<Section columns = "stress_xx | stress_yy | stress_xy">
  1 98.2859 -0.00558482 -3.87621e-14
  2 98.2859 -0.00558482 7.85663e-14
  3 98.2859 -0.00558482 -9.57712e-15
  4 98.2859 -0.00558482 1.19824e-14
  5 98.2859 -0.00558482 7.87696e-15
  6 98.2859 -0.00558482 8.82960e-15
  7 98.2859 -0.00558482 1.47209e-14
  8 98.2859 -0.00558482 -8.42406e-15
  9 98.2859 -0.00558482 -1.39450e-14
  10 98.2859 -0.00558482 -3.25966e-14
  11 98.2859 -0.00558482 -3.56004e-14
  12 98.2859 -0.00558482 2.96784e-14
</Section>

newXOutput 6

<Section columns = "stress_xx | stress_yy | stress_xy">
  1 122.518 -0.00557253 -1.70451e-14
  2 122.518 -0.00557253 8.07492e-14
  3 122.518 -0.00557253 -4.52807e-15
  4 122.518 -0.00557253 1.51744e-14
  5 122.518 -0.00557253 1.44746e-14
  6 122.518 -0.00557253 1.51737e-14
  7 122.518 -0.00557253 3.93418e-16
  8 122.518 -0.00557253 -2.13491e-14
  9 122.518 -0.00557253 -1.64128e-14
  10 122.518 -0.00557253 -2.21525e-14
  11 122.518 -0.00557253 -2.07567e-14
  12 122.518 -0.00557253 5.29664e-14
</Section>

newXOutput 7

<Section columns = "stress_xx | stress_yy | stress_xy">
  1 146.616 -0.00556029 9.94913e-14
  2 146.616 -0.00556029 -5.40963e-14
  3 146.616 -0.00556029 -8.02879e-15
  4 146.616 -0.00556029 1.02511e-14
  5 146.616 -0.00556029 -2.53533e-14
  6 146.616 -0.00556029 -2.28732e-14
  7 146.616 -0.00556029 -2.63087e-14
  8 146.616 -0.00556029 -5.78551e-14
  9 146.616 -0.00556029 -4.33627e-14
  10 146.616 -0.00556029 1.90084e-14
  11 146.616 -0.00556029 4.44183e-14
  12 146.616 -0.00556029 3.16024e-14
</Section>

newXOutput 8

<Section columns = "stress_xx | stress_yy | stress_xy">
  1 170.580 -0.00554810 5.43558e-14
  2 170.580 -0.00554810 -1.55695e-14
  3 170.580 -0.00554810 7.52385e-14
  4 170.580 -0.00554810 -8.69443e-14
  5 170.580 -0.00554810 -1.84345e-15
  6 170.580 -0.00554810 -5.62091e-16
  7 170.580 -0.00554810 -7.71770e-14
  8 170.580 -0.00554810 7.93313e-14
  9 170.580 -0.00554810 -7.98274e-14
  10 170.580 -0.00554810 -2.83520e-14
  11 170.580 -0.00554810 -7.89330e-14
  12 170.580 -0.00554810 -4.57199e-14
</Section>

newXOutput 9

<Section columns = "stress_xx | stress_yy | stress_xy">
  1 194.413 -0.00553596 1.11787e-14
  2 194.413 -0.00553596 -6.79774e-14
  3 194.413 -0.00553596 4.62442e-14
  4 194.413 -0.00553596 -5.57103e-14
  5 194.413 -0.00553596 1.14706e-14
  6 194.413 -0.00553596 2.13709e-14
  7 194.413 -0.00553596 -1.90562e-14
  8 194.413 -0.00553596 1.98992e-14
  9 194.413 -0.00553596 5.07646e-14
  10 194.413 -0.00553596 -7.14464e-14
  11 194.413 -0.00553596 6.72962e-14
  12 194.413 -0.00553596 -1.12196e-13
</Section>

newXOutput 10

<Section columns = "stress_xx | stress_yy | stress_xy">
  1 218.114 -0.00552388 4.37231e-14
  2 218.114 -0.00552388 -3.58736e-14
  3 218.114 -0.00552388 4.95214e-14
  4 218.114 -0.00552388 -4.66125e-14
  5 218.114 -0.00552388 1.11991e-14
  6 218.114 -0.00552388 2.11133e-14
  7 218.114 -0.00552388 -4.07184e-14
  8 218.114 -0.00552388 -2.27817e-14
  9 218.114 -0.00552388 -6.48577e-14
  10 218.114 -0.00552388 -2.80818e-14
  11 218.114 -0.00552388 -1.14346e-13
  12 218.114 -0.00552388 4.21508e-14
</Section>

newXOutput 11

<Section columns = "stress_xx | stress_yy | stress_xy">
  1 241.685 -0.00551184 1.68924e-14
  2 241.685 -0.00551184 2.37156e-15
  3 241.685 -0.00551184 8.67770e-15
  4 241.685 -0.00551184 -1.39993e-14
  5 241.685 -0.00551184 5.01196e-15
  6 241.685 -0.00551184 6.37879e-15
  7 241.685 -0.00551184 -1.21795e-14
  8 241.685 -0.00551184 -1.55643e-15
  9 241.685 -0.00551184 6.48776e-14
  10 241.685 -0.00551184 5.64154e-14
  11 241.685 -0.00551184 6.47112e-14
  12 241.685 -0.00551184 8.05965e-14
</Section>

newXOutput 12

<Section columns = "stress_xx | stress_yy | stress_xy">
  1 265.126 -0.00549985 1.66175e-14
  2 265.126 -0.00549985 4.12189e-15
  3 265.126 -0.00549985 1.93897e-14
  4 265.126 -0.00549985 1.08510e-15
  5 265.126 -0.00549985 4.45991e-14
  6 265.126 -0.00549985 4.72226e-14
  7 265.126 -0.00549985 1.36977e-14
  8 265.126 -0.00549985 2.19309e-14
  9 265.126 -0.00549985 -2.75228e-14
  10 265.126 -0.00549985 -1.09525e-14
  11 265.126 -0.00549985 -1.09388e-13
  12 265.126 -0.00549985 -3.77828e-14
</Section>

newXOutput 13

<Section columns = "stress_xx | stress_yy | stress_xy">
  1 288.439 -0.00548791 3.65843e-14
  2 288.439 -0.00548791 1.78884e-14
  3 288.439 -0.00548791 3.96497e-15
  4 288.439 -0.00548791 -1.83263e-14
  5 288.439 -0.00548791 -4.56886e-14
  6 288.439 -0.00548791 -4.28123e-14
  7 288.439 -0.00548791 -4.38330e-14
  8 288.439 -0.00548791 -3.09734e-14
  9 288.439 -0.00548791 -9.74803e-14
  10 288.439 -0.00548791 -8.75687e-14
  11 288.439 -0.00548791 -2.38621e-14
  12 288.439 -0.00548791 -1.52301e-15
</Section>

newXOutput 14

<Section columns = "stress_xx | stress_yy | stress_xy">
  1 311.625 -0.00547602 2.38997e-15
  2 311.625 -0.00547602 -1.05068e-14
  3 311.625 -0.00547602 3.94181e-15
  4 311.625 -0.00547602 -1.32539e-14
  5 311.625 -0.00547602 7.56440e-15
  6 311.625 -0.00547602 1.50482e-14
  7 311.625 -0.00547602 -3.41962e-14
  8 311.625 -0.00547602 -1.14954e-14
  9 311.625 -0.00547602 -6.11648e-15
  10 311.625 -0.00547602 -2.77085e-14
  11 311.625 -0.00547602 -2.90939e-14
  12 311.625 -0.00547602 -2.68371e-14
</Section>

newXOutput 15

<Section columns = "stress_xx | stress_yy | stress_xy">
  1 334.683 -0.00546418 1.25150e-14
  2 334.683 -0.00546418 -2.46086e-14
  3 334.683 -0.00546418 2.21310e-14
  4 334.683 -0.00546418 -1.92761e-14
  5 334.683 -0.00546418 1.42347e-15
  6 334.683 -0.00546418 1.51635e-15
  7 334.683 -0.00546418 -2.18677e-14
  8 334.683 -0.00546418 4.55686e-15
  9 334.683 -0.00546418 1.29002e-14
  10 334.683 -0.00546418 4.03712e-14
  11 334.683 -0.00546418 -1.21408e-14
  12 334.683 -0.00546418 1.20742e-14
</Section>

newXOutput 16

<Section columns = "stress_xx | stress_yy | stress_xy">
  1 357.616 -0.00545239 2.74140e-14
  2 357.616 -0.00545239 3.23935e-14
  3 357.616 -0.00545239 6.72876e-15
  4 357.616 -0.00545239 9.21851e-15
  5 357.616 -0.00545239 3.89459e-14
  6 357.616 -0.00545239 3.79701e-14
  7 357.616 -0.00545239 5.98868e-14
  8 357.616 -0.00545239 4.42394e-14
  9 357.616 -0.00545239 3.03335e-14
  10 357.616 -0.00545239 5.35028e-14
  11 357.616 -0.00545239 -4.27289e-14
  12 357.616 -0.00545239 -4.49744e-14
</Section>

newXOutput 17

<Section columns = "stress_xx | stress_yy | stress_xy">
  1 380.423 -0.00544064 -6.98383e-15
  2 380.423 -0.00544064 2.88367e-16
  3 380.423 -0.00544064 -1.87437e-14
  4 380.423 -0.00544064 -1.55989e-14
  5 380.423 -0.00544064 -3.75083e-14
  6 380.423 -0.00544064 -3.77730e-14
  7 380.423 -0.00544064 -3.21364e-14
  8 380.423 -0.00544064 -4.77349e-14
  9 380.423 -0.00544064 -6.79225e-14
  10 380.423 -0.00544064 -6.46827e-14
  11 380.423 -0.00544064 -6.78959e-14
  12 380.423 -0.00544064 -8.22001e-14
</Section>

newXOutput 18

<Section columns = "stress_xx | stress_yy | stress_xy">
  1 403.107 -0.00542895 -6.02640e-14
  2 403.107 -0.00542895 -5.90395e-14
  3 403.107 -0.00542895 -9.73872e-15
  4 403.107 -0.00542895 -4.39759e-15
  5 403.107 -0.00542895 2.85893e-13
  6 403.107 -0.00542895 2.90573e-13
  7 403.107 -0.00542895 -1.59369e-13
  8 403.107 -0.00542895 -1.56817e-13
  9 403.107 -0.00542895 -3.87460e-14
  10 403.107 -0.00542895 -7.79738e-14
  11 403.107 -0.00542895 8.48659e-14
  12 403.107 -0.00542895 1.21112e-13
</Section>

newXOutput 19

<Section columns = "stress_xx | stress_yy | stress_xy">
  1 425.667 -0.00541730 6.51570e-14
  2 425.667 -0.00541730 7.95896e-14
  3 425.667 -0.00541730 -1.48512e-14
  4 425.667 -0.00541730 -1.27076e-14
  5 425.667 -0.00541730 -6.95098e-14
  6 425.667 -0.00541730 -7.68126e-14
  7 425.667 -0.00541730 5.57313e-14
  8 425.667 -0.00541730 5.06353e-14
  9 425.667 -0.00541730 -2.89340e-14
  10 425.667 -0.00541730 -3.87349e-14
  11 425.667 -0.00541730 1.14665e-13
  12 425.667 -0.00541730 -2.39814e-14
</Section>

newXOutput 20

<Section columns = "stress_xx | stress_yy | stress_xy">
  1 448.104 -0.00540570 3.14777e-14
  2 448.104 -0.00540570 4.12951e-14
  3 448.104 -0.00540570 -1.26406e-14
  4 448.104 -0.00540570 -1.29912e-14
  5 448.104 -0.00540570 -2.82518e-14
  6 448.104 -0.00540570 -3.33410e-14
  7 448.104 -0.00540570 6.61759e-14
  8 448.104 -0.00540570 4.31634e-14
  9 448.104 -0.00540570 -3.74648e-15
  10 448.104 -0.00540570 -2.53713e-14
  11 448.104 -0.00540570 -7.27312e-14
  12 448.104 -0.00540570 -1.10021e-13
</Section>

newXOutput 21

<Section columns = "stress_xx | stress_yy | stress_xy">
  1 470.421 -0.00539414 3.20160e-14
  2 470.421 -0.00539414 3.61776e-14
  3 470.421 -0.00539414 1.93815e-14
  4 470.421 -0.00539414 1.12448e-14
  5 470.421 -0.00539414 1.25963e-14
  6 470.421 -0.00539414 8.84559e-16
  7 470.421 -0.00539414 3.31084e-14
  8 470.421 -0.00539414 4.54529e-14
  9 470.421 -0.00539414 2.59111e-14
  10 470.421 -0.00539414 8.31427e-14
  11 470.421 -0.00539414 -6.98453e-14
  12 470.421 -0.00539414 -9.95488e-15
</Section>

newXOutput 22

<Section columns = "stress_xx | stress_yy | stress_xy">
  1 492.616 -0.00538264 -5.07922e-15
  2 492.616 -0.00538264 -2.00558e-15
  3 492.616 -0.00538264 -5.73106e-14
  4 492.616 -0.00538264 -5.75768e-14
  5 492.616 -0.00538264 -5.56512e-14
  6 492.616 -0.00538264 -6.76719e-14
  7 492.616 -0.00538264 4.92772e-14
  8 492.616 -0.00538264 6.26106e-14
  9 492.616 -0.00538264 8.14228e-14
  10 492.616 -0.00538264 1.55658e-13
  11 492.616 -0.00538264 2.83940e-14
  12 492.616 -0.00538264 2.27105e-13
</Section>

newXOutput 23

<Section columns = "stress_xx | stress_yy | stress_xy">
  1 514.691 -0.00537118 -4.99344e-14
  2 514.691 -0.00537118 4.99722e-14
  3 514.691 -0.00537118 -4.54676e-15
  4 514.691 -0.00537118 6.48328e-14
  5 514.691 -0.00537118 1.94391e-13
  6 514.691 -0.00537118 1.62637e-13
  7 514.691 -0.00537118 -1.73142e-13
  8 514.691 -0.00537118 -2.16412e-13
  9 514.691 -0.00537118 5.36317e-15
  10 514.691 -0.00537118 -5.09258e-15
  11 514.691 -0.00537118 4.98926e-14
  12 514.691 -0.00537118 -2.45101e-16
</Section>

newXOutput 24

<Section columns = "stress_xx | stress_yy | stress_xy">
  1 536.648 -0.00535976 -2.21869e-15
  2 536.648 -0.00535976 1.33015e-13
  3 536.648 -0.00535976 3.66645e-14
  4 536.648 -0.00535976 2.31045e-14
  5 536.648 -0.00535976 -4.47225e-14
  6 536.648 -0.00535976 -7.98229e-14
  7 536.648 -0.00535976 4.43073e-14
  8 536.648 -0.00535976 8.96703e-14
  9 536.648 -0.00535976 -1.13957e-13
  10 536.648 -0.00535976 -1.44209e-13
  11 536.648 -0.00535976 -1.30505e-13
  12 536.648 -0.00535976 -2.59855e-13
</Section>

newXOutput 25

<Section columns = "stress_xx | stress_yy | stress_xy">
  1 558.485 -0.00534840 6.09993e-14
  2 558.485 -0.00534840 -4.57788e-14
  3 558.485 -0.00534840 -4.24858e-14
  4 558.485 -0.00534840 -6.65970e-14
  5 558.485 -0.00534840 -9.42692e-14
  6 558.485 -0.00534840 -3.86587e-14
  7 558.485 -0.00534840 1.38945e-13
  8 558.485 -0.00534840 1.29369e-13
  9 558.485 -0.00534840 2.61907e-13
  10 558.485 -0.00534840 2.31131e-13
  11 558.485 -0.00534840 -1.54545e-13
  12 558.485 -0.00534840 -1.57645e-13
</Section>

newXOutput 26

<Section columns = "stress_xx | stress_yy | stress_xy">
  1 580.206 -0.00533707 4.95645e-14
  2 580.206 -0.00533707 -3.92366e-14
  3 580.206 -0.00533707 -1.71778e-14
  4 580.206 -0.00533707 -3.57880e-14
  5 580.206 -0.00533707 -5.54438e-14
  6 580.206 -0.00533707 -3.12120e-15
  7 580.206 -0.00533707 -4.66142e-14
  8 580.206 -0.00533707 -5.25442e-14
  9 580.206 -0.00533707 4.52683e-15
  10 580.206 -0.00533707 -2.19413e-14
  11 580.206 -0.00533707 -5.45738e-14
  12 580.206 -0.00533707 -6.59375e-14
</Section>

newXOutput 27

<Section columns = "stress_xx | stress_yy | stress_xy">
  1 601.810 -0.00532580 7.40049e-14
  2 601.810 -0.00532580 -8.07939e-15
  3 601.810 -0.00532580 -3.88631e-14
  4 601.810 -0.00532580 -4.15993e-14
  5 601.810 -0.00532580 -1.00467e-14
  6 601.810 -0.00532580 -9.26661e-14
  7 601.810 -0.00532580 3.10854e-14
  8 601.810 -0.00532580 2.65354e-14
  9 601.810 -0.00532580 9.13585e-14
  10 601.810 -0.00532580 1.60597e-13
  11 601.810 -0.00532580 -1.01021e-15
  12 601.810 -0.00532580 -6.19747e-14
</Section>

newXOutput 28

<Section columns = "stress_xx | stress_yy | stress_xy">
  1 623.298 -0.00531457 6.92041e-14
  2 623.298 -0.00531457 -3.21722e-16
  3 623.298 -0.00531457 1.00922e-15
  4 623.298 -0.00531457 -2.39891e-15
  5 623.298 -0.00531457 5.62982e-14
  6 623.298 -0.00531457 -6.26544e-15
  7 623.298 -0.00531457 -5.59770e-14
  8 623.298 -0.00531457 -8.30138e-14
  9 623.298 -0.00531457 1.67557e-14
  10 623.298 -0.00531457 1.17657e-14
  11 623.298 -0.00531457 1.00352e-13
  12 623.298 -0.00531457 3.17004e-15
</Section>

newXOutput 29

<Section columns = "stress_xx | stress_yy | stress_xy">
  1 644.670 -0.00530338 8.09539e-14
  2 644.670 -0.00530338 -6.88491e-15
  3 644.670 -0.00530338 -1.20927e-15
  4 644.670 -0.00530338 -5.08644e-14
  5 644.670 -0.00530338 -1.10830e-13
  6 644.670 -0.00530338 -9.72453e-14
  7 644.670 -0.00530338 2.71230e-14
  8 644.670 -0.00530338 1.89723e-14
  9 644.670 -0.00530338 4.93917e-14
  10 644.670 -0.00530338 4.12369e-14
  11 644.670 -0.00530338 -3.43672e-14
  12 644.670 -0.00530338 4.07928e-14
</Section>

newXOutput 30

<Section columns = "stress_xx | stress_yy | stress_xy">
  1 665.929 -0.00529224 -8.00887e-15
  2 665.929 -0.00529224 1.94015e-13
  3 665.929 -0.00529224 -3.25218e-14
  4 665.929 -0.00529224 5.85045e-14
  5 665.929 -0.00529224 -3.16448e-14
  6 665.929 -0.00529224 -3.55657e-14
  7 665.929 -0.00529224 -4.05321e-14
  8 665.929 -0.00529224 -5.25066e-14
  9 665.929 -0.00529224 -3.70877e-14
  10 665.929 -0.00529224 -5.73101e-14
  11 665.929 -0.00529224 -7.03815e-14
  12 665.929 -0.00529224 -6.48010e-14
</Section>

newXOutput 31

<Section columns = "stress_xx | stress_yy | stress_xy">
  1 687.074 -0.00528115 -1.76659e-14
  2 687.074 -0.00528115 1.50476e-13
  3 687.074 -0.00528115 -7.81039e-14
  4 687.074 -0.00528115 -2.49489e-15
  5 687.074 -0.00528115 -3.04202e-14
  6 687.074 -0.00528115 -2.77224e-14
  7 687.074 -0.00528115 5.29100e-14
  8 687.074 -0.00528115 4.17184e-14
  9 687.074 -0.00528115 1.15408e-13
  10 687.074 -0.00528115 2.68307e-14
  11 687.074 -0.00528115 -7.13879e-14
  12 687.074 -0.00528115 -2.83814e-14
</Section>

newXOutput 32

<Section columns = "stress_xx | stress_yy | stress_xy">
  1 708.106 -0.00527009 1.36360e-13
  2 708.106 -0.00527009 1.11791e-16
  3 708.106 -0.00527009 8.30992e-14
  4 708.106 -0.00527009 2.46932e-14
  5 708.106 -0.00527009 -3.41700e-14
  6 708.106 -0.00527009 -1.02423e-14
  7 708.106 -0.00527009 6.02602e-14
  8 708.106 -0.00527009 8.27271e-14
  9 708.106 -0.00527009 5.10845e-14
  10 708.106 -0.00527009 2.86116e-14
  11 708.106 -0.00527009 3.24145e-14
  12 708.106 -0.00527009 3.37587e-14
</Section>

newXOutput 33

<Section columns = "stress_xx | stress_yy | stress_xy">
  1 729.026 -0.00525909 1.26674e-13
  2 729.026 -0.00525909 -3.67464e-14
  3 729.026 -0.00525909 4.67991e-14
  4 729.026 -0.00525909 -3.42412e-14
  5 729.026 -0.00525909 1.57418e-13
  6 729.026 -0.00525909 1.66256e-13
  7 729.026 -0.00525909 -9.98151e-14
  8 729.026 -0.00525909 -1.11810e-13
  9 729.026 -0.00525909 -1.30538e-13
  10 729.026 -0.00525909 -1.37263e-13
  11 729.026 -0.00525909 5.01437e-14
  12 729.026 -0.00525909 -2.19927e-14
</Section>

newXOutput 34

<Section columns = "stress_xx | stress_yy | stress_xy">
  1 749.835 -0.00524812 8.36513e-14
  2 749.835 -0.00524812 4.31092e-14
  3 749.835 -0.00524812 3.69049e-14
  4 749.835 -0.00524812 -1.74086e-15
  5 749.835 -0.00524812 5.74429e-14
  6 749.835 -0.00524812 4.55580e-14
  7 749.835 -0.00524812 -1.33669e-15
  8 749.835 -0.00524812 -2.25237e-14
  9 749.835 -0.00524812 -7.14634e-14
  10 749.835 -0.00524812 -6.90712e-14
  11 749.835 -0.00524812 -9.39305e-14
  12 749.835 -0.00524812 -2.47996e-13
</Section>

newXOutput 35

<Section columns = "stress_xx | stress_yy | stress_xy">
  1 770.533 -0.00523720 6.96049e-14
  2 770.533 -0.00523720 2.25445e-14
  3 770.533 -0.00523720 -1.49863e-14
  4 770.533 -0.00523720 -1.55885e-14
  5 770.533 -0.00523720 -9.46455e-14
  6 770.533 -0.00523720 -9.45197e-14
  7 770.533 -0.00523720 2.32454e-14
  8 770.533 -0.00523720 -5.60611e-15
  9 770.533 -0.00523720 1.06636e-13
  10 770.533 -0.00523720 8.96940e-14
  11 770.533 -0.00523720 -2.00816e-13
  12 770.533 -0.00523720 -9.42750e-14
</Section>

newXOutput 36

<Section columns = "stress_xx | stress_yy | stress_xy">
  1 791.122 -0.00522632 4.21110e-14
  2 791.122 -0.00522632 1.16236e-14
  3 791.122 -0.00522632 1.67524e-14
  4 791.122 -0.00522632 1.94035e-14
  5 791.122 -0.00522632 -8.63409e-14
  6 791.122 -0.00522632 -8.55552e-14
  7 791.122 -0.00522632 -2.17962e-15
  8 791.122 -0.00522632 -3.02815e-14
  9 791.122 -0.00522632 -3.77457e-13
  10 791.122 -0.00522632 -3.47803e-13
  11 791.122 -0.00522632 -6.95459e-14
  12 791.122 -0.00522632 -7.36737e-14
</Section>

newXOutput 37

<Section columns = "stress_xx | stress_yy | stress_xy">
  1 811.601 -0.00521549 5.40184e-14
  2 811.601 -0.00521549 3.10818e-14
  3 811.601 -0.00521549 2.14500e-15
  4 811.601 -0.00521549 1.37493e-14
  5 811.601 -0.00521549 4.04261e-14
  6 811.601 -0.00521549 4.05463e-14
  7 811.601 -0.00521549 1.55435e-13
  8 811.601 -0.00521549 1.51012e-13
  9 811.601 -0.00521549 -2.38127e-13
  10 811.601 -0.00521549 -1.10645e-13
  11 811.601 -0.00521549 -1.08201e-13
  12 811.601 -0.00521549 2.44125e-14
</Section>

newXOutput 38

<Section columns = "stress_xx | stress_yy | stress_xy">
  1 831.972 -0.00520470 7.27046e-14
  2 831.972 -0.00520470 4.81637e-14
  3 831.972 -0.00520470 -8.39029e-15
  4 831.972 -0.00520470 -8.78298e-15
  5 831.972 -0.00520470 4.84463e-14
  6 831.972 -0.00520470 5.19720e-14
  7 831.972 -0.00520470 4.47814e-14
  8 831.972 -0.00520470 1.56639e-14
  9 831.972 -0.00520470 2.36109e-16
  10 831.972 -0.00520470 6.14400e-15
  11 831.972 -0.00520470 -1.79350e-15
  12 831.972 -0.00520470 9.08595e-14
</Section>

newXOutput 39

<Section columns = "stress_xx | stress_yy | stress_xy">
  1 852.236 -0.00519395 -6.47774e-14
  2 852.236 -0.00519395 1.76590e-13
  3 852.236 -0.00519395 1.00787e-14
  4 852.236 -0.00519395 2.18847e-14
  5 852.236 -0.00519395 -4.31049e-14
  6 852.236 -0.00519395 -5.49109e-14
  7 852.236 -0.00519395 -2.96513e-13
  8 852.236 -0.00519395 -1.54612e-13
  9 852.236 -0.00519395 -6.01001e-14
  10 852.236 -0.00519395 -1.61122e-13
  11 852.236 -0.00519395 5.37119e-14
  12 852.236 -0.00519395 -1.72579e-13
</Section>

newXOutput 40

<Section columns = "stress_xx | stress_yy | stress_xy">
  1 872.393 -0.00518325 1.23939e-14
  2 872.393 -0.00518325 1.08682e-13
  3 872.393 -0.00518325 4.40887e-14
  4 872.393 -0.00518325 6.15078e-14
  5 872.393 -0.00518325 1.24928e-13
  6 872.393 -0.00518325 1.24498e-13
  7 872.393 -0.00518325 1.06861e-13
  8 872.393 -0.00518325 1.79865e-13
  9 872.393 -0.00518325 1.87063e-13
  10 872.393 -0.00518325 1.11749e-13
  11 872.393 -0.00518325 7.65043e-14
  12 872.393 -0.00518325 -2.77105e-13
</Section>

newXOutput 41

<Section columns = "stress_xx | stress_yy | stress_xy">
  1 892.444 -0.00517258 6.74106e-14
  2 892.444 -0.00517258 1.55785e-13
  3 892.444 -0.00517258 -2.39865e-15
  4 892.444 -0.00517258 8.56526e-15
  5 892.444 -0.00517258 -8.99875e-14
  6 892.444 -0.00517258 -7.60906e-14
  7 892.444 -0.00517258 1.76967e-13
  8 892.444 -0.00517258 1.54598e-13
  9 892.444 -0.00517258 1.50340e-13
  10 892.444 -0.00517258 1.76447e-13
  11 892.444 -0.00517258 -1.73750e-14
  12 892.444 -0.00517258 1.07769e-14
</Section>

newXOutput 42

<Section columns = "stress_xx | stress_yy | stress_xy">
  1 912.389 -0.00516196 2.75780e-13
  2 912.389 -0.00516196 -2.03517e-13
  3 912.389 -0.00516196 4.47242e-14
  4 912.389 -0.00516196 -1.85868e-13
  5 912.389 -0.00516196 -7.57079e-14
  6 912.389 -0.00516196 -5.81718e-14
  7 912.389 -0.00516196 -1.43849e-13
  8 912.389 -0.00516196 8.94662e-14
  9 912.389 -0.00516196 4.61975e-14
  10 912.389 -0.00516196 -2.87040e-14
  11 912.389 -0.00516196 1.48451e-13
  12 912.389 -0.00516196 -4.70560e-13
</Section>

newXOutput 43

<Section columns = "stress_xx | stress_yy | stress_xy">
  1 932.229 -0.00515138 1.34427e-13
  2 932.229 -0.00515138 7.92887e-15
  3 932.229 -0.00515138 1.69866e-14
  4 932.229 -0.00515138 3.59671e-15
  5 932.229 -0.00515138 -1.10833e-14
  6 932.229 -0.00515138 4.71351e-14
  7 932.229 -0.00515138 1.06020e-14
  8 932.229 -0.00515138 2.69814e-14
  9 932.229 -0.00515138 2.62322e-13
  10 932.229 -0.00515138 2.70621e-13
  11 932.229 -0.00515138 1.01594e-13
  12 932.229 -0.00515138 8.26462e-14
</Section>

newXOutput 44

<Section columns = "stress_xx | stress_yy | stress_xy">
  1 951.966 -0.00514084 1.39663e-13
  2 951.966 -0.00514084 9.32491e-14
  3 951.966 -0.00514084 -1.66473e-13
  4 951.966 -0.00514084 -1.88391e-13
  5 951.966 -0.00514084 -8.67666e-14
  6 951.966 -0.00514084 -7.06505e-14
  7 951.966 -0.00514084 -8.76500e-14
  8 951.966 -0.00514084 -2.16940e-14
  9 951.966 -0.00514084 -7.86679e-14
  10 951.966 -0.00514084 -1.13562e-13
  11 951.966 -0.00514084 -5.87939e-14
  12 951.966 -0.00514084 -2.43826e-13
</Section>

newXOutput 45

<Section columns = "stress_xx | stress_yy | stress_xy">
  1 971.599 -0.00513035 1.32336e-13
  2 971.599 -0.00513035 9.37900e-14
  3 971.599 -0.00513035 -1.02526e-13
  4 971.599 -0.00513035 -1.10877e-13
  5 971.599 -0.00513035 -4.64098e-14
  6 971.599 -0.00513035 -5.55492e-14
  7 971.599 -0.00513035 -6.22905e-14
  8 971.599 -0.00513035 -6.90726e-14
  9 971.599 -0.00513035 1.49503e-13
  10 971.599 -0.00513035 2.39508e-13
  11 971.599 -0.00513035 7.17949e-14
  12 971.599 -0.00513035 1.60423e-13
</Section>

newXOutput 46

<Section columns = "stress_xx | stress_yy | stress_xy">
  1 991.129 -0.00511989 7.48185e-14
  2 991.129 -0.00511989 4.02465e-14
  3 991.129 -0.00511989 -6.33569e-14
  4 991.129 -0.00511989 -7.87222e-14
  5 991.129 -0.00511989 2.88610e-14
  6 991.129 -0.00511989 1.18492e-13
  7 991.129 -0.00511989 -6.83049e-14
  8 991.129 -0.00511989 1.44754e-14
  9 991.129 -0.00511989 -5.76032e-14
  10 991.129 -0.00511989 -8.52092e-14
  11 991.129 -0.00511989 -6.04202e-14
  12 991.129 -0.00511989 -1.18718e-13
</Section>

newXOutput 47

<Section columns = "stress_xx | stress_yy | stress_xy">
  1 1010.56 -0.00510948 1.62534e-13
  2 1010.56 -0.00510948 1.24887e-13
  3 1010.56 -0.00510948 1.76047e-14
  4 1010.56 -0.00510948 2.64233e-14
  5 1010.56 -0.00510948 -2.35944e-14
  6 1010.56 -0.00510948 -8.91983e-15
  7 1010.56 -0.00510948 -3.60628e-15
  8 1010.56 -0.00510948 -1.17142e-14
  9 1010.56 -0.00510948 -2.39939e-16
  10 1010.56 -0.00510948 5.72538e-14
  11 1010.56 -0.00510948 6.03822e-14
  12 1010.56 -0.00510948 1.85039e-13
</Section>

newXOutput 48

<Section columns = "stress_xx | stress_yy | stress_xy">
  1 1029.89 -0.00509910 6.04749e-14
  2 1029.89 -0.00509910 4.32183e-14
  3 1029.89 -0.00509910 -4.12137e-14
  4 1029.89 -0.00509910 -2.35822e-14
  5 1029.89 -0.00509910 -4.28747e-14
  6 1029.89 -0.00509910 -2.99767e-14
  7 1029.89 -0.00509910 -3.21805e-14
  8 1029.89 -0.00509910 -4.31773e-14
  9 1029.89 -0.00509910 -1.17534e-14
  10 1029.89 -0.00509910 -4.87337e-14
  11 1029.89 -0.00509910 -6.49377e-14
  12 1029.89 -0.00509910 -1.30721e-13
</Section>

newXOutput 49

<Section columns = "stress_xx | stress_yy | stress_xy">
  1 1049.11 -0.00508877 -1.39261e-13
  2 1049.11 -0.00508877 3.03108e-13
  3 1049.11 -0.00508877 5.01617e-14
  4 1049.11 -0.00508877 8.95372e-14
  5 1049.11 -0.00508877 1.60089e-13
  6 1049.11 -0.00508877 1.84750e-15
  7 1049.11 -0.00508877 5.47367e-14
  8 1049.11 -0.00508877 5.37141e-14
  9 1049.11 -0.00508877 3.52629e-14
  10 1049.11 -0.00508877 9.70653e-14
  11 1049.11 -0.00508877 -1.50919e-13
  12 1049.11 -0.00508877 1.05639e-13
</Section>

newXOutput 50

<Section columns = "stress_xx | stress_yy | stress_xy">
  1 1068.24 -0.00507847 8.69857e-14
  2 1068.24 -0.00507847 8.82488e-14
  3 1068.24 -0.00507847 -2.65442e-14
  4 1068.24 -0.00507847 -2.54701e-15
  5 1068.24 -0.00507847 -9.40894e-14
  6 1068.24 -0.00507847 -7.68679e-14
  7 1068.24 -0.00507847 3.00659e-13
  8 1068.24 -0.00507847 2.93934e-13
  9 1068.24 -0.00507847 3.61018e-14
  10 1068.24 -0.00507847 6.82901e-14
  11 1068.24 -0.00507847 -2.11965e-13
  12 1068.24 -0.00507847 -2.75117e-13
</Section>

newXOutput 51

<Section columns = "stress_xx | stress_yy | stress_xy">
  1 1087.27 -0.00506822 9.79210e-14
  2 1087.27 -0.00506822 8.72900e-14
  3 1087.27 -0.00506822 1.73001e-14
  4 1087.27 -0.00506822 4.23525e-15
  5 1087.27 -0.00506822 3.69119e-14
  6 1087.27 -0.00506822 5.33737e-14
  7 1087.27 -0.00506822 -1.45210e-13
  8 1087.27 -0.00506822 -6.45620e-14
  9 1087.27 -0.00506822 1.26986e-13
  10 1087.27 -0.00506822 -4.82834e-14
  11 1087.27 -0.00506822 1.59475e-13
  12 1087.27 -0.00506822 -2.76656e-14
</Section>

newXOutput 52

<Section columns = "stress_xx | stress_yy | stress_xy">
  1 1106.19 -0.00505801 5.95122e-14
  2 1106.19 -0.00505801 1.07180e-13
  3 1106.19 -0.00505801 4.82625e-15
  4 1106.19 -0.00505801 -8.04741e-14
  5 1106.19 -0.00505801 7.62444e-14
  6 1106.19 -0.00505801 3.10547e-14
  7 1106.19 -0.00505801 -1.90597e-13
  8 1106.19 -0.00505801 -9.13461e-14
  9 1106.19 -0.00505801 -8.28779e-14
  10 1106.19 -0.00505801 4.65444e-14
  11 1106.19 -0.00505801 -2.26698e-13
  12 1106.19 -0.00505801 -3.84659e-14
</Section>

newXOutput 53

<Section columns = "stress_xx | stress_yy | stress_xy">
  1 1125.02 -0.00504783 5.45254e-14
  2 1125.02 -0.00504783 9.70306e-14
  3 1125.02 -0.00504783 -5.25606e-14
  4 1125.02 -0.00504783 -2.13068e-14
  5 1125.02 -0.00504783 4.89416e-14
  6 1125.02 -0.00504783 5.18631e-15
  7 1125.02 -0.00504783 1.75025e-14
  8 1125.02 -0.00504783 -5.00057e-14
  9 1125.02 -0.00504783 -6.81920e-14
  10 1125.02 -0.00504783 -1.78692e-14
  11 1125.02 -0.00504783 1.44191e-14
  12 1125.02 -0.00504783 2.19439e-13
</Section>

newXOutput 54

<Section columns = "stress_xx | stress_yy | stress_xy">
  1 1143.76 -0.00503770 4.38205e-14
  2 1143.76 -0.00503770 1.06776e-13
  3 1143.76 -0.00503770 -1.08435e-13
  4 1143.76 -0.00503770 -5.49038e-14
  5 1143.76 -0.00503770 -5.82301e-14
  6 1143.76 -0.00503770 -9.29650e-14
  7 1143.76 -0.00503770 3.58515e-14
  8 1143.76 -0.00503770 -3.73724e-14
  9 1143.76 -0.00503770 1.64158e-13
  10 1143.76 -0.00503770 1.46942e-13
  11 1143.76 -0.00503770 -3.54412e-13
  12 1143.76 -0.00503770 -4.51921e-13
</Section>

newXOutput 55

<Section columns = "stress_xx | stress_yy | stress_xy">
  1 1162.39 -0.00502760 5.30344e-14
  2 1162.39 -0.00502760 9.02849e-14
  3 1162.39 -0.00502760 -2.68944e-14
  4 1162.39 -0.00502760 -8.19015e-16
  5 1162.39 -0.00502760 1.30579e-13
  6 1162.39 -0.00502760 8.72652e-14
  7 1162.39 -0.00502760 1.26027e-13
  8 1162.39 -0.00502760 4.68169e-14
  9 1162.39 -0.00502760 -8.01373e-14
  10 1162.39 -0.00502760 -9.16273e-15
  11 1162.39 -0.00502760 -1.10265e-13
  12 1162.39 -0.00502760 -8.42416e-16
</Section>

newXOutput 56

<Section columns = "stress_xx | stress_yy | stress_xy">
  1 1180.93 -0.00501754 7.68654e-14
  2 1180.93 -0.00501754 1.13990e-13
  3 1180.93 -0.00501754 3.52335e-14
  4 1180.93 -0.00501754 2.78086e-14
  5 1180.93 -0.00501754 -7.24581e-14
  6 1180.93 -0.00501754 -1.18104e-13
  7 1180.93 -0.00501754 1.82124e-13
  8 1180.93 -0.00501754 1.25431e-13
  9 1180.93 -0.00501754 5.50026e-13
  10 1180.93 -0.00501754 4.69374e-13
  11 1180.93 -0.00501754 7.76468e-14
  12 1180.93 -0.00501754 7.96972e-14
</Section>

newXOutput 57

<Section columns = "stress_xx | stress_yy | stress_xy">
  1 1199.38 -0.00500753 4.99931e-14
  2 1199.38 -0.00500753 9.13826e-14
  3 1199.38 -0.00500753 -1.54534e-14
  4 1199.38 -0.00500753 -2.39541e-14
  5 1199.38 -0.00500753 -9.10568e-14
  6 1199.38 -0.00500753 -7.36551e-14
  7 1199.38 -0.00500753 -2.04743e-13
  8 1199.38 -0.00500753 -3.93992e-14
  9 1199.38 -0.00500753 -2.19648e-13
  10 1199.38 -0.00500753 -1.66790e-13
  11 1199.38 -0.00500753 -1.78892e-13
  12 1199.38 -0.00500753 -5.01718e-13
</Section>

newXOutput 58

<Section columns = "stress_xx | stress_yy | stress_xy">
  1 1217.73 -0.00499755 2.12846e-13
  2 1217.73 -0.00499755 5.06009e-14
  3 1217.73 -0.00499755 -2.04946e-14
  4 1217.73 -0.00499755 -4.50772e-14
  5 1217.73 -0.00499755 9.97898e-15
  6 1217.73 -0.00499755 4.82128e-14
  7 1217.73 -0.00499755 -1.14876e-13
  8 1217.73 -0.00499755 -1.40509e-13
  9 1217.73 -0.00499755 2.55464e-13
  10 1217.73 -0.00499755 2.43269e-13
  11 1217.73 -0.00499755 7.54149e-15
  12 1217.73 -0.00499755 -1.49132e-14
</Section>

newXOutput 59

<Section columns = "stress_xx | stress_yy | stress_xy">
  1 1235.99 -0.00498760 8.10906e-15
  2 1235.99 -0.00498760 2.34830e-13
  3 1235.99 -0.00498760 -5.94784e-14
  4 1235.99 -0.00498760 8.25571e-14
  5 1235.99 -0.00498760 -3.90567e-14
  6 1235.99 -0.00498760 -1.81061e-14
  7 1235.99 -0.00498760 -1.58104e-13
  8 1235.99 -0.00498760 -1.64328e-13
  9 1235.99 -0.00498760 -1.71521e-13
  10 1235.99 -0.00498760 -1.98471e-13
  11 1235.99 -0.00498760 -3.98447e-14
  12 1235.99 -0.00498760 -1.15794e-13
</Section>

newXOutput 60

<Section columns = "stress_xx | stress_yy | stress_xy">
  1 1254.15 -0.00497770 7.06997e-14
  2 1254.15 -0.00497770 1.68369e-13
  3 1254.15 -0.00497770 -1.29929e-13
  4 1254.15 -0.00497770 -1.17720e-13
  5 1254.15 -0.00497770 -2.66406e-13
  6 1254.15 -0.00497770 -2.44310e-13
  7 1254.15 -0.00497770 7.37140e-14
  8 1254.15 -0.00497770 4.84558e-14
  9 1254.15 -0.00497770 5.67153e-13
  10 1254.15 -0.00497770 6.05690e-13
  11 1254.15 -0.00497770 -9.34690e-14
  12 1254.15 -0.00497770 6.28013e-14
</Section>

newXOutput 61

<Section columns = "stress_xx | stress_yy | stress_xy">
  1 1272.22 -0.00496784 2.08128e-13
  2 1272.22 -0.00496784 5.72505e-14
  3 1272.22 -0.00496784 6.38470e-14
  4 1272.22 -0.00496784 1.27433e-14
  5 1272.22 -0.00496784 -5.24474e-14
  6 1272.22 -0.00496784 -3.52966e-14
  7 1272.22 -0.00496784 -9.68317e-14
  8 1272.22 -0.00496784 -4.89896e-14
  9 1272.22 -0.00496784 1.31097e-14
  10 1272.22 -0.00496784 -6.16169e-14
  11 1272.22 -0.00496784 -1.91441e-13
  12 1272.22 -0.00496784 -1.59716e-13
</Section>

newXOutput 62

<Section columns = "stress_xx | stress_yy | stress_xy">
  1 1290.19 -0.00495801 1.48293e-13
  2 1290.19 -0.00495801 2.77231e-15
  3 1290.19 -0.00495801 7.63826e-14
  4 1290.19 -0.00495801 2.18124e-14
  5 1290.19 -0.00495801 1.49913e-13
  6 1290.19 -0.00495801 1.70640e-13
  7 1290.19 -0.00495801 -4.10692e-13
  8 1290.19 -0.00495801 -3.81512e-13
  9 1290.19 -0.00495801 1.47738e-13
  10 1290.19 -0.00495801 9.74022e-14
  11 1290.19 -0.00495801 1.64388e-13
  12 1290.19 -0.00495801 -7.80756e-14
</Section>

newXOutput 63

<Section columns = "stress_xx | stress_yy | stress_xy">
  1 1308.08 -0.00494822 2.11204e-13
  2 1308.08 -0.00494822 8.06744e-14
  3 1308.08 -0.00494822 -1.92545e-13
  4 1308.08 -0.00494822 -2.44515e-13
  5 1308.08 -0.00494822 -1.21945e-13
  6 1308.08 -0.00494822 -8.15988e-14
  7 1308.08 -0.00494822 1.72255e-14
  8 1308.08 -0.00494822 1.12851e-13
  9 1308.08 -0.00494822 -2.96439e-14
  10 1308.08 -0.00494822 -7.98785e-14
  11 1308.08 -0.00494822 -3.05276e-13
  12 1308.08 -0.00494822 -5.30268e-13
</Section>

newXOutput 64

<Section columns = "stress_xx | stress_yy | stress_xy">
  1 1325.87 -0.00493846 2.21847e-13
  2 1325.87 -0.00493846 7.97088e-14
  3 1325.87 -0.00493846 2.32646e-14
  4 1325.87 -0.00493846 -4.29860e-14
  5 1325.87 -0.00493846 1.82478e-13
  6 1325.87 -0.00493846 1.95830e-13
  7 1325.87 -0.00493846 6.58770e-14
  8 1325.87 -0.00493846 8.75839e-14
  9 1325.87 -0.00493846 1.16071e-13
  10 1325.87 -0.00493846 1.76168e-13
  11 1325.87 -0.00493846 3.35410e-13
  12 1325.87 -0.00493846 3.41007e-13
</Section>

newXOutput 65

<Section columns = "stress_xx | stress_yy | stress_xy">
  1 1343.58 -0.00492875 3.46260e-14
  2 1343.58 -0.00492875 2.54517e-13
  3 1343.58 -0.00492875 -2.84113e-16
  4 1343.58 -0.00492875 9.09075e-14
  5 1343.58 -0.00492875 -4.34402e-14
  6 1343.58 -0.00492875 -3.97415e-14
  7 1343.58 -0.00492875 -4.17373e-13
  8 1343.58 -0.00492875 -4.25777e-13
  9 1343.58 -0.00492875 -4.16621e-13
  10 1343.58 -0.00492875 -3.51403e-13
  11 1343.58 -0.00492875 -5.27572e-13
  12 1343.58 -0.00492875 -3.29127e-13
</Section>

newXOutput 66

<Section columns = "stress_xx | stress_yy | stress_xy">
  1 1361.19 -0.00491907 1.43853e-14
  2 1361.19 -0.00491907 2.27366e-13
  3 1361.19 -0.00491907 4.79957e-14
  4 1361.19 -0.00491907 9.10704e-14
  5 1361.19 -0.00491907 1.14617e-14
  6 1361.19 -0.00491907 -3.63066e-14
  7 1361.19 -0.00491907 -1.21833e-13
  8 1361.19 -0.00491907 -7.28007e-14
  9 1361.19 -0.00491907 5.36242e-14
  10 1361.19 -0.00491907 1.61647e-13
  11 1361.19 -0.00491907 -2.27396e-13
  12 1361.19 -0.00491907 -4.04091e-14
</Section>

newXOutput 67

<Section columns = "stress_xx | stress_yy | stress_xy">
  1 1378.71 -0.00490943 1.68902e-13
  2 1378.71 -0.00490943 5.06156e-14
  3 1378.71 -0.00490943 1.58062e-14
  4 1378.71 -0.00490943 3.73157e-14
  5 1378.71 -0.00490943 -1.52643e-13
  6 1378.71 -0.00490943 -1.26320e-13
  7 1378.71 -0.00490943 6.12632e-14
  8 1378.71 -0.00490943 7.54941e-15
  9 1378.71 -0.00490943 -5.67239e-14
  10 1378.71 -0.00490943 -9.34410e-14
  11 1378.71 -0.00490943 8.79527e-14
  12 1378.71 -0.00490943 -6.83016e-14
</Section>

newXOutput 68

<Section columns = "stress_xx | stress_yy | stress_xy">
  1 1396.15 -0.00489982 1.42059e-13
  2 1396.15 -0.00489982 1.30174e-13
  3 1396.15 -0.00489982 -3.08069e-14
  4 1396.15 -0.00489982 -7.35950e-14
  5 1396.15 -0.00489982 -5.41431e-15
  6 1396.15 -0.00489982 4.17735e-15
  7 1396.15 -0.00489982 9.65428e-14
  8 1396.15 -0.00489982 8.57711e-14
  9 1396.15 -0.00489982 2.15228e-13
  10 1396.15 -0.00489982 7.78213e-14
  11 1396.15 -0.00489982 -5.53452e-14
  12 1396.15 -0.00489982 -1.78140e-13
</Section>

newXOutput 69

<Section columns = "stress_xx | stress_yy | stress_xy">
  1 1413.49 -0.00489025 1.16430e-13
  2 1413.49 -0.00489025 1.53409e-13
  3 1413.49 -0.00489025 7.89274e-14
  4 1413.49 -0.00489025 1.17980e-13
  5 1413.49 -0.00489025 1.65109e-14
  6 1413.49 -0.00489025 -3.54871e-15
  7 1413.49 -0.00489025 -3.80545e-14
  8 1413.49 -0.00489025 -5.35536e-14
  9 1413.49 -0.00489025 1.46753e-13
  10 1413.49 -0.00489025 1.38650e-13
  11 1413.49 -0.00489025 3.61947e-13
  12 1413.49 -0.00489025 1.36637e-15
</Section>

newXOutput 70

<Section columns = "stress_xx | stress_yy | stress_xy">
  1 1430.75 -0.00488072 1.69163e-13
  2 1430.75 -0.00488072 1.52633e-13
  3 1430.75 -0.00488072 -3.45967e-13
  4 1430.75 -0.00488072 -3.15270e-13
  5 1430.75 -0.00488072 -2.70849e-13
  6 1430.75 -0.00488072 -2.00527e-13
  7 1430.75 -0.00488072 3.08234e-14
  8 1430.75 -0.00488072 3.75955e-14
  9 1430.75 -0.00488072 -5.75508e-14
  10 1430.75 -0.00488072 -2.60392e-13
  11 1430.75 -0.00488072 -5.68696e-14
  12 1430.75 -0.00488072 -1.00927e-13
</Section>

newXOutput 71

<Section columns = "stress_xx | stress_yy | stress_xy">
  1 1447.93 -0.00487122 1.51121e-13
  2 1447.93 -0.00487122 1.58182e-13
  3 1447.93 -0.00487122 -1.14965e-14
  4 1447.93 -0.00487122 -9.97530e-14
  5 1447.93 -0.00487122 1.31333e-13
  6 1447.93 -0.00487122 7.13881e-14
  7 1447.93 -0.00487122 1.74265e-13
  8 1447.93 -0.00487122 2.33992e-13
  9 1447.93 -0.00487122 -9.25465e-14
  10 1447.93 -0.00487122 -4.98259e-14
  11 1447.93 -0.00487122 -1.00514e-13
  12 1447.93 -0.00487122 -2.58045e-13
</Section>

newXOutput 72

<Section columns = "stress_xx | stress_yy | stress_xy">
  1 1465.01 -0.00486176 1.75606e-13
  2 1465.01 -0.00486176 1.16963e-13
  3 1465.01 -0.00486176 -1.56472e-13
  4 1465.01 -0.00486176 -1.25977e-13
  5 1465.01 -0.00486176 -2.11128e-13
  6 1465.01 -0.00486176 -1.86953e-13
  7 1465.01 -0.00486176 7.44558e-14
  8 1465.01 -0.00486176 2.97841e-14
  9 1465.01 -0.00486176 -8.50812e-15
  10 1465.01 -0.00486176 6.99926e-14
  11 1465.01 -0.00486176 -1.31685e-13
  12 1465.01 -0.00486176 2.80159e-13
</Section>

newXOutput 73

<Section columns = "stress_xx | stress_yy | stress_xy">
  1 1482.01 -0.00485233 8.94488e-14
  2 1482.01 -0.00485233 7.75170e-14
  3 1482.01 -0.00485233 5.30843e-14
  4 1482.01 -0.00485233 -4.73097e-15
  5 1482.01 -0.00485233 3.11701e-14
  6 1482.01 -0.00485233 3.70755e-14
  7 1482.01 -0.00485233 2.31819e-13
  8 1482.01 -0.00485233 2.49158e-13
  9 1482.01 -0.00485233 2.65807e-13
  10 1482.01 -0.00485233 2.74116e-13
  11 1482.01 -0.00485233 2.85995e-14
  12 1482.01 -0.00485233 1.88271e-13
</Section>

newXOutput 74

<Section columns = "stress_xx | stress_yy | stress_xy">
  1 1498.92 -0.00484294 1.68251e-13
  2 1498.92 -0.00484294 1.42618e-13
  3 1498.92 -0.00484294 1.14000e-13
  4 1498.92 -0.00484294 5.10840e-14
  5 1498.92 -0.00484294 2.05026e-13
  6 1498.92 -0.00484294 2.32596e-13
  7 1498.92 -0.00484294 -3.83374e-13
  8 1498.92 -0.00484294 -2.97052e-13
  9 1498.92 -0.00484294 8.55750e-14
  10 1498.92 -0.00484294 -1.37867e-14
  11 1498.92 -0.00484294 2.14925e-13
  12 1498.92 -0.00484294 3.61787e-14
</Section>

newXOutput 75

<Section columns = "stress_xx | stress_yy | stress_xy">
  1 1515.75 -0.00483359 1.51205e-13
  2 1515.75 -0.00483359 1.06177e-13
  3 1515.75 -0.00483359 -3.37444e-14
  4 1515.75 -0.00483359 -9.91925e-14
  5 1515.75 -0.00483359 -3.17728e-13
  6 1515.75 -0.00483359 -3.17728e-13
  7 1515.75 -0.00483359 -3.20088e-14
  8 1515.75 -0.00483359 1.83646e-14
  9 1515.75 -0.00483359 8.91731e-14
  10 1515.75 -0.00483359 2.37984e-13
  11 1515.75 -0.00483359 -7.39120e-14
  12 1515.75 -0.00483359 7.23371e-14
</Section>

newXOutput 76

<Section columns = "stress_xx | stress_yy | stress_xy">
  1 1532.49 -0.00482427 1.53924e-13
  2 1532.49 -0.00482427 1.02275e-13
  3 1532.49 -0.00482427 1.44464e-13
  4 1532.49 -0.00482427 8.20090e-14
  5 1532.49 -0.00482427 1.17122e-13
  6 1532.49 -0.00482427 1.14901e-13
  7 1532.49 -0.00482427 -7.64922e-14
  8 1532.49 -0.00482427 -8.52220e-14
  9 1532.49 -0.00482427 4.94431e-13
  10 1532.49 -0.00482427 4.21923e-13
  11 1532.49 -0.00482427 4.28539e-13
  12 1532.49 -0.00482427 8.48109e-14
</Section>

newXOutput 77

<Section columns = "stress_xx | stress_yy | stress_xy">
  1 1549.15 -0.00481498 1.28937e-13
  2 1549.15 -0.00481498 1.08001e-13
  3 1549.15 -0.00481498 1.97088e-14
  4 1549.15 -0.00481498 -1.99172e-14
  5 1549.15 -0.00481498 -5.62972e-14
  6 1549.15 -0.00481498 -4.15569e-14
  7 1549.15 -0.00481498 -1.90959e-13
  8 1549.15 -0.00481498 -1.39014e-13
  9 1549.15 -0.00481498 1.97101e-13
  10 1549.15 -0.00481498 2.30845e-13
  11 1549.15 -0.00481498 -2.38525e-13
  12 1549.15 -0.00481498 -2.61371e-13
</Section>

newXOutput 78

<Section columns = "stress_xx | stress_yy | stress_xy">
  1 1565.73 -0.00480573 4.23291e-14
  2 1565.73 -0.00480573 1.75711e-13
  3 1565.73 -0.00480573 -2.14416e-13
  4 1565.73 -0.00480573 -7.64343e-14
  5 1565.73 -0.00480573 1.37382e-13
  6 1565.73 -0.00480573 4.63133e-14
  7 1565.73 -0.00480573 -1.50786e-13
  8 1565.73 -0.00480573 -1.00075e-13
  9 1565.73 -0.00480573 -3.27447e-14
  10 1565.73 -0.00480573 -5.85139e-14
  11 1565.73 -0.00480573 3.61392e-13
  12 1565.73 -0.00480573 -1.16286e-13
</Section>

newXOutput 79

<Section columns = "stress_xx | stress_yy | stress_xy">
  1 1582.23 -0.00479651 1.11104e-13
  2 1582.23 -0.00479651 2.10476e-13
  3 1582.23 -0.00479651 -1.35092e-14
  4 1582.23 -0.00479651 6.66817e-14
  5 1582.23 -0.00479651 1.57247e-13
  6 1582.23 -0.00479651 8.28208e-14
  7 1582.23 -0.00479651 -5.72310e-14
  8 1582.23 -0.00479651 -3.91029e-14
  9 1582.23 -0.00479651 4.88667e-14
  10 1582.23 -0.00479651 1.46954e-13
  11 1582.23 -0.00479651 3.09343e-13
  12 1582.23 -0.00479651 2.22384e-13
</Section>

newXOutput 80

<Section columns = "stress_xx | stress_yy | stress_xy">
  1 1598.64 -0.00478733 2.07261e-13
  2 1598.64 -0.00478733 1.29584e-13
  3 1598.64 -0.00478733 9.90331e-14
  4 1598.64 -0.00478733 9.10368e-14
  5 1598.64 -0.00478733 1.33667e-13
  6 1598.64 -0.00478733 1.55371e-13
  7 1598.64 -0.00478733 -2.03655e-13
  8 1598.64 -0.00478733 -1.92650e-13
  9 1598.64 -0.00478733 -3.60685e-13
  10 1598.64 -0.00478733 -1.86739e-13
  11 1598.64 -0.00478733 -4.07556e-13
  12 1598.64 -0.00478733 -4.69566e-13
</Section>

newXOutput 81

<Section columns = "stress_xx | stress_yy | stress_xy">
  1 1614.97 -0.00477818 1.55194e-13
  2 1614.97 -0.00477818 1.62025e-13
  3 1614.97 -0.00477818 3.07367e-16
  4 1614.97 -0.00477818 2.99104e-14
  5 1614.97 -0.00477818 1.29093e-13
  6 1614.97 -0.00477818 1.53989e-13
  7 1614.97 -0.00477818 -9.13613e-14
  8 1614.97 -0.00477818 -7.39103e-14
  9 1614.97 -0.00477818 7.05885e-13
  10 1614.97 -0.00477818 7.53262e-13
  11 1614.97 -0.00477818 1.71194e-14
  12 1614.97 -0.00477818 5.17297e-13
</Section>

newXOutput 82

<Section columns = "stress_xx | stress_yy | stress_xy">
  1 1631.22 -0.00476907 9.92620e-14
  2 1631.22 -0.00476907 1.24059e-13
  3 1631.22 -0.00476907 -3.95398e-14
  4 1631.22 -0.00476907 2.23965e-14
  5 1631.22 -0.00476907 -3.93396e-14
  6 1631.22 -0.00476907 -1.22308e-14
  7 1631.22 -0.00476907 -2.70984e-13
  8 1631.22 -0.00476907 -2.44426e-13
  9 1631.22 -0.00476907 -2.80198e-13
  10 1631.22 -0.00476907 -1.47003e-13
  11 1631.22 -0.00476907 -4.96598e-13
  12 1631.22 -0.00476907 -2.79041e-13
</Section>

newXOutput 83

<Section columns = "stress_xx | stress_yy | stress_xy">
  1 1647.38 -0.00475999 2.30435e-13
  2 1647.38 -0.00475999 2.31911e-13
  3 1647.38 -0.00475999 1.42826e-13
  4 1647.38 -0.00475999 3.58008e-14
  5 1647.38 -0.00475999 1.13705e-13
  6 1647.38 -0.00475999 1.18264e-13
  7 1647.38 -0.00475999 1.19502e-13
  8 1647.38 -0.00475999 1.76302e-13
  9 1647.38 -0.00475999 1.34059e-13
  10 1647.38 -0.00475999 -8.76223e-14
  11 1647.38 -0.00475999 4.28152e-13
  12 1647.38 -0.00475999 -3.91175e-14
</Section>

newXOutput 84

<Section columns = "stress_xx | stress_yy | stress_xy">
  1 1663.47 -0.00475094 8.98737e-14
  2 1663.47 -0.00475094 1.56217e-13
  3 1663.47 -0.00475094 6.27657e-15
  4 1663.47 -0.00475094 2.09208e-14
  5 1663.47 -0.00475094 1.50005e-13
  6 1663.47 -0.00475094 1.56796e-13
  7 1663.47 -0.00475094 -1.79011e-13
  8 1663.47 -0.00475094 -2.01358e-13
  9 1663.47 -0.00475094 3.59557e-13
  10 1663.47 -0.00475094 3.29395e-13
  11 1663.47 -0.00475094 -3.89517e-13
  12 1663.47 -0.00475094 -4.64768e-13
</Section>

newXOutput 85

<Section columns = "stress_xx | stress_yy | stress_xy">
  1 1679.48 -0.00474193 1.45596e-13
  2 1679.48 -0.00474193 9.29235e-14
  3 1679.48 -0.00474193 -2.52214e-14
  4 1679.48 -0.00474193 -8.70215e-14
  5 1679.48 -0.00474193 -7.89211e-14
  6 1679.48 -0.00474193 -1.23873e-13
  7 1679.48 -0.00474193 1.40884e-13
  8 1679.48 -0.00474193 1.84729e-13
  9 1679.48 -0.00474193 -2.56655e-13
  10 1679.48 -0.00474193 -6.67325e-14
  11 1679.48 -0.00474193 1.70968e-13
  12 1679.48 -0.00474193 4.31912e-13
</Section>

newXOutput 86

<Section columns = "stress_xx | stress_yy | stress_xy">
  1 1695.41 -0.00473294 9.23177e-14
  2 1695.41 -0.00473294 1.69722e-13
  3 1695.41 -0.00473294 -4.52436e-14
  4 1695.41 -0.00473294 -5.19599e-14
  5 1695.41 -0.00473294 1.02906e-13
  6 1695.41 -0.00473294 5.92208e-14
  7 1695.41 -0.00473294 4.45004e-13
  8 1695.41 -0.00473294 4.97660e-13
  9 1695.41 -0.00473294 -1.72680e-13
  10 1695.41 -0.00473294 -3.03810e-13
  11 1695.41 -0.00473294 4.55370e-14
  12 1695.41 -0.00473294 -1.35324e-13
</Section>

newXOutput 87

<Section columns = "stress_xx | stress_yy | stress_xy">
  1 1711.26 -0.00472400 1.12412e-13
  2 1711.26 -0.00472400 1.68240e-13
  3 1711.26 -0.00472400 -1.98569e-13
  4 1711.26 -0.00472400 -2.38597e-13
  5 1711.26 -0.00472400 -8.99751e-14
  6 1711.26 -0.00472400 -1.35751e-13
  7 1711.26 -0.00472400 1.32051e-14
  8 1711.26 -0.00472400 3.33862e-14
  9 1711.26 -0.00472400 -4.00910e-13
  10 1711.26 -0.00472400 -3.93010e-13
  11 1711.26 -0.00472400 -1.32890e-13
  12 1711.26 -0.00472400 -2.10713e-13
</Section>

newXOutput 88

<Section columns = "stress_xx | stress_yy | stress_xy">
  1 1727.03 -0.00471508 1.64521e-13
  2 1727.03 -0.00471508 1.01168e-13
  3 1727.03 -0.00471508 2.11663e-13
  4 1727.03 -0.00471508 2.41603e-13
  5 1727.03 -0.00471508 5.30725e-13
  6 1727.03 -0.00471508 5.52983e-13
  7 1727.03 -0.00471508 8.11048e-14
  8 1727.03 -0.00471508 5.99525e-14
  9 1727.03 -0.00471508 3.77711e-13
  10 1727.03 -0.00471508 6.80849e-13
  11 1727.03 -0.00471508 1.64339e-13
  12 1727.03 -0.00471508 7.70747e-13
</Section>

newXOutput 89

<Section columns = "stress_xx | stress_yy | stress_xy">
  1 1742.72 -0.00470620 1.51165e-13
  2 1742.72 -0.00470620 1.09074e-13
  3 1742.72 -0.00470620 -1.98273e-13
  4 1742.72 -0.00470620 -1.68365e-13
  5 1742.72 -0.00470620 -5.56100e-13
  6 1742.72 -0.00470620 -5.52788e-13
  7 1742.72 -0.00470620 1.86540e-13
  8 1742.72 -0.00470620 1.47721e-13
  9 1742.72 -0.00470620 -3.11139e-13
  10 1742.72 -0.00470620 -2.28125e-13
  11 1742.72 -0.00470620 -4.51152e-13
  12 1742.72 -0.00470620 -4.97406e-13
</Section>

newXOutput 90

<Section columns = "stress_xx | stress_yy | stress_xy">
  1 1758.34 -0.00469735 7.68664e-14
  2 1758.34 -0.00469735 3.24542e-13
  3 1758.34 -0.00469735 -1.36561e-13
  4 1758.34 -0.00469735 -9.23329e-14
  5 1758.34 -0.00469735 3.53245e-13
  6 1758.34 -0.00469735 3.44376e-13
  7 1758.34 -0.00469735 -2.76725e-13
  8 1758.34 -0.00469735 -1.84796e-13
  9 1758.34 -0.00469735 2.32203e-13
  10 1758.34 -0.00469735 1.81285e-13
  11 1758.34 -0.00469735 3.94323e-13
  12 1758.34 -0.00469735 2.01518e-13
</Section>

newXOutput 91

<Section columns = "stress_xx | stress_yy | stress_xy">
  1 1773.88 -0.00468854 2.30522e-13
  2 1773.88 -0.00468854 8.94506e-14
  3 1773.88 -0.00468854 2.67314e-13
  4 1773.88 -0.00468854 2.82744e-13
  5 1773.88 -0.00468854 3.50410e-13
  6 1773.88 -0.00468854 3.70217e-13
  7 1773.88 -0.00468854 1.94069e-13
  8 1773.88 -0.00468854 1.56780e-13
  9 1773.88 -0.00468854 -9.71648e-14
  10 1773.88 -0.00468854 8.85085e-15
  11 1773.88 -0.00468854 -1.69501e-13
  12 1773.88 -0.00468854 -2.57828e-13
</Section>

newXOutput 92

<Section columns = "stress_xx | stress_yy | stress_xy">
  1 1789.34 -0.00467975 1.77408e-13
  2 1789.34 -0.00467975 4.32236e-14
  3 1789.34 -0.00467975 7.41303e-15
  4 1789.34 -0.00467975 -1.90916e-14
  5 1789.34 -0.00467975 -7.07801e-14
  6 1789.34 -0.00467975 -5.21442e-14
  7 1789.34 -0.00467975 -1.79214e-13
  8 1789.34 -0.00467975 -2.44139e-13
  9 1789.34 -0.00467975 -1.63827e-13
  10 1789.34 -0.00467975 -2.68798e-14
  11 1789.34 -0.00467975 1.63222e-14
  12 1789.34 -0.00467975 2.79252e-13
</Section>

newXOutput 93

<Section columns = "stress_xx | stress_yy | stress_xy">
  1 1804.73 -0.00467100 2.38883e-13
  2 1804.73 -0.00467100 8.77690e-14
  3 1804.73 -0.00467100 -3.08207e-13
  4 1804.73 -0.00467100 -2.98352e-13
  5 1804.73 -0.00467100 -3.35122e-13
  6 1804.73 -0.00467100 -2.89179e-13
  7 1804.73 -0.00467100 -2.25842e-13
  8 1804.73 -0.00467100 -3.21257e-13
  9 1804.73 -0.00467100 -9.40814e-14
  10 1804.73 -0.00467100 8.73921e-15
  11 1804.73 -0.00467100 -1.13911e-13
  12 1804.73 -0.00467100 1.55234e-13
</Section>

newXOutput 94

<Section columns = "stress_xx | stress_yy | stress_xy">
  1 1820.04 -0.00466228 1.93175e-13
  2 1820.04 -0.00466228 6.87430e-14
  3 1820.04 -0.00466228 2.45194e-13
  4 1820.04 -0.00466228 2.43011e-13
  5 1820.04 -0.00466228 1.52489e-13
  6 1820.04 -0.00466228 1.88453e-13
  7 1820.04 -0.00466228 8.33479e-14
  8 1820.04 -0.00466228 2.31299e-14
  9 1820.04 -0.00466228 2.10509e-13
  10 1820.04 -0.00466228 1.45869e-13
  11 1820.04 -0.00466228 2.02553e-13
  12 1820.04 -0.00466228 9.72505e-14
</Section>

newXOutput 95

<Section columns = "stress_xx | stress_yy | stress_xy">
  1 1835.28 -0.00465359 1.55248e-13
  2 1835.28 -0.00465359 1.14897e-13
  3 1835.28 -0.00465359 4.97708e-14
  4 1835.28 -0.00465359 9.22859e-15
  5 1835.28 -0.00465359 -1.46489e-13
  6 1835.28 -0.00465359 -1.50904e-13
  7 1835.28 -0.00465359 3.58748e-13
  8 1835.28 -0.00465359 3.00861e-13
  9 1835.28 -0.00465359 5.13558e-13
  10 1835.28 -0.00465359 5.20888e-13
  11 1835.28 -0.00465359 7.43988e-14
  12 1835.28 -0.00465359 1.28163e-13
</Section>

newXOutput 96

<Section columns = "stress_xx | stress_yy | stress_xy">
  1 1850.44 -0.00464493 1.07428e-13
  2 1850.44 -0.00464493 2.46530e-13
  3 1850.44 -0.00464493 -6.01431e-14
  4 1850.44 -0.00464493 -2.28929e-14
  5 1850.44 -0.00464493 3.87127e-14
  6 1850.44 -0.00464493 2.56986e-14
  7 1850.44 -0.00464493 -3.31917e-13
  8 1850.44 -0.00464493 -3.14636e-13
  9 1850.44 -0.00464493 -2.32657e-13
  10 1850.44 -0.00464493 -3.01313e-13
  11 1850.44 -0.00464493 -2.80411e-13
  12 1850.44 -0.00464493 -3.89615e-13
</Section>

newXOutput 97

<Section columns = "stress_xx | stress_yy | stress_xy">
  1 1865.53 -0.00463631 9.64342e-14
  2 1865.53 -0.00463631 2.00214e-13
  3 1865.53 -0.00463631 -2.42729e-16
  4 1865.53 -0.00463631 8.38307e-16
  5 1865.53 -0.00463631 7.33839e-14
  6 1865.53 -0.00463631 6.03323e-14
  7 1865.53 -0.00463631 6.67364e-14
  8 1865.53 -0.00463631 6.20362e-14
  9 1865.53 -0.00463631 1.07075e-13
  10 1865.53 -0.00463631 2.29484e-13
  11 1865.53 -0.00463631 1.56808e-13
  12 1865.53 -0.00463631 6.54961e-13
</Section>

newXOutput 98

<Section columns = "stress_xx | stress_yy | stress_xy">
  1 1880.54 -0.00462771 1.93854e-13
  2 1880.54 -0.00462771 2.69285e-13
  3 1880.54 -0.00462771 1.32233e-13
  4 1880.54 -0.00462771 1.31155e-13
  5 1880.54 -0.00462771 1.63105e-13
  6 1880.54 -0.00462771 1.53320e-13
  7 1880.54 -0.00462771 4.56405e-14
  8 1880.54 -0.00462771 9.55703e-14
  9 1880.54 -0.00462771 -4.75701e-13
  10 1880.54 -0.00462771 -2.67432e-13
  11 1880.54 -0.00462771 -2.58728e-13
  12 1880.54 -0.00462771 -3.16514e-13
</Section>

newXOutput 99

<Section columns = "stress_xx | stress_yy | stress_xy">
  1 1895.48 -0.00461915 1.73099e-13
  2 1895.48 -0.00461915 2.31900e-13
  3 1895.48 -0.00461915 -6.46922e-14
  4 1895.48 -0.00461915 -6.47395e-14
  5 1895.48 -0.00461915 -7.82969e-14
  6 1895.48 -0.00461915 -8.47417e-14
  7 1895.48 -0.00461915 4.11576e-13
  8 1895.48 -0.00461915 4.23297e-13
  9 1895.48 -0.00461915 6.06181e-14
  10 1895.48 -0.00461915 -1.46139e-13
  11 1895.48 -0.00461915 5.00909e-14
  12 1895.48 -0.00461915 -1.60907e-13
</Section>

newXOutput 100

<Section columns = "stress_xx | stress_yy | stress_xy">
  1 1910.35 -0.00461062 9.97013e-14
  2 1910.35 -0.00461062 1.46812e-13
  3 1910.35 -0.00461062 -1.33996e-13
  4 1910.35 -0.00461062 -1.35067e-13
  5 1910.35 -0.00461062 -1.74152e-13
  6 1910.35 -0.00461062 -1.86032e-13
  7 1910.35 -0.00461062 -1.84512e-13
  8 1910.35 -0.00461062 -2.07301e-13
  9 1910.35 -0.00461062 -7.17056e-14
  10 1910.35 -0.00461062 1.29711e-14
  11 1910.35 -0.00461062 2.31531e-13
  12 1910.35 -0.00461062 2.08392e-13
</Section>

newXOutput 101

<Section columns = "stress_xx | stress_yy | stress_xy">
  1 1925.15 -0.00460212 1.66723e-13
  2 1925.15 -0.00460212 2.07280e-13
  3 1925.15 -0.00460212 1.21131e-13
  4 1925.15 -0.00460212 1.17929e-13
  5 1925.15 -0.00460212 2.97303e-13
  6 1925.15 -0.00460212 2.99328e-13
  7 1925.15 -0.00460212 5.40597e-13
  8 1925.15 -0.00460212 5.44533e-13
  9 1925.15 -0.00460212 1.80933e-13
  10 1925.15 -0.00460212 8.77040e-16
  11 1925.15 -0.00460212 -1.14202e-14
  12 1925.15 -0.00460212 -2.08757e-13
</Section>

newXOutput 102

<Section columns = "stress_xx | stress_yy | stress_xy">
  1 1939.88 -0.00459365 9.39094e-14
  2 1939.88 -0.00459365 1.44274e-13
  3 1939.88 -0.00459365 -1.97676e-13
  4 1939.88 -0.00459365 -1.99746e-13
  5 1939.88 -0.00459365 -1.11451e-13
  6 1939.88 -0.00459365 -1.10505e-13
  7 1939.88 -0.00459365 1.55231e-13
  8 1939.88 -0.00459365 1.45059e-13
  9 1939.88 -0.00459365 1.00540e-13
  10 1939.88 -0.00459365 2.72374e-14
  11 1939.88 -0.00459365 -4.23774e-14
  12 1939.88 -0.00459365 -1.48086e-13
</Section>

newXOutput 103

<Section columns = "stress_xx | stress_yy | stress_xy">
  1 1954.53 -0.00458521 1.92453e-13
  2 1954.53 -0.00458521 2.14334e-13
  3 1954.53 -0.00458521 6.59101e-14
  4 1954.53 -0.00458521 3.93348e-14
  5 1954.53 -0.00458521 1.25180e-13
  6 1954.53 -0.00458521 1.07026e-13
  7 1954.53 -0.00458521 4.12231e-13
  8 1954.53 -0.00458521 3.89321e-13
  9 1954.53 -0.00458521 3.36829e-13
  10 1954.53 -0.00458521 5.58863e-14
  11 1954.53 -0.00458521 4.32339e-13
  12 1954.53 -0.00458521 1.33959e-13
</Section>

newXOutput 104

<Section columns = "stress_xx | stress_yy | stress_xy">
  1 1969.11 -0.00457680 1.88460e-13
  2 1969.11 -0.00457680 2.23764e-13
  3 1969.11 -0.00457680 -4.00382e-13
  4 1969.11 -0.00457680 -4.28859e-13
  5 1969.11 -0.00457680 -1.79482e-13
  6 1969.11 -0.00457680 -1.89128e-13
  7 1969.11 -0.00457680 -1.03804e-13
  8 1969.11 -0.00457680 -6.08773e-14
  9 1969.11 -0.00457680 -2.74975e-13
  10 1969.11 -0.00457680 -5.32079e-15
  11 1969.11 -0.00457680 -2.32973e-13
  12 1969.11 -0.00457680 -1.71213e-13
</Section>

newXOutput 105

<Section columns = "stress_xx | stress_yy | stress_xy">
  1 1983.63 -0.00456842 1.83363e-13
  2 1983.63 -0.00456842 2.00224e-13
  3 1983.63 -0.00456842 1.68681e-15
  4 1983.63 -0.00456842 1.96013e-14
  5 1983.63 -0.00456842 -1.20720e-13
  6 1983.63 -0.00456842 -1.25075e-13
  7 1983.63 -0.00456842 -3.44114e-13
  8 1983.63 -0.00456842 -3.70905e-13
  9 1983.63 -0.00456842 -5.93653e-13
  10 1983.63 -0.00456842 -5.70749e-13
  11 1983.63 -0.00456842 -2.77539e-13
  12 1983.63 -0.00456842 -2.77216e-13
</Section>

newXOutput 106

<Section columns = "stress_xx | stress_yy | stress_xy">
  1 1998.07 -0.00456007 1.80313e-13
  2 1998.07 -0.00456007 1.88717e-13
  3 1998.07 -0.00456007 8.85010e-14
  4 1998.07 -0.00456007 7.16937e-14
  5 1998.07 -0.00456007 1.10197e-13
  6 1998.07 -0.00456007 9.32421e-14
  7 1998.07 -0.00456007 -2.79678e-13
  8 1998.07 -0.00456007 -2.84648e-13
  9 1998.07 -0.00456007 1.26466e-13
  10 1998.07 -0.00456007 -6.46247e-14
  11 1998.07 -0.00456007 -4.28499e-14
  12 1998.07 -0.00456007 -4.30745e-13
</Section>

newXOutput 107

<Section columns = "stress_xx | stress_yy | stress_xy">
  1 2012.44 -0.00455175 1.76645e-13
  2 2012.44 -0.00455175 1.55085e-13
  3 2012.44 -0.00455175 -1.70150e-13
  4 2012.44 -0.00455175 -2.15133e-13
  5 2012.44 -0.00455175 -1.90978e-13
  6 2012.44 -0.00455175 -2.05792e-13
  7 2012.44 -0.00455175 1.53253e-13
  8 2012.44 -0.00455175 1.65197e-13
  9 2012.44 -0.00455175 3.74277e-14
  10 2012.44 -0.00455175 1.46935e-13
  11 2012.44 -0.00455175 -2.12760e-13
  12 2012.44 -0.00455175 -2.39897e-13
</Section>

newXOutput 108

<Section columns = "stress_xx | stress_yy | stress_xy">
  1 2026.75 -0.00454346 2.09081e-13
  2 2026.75 -0.00454346 2.17431e-13
  3 2026.75 -0.00454346 1.14095e-14
  4 2026.75 -0.00454346 9.71267e-16
  5 2026.75 -0.00454346 8.23345e-13
  6 2026.75 -0.00454346 8.12745e-13
  7 2026.75 -0.00454346 5.60888e-13
  8 2026.75 -0.00454346 5.52729e-13
  9 2026.75 -0.00454346 4.54791e-13
  10 2026.75 -0.00454346 5.81136e-13
  11 2026.75 -0.00454346 1.64443e-13
  12 2026.75 -0.00454346 2.75590e-13
</Section>

newXOutput 109

<Section columns = "stress_xx | stress_yy | stress_xy">
  1 2040.98 -0.00453520 1.82624e-13
  2 2040.98 -0.00453520 1.99273e-13
  3 2040.98 -0.00453520 -2.86409e-15
  4 2040.98 -0.00453520 6.58110e-14
  5 2040.98 -0.00453520 -2.01233e-13
  6 2040.98 -0.00453520 -1.76430e-13
  7 2040.98 -0.00453520 -3.29476e-13
  8 2040.98 -0.00453520 -3.60546e-13
  9 2040.98 -0.00453520 -2.14070e-13
  10 2040.98 -0.00453520 -9.03684e-14
  11 2040.98 -0.00453520 -2.25226e-13
  12 2040.98 -0.00453520 -1.99773e-13
</Section>

newXOutput 110

<Section columns = "stress_xx | stress_yy | stress_xy">
  1 2055.15 -0.00452697 2.11159e-13
  2 2055.15 -0.00452697 1.85560e-13
  3 2055.15 -0.00452697 -7.41491e-14
  4 2055.15 -0.00452697 -6.70179e-14
  5 2055.15 -0.00452697 -4.48255e-15
  6 2055.15 -0.00452697 2.78690e-14
  7 2055.15 -0.00452697 -8.44628e-14
  8 2055.15 -0.00452697 2.95904e-14
  9 2055.15 -0.00452697 2.18222e-13
  10 2055.15 -0.00452697 2.20851e-13
  11 2055.15 -0.00452697 3.64621e-13
  12 2055.15 -0.00452697 2.84785e-13
</Section>

newXOutput 111

<Section columns = "stress_xx | stress_yy | stress_xy">
  1 2069.25 -0.00451876 2.55527e-13
  2 2069.25 -0.00451876 2.71647e-13
  3 2069.25 -0.00451876 1.53456e-13
  4 2069.25 -0.00451876 1.20460e-13
  5 2069.25 -0.00451876 -1.42739e-13
  6 2069.25 -0.00451876 -1.34467e-13
  7 2069.25 -0.00451876 -1.23157e-13
  8 2069.25 -0.00451876 -8.48328e-14
  9 2069.25 -0.00451876 7.67882e-14
  10 2069.25 -0.00451876 1.36286e-13
  11 2069.25 -0.00451876 4.77537e-14
  12 2069.25 -0.00451876 3.53458e-14
</Section>

newXOutput 112

<Section columns = "stress_xx | stress_yy | stress_xy">
  1 2083.28 -0.00451059 1.83383e-13
  2 2083.28 -0.00451059 1.78104e-13
  3 2083.28 -0.00451059 -5.65476e-14
  4 2083.28 -0.00451059 -1.23694e-13
  5 2083.28 -0.00451059 -1.00950e-13
  6 2083.28 -0.00451059 -9.70179e-14
  7 2083.28 -0.00451059 3.03666e-13
  8 2083.28 -0.00451059 2.89248e-13
  9 2083.28 -0.00451059 -5.31211e-14
  10 2083.28 -0.00451059 -1.28609e-13
  11 2083.28 -0.00451059 2.45774e-13
  12 2083.28 -0.00451059 2.25159e-13
</Section>

newXOutput 113

<Section columns = "stress_xx | stress_yy | stress_xy">
  1 2097.24 -0.00450245 1.75329e-13
  2 2097.24 -0.00450245 2.08209e-13
  3 2097.24 -0.00450245 -2.98961e-14
  4 2097.24 -0.00450245 3.99742e-14
  5 2097.24 -0.00450245 1.15805e-13
  6 2097.24 -0.00450245 1.01222e-13
  7 2097.24 -0.00450245 -6.54151e-14
  8 2097.24 -0.00450245 -9.99867e-14
  9 2097.24 -0.00450245 -6.13742e-14
  10 2097.24 -0.00450245 1.56711e-13
  11 2097.24 -0.00450245 -4.84090e-13
  12 2097.24 -0.00450245 4.99612e-14
</Section>

newXOutput 114

<Section columns = "stress_xx | stress_yy | stress_xy">
  1 2111.14 -0.00449433 2.49636e-13
  2 2111.14 -0.00449433 2.49636e-13
  3 2111.14 -0.00449433 1.39407e-13
  4 2111.14 -0.00449433 1.70135e-13
  5 2111.14 -0.00449433 3.48638e-13
  6 2111.14 -0.00449433 3.50482e-13
  7 2111.14 -0.00449433 4.96722e-14
  8 2111.14 -0.00449433 1.88681e-14
  9 2111.14 -0.00449433 5.51399e-13
  10 2111.14 -0.00449433 3.65859e-13
  11 2111.14 -0.00449433 -3.92446e-14
  12 2111.14 -0.00449433 -2.41944e-13
</Section>

newXOutput 115

<Section columns = "stress_xx | stress_yy | stress_xy">
  1 2124.97 -0.00448625 1.86155e-13
  2 2124.97 -0.00448625 2.09510e-13
  3 2124.97 -0.00448625 -1.32373e-13
  4 2124.97 -0.00448625 -1.25532e-13
  5 2124.97 -0.00448625 -8.38928e-14
  6 2124.97 -0.00448625 -8.81888e-14
  7 2124.97 -0.00448625 -4.53275e-13
  8 2124.97 -0.00448625 -4.86069e-13
  9 2124.97 -0.00448625 4.47160e-13
  10 2124.97 -0.00448625 3.68049e-13
  11 2124.97 -0.00448625 2.57208e-13
  12 2124.97 -0.00448625 -1.04295e-13
</Section>

newXOutput 116

<Section columns = "stress_xx | stress_yy | stress_xy">
  1 1979.35 2.20980 -1.86349
  2 1979.35 2.20980 1.86349
  3 1985.54 -5.95184 2.96607
  4 1985.54 -5.95184 -2.96607
  5 1906.57 4.19977 3.93217
  6 1906.57 4.19977 -3.93217
  7 1906.57 4.19977 -3.93217
  8 1906.57 4.19977 3.93217
  9 1985.54 -5.95184 -2.96607
  10 1985.54 -5.95184 2.96607
  11 1979.35 2.20980 1.86349
  12 1979.35 2.20980 -1.86349
</Section>

newXOutput 117

<Section columns = "stress_xx | stress_yy | stress_xy">
  1 1842.95 3.55136 -3.10802
  2 1842.95 3.55136 3.10802
  3 1853.39 -9.78360 4.94362
  4 1853.39 -9.78360 -4.94362
  5 1719.90 7.98173 6.59001
  6 1719.90 7.98173 -6.59001
  7 1719.90 7.98173 -6.59001
  8 1719.90 7.98173 6.59001
  9 1853.39 -9.78360 -4.94362
  10 1853.39 -9.78360 4.94362
  11 1842.95 3.55136 3.10802
  12 1842.95 3.55136 -3.10802
</Section>

newXOutput 118

<Section columns = "stress_xx | stress_yy | stress_xy">
  1 1750.03 4.20478 -3.76959
  2 1750.03 4.20478 3.76959
  3 1762.79 -11.7164 5.99492
  4 1762.79 -11.7164 -5.99492
  5 1599.90 9.75832 8.01255
  6 1599.90 9.75832 -8.01255
  7 1599.90 9.75832 -8.01255
  8 1599.90 9.75832 8.01255
  9 1762.79 -11.7164 -5.99492
  10 1762.79 -11.7164 5.99492
  11 1750.03 4.20478 3.76959
  12 1750.03 4.20478 -3.76959
</Section>

newXOutput 119

<Section columns = "stress_xx | stress_yy | stress_xy">
  1 1669.70 4.62200 -4.22790
  2 1669.70 4.62200 4.22790
  3 1684.10 -12.9834 6.72464
  4 1684.10 -12.9834 -6.72464
  5 1501.35 10.9263 9.00252
  6 1501.35 10.9263 -9.00252
  7 1501.35 10.9263 -9.00252
  8 1501.35 10.9263 9.00252
  9 1684.10 -12.9834 -6.72464
  10 1684.10 -12.9834 6.72464
  11 1669.70 4.62200 4.22790
  12 1669.70 4.62200 -4.22790
</Section>

newXOutput 120

<Section columns = "stress_xx | stress_yy | stress_xy">
  1 1608.80 4.87716 -4.52735
  2 1608.80 4.87716 4.52735
  3 1624.29 -13.7601 7.20136
  4 1624.29 -13.7601 -7.20136
  5 1427.93 11.1853 9.65029
  6 1427.93 11.1853 -9.65029
  7 1427.93 11.1853 -9.65029
  8 1427.93 11.1853 9.65029
  9 1624.29 -13.7601 -7.20136
  10 1624.29 -13.7601 7.20136
  11 1608.80 4.87716 4.52735
  12 1608.80 4.87716 -4.52735
</Section>

newXOutput 121

<Section columns = "stress_xx | stress_yy | stress_xy">
  1 1554.21 5.04745 -4.74621
  2 1554.21 5.04745 4.74621
  3 1570.52 -14.2856 7.55065
  4 1570.52 -14.2856 -7.55065
  5 1363.90 11.5767 10.1247
  6 1363.90 11.5767 -10.1247
  7 1363.90 11.5767 -10.1247
  8 1363.90 11.5767 10.1247
  9 1570.52 -14.2856 -7.55065
  10 1570.52 -14.2856 7.55065
  11 1554.21 5.04745 4.74621
  12 1554.21 5.04745 -4.74621
</Section>

newXOutput 122

<Section columns = "stress_xx | stress_yy | stress_xy">
  1 1504.86 5.16241 -4.91001
  2 1504.86 5.16241 4.91001
  3 1521.80 -14.6436 7.81272
  4 1521.80 -14.6436 -7.81272
  5 1307.32 11.8583 10.4804
  6 1307.32 11.8583 -10.4804
  7 1307.32 11.8583 -10.4804
  8 1307.32 11.8583 10.4804
  9 1521.80 -14.6436 -7.81272
  10 1521.80 -14.6436 7.81272
  11 1504.86 5.16241 4.91001
  12 1504.86 5.16241 -4.91001
</Section>

newXOutput 123

<Section columns = "stress_xx | stress_yy | stress_xy">
  1 1459.54 5.23776 -5.03315
  2 1459.54 5.23776 5.03315
  3 1476.96 -14.8804 8.01038
  4 1476.96 -14.8804 -8.01038
  5 1256.40 12.0598 10.7481
  6 1256.40 12.0598 -10.7481
  7 1256.40 12.0598 -10.7481
  8 1256.40 12.0598 10.7481
  9 1476.96 -14.8804 -8.01038
  10 1476.96 -14.8804 8.01038
  11 1459.54 5.23776 5.03315
  12 1459.54 5.23776 -5.03315
</Section>

newXOutput 124

<Section columns = "stress_xx | stress_yy | stress_xy">
  1 1417.46 5.28369 -5.12516
  2 1417.46 5.28369 5.12516
  3 1435.25 -15.0267 8.15870
  4 1435.25 -15.0267 -8.15870
  5 1209.99 12.1938 10.9483
  6 1209.99 12.1938 -10.9483
  7 1209.99 12.1938 -10.9483
  8 1209.99 12.1938 10.9483
  9 1435.25 -15.0267 -8.15870
  10 1435.25 -15.0267 8.15870
  11 1417.46 5.28369 5.12516
  12 1417.46 5.28369 -5.12516
</Section>

newXOutput 125

<Section columns = "stress_xx | stress_yy | stress_xy">
  1 1378.06 5.30710 -5.19260
  2 1378.06 5.30710 5.19260
  3 1396.14 -15.1032 8.26804
  4 1396.14 -15.1032 -8.26804
  5 1167.27 12.2725 11.0953
  6 1167.27 12.2725 -11.0953
  7 1167.27 12.2725 -11.0953
  8 1167.27 12.2725 11.0953
  9 1396.14 -15.1032 -8.26804
  10 1396.14 -15.1032 8.26804
  11 1378.06 5.30710 5.19260
  12 1378.06 5.30710 -5.19260
</Section>

newXOutput 126

<Section columns = "stress_xx | stress_yy | stress_xy">
  1 1340.93 5.31287 -5.24019
  2 1340.93 5.31287 5.24019
  3 1359.21 -15.1250 8.34590
  4 1359.21 -15.1250 -8.34590
  5 1127.63 12.3060 11.1993
  6 1127.63 12.3060 -11.1993
  7 1127.63 12.3060 -11.1993
  8 1127.63 12.3060 11.1993
  9 1359.21 -15.1250 -8.34590
  10 1359.21 -15.1250 8.34590
  11 1340.93 5.31287 5.24019
  12 1340.93 5.31287 -5.24019
</Section>

newXOutput 127

<Section columns = "stress_xx | stress_yy | stress_xy">
  1 1305.74 5.30455 -5.27146
  2 1305.74 5.30455 5.27146
  3 1324.18 -15.1029 8.39784
  4 1324.18 -15.1029 -8.39784
  5 1090.62 12.3022 11.2678
  6 1090.62 12.3022 -11.2678
  7 1090.62 12.3022 -11.2678
  8 1090.62 12.3022 11.2678
  9 1324.18 -15.1029 -8.39784
  10 1324.18 -15.1029 8.39784
  11 1305.74 5.30455 5.27146
  12 1305.74 5.30455 -5.27146
</Section>

newXOutput 128

<Section columns = "stress_xx | stress_yy | stress_xy">
  1 1272.24 5.28485 -5.28912
  2 1272.24 5.28485 5.28912
  3 1290.78 -15.0454 8.42815
  4 1290.78 -15.0454 -8.42815
  5 1055.87 12.2677 11.3067
  6 1055.87 12.2677 -11.3067
  7 1055.87 12.2677 -11.3067
  8 1055.87 12.2677 11.3067
  9 1290.78 -15.0454 -8.42815
  10 1290.78 -15.0454 8.42815
  11 1272.24 5.28485 5.28912
  12 1272.24 5.28485 -5.28912
</Section>

newXOutput 129

<Section columns = "stress_xx | stress_yy | stress_xy">
  1 1240.22 5.25581 -5.29529
  2 1240.22 5.25581 5.29529
  3 1258.83 -14.9588 8.44017
  4 1258.83 -14.9588 -8.44017
  5 1023.09 12.2076 11.3207
  6 1023.09 12.2076 -11.3207
  7 1023.09 12.2076 -11.3207
  8 1023.09 12.2076 11.3207
  9 1258.83 -14.9588 -8.44017
  10 1258.83 -14.9588 8.44017
  11 1240.22 5.25581 5.29529
  12 1240.22 5.25581 -5.29529
</Section>

newXOutput 130

<Section columns = "stress_xx | stress_yy | stress_xy">
  1 1209.54 5.21906 -5.29164
  2 1209.54 5.21906 5.29164
  3 1228.17 -14.8482 8.43656
  4 1228.17 -14.8482 -8.43656
  5 992.051 12.1263 11.3134
  6 992.051 12.1263 -11.3134
  7 992.051 12.1263 -11.3134
  8 992.051 12.1263 11.3134
  9 1228.17 -14.8482 -8.43656
  10 1228.17 -14.8482 8.43656
  11 1209.54 5.21906 5.29164
  12 1209.54 5.21906 -5.29164
</Section>

newXOutput 131

<Section columns = "stress_xx | stress_yy | stress_xy">
  1 1180.03 5.17589 -5.27956
  2 1180.03 5.17589 5.27956
  3 1198.66 -14.7177 8.41950
  4 1198.66 -14.7177 -8.41950
  5 962.562 12.0270 11.2877
  6 962.562 12.0270 -11.2877
  7 962.562 12.0270 -11.2877
  8 962.562 12.0270 11.2877
  9 1198.66 -14.7177 -8.41950
  10 1198.66 -14.7177 8.41950
  11 1180.03 5.17589 5.27956
  12 1180.03 5.17589 -5.27956
</Section>

newXOutput 132

<Section columns = "stress_xx | stress_yy | stress_xy">
  1 1151.60 5.12732 -5.26016
  2 1151.60 5.12732 5.26016
  3 1170.20 -14.5706 8.39075
  4 1170.20 -14.5706 -8.39075
  5 934.461 11.9127 11.2462
  6 934.461 11.9127 -11.2462
  7 934.461 11.9127 -11.2462
  8 934.461 11.9127 11.2462
  9 1170.20 -14.5706 -8.39075
  10 1170.20 -14.5706 8.39075
  11 1151.60 5.12732 5.26016
  12 1151.60 5.12732 -5.26016
</Section>

newXOutput 133

<Section columns = "stress_xx | stress_yy | stress_xy">
  1 1124.14 5.07422 -5.23437
  2 1124.14 5.07422 5.23437
  3 1142.68 -14.4095 8.35180
  4 1142.68 -14.4095 -8.35180
  5 907.611 11.7858 11.1908
  6 907.611 11.7858 -11.1908
  7 907.611 11.7858 -11.1908
  8 907.611 11.7858 11.1908
  9 1142.68 -14.4095 -8.35180
  10 1142.68 -14.4095 8.35180
  11 1124.14 5.07422 5.23437
  12 1124.14 5.07422 -5.23437
</Section>

newXOutput 134

<Section columns = "stress_xx | stress_yy | stress_xy">
  1 1097.57 5.01728 -5.20299
  2 1097.57 5.01728 5.20299
  3 1116.03 -14.2368 8.30389
  4 1116.03 -14.2368 -8.30389
  5 881.896 11.6481 11.1233
  6 881.896 11.6481 -11.1233
  7 881.896 11.6481 -11.1233
  8 881.896 11.6481 11.1233
  9 1116.03 -14.2368 -8.30389
  10 1116.03 -14.2368 8.30389
  11 1097.57 5.01728 5.20299
  12 1097.57 5.01728 -5.20299
</Section>

newXOutput 135

<Section columns = "stress_xx | stress_yy | stress_xy">
  1 1071.82 4.95708 -5.16668
  2 1071.82 4.95708 5.16668
  3 1090.18 -14.0542 8.24806
  4 1090.18 -14.0542 -8.24806
  5 857.215 11.5015 11.0451
  6 857.215 11.5015 -11.0451
  7 857.215 11.5015 -11.0451
  8 857.215 11.5015 11.0451
  9 1090.18 -14.0542 -8.24806
  10 1090.18 -14.0542 8.24806
  11 1071.82 4.95708 5.16668
  12 1071.82 4.95708 -5.16668
</Section>

newXOutput 136

<Section columns = "stress_xx | stress_yy | stress_xy">
  1 1046.81 4.89412 -5.12599
  2 1046.81 4.89412 5.12599
  3 1065.06 -13.8634 8.18521
  4 1065.06 -13.8634 -8.18521
  5 833.482 11.3473 10.9574
  6 833.482 11.3473 -10.9574
  7 833.482 11.3473 -10.9574
  8 833.482 11.3473 10.9574
  9 1065.06 -13.8634 -8.18521
  10 1065.06 -13.8634 8.18521
  11 1046.81 4.89412 5.12599
  12 1046.81 4.89412 -5.12599
</Section>

newXOutput 137

<Section columns = "stress_xx | stress_yy | stress_xy">
  1 1022.50 4.82880 -5.08143
  2 1022.50 4.82880 5.08143
  3 1040.62 -13.6655 8.11613
  4 1040.62 -13.6655 -8.11613
  5 810.621 11.1866 10.8613
  6 810.621 11.1866 -10.8613
  7 810.621 11.1866 -10.8613
  8 810.621 11.1866 10.8613
  9 1040.62 -13.6655 -8.11613
  10 1040.62 -13.6655 8.11613
  11 1022.50 4.82880 5.08143
  12 1022.50 4.82880 -5.08143
</Section>

newXOutput 138

<Section columns = "stress_xx | stress_yy | stress_xy">
  1 998.844 4.76147 -5.03341
  2 998.844 4.76147 5.03341
  3 1016.81 -13.4618 8.04147
  4 1016.81 -13.4618 -8.04147
  5 788.565 11.0205 10.7578
  6 788.565 11.0205 -10.7578
  7 788.565 11.0205 -10.7578
  8 788.565 11.0205 10.7578
  9 1016.81 -13.4618 -8.04147
  10 1016.81 -13.4618 8.04147
  11 998.844 4.76147 5.03341
  12 998.844 4.76147 -5.03341
</Section>

newXOutput 139

<Section columns = "stress_xx | stress_yy | stress_xy">
  1 975.786 4.69245 -4.98230
  2 975.786 4.69245 4.98230
  3 993.599 -13.2533 7.96182
  4 993.599 -13.2533 -7.96182
  5 767.254 10.8500 10.6476
  6 767.254 10.8500 -10.6476
  7 767.254 10.8500 -10.6476
  8 767.254 10.8500 10.6476
  9 993.599 -13.2533 -7.96182
  10 993.599 -13.2533 7.96182
  11 975.786 4.69245 4.98230
  12 975.786 4.69245 -4.98230
</Section>

newXOutput 140

<Section columns = "stress_xx | stress_yy | stress_xy">
  1 953.291 4.62198 -4.92842
  2 953.291 4.62198 4.92842
  3 970.937 -13.0406 7.87769
  4 970.937 -13.0406 -7.87769
  5 746.636 10.6756 10.5315
  6 746.636 10.6756 -10.5315
  7 746.636 10.6756 -10.5315
  8 746.636 10.6756 10.5315
  9 970.937 -13.0406 -7.87769
  10 970.937 -13.0406 7.87769
  11 953.291 4.62198 4.92842
  12 953.291 4.62198 -4.92842
</Section>

newXOutput 141

<Section columns = "stress_xx | stress_yy | stress_xy">
  1 931.325 4.55028 -4.87206
  2 931.325 4.55028 4.87206
  3 948.792 -12.8247 7.78953
  4 948.792 -12.8247 -7.78953
  5 726.664 10.4982 10.4099
  6 726.664 10.4982 -10.4099
  7 726.664 10.4982 -10.4099
  8 726.664 10.4982 10.4099
  9 948.792 -12.8247 -7.78953
  10 948.792 -12.8247 7.78953
  11 931.325 4.55028 4.87206
  12 931.325 4.55028 -4.87206
</Section>

newXOutput 142

<Section columns = "stress_xx | stress_yy | stress_xy">
  1 909.854 4.47756 -4.81346
  2 909.854 4.47756 4.81346
  3 927.135 -12.6060 7.69773
  4 927.135 -12.6060 -7.69773
  5 707.296 10.3182 10.2836
  6 707.296 10.3182 -10.2836
  7 707.296 10.3182 -10.2836
  8 707.296 10.3182 10.2836
  9 927.135 -12.6060 -7.69773
  10 927.135 -12.6060 7.69773
  11 909.854 4.47756 4.81346
  12 909.854 4.47756 -4.81346
</Section>

newXOutput 143

<Section columns = "stress_xx | stress_yy | stress_xy">
  1 888.851 4.40398 -4.75285
  2 888.851 4.40398 4.75285
  3 905.936 -12.3851 7.60266
  4 905.936 -12.3851 -7.60266
  5 688.493 10.1361 10.1530
  6 688.493 10.1361 -10.1530
  7 688.493 10.1361 -10.1530
  8 688.493 10.1361 10.1530
  9 905.936 -12.3851 -7.60266
  10 905.936 -12.3851 7.60266
  11 888.851 4.40398 4.75285
  12 888.851 4.40398 -4.75285
</Section>

newXOutput 144

<Section columns = "stress_xx | stress_yy | stress_xy">
  1 868.290 4.32968 -4.69043
  2 868.290 4.32968 4.69043
  3 885.171 -12.1624 7.50462
  4 885.171 -12.1624 -7.50462
  5 670.221 9.95248 10.0185
  6 670.221 9.95248 -10.0185
  7 670.221 9.95248 -10.0185
  8 670.221 9.95248 10.0185
  9 885.171 -12.1624 -7.50462
  10 885.171 -12.1624 7.50462
  11 868.290 4.32968 4.69043
  12 868.290 4.32968 -4.69043
</Section>

newXOutput 145

<Section columns = "stress_xx | stress_yy | stress_xy">
  1 848.145 4.25480 -4.62637
  2 848.145 4.25480 4.62637
  3 864.816 -11.9385 7.40390
  4 864.816 -11.9385 -7.40390
  5 652.448 9.76756 9.88048
  6 652.448 9.76756 -9.88048
  7 652.448 9.76756 -9.88048
  8 652.448 9.76756 9.88048
  9 864.816 -11.9385 -7.40390
  10 864.816 -11.9385 7.40390
  11 848.145 4.25480 4.62637
  12 848.145 4.25480 -4.62637
</Section>

newXOutput 146

<Section columns = "stress_xx | stress_yy | stress_xy">
  1 828.396 4.17945 -4.56083
  2 828.396 4.17945 4.56083
  3 844.850 -11.7135 7.30075
  4 844.850 -11.7135 -7.30075
  5 635.145 9.58173 9.73931
  6 635.145 9.58173 -9.73931
  7 635.145 9.58173 -9.73931
  8 635.145 9.58173 9.73931
  9 844.850 -11.7135 -7.30075
  10 844.850 -11.7135 7.30075
  11 828.396 4.17945 4.56083
  12 828.396 4.17945 -4.56083
</Section>

newXOutput 147

<Section columns = "stress_xx | stress_yy | stress_xy">
  1 809.022 4.10372 -4.49396
  2 809.022 4.10372 4.49396
  3 825.254 -11.4879 7.19539
  4 825.254 -11.4879 -7.19539
  5 618.288 9.39526 9.59529
  6 618.288 9.39526 -9.59529
  7 618.288 9.39526 -9.59529
  8 618.288 9.39526 9.59529
  9 825.254 -11.4879 -7.19539
  10 825.254 -11.4879 7.19539
  11 809.022 4.10372 4.49396
  12 809.022 4.10372 -4.49396
</Section>

newXOutput 148

<Section columns = "stress_xx | stress_yy | stress_xy">
  1 790.005 4.02772 -4.42587
  2 790.005 4.02772 4.42587
  3 806.009 -11.2620 7.08803
  4 806.009 -11.2620 -7.08803
  5 601.851 9.20840 9.44871
  6 601.851 9.20840 -9.44871
  7 601.851 9.20840 -9.44871
  8 601.851 9.20840 9.44871
  9 806.009 -11.2620 -7.08803
  10 806.009 -11.2620 7.08803
  11 790.005 4.02772 4.42587
  12 790.005 4.02772 -4.42587
</Section>

newXOutput 149

<Section columns = "stress_xx | stress_yy | stress_xy">
  1 771.328 3.95151 -4.35670
  2 771.328 3.95151 4.35670
  3 787.099 -11.0358 6.97885
  4 787.099 -11.0358 -6.97885
  5 585.812 9.02139 9.29982
  6 585.812 9.02139 -9.29982
  7 585.812 9.02139 -9.29982
  8 585.812 9.02139 9.29982
  9 787.099 -11.0358 -6.97885
  10 787.099 -11.0358 6.97885
  11 771.328 3.95151 4.35670
  12 771.328 3.95151 -4.35670
</Section>

newXOutput 150

<Section columns = "stress_xx | stress_yy | stress_xy">
  1 752.974 3.87516 -4.28653
  2 752.974 3.87516 4.28653
  3 768.508 -10.8098 6.86803
  4 768.508 -10.8098 -6.86803
  5 570.152 8.83441 9.14884
  6 570.152 8.83441 -9.14884
  7 570.152 8.83441 -9.14884
  8 570.152 8.83441 9.14884
  9 768.508 -10.8098 -6.86803
  10 768.508 -10.8098 6.86803
  11 752.974 3.87516 4.28653
  12 752.974 3.87516 -4.28653
</Section>

newXOutput 151

<Section columns = "stress_xx | stress_yy | stress_xy">
  1 734.930 3.79873 -4.21547
  2 734.930 3.79873 4.21547
  3 750.222 -10.5840 6.75571
  4 750.222 -10.5840 -6.75571
  5 554.851 8.64764 8.99598
  6 554.851 8.64764 -8.99598
  7 554.851 8.64764 -8.99598
  8 554.851 8.64764 8.99598
  9 750.222 -10.5840 -6.75571
  10 750.222 -10.5840 6.75571
  11 734.930 3.79873 4.21547
  12 734.930 3.79873 -4.21547
</Section>

newXOutput 152

<Section columns = "stress_xx | stress_yy | stress_xy">
  1 717.181 3.72229 -4.14361
  2 717.181 3.72229 4.14361
  3 732.228 -10.3587 6.64204
  4 732.228 -10.3587 -6.64204
  5 539.891 8.46122 8.84143
  6 539.891 8.46122 -8.84143
  7 539.891 8.46122 -8.84143
  8 539.891 8.46122 8.84143
  9 732.228 -10.3587 -6.64204
  10 732.228 -10.3587 6.64204
  11 717.181 3.72229 4.14361
  12 717.181 3.72229 -4.14361
</Section>

newXOutput 153

<Section columns = "stress_xx | stress_yy | stress_xy">
  1 699.715 3.64587 -4.07102
  2 699.715 3.64587 4.07102
  3 714.514 -10.1339 6.52713
  4 714.514 -10.1339 -6.52713
  5 525.258 8.27530 8.68537
  6 525.258 8.27530 -8.68537
  7 525.258 8.27530 -8.68537
  8 525.258 8.27530 8.68537
  9 714.514 -10.1339 -6.52713
  10 714.514 -10.1339 6.52713
  11 699.715 3.64587 4.07102
  12 699.715 3.64587 -4.07102
</Section>

newXOutput 154

<Section columns = "stress_xx | stress_yy | stress_xy">
  1 682.520 3.56952 -3.99778
  2 682.520 3.56952 3.99778
  3 697.067 -9.90976 6.41112
  4 697.067 -9.90976 -6.41112
  5 510.936 8.08998 8.52794
  6 510.936 8.08998 -8.52794
  7 510.936 8.08998 -8.52794
  8 510.936 8.08998 8.52794
  9 697.067 -9.90976 -6.41112
  10 697.067 -9.90976 6.41112
  11 682.520 3.56952 3.99778
  12 682.520 3.56952 -3.99778
</Section>

newXOutput 155

<Section columns = "stress_xx | stress_yy | stress_xy">
  1 665.585 3.49328 -3.92395
  2 665.585 3.49328 3.92395
  3 679.877 -9.68648 6.29409
  4 679.877 -9.68648 -6.29409
  5 496.910 7.90537 8.36930
  6 496.910 7.90537 -8.36930
  7 496.910 7.90537 -8.36930
  8 496.910 7.90537 8.36930
  9 679.877 -9.68648 -6.29409
  10 679.877 -9.68648 6.29409
  11 665.585 3.49328 3.92395
  12 665.585 3.49328 -3.92395
</Section>

newXOutput 156

<Section columns = "stress_xx | stress_yy | stress_xy">
  1 648.899 3.41718 -3.84959
  2 648.899 3.41718 3.84959
  3 662.934 -9.46410 6.17616
  4 662.934 -9.46410 -6.17616
  5 483.169 7.72156 8.20957
  6 483.169 7.72156 -8.20957
  7 483.169 7.72156 -8.20957
  8 483.169 7.72156 8.20957
  9 662.934 -9.46410 -6.17616
  10 662.934 -9.46410 6.17616
  11 648.899 3.41718 3.84959
  12 648.899 3.41718 -3.84959
</Section>

newXOutput 157

<Section columns = "stress_xx | stress_yy | stress_xy">
  1 632.453 3.34126 -3.77476
  2 632.453 3.34126 3.77476
  3 646.228 -9.24273 6.05741
  4 646.228 -9.24273 -6.05741
  5 469.699 7.53864 8.04888
  6 469.699 7.53864 -8.04888
  7 469.699 7.53864 -8.04888
  8 469.699 7.53864 8.04888
  9 646.228 -9.24273 -6.05741
  10 646.228 -9.24273 6.05741
  11 632.453 3.34126 3.77476
  12 632.453 3.34126 -3.77476
</Section>

newXOutput 158

<Section columns = "stress_xx | stress_yy | stress_xy">
  1 616.238 3.26554 -3.69951
  2 616.238 3.26554 3.69951
  3 629.751 -9.02243 5.93791
  4 629.751 -9.02243 -5.93791
  5 456.489 7.35666 7.88733
  6 456.489 7.35666 -7.88733
  7 456.489 7.35666 -7.88733
  8 456.489 7.35666 7.88733
  9 629.751 -9.02243 -5.93791
  10 629.751 -9.02243 5.93791
  11 616.238 3.26554 3.69951
  12 616.238 3.26554 -3.69951
</Section>

newXOutput 159

<Section columns = "stress_xx | stress_yy | stress_xy">
  1 600.246 3.19004 -3.62389
  2 600.246 3.19004 3.62389
  3 613.494 -8.80328 5.81776
  4 613.494 -8.80328 -5.81776
  5 443.529 7.17569 7.72502
  6 443.529 7.17569 -7.72502
  7 443.529 7.17569 -7.72502
  8 443.529 7.17569 7.72502
  9 613.494 -8.80328 -5.81776
  10 613.494 -8.80328 5.81776
  11 600.246 3.19004 3.62389
  12 600.246 3.19004 -3.62389
</Section>

newXOutput 160

<Section columns = "stress_xx | stress_yy | stress_xy">
  1 584.467 3.11479 -3.54793
  2 584.467 3.11479 3.54793
  3 597.448 -8.58533 5.69701
  4 597.448 -8.58533 -5.69701
  5 430.808 6.99579 7.56206
  6 430.808 6.99579 -7.56206
  7 430.808 6.99579 -7.56206
  8 430.808 6.99579 7.56206
  9 597.448 -8.58533 -5.69701
  10 597.448 -8.58533 5.69701
  11 584.467 3.11479 3.54793
  12 584.467 3.11479 -3.54793
</Section>

newXOutput 161

<Section columns = "stress_xx | stress_yy | stress_xy">
  1 568.894 3.03980 -3.47169
  2 568.894 3.03980 3.47169
  3 581.608 -8.36864 5.57574
  4 581.608 -8.36864 -5.57574
  5 418.317 6.81700 7.39852
  6 418.317 6.81700 -7.39852
  7 418.317 6.81700 -7.39852
  8 418.317 6.81700 7.39852
  9 581.608 -8.36864 -5.57574
  10 581.608 -8.36864 5.57574
  11 568.894 3.03980 3.47169
  12 568.894 3.03980 -3.47169
</Section>

newXOutput 162

<Section columns = "stress_xx | stress_yy | stress_xy">
  1 553.521 2.96510 -3.39519
  2 553.521 2.96510 3.39519
  3 565.965 -8.15325 5.45399
  4 565.965 -8.15325 -5.45399
  5 406.047 6.63936 7.23448
  6 406.047 6.63936 -7.23448
  7 406.047 6.63936 -7.23448
  8 406.047 6.63936 7.23448
  9 565.965 -8.15325 -5.45399
  10 565.965 -8.15325 5.45399
  11 553.521 2.96510 3.39519
  12 553.521 2.96510 -3.39519
</Section>

newXOutput 163

<Section columns = "stress_xx | stress_yy | stress_xy">
  1 538.339 2.89070 -3.31847
  2 538.339 2.89070 3.31847
  3 550.512 -7.93920 5.33184
  4 550.512 -7.93920 -5.33184
  5 393.990 6.46291 7.07002
  6 393.990 6.46291 -7.07002
  7 393.990 6.46291 -7.07002
  8 393.990 6.46291 7.07002
  9 550.512 -7.93920 -5.33184
  10 550.512 -7.93920 5.33184
  11 538.339 2.89070 3.31847
  12 538.339 2.89070 -3.31847
</Section>

newXOutput 164

<Section columns = "stress_xx | stress_yy | stress_xy">
  1 523.344 2.81660 -3.24156
  2 523.344 2.81660 3.24156
  3 535.245 -7.72653 5.20932
  4 535.245 -7.72653 -5.20932
  5 382.138 6.28767 6.90521
  6 382.138 6.28767 -6.90521
  7 382.138 6.28767 -6.90521
  8 382.138 6.28767 6.90521
  9 535.245 -7.72653 -5.20932
  10 535.245 -7.72653 5.20932
  11 523.344 2.81660 3.24156
  12 523.344 2.81660 -3.24156
</Section>

newXOutput 165

<Section columns = "stress_xx | stress_yy | stress_xy">
  1 508.528 2.74284 -3.16449
  2 508.528 2.74284 3.16449
  3 520.155 -7.51527 5.08648
  4 520.155 -7.51527 -5.08648
  5 370.483 6.11367 6.74010
  6 370.483 6.11367 -6.74010
  7 370.483 6.11367 -6.74010
  8 370.483 6.11367 6.74010
  9 520.155 -7.51527 -5.08648
  10 520.155 -7.51527 5.08648
  11 508.528 2.74284 3.16449
  12 508.528 2.74284 -3.16449
</Section>

newXOutput 166

<Section columns = "stress_xx | stress_yy | stress_xy">
  1 493.886 2.66940 -3.08729
  2 493.886 2.66940 3.08729
  3 505.239 -7.30543 4.96338
  4 505.239 -7.30543 -4.96338
  5 359.018 5.94093 6.57476
  6 359.018 5.94093 -6.57476
  7 359.018 5.94093 -6.57476
  8 359.018 5.94093 6.57476
  9 505.239 -7.30543 -4.96338
  10 505.239 -7.30543 4.96338
  11 493.886 2.66940 3.08729
  12 493.886 2.66940 -3.08729
</Section>

newXOutput 167

<Section columns = "stress_xx | stress_yy | stress_xy">
  1 479.412 2.59631 -3.00998
  2 479.412 2.59631 3.00998
  3 490.489 -7.09705 4.84004
  4 490.489 -7.09705 -4.84004
  5 347.737 5.76947 6.40924
  6 347.737 5.76947 -6.40924
  7 347.737 5.76947 -6.40924
  8 347.737 5.76947 6.40924
  9 490.489 -7.09705 -4.84004
  10 490.489 -7.09705 4.84004
  11 479.412 2.59631 3.00998
  12 479.412 2.59631 -3.00998
</Section>

newXOutput 168

<Section columns = "stress_xx | stress_yy | stress_xy">
  1 465.102 2.52358 -2.93259
  2 465.102 2.52358 2.93259
  3 475.902 -6.89013 4.71651
  4 475.902 -6.89013 -4.71651
  5 336.633 5.59930 6.24359
  6 336.633 5.59930 -6.24359
  7 336.633 5.59930 -6.24359
  8 336.633 5.59930 6.24359
  9 475.902 -6.89013 -4.71651
  10 475.902 -6.89013 4.71651
  11 465.102 2.52358 2.93259
  12 465.102 2.52358 -2.93259
</Section>

newXOutput 169

<Section columns = "stress_xx | stress_yy | stress_xy">
  1 450.949 2.45120 -2.85513
  2 450.949 2.45120 2.85513
  3 461.472 -6.68470 4.59283
  4 461.472 -6.68470 -4.59283
  5 325.701 5.43044 6.07785
  6 325.701 5.43044 -6.07785
  7 325.701 5.43044 -6.07785
  8 325.701 5.43044 6.07785
  9 461.472 -6.68470 -4.59283
  10 461.472 -6.68470 4.59283
  11 450.949 2.45120 2.85513
  12 450.949 2.45120 -2.85513
</Section>

newXOutput 170

<Section columns = "stress_xx | stress_yy | stress_xy">
  1 436.950 2.37919 -2.77763
  2 436.950 2.37919 2.77763
  3 447.195 -6.48076 4.46902
  4 447.195 -6.48076 -4.46902
  5 314.933 5.26289 5.91207
  6 314.933 5.26289 -5.91207
  7 314.933 5.26289 -5.91207
  8 314.933 5.26289 5.91207
  9 447.195 -6.48076 -4.46902
  10 447.195 -6.48076 4.46902
  11 436.950 2.37919 2.77763
  12 436.950 2.37919 -2.77763
</Section>

newXOutput 171

<Section columns = "stress_xx | stress_yy | stress_xy">
  1 423.099 2.30754 -2.70011
  2 423.099 2.30754 2.70011
  3 433.065 -6.27832 4.34512
  4 433.065 -6.27832 -4.34512
  5 304.326 5.09667 5.74628
  6 304.326 5.09667 -5.74628
  7 304.326 5.09667 -5.74628
  8 304.326 5.09667 5.74628
  9 433.065 -6.27832 -4.34512
  10 433.065 -6.27832 4.34512
  11 423.099 2.30754 2.70011
  12 423.099 2.30754 -2.70011
</Section>

newXOutput 172

<Section columns = "stress_xx | stress_yy | stress_xy">
  1 409.392 2.23628 -2.62258
  2 409.392 2.23628 2.62258
  3 419.080 -6.07739 4.22115
  4 419.080 -6.07739 -4.22115
  5 293.873 4.93176 5.58053
  6 293.873 4.93176 -5.58053
  7 293.873 4.93176 -5.58053
  8 293.873 4.93176 5.58053
  9 419.080 -6.07739 -4.22115
  10 419.080 -6.07739 4.22115
  11 409.392 2.23628 2.62258
  12 409.392 2.23628 -2.62258
</Section>

newXOutput 173

<Section columns = "stress_xx | stress_yy | stress_xy">
  1 395.826 2.16539 -2.54506
  2 395.826 2.16539 2.54506
  3 405.234 -5.87798 4.09714
  4 405.234 -5.87798 -4.09714
  5 283.570 4.76819 5.41484
  6 283.570 4.76819 -5.41484
  7 283.570 4.76819 -5.41484
  8 283.570 4.76819 5.41484
  9 405.234 -5.87798 -4.09714
  10 405.234 -5.87798 4.09714
  11 395.826 2.16539 2.54506
  12 395.826 2.16539 -2.54506
</Section>

newXOutput 174

<Section columns = "stress_xx | stress_yy | stress_xy">
  1 382.396 2.09489 -2.46756
  2 382.396 2.09489 2.46756
  3 391.524 -5.68008 3.97312
  4 391.524 -5.68008 -3.97312
  5 273.412 4.60594 5.24925
  6 273.412 4.60594 -5.24925
  7 273.412 4.60594 -5.24925
  8 273.412 4.60594 5.24925
  9 391.524 -5.68008 -3.97312
  10 391.524 -5.68008 3.97312
  11 382.396 2.09489 2.46756
  12 382.396 2.09489 -2.46756
</Section>

newXOutput 175

<Section columns = "stress_xx | stress_yy | stress_xy">
  1 369.098 2.02477 -2.39011
  2 369.098 2.02477 2.39011
  3 377.946 -5.48369 3.84911
  4 377.946 -5.48369 -3.84911
  5 263.395 4.44502 5.08380
  6 263.395 4.44502 -5.08380
  7 263.395 4.44502 -5.08380
  8 263.395 4.44502 5.08380
  9 377.946 -5.48369 -3.84911
  10 377.946 -5.48369 3.84911
  11 369.098 2.02477 2.39011
  12 369.098 2.02477 -2.39011
</Section>

newXOutput 176

<Section columns = "stress_xx | stress_yy | stress_xy">
  1 355.930 1.95504 -2.31270
  2 355.930 1.95504 2.31270
  3 364.496 -5.28882 3.72513
  4 364.496 -5.28882 -3.72513
  5 253.514 4.28543 4.91849
  6 253.514 4.28543 -4.91849
  7 253.514 4.28543 -4.91849
  8 253.514 4.28543 4.91849
  9 364.496 -5.28882 -3.72513
  10 364.496 -5.28882 3.72513
  11 355.930 1.95504 2.31270
  12 355.930 1.95504 -2.31270
</Section>

newXOutput 177

<Section columns = "stress_xx | stress_yy | stress_xy">
  1 342.886 1.88570 -2.23535
  2 342.886 1.88570 2.23535
  3 351.172 -5.09547 3.60120
  4 351.172 -5.09547 -3.60120
  5 243.765 4.12716 4.75337
  6 243.765 4.12716 -4.75337
  7 243.765 4.12716 -4.75337
  8 243.765 4.12716 4.75337
  9 351.172 -5.09547 -3.60120
  10 351.172 -5.09547 3.60120
  11 342.886 1.88570 2.23535
  12 342.886 1.88570 -2.23535
</Section>

newXOutput 178

<Section columns = "stress_xx | stress_yy | stress_xy">
  1 329.964 1.81675 -2.15808
  2 329.964 1.81675 2.15808
  3 337.969 -4.90363 3.47734
  4 337.969 -4.90363 -3.47734
  5 234.145 3.97021 4.58845
  6 234.145 3.97021 -4.58845
  7 234.145 3.97021 -4.58845
  8 234.145 3.97021 4.58845
  9 337.969 -4.90363 -3.47734
  10 337.969 -4.90363 3.47734
  11 329.964 1.81675 2.15808
  12 329.964 1.81675 -2.15808
</Section>

newXOutput 179

<Section columns = "stress_xx | stress_yy | stress_xy">
  1 317.161 1.74819 -2.08090
  2 317.161 1.74819 2.08090
  3 324.885 -4.71329 3.35357
  4 324.885 -4.71329 -3.35357
  5 224.649 3.81458 4.42376
  6 224.649 3.81458 -4.42376
  7 224.649 3.81458 -4.42376
  8 224.649 3.81458 4.42376
  9 324.885 -4.71329 -3.35357
  10 324.885 -4.71329 3.35357
  11 317.161 1.74819 2.08090
  12 317.161 1.74819 -2.08090
</Section>

newXOutput 180

<Section columns = "stress_xx | stress_yy | stress_xy">
  1 304.474 1.68003 -2.00380
  2 304.474 1.68003 2.00380
  3 311.916 -4.52445 3.22990
  4 311.916 -4.52445 -3.22990
  5 215.274 3.66025 4.25931
  6 215.274 3.66025 -4.25931
  7 215.274 3.66025 -4.25931
  8 215.274 3.66025 4.25931
  9 311.916 -4.52445 -3.22990
  10 311.916 -4.52445 3.22990
  11 304.474 1.68003 2.00380
  12 304.474 1.68003 -2.00380
</Section>

newXOutput 181

<Section columns = "stress_xx | stress_yy | stress_xy">
  1 291.899 1.61225 -1.92682
  2 291.899 1.61225 1.92682
  3 299.060 -4.33711 3.10635
  4 299.060 -4.33711 -3.10635
  5 206.017 3.50722 4.09513
  6 206.017 3.50722 -4.09513
  7 206.017 3.50722 -4.09513
  8 206.017 3.50722 4.09513
  9 299.060 -4.33711 -3.10635
  10 299.060 -4.33711 3.10635
  11 291.899 1.61225 1.92682
  12 291.899 1.61225 -1.92682
</Section>

newXOutput 182

<Section columns = "stress_xx | stress_yy | stress_xy">
  1 279.434 1.54487 -1.84994
  2 279.434 1.54487 1.84994
  3 286.313 -4.15126 2.98293
  4 286.313 -4.15126 -2.98293
  5 196.873 3.35548 3.93123
  6 196.873 3.35548 -3.93123
  7 196.873 3.35548 -3.93123
  8 196.873 3.35548 3.93123
  9 286.313 -4.15126 -2.98293
  10 286.313 -4.15126 2.98293
  11 279.434 1.54487 1.84994
  12 279.434 1.54487 -1.84994
</Section>

newXOutput 183

<Section columns = "stress_xx | stress_yy | stress_xy">
  1 267.076 1.47788 -1.77318
  2 267.076 1.47788 1.77318
  3 273.674 -3.96688 2.85965
  4 273.674 -3.96688 -2.85965
  5 187.841 3.20504 3.76764
  6 187.841 3.20504 -3.76764
  7 187.841 3.20504 -3.76764
  8 187.841 3.20504 3.76764
  9 273.674 -3.96688 -2.85965
  10 273.674 -3.96688 2.85965
  11 267.076 1.47788 1.77318
  12 267.076 1.47788 -1.77318
</Section>

newXOutput 184

<Section columns = "stress_xx | stress_yy | stress_xy">
  1 254.823 1.41129 -1.69655
  2 254.823 1.41129 1.69655
  3 261.140 -3.78398 2.73654
  4 261.140 -3.78398 -2.73654
  5 178.917 3.05586 3.60435
  6 178.917 3.05586 -3.60435
  7 178.917 3.05586 -3.60435
  8 178.917 3.05586 3.60435
  9 261.140 -3.78398 -2.73654
  10 261.140 -3.78398 2.73654
  11 254.823 1.41129 1.69655
  12 254.823 1.41129 -1.69655
</Section>

newXOutput 185

<Section columns = "stress_xx | stress_yy | stress_xy">
  1 242.671 1.34508 -1.62005
  2 242.671 1.34508 1.62005
  3 248.707 -3.60253 2.61359
  4 248.707 -3.60253 -2.61359
  5 170.098 2.90796 3.44139
  6 170.098 2.90796 -3.44139
  7 170.098 2.90796 -3.44139
  8 170.098 2.90796 3.44139
  9 248.707 -3.60253 -2.61359
  10 248.707 -3.60253 2.61359
  11 242.671 1.34508 1.62005
  12 242.671 1.34508 -1.62005
</Section>

newXOutput 186

<Section columns = "stress_xx | stress_yy | stress_xy">
  1 230.619 1.27926 -1.54370
  2 230.619 1.27926 1.54370
  3 236.374 -3.42254 2.49083
  4 236.374 -3.42254 -2.49083
  5 161.382 2.76131 3.27878
  6 161.382 2.76131 -3.27878
  7 161.382 2.76131 -3.27878
  8 161.382 2.76131 3.27878
  9 236.374 -3.42254 -2.49083
  10 236.374 -3.42254 2.49083
  11 230.619 1.27926 1.54370
  12 230.619 1.27926 -1.54370
</Section>

newXOutput 187

<Section columns = "stress_xx | stress_yy | stress_xy">
  1 218.664 1.21384 -1.46749
  2 218.664 1.21384 1.46749
  3 224.138 -3.24399 2.36825
  4 224.138 -3.24399 -2.36825
  5 152.764 2.61591 3.11652
  6 152.764 2.61591 -3.11652
  7 152.764 2.61591 -3.11652
  8 152.764 2.61591 3.11652
  9 224.138 -3.24399 -2.36825
  10 224.138 -3.24399 2.36825
  11 218.664 1.21384 1.46749
  12 218.664 1.21384 -1.46749
</Section>

newXOutput 188

<Section columns = "stress_xx | stress_yy | stress_xy">
  1 206.804 1.14880 -1.39143
  2 206.804 1.14880 1.39143
  3 211.997 -3.06688 2.24588
  4 211.997 -3.06688 -2.24588
  5 144.244 2.47175 2.95462
  6 144.244 2.47175 -2.95462
  7 144.244 2.47175 -2.95462
  8 144.244 2.47175 2.95462
  9 211.997 -3.06688 -2.24588
  10 211.997 -3.06688 2.24588
  11 206.804 1.14880 1.39143
  12 206.804 1.14880 -1.39143
</Section>

newXOutput 189

<Section columns = "stress_xx | stress_yy | stress_xy">
  1 195.037 1.08414 -1.31552
  2 195.037 1.08414 1.31552
  3 199.950 -2.89118 2.12372
  4 199.950 -2.89118 -2.12372
  5 135.819 2.32881 2.79309
  6 135.819 2.32881 -2.79309
  7 135.819 2.32881 -2.79309
  8 135.819 2.32881 2.79309
  9 199.950 -2.89118 -2.12372
  10 199.950 -2.89118 2.12372
  11 195.037 1.08414 1.31552
  12 195.037 1.08414 -1.31552
</Section>

newXOutput 190

<Section columns = "stress_xx | stress_yy | stress_xy">
  1 183.360 1.01987 -1.23978
  2 183.360 1.01987 1.23978
  3 187.992 -2.71689 2.00177
  4 187.992 -2.71689 -2.00177
  5 127.485 2.18709 2.63195
  6 127.485 2.18709 -2.63195
  7 127.485 2.18709 -2.63195
  8 127.485 2.18709 2.63195
  9 187.992 -2.71689 -2.00177
  10 187.992 -2.71689 2.00177
  11 183.360 1.01987 1.23978
  12 183.360 1.01987 -1.23978
</Section>

newXOutput 191

<Section columns = "stress_xx | stress_yy | stress_xy">
  1 171.771 0.955983 -1.16420
  2 171.771 0.955983 1.16420
  3 176.124 -2.54401 1.88005
  4 176.124 -2.54401 -1.88005
  5 119.241 2.04658 2.47121
  6 119.241 2.04658 -2.47121
  7 119.241 2.04658 -2.47121
  8 119.241 2.04658 2.47121
  9 176.124 -2.54401 -1.88005
  10 176.124 -2.54401 1.88005
  11 171.771 0.955983 1.16420
  12 171.771 0.955983 -1.16420
</Section>

newXOutput 192

<Section columns = "stress_xx | stress_yy | stress_xy">
  1 160.269 0.892475 -1.08880
  2 160.269 0.892475 1.08880
  3 164.342 -2.37251 1.75856
  4 164.342 -2.37251 -1.75856
  5 111.085 1.90726 2.31086
  6 111.085 1.90726 -2.31086
  7 111.085 1.90726 -2.31086
  8 111.085 1.90726 2.31086
  9 164.342 -2.37251 -1.75856
  10 164.342 -2.37251 1.75856
  11 160.269 0.892475 1.08880
  12 160.269 0.892475 -1.08880
</Section>

newXOutput 193

<Section columns = "stress_xx | stress_yy | stress_xy">
  1 148.852 0.829346 -1.01356
  2 148.852 0.829346 1.01356
  3 152.646 -2.20238 1.63731
  4 152.646 -2.20238 -1.63731
  5 103.015 1.76913 2.15092
  6 103.015 1.76913 -2.15092
  7 103.015 1.76913 -2.15092
  8 103.015 1.76913 2.15092
  9 152.646 -2.20238 -1.63731
  10 152.646 -2.20238 1.63731
  11 148.852 0.829346 1.01356
  12 148.852 0.829346 -1.01356
</Section>

newXOutput 194

<Section columns = "stress_xx | stress_yy | stress_xy">
  1 137.517 0.766592 -0.938503
  2 137.517 0.766592 0.938503
  3 141.032 -2.03362 1.51630
  4 141.032 -2.03362 -1.51630
  5 95.0272 1.63216 1.99140
  6 95.0272 1.63216 -1.99140
  7 95.0272 1.63216 -1.99140
  8 95.0272 1.63216 1.99140
  9 141.032 -2.03362 -1.51630
  10 141.032 -2.03362 1.51630
  11 137.517 0.766592 0.938503
  12 137.517 0.766592 -0.938503
</Section>

newXOutput 195

<Section columns = "stress_xx | stress_yy | stress_xy">
  1 126.263 0.704213 -0.863625
  2 126.263 0.704213 0.863625
  3 129.499 -1.86621 1.39554
  4 129.499 -1.86621 -1.39554
  5 87.1211 1.49636 1.83230
  6 87.1211 1.49636 -1.83230
  7 87.1211 1.49636 -1.83230
  8 87.1211 1.49636 1.83230
  9 129.499 -1.86621 -1.39554
  10 129.499 -1.86621 1.39554
  11 126.263 0.704213 0.863625
  12 126.263 0.704213 -0.863625
</Section>

newXOutput 196

<Section columns = "stress_xx | stress_yy | stress_xy">
  1 115.253 0.641607 -0.788160
  2 115.253 0.641607 0.788160
  3 118.208 -1.69838 1.27378
  4 118.208 -1.69838 -1.27378
  5 79.3869 1.38504 1.67197
  6 79.3869 1.38504 -1.67197
  7 79.3869 1.38504 -1.67197
  8 79.3869 1.38504 1.67197
  9 118.208 -1.69838 -1.27378
  10 118.208 -1.69838 1.27378
  11 115.253 0.641607 0.788160
  12 115.253 0.641607 -0.788160
</Section>

newXOutput 197

<Section columns = "stress_xx | stress_yy | stress_xy">
  1 104.152 0.579984 -0.713671
  2 104.152 0.579984 0.713671
  3 106.829 -1.53368 1.15358
  4 106.829 -1.53368 -1.15358
  5 71.6356 1.25088 1.51377
  6 71.6356 1.25088 -1.51377
  7 71.6356 1.25088 -1.51377
  8 71.6356 1.25088 1.51377
  9 106.829 -1.53368 -1.15358
  10 106.829 -1.53368 1.15358
  11 104.152 0.579984 0.713671
  12 104.152 0.579984 -0.713671
</Section>

newXOutput 198

<Section columns = "stress_xx | stress_yy | stress_xy">
  1 93.1278 0.518729 -0.639370
  2 93.1278 0.518729 0.639370
  3 95.5273 -1.37030 1.03364
  4 95.5273 -1.37030 -1.03364
  5 63.9601 1.11784 1.35601
  6 63.9601 1.11784 -1.35601
  7 63.9601 1.11784 -1.35601
  8 63.9601 1.11784 1.35601
  9 95.5273 -1.37030 -1.03364
  10 95.5273 -1.37030 1.03364
  11 93.1278 0.518729 0.639370
  12 93.1278 0.518729 -0.639370
</Section>

newXOutput 199

<Section columns = "stress_xx | stress_yy | stress_xy">
  1 82.1776 0.457839 -0.565258
  2 82.1776 0.457839 0.565258
  3 84.3001 -1.20822 0.913964
  4 84.3001 -1.20822 -0.913964
  5 56.3586 0.985944 1.19869
  6 56.3586 0.985944 -1.19869
  7 56.3586 0.985944 -1.19869
  8 56.3586 0.985944 1.19869
  9 84.3001 -1.20822 -0.913964
  10 84.3001 -1.20822 0.913964
  11 82.1776 0.457839 0.565258
  12 82.1776 0.457839 -0.565258
</Section>

newXOutput 200

<Section columns = "stress_xx | stress_yy | stress_xy">
  1 71.3003 0.397311 -0.491339
  2 71.3003 0.397311 0.491339
  3 73.1462 -1.04743 0.794564
  4 73.1462 -1.04743 -0.794564
  5 48.8295 0.855168 1.04182
  6 48.8295 0.855168 -1.04182
  7 48.8295 0.855168 -1.04182
  8 48.8295 0.855168 1.04182
  9 73.1462 -1.04743 -0.794564
  10 73.1462 -1.04743 0.794564
  11 71.3003 0.397311 0.491339
  12 71.3003 0.397311 -0.491339
</Section>

newXOutput 201

<Section columns = "stress_xx | stress_yy | stress_xy">
  1 60.4944 0.337142 -0.417612
  2 60.4944 0.337142 0.417612
  3 62.0642 -0.887907 0.675440
  4 62.0642 -0.887907 -0.675440
  5 41.3711 0.725504 0.885388
  6 41.3711 0.725504 -0.885388
  7 41.3711 0.725504 -0.885388
  8 41.3711 0.725504 0.885388
  9 62.0642 -0.887907 -0.675440
  10 62.0642 -0.887907 0.675440
  11 60.4944 0.337142 0.417612
  12 60.4944 0.337142 -0.417612
</Section>

newXOutput 202

<Section columns = "stress_xx | stress_yy | stress_xy">
  1 49.7586 0.277330 -0.344081
  2 49.7586 0.277330 0.344081
  3 51.0526 -0.729652 0.556596
  4 51.0526 -0.729652 -0.556596
  5 33.9818 0.596938 0.729410
  6 33.9818 0.596938 -0.729410
  7 33.9818 0.596938 -0.729410
  8 33.9818 0.596938 0.729410
  9 51.0526 -0.729652 -0.556596
  10 51.0526 -0.729652 0.556596
  11 49.7586 0.277330 0.344081
  12 49.7586 0.277330 -0.344081
</Section>

newXOutput 203

<Section columns = "stress_xx | stress_yy | stress_xy">
  1 39.0912 0.217872 -0.270748
  2 39.0912 0.217872 0.270748
  3 40.1100 -0.572647 0.438034
  4 40.1100 -0.572647 -0.438034
  5 26.6601 0.469458 0.573886
  6 26.6601 0.469458 -0.573886
  7 26.6601 0.469458 -0.573886
  8 26.6601 0.469458 0.573886
  9 40.1100 -0.572647 -0.438034
  10 40.1100 -0.572647 0.438034
  11 39.0912 0.217872 0.270748
  12 39.0912 0.217872 -0.270748
</Section>

newXOutput 204

<Section columns = "stress_xx | stress_yy | stress_xy">
  1 28.4912 0.158766 -0.197612
  2 28.4912 0.158766 0.197612
  3 29.2351 -0.416881 0.319758
  4 29.2351 -0.416881 -0.319758
  5 19.4046 0.343051 0.418818
  6 19.4046 0.343051 -0.418818
  7 19.4046 0.343051 -0.418818
  8 19.4046 0.343051 0.418818
  9 29.2351 -0.416881 -0.319758
  10 29.2351 -0.416881 0.319758
  11 28.4912 0.158766 0.197612
  12 28.4912 0.158766 -0.197612
</Section>

newXOutput 205

<Section columns = "stress_xx | stress_yy | stress_xy">
  1 17.9570 0.100009 -0.124676
  2 17.9570 0.100009 0.124676
  3 18.4265 -0.262341 0.201769
  4 18.4265 -0.262341 -0.201769
  5 12.2137 0.217705 0.264208
  6 12.2137 0.217705 -0.264208
  7 12.2137 0.217705 -0.264208
  8 12.2137 0.217705 0.264208
  9 18.4265 -0.262341 -0.201769
  10 18.4265 -0.262341 0.201769
  11 17.9570 0.100009 0.124676
  12 17.9570 0.100009 -0.124676
</Section>

newXOutput 206

<Section columns = "stress_xx | stress_yy | stress_xy">
  1 7.48742 0.0415990 -0.0519408
  2 7.48742 0.0415990 0.0519408
  3 7.68314 -0.109014 0.0840705
  4 7.68314 -0.109014 -0.0840705
  5 5.08608 0.0934087 0.110058
  6 5.08608 0.0934087 -0.110058
  7 5.08608 0.0934087 -0.110058
  8 5.08608 0.0934087 0.110058
  9 7.68314 -0.109014 -0.0840705
  10 7.68314 -0.109014 0.0840705
  11 7.48742 0.0415990 0.0519408
  12 7.48742 0.0415990 -0.0519408
</Section>

newXOutput 207

<Section columns = "stress_xx | stress_yy | stress_xy">
  1 -0.000465299 -8.87073e-05 -8.91820e-07
  2 -0.000465299 -8.87073e-05 8.91821e-07
  3 -0.000431741 -0.000120851 7.38483e-06
  4 -0.000431741 -0.000120851 -7.38483e-06
  5 -0.000216335 -0.000135124 7.83074e-06
  6 -0.000216335 -0.000135124 -7.83074e-06
  7 -0.000216335 -0.000135124 -7.83074e-06
  8 -0.000216335 -0.000135124 7.83075e-06
  9 -0.000431741 -0.000120851 -7.38483e-06
  10 -0.000431741 -0.000120851 7.38483e-06
  11 -0.000465299 -8.87073e-05 8.91821e-07
  12 -0.000465299 -8.87073e-05 -8.91821e-07
</Section>

newXOutput 208

<Section columns = "stress_xx | stress_yy | stress_xy">
  1 -9.62004e-12 9.09495e-13 -5.99092e-15
  2 -8.56985e-12 9.09495e-13 -1.45750e-13
  3 -8.64020e-12 -9.35244e-13 2.81221e-13
  4 -8.11510e-12 -9.35244e-13 -1.30297e-13
  5 -4.35527e-12 -2.70273e-12 1.33292e-13
  6 -4.35527e-12 -2.70273e-12 -2.08346e-13
  7 -4.35527e-12 -2.70273e-12 -6.19474e-13
  8 -4.35527e-12 -2.70273e-12 -1.32592e-13
  9 -9.02460e-12 -1.41574e-12 -3.84359e-13
  10 -9.02460e-12 -1.41574e-12 6.21608e-13
  11 -1.14390e-11 -2.67698e-12 6.59611e-13
  12 -1.14390e-11 -2.67698e-12 -4.11645e-13
</Section>

