newXOutput 1

<Section columns = "stress_xx | stress_yy | stress_xy">
  1 0.00000 0.00000 0.00000
  2 0.00000 0.00000 0.00000
  3 0.00000 0.00000 0.00000
  4 0.00000 0.00000 0.00000
  5 0.00000 0.00000 0.00000
  6 0.00000 0.00000 0.00000
  7 0.00000 0.00000 0.00000
  8 0.00000 0.00000 0.00000
  9 0.00000 0.00000 0.00000
  10 0.00000 0.00000 0.00000
  11 0.00000 0.00000 0.00000
  12 0.00000 0.00000 0.00000
</Section>

newXOutput 2

<Section columns = "stress_xx | stress_yy | stress_xy">
  1 30.9481 -0.00878629 -2.71158e-14
  2 30.9481 -0.00878629 -2.33772e-14
  3 30.9481 -0.00878629 -8.74946e-15
  4 30.9481 -0.00878629 -7.02035e-15
  5 30.9481 -0.00878629 -9.32867e-15
  6 30.9481 -0.00878629 -9.84273e-15
  7 30.9481 -0.00878629 -1.17152e-14
  8 30.9481 -0.00878629 -1.09025e-14
  9 30.9481 -0.00878629 -1.40102e-15
  10 30.9481 -0.00878629 4.33776e-16
  11 30.9481 -0.00878629 -1.20278e-14
  12 30.9481 -0.00878629 -1.24626e-14
</Section>

newXOutput 3

<Section columns = "stress_xx | stress_yy | stress_xy">
  1 61.6836 -0.00875895 -3.69904e-14
  2 61.6836 -0.00875895 -2.97334e-14
  3 61.6836 -0.00875895 -7.17135e-15
  4 61.6836 -0.00875895 -4.00804e-15
  5 61.6836 -0.00875895 -1.21997e-14
  6 61.6836 -0.00875895 -1.25719e-14
  7 61.6836 -0.00875895 -1.08606e-14
  8 61.6836 -0.00875895 -8.68356e-15
  9 61.6836 -0.00875895 -1.79441e-14
  10 61.6836 -0.00875895 -1.48473e-14
  11 61.6836 -0.00875895 -3.37397e-15
  12 61.6836 -0.00875895 -4.80383e-15
</Section>

newXOutput 4

<Section columns = "stress_xx | stress_yy | stress_xy">
  1 92.2059 -0.00873479 1.01915e-14
  2 92.2059 -0.00873479 1.51927e-14
  3 92.2059 -0.00873479 8.28138e-15
  4 92.2059 -0.00873479 1.09672e-14
  5 92.2059 -0.00873479 7.74701e-16
  6 92.2059 -0.00873479 1.14516e-15
  7 92.2059 -0.00873479 1.35544e-14
  8 92.2059 -0.00873479 1.57223e-14
  9 92.2059 -0.00873479 -6.79887e-15
  10 92.2059 -0.00873479 -1.84103e-15
  11 92.2059 -0.00873479 -3.82993e-15
  12 92.2059 -0.00873479 3.84483e-15
</Section>

newXOutput 5

<Section columns = "stress_xx | stress_yy | stress_xy">
  1 122.517 -0.00871075 -1.95567e-15
  2 122.517 -0.00871075 2.10084e-15
  3 122.517 -0.00871075 3.81185e-15
  4 122.517 -0.00871075 6.39327e-15
  5 122.517 -0.00871075 -5.25388e-15
  6 122.517 -0.00871075 -3.96317e-15
  7 122.517 -0.00871075 4.08203e-15
  8 122.517 -0.00871075 7.53157e-15
  9 122.517 -0.00871075 2.41137e-14
  10 122.517 -0.00871075 2.79782e-14
  11 122.517 -0.00871075 3.44809e-14
  12 122.517 -0.00871075 3.16230e-14
</Section>

newXOutput 6

<Section columns = "stress_xx | stress_yy | stress_xy">
  1 152.618 -0.00868684 1.27633e-14
  2 152.618 -0.00868684 1.43877e-14
  3 152.618 -0.00868684 5.40840e-15
  4 152.618 -0.00868684 8.67237e-15
  5 152.618 -0.00868684 3.41328e-15
  6 152.618 -0.00868684 5.61588e-15
  7 152.618 -0.00868684 2.97783e-15
  8 152.618 -0.00868684 4.94638e-15
  9 152.618 -0.00868684 3.83412e-15
  10 152.618 -0.00868684 4.78913e-15
  11 152.618 -0.00868684 -4.09011e-14
  12 152.618 -0.00868684 -9.07547e-15
</Section>

newXOutput 7

<Section columns = "stress_xx | stress_yy | stress_xy">
  1 182.512 -0.00866305 -2.59873e-14
  2 182.512 -0.00866305 -2.08712e-14
  3 182.512 -0.00866305 -6.99469e-15
  4 182.512 -0.00866305 -3.88848e-15
  5 182.512 -0.00866305 7.46925e-15
  6 182.512 -0.00866305 8.38284e-15
  7 182.512 -0.00866305 -3.66017e-14
  8 182.512 -0.00866305 -3.17718e-14
  9 182.512 -0.00866305 1.25356e-14
  10 182.512 -0.00866305 1.81903e-14
  11 182.512 -0.00866305 -1.53715e-14
  12 182.512 -0.00866305 -2.32760e-14
</Section>

newXOutput 8

<Section columns = "stress_xx | stress_yy | stress_xy">
  1 212.200 -0.00863939 2.37580e-14
  2 212.200 -0.00863939 2.52131e-14
  3 212.200 -0.00863939 2.55846e-15
  4 212.200 -0.00863939 3.64982e-15
  5 212.200 -0.00863939 1.27162e-14
  6 212.200 -0.00863939 1.39895e-14
  7 212.200 -0.00863939 4.35673e-14
  8 212.200 -0.00863939 4.49628e-14
  9 212.200 -0.00863939 -1.78612e-14
  10 212.200 -0.00863939 -1.85268e-14
  11 212.200 -0.00863939 -7.33240e-15
  12 212.200 -0.00863939 7.47221e-15
</Section>

newXOutput 9

<Section columns = "stress_xx | stress_yy | stress_xy">
  1 241.684 -0.00861585 -1.37981e-14
  2 241.684 -0.00861585 -9.45234e-15
  3 241.684 -0.00861585 -5.67928e-15
  4 241.684 -0.00861585 -3.14428e-15
  5 241.684 -0.00861585 -4.49695e-16
  6 241.684 -0.00861585 2.74590e-16
  7 241.684 -0.00861585 -9.84301e-15
  8 241.684 -0.00861585 -5.95877e-15
  9 241.684 -0.00861585 -2.67446e-15
  10 241.684 -0.00861585 3.47799e-15
  11 241.684 -0.00861585 5.75229e-14
  12 241.684 -0.00861585 5.25391e-14
</Section>

newXOutput 10

<Section columns = "stress_xx | stress_yy | stress_xy">
  1 270.966 -0.00859243 5.90529e-15
  2 270.966 -0.00859243 6.82090e-15
  3 270.966 -0.00859243 1.03165e-14
  4 270.966 -0.00859243 7.98868e-15
  5 270.966 -0.00859243 -1.14937e-14
  6 270.966 -0.00859243 -1.11331e-14
  7 270.966 -0.00859243 1.10897e-14
  8 270.966 -0.00859243 1.41684e-14
  9 270.966 -0.00859243 2.10649e-15
  10 270.966 -0.00859243 5.29610e-16
  11 270.966 -0.00859243 2.71892e-14
  12 270.966 -0.00859243 2.07621e-14
</Section>

newXOutput 11

<Section columns = "stress_xx | stress_yy | stress_xy">
  1 300.047 -0.00856913 -4.72657e-14
  2 300.047 -0.00856913 -3.79346e-14
  3 300.047 -0.00856913 -1.63681e-14
  4 300.047 -0.00856913 -9.90806e-15
  5 300.047 -0.00856913 -1.70209e-14
  6 300.047 -0.00856913 -1.41497e-14
  7 300.047 -0.00856913 1.94080e-14
  8 300.047 -0.00856913 2.28064e-14
  9 300.047 -0.00856913 3.42146e-14
  10 300.047 -0.00856913 3.51483e-14
  11 300.047 -0.00856913 -1.91695e-14
  12 300.047 -0.00856913 -6.27627e-14
</Section>

newXOutput 12

<Section columns = "stress_xx | stress_yy | stress_xy">
  1 328.929 -0.00854595 -3.27124e-15
  2 328.929 -0.00854595 4.58889e-15
  3 328.929 -0.00854595 1.26734e-14
  4 328.929 -0.00854595 1.62462e-14
  5 328.929 -0.00854595 1.35532e-14
  6 328.929 -0.00854595 1.64114e-14
  7 328.929 -0.00854595 1.40793e-14
  8 328.929 -0.00854595 1.92520e-14
  9 328.929 -0.00854595 -6.19636e-15
  10 328.929 -0.00854595 2.20031e-15
  11 328.929 -0.00854595 -1.76338e-14
  12 328.929 -0.00854595 -1.83338e-14
</Section>

newXOutput 13

<Section columns = "stress_xx | stress_yy | stress_xy">
  1 357.615 -0.00852289 -2.43636e-15
  2 357.615 -0.00852289 6.09991e-15
  3 357.615 -0.00852289 9.77636e-15
  4 357.615 -0.00852289 1.47559e-14
  5 357.615 -0.00852289 -2.32143e-14
  6 357.615 -0.00852289 -1.96575e-14
  7 357.615 -0.00852289 -1.35366e-14
  8 357.615 -0.00852289 -7.67263e-15
  9 357.615 -0.00852289 -1.45446e-14
  10 357.615 -0.00852289 -7.95539e-15
  11 357.615 -0.00852289 3.82936e-15
  12 357.615 -0.00852289 -2.58178e-15
</Section>

newXOutput 14

<Section columns = "stress_xx | stress_yy | stress_xy">
  1 386.105 -0.00849994 3.19718e-14
  2 386.105 -0.00849994 2.48901e-14
  3 386.105 -0.00849994 -9.56525e-15
  4 386.105 -0.00849994 -1.91256e-14
  5 386.105 -0.00849994 1.45840e-14
  6 386.105 -0.00849994 1.17513e-14
  7 386.105 -0.00849994 -2.91796e-14
  8 386.105 -0.00849994 -2.56356e-14
  9 386.105 -0.00849994 -7.82862e-14
  10 386.105 -0.00849994 -8.41593e-14
  11 386.105 -0.00849994 -3.88954e-14
  12 386.105 -0.00849994 -4.45931e-14
</Section>

newXOutput 15

<Section columns = "stress_xx | stress_yy | stress_xy">
  1 414.401 -0.00847712 3.25230e-14
  2 414.401 -0.00847712 1.84227e-14
  3 414.401 -0.00847712 -6.97019e-15
  4 414.401 -0.00847712 -2.00129e-14
  5 414.401 -0.00847712 6.08639e-15
  6 414.401 -0.00847712 4.67636e-15
  7 414.401 -0.00847712 3.44661e-15
  8 414.401 -0.00847712 6.61608e-15
  9 414.401 -0.00847712 -1.80410e-14
  10 414.401 -0.00847712 -3.36159e-14
  11 414.401 -0.00847712 4.96204e-14
  12 414.401 -0.00847712 -5.70290e-15
</Section>

newXOutput 16

<Section columns = "stress_xx | stress_yy | stress_xy">
  1 442.506 -0.00845441 7.44565e-15
  2 442.506 -0.00845441 -5.88992e-15
  3 442.506 -0.00845441 -8.14068e-14
  4 442.506 -0.00845441 3.05418e-14
  5 442.506 -0.00845441 -2.26942e-15
  6 442.506 -0.00845441 -7.18252e-15
  7 442.506 -0.00845441 4.99319e-14
  8 442.506 -0.00845441 -7.58926e-14
  9 442.506 -0.00845441 1.14223e-14
  10 442.506 -0.00845441 -7.32262e-15
  11 442.506 -0.00845441 8.71380e-14
  12 442.506 -0.00845441 3.40278e-14
</Section>

newXOutput 17

<Section columns = "stress_xx | stress_yy | stress_xy">
  1 470.420 -0.00843181 -5.39715e-14
  2 470.420 -0.00843181 1.86986e-14
  3 470.420 -0.00843181 3.48354e-14
  4 470.420 -0.00843181 -5.18096e-14
  5 470.420 -0.00843181 5.34977e-15
  6 470.420 -0.00843181 2.55477e-15
  7 470.420 -0.00843181 -5.31990e-14
  8 470.420 -0.00843181 3.30812e-14
  9 470.420 -0.00843181 4.07320e-14
  10 470.420 -0.00843181 9.52113e-15
  11 470.420 -0.00843181 4.28931e-14
  12 470.420 -0.00843181 4.82810e-14
</Section>

newXOutput 18

<Section columns = "stress_xx | stress_yy | stress_xy">
  1 498.145 -0.00840933 -3.63106e-14
  2 498.145 -0.00840933 -8.48470e-15
  3 498.145 -0.00840933 -4.86726e-14
  4 498.145 -0.00840933 -1.24989e-14
  5 498.145 -0.00840933 -1.88355e-14
  6 498.145 -0.00840933 -2.09224e-14
  7 498.145 -0.00840933 2.64742e-14
  8 498.145 -0.00840933 -4.41757e-15
  9 498.145 -0.00840933 -4.52308e-14
  10 498.145 -0.00840933 -1.85455e-14
  11 498.145 -0.00840933 -1.19597e-13
  12 498.145 -0.00840933 -5.98487e-14
</Section>

newXOutput 19

<Section columns = "stress_xx | stress_yy | stress_xy">
  1 525.683 -0.00838697 2.11695e-14
  2 525.683 -0.00838697 -6.74789e-14
  3 525.683 -0.00838697 2.88085e-15
  4 525.683 -0.00838697 -1.99738e-14
  5 525.683 -0.00838697 1.74972e-14
  6 525.683 -0.00838697 1.40343e-14
  7 525.683 -0.00838697 3.10331e-14
  8 525.683 -0.00838697 4.16851e-14
  9 525.683 -0.00838697 -2.26166e-14
  10 525.683 -0.00838697 -1.93834e-14
  11 525.683 -0.00838697 2.03031e-14
  12 525.683 -0.00838697 -7.11903e-14
</Section>

newXOutput 20

<Section columns = "stress_xx | stress_yy | stress_xy">
  1 553.036 -0.00836471 -6.54620e-15
  2 553.036 -0.00836471 -5.65015e-14
  3 553.036 -0.00836471 -4.92701e-14
  4 553.036 -0.00836471 -5.78048e-14
  5 553.036 -0.00836471 -4.74178e-14
  6 553.036 -0.00836471 -5.01758e-14
  7 553.036 -0.00836471 4.92810e-15
  8 553.036 -0.00836471 1.82727e-14
  9 553.036 -0.00836471 -3.85798e-14
  10 553.036 -0.00836471 -2.63621e-14
  11 553.036 -0.00836471 1.50053e-14
  12 553.036 -0.00836471 7.77387e-15
</Section>

newXOutput 21

<Section columns = "stress_xx | stress_yy | stress_xy">
  1 580.205 -0.00834257 -9.89529e-14
  2 580.205 -0.00834257 9.81395e-14
  3 580.205 -0.00834257 -6.84206e-14
  4 580.205 -0.00834257 3.95434e-14
  5 580.205 -0.00834257 1.83824e-14
  6 580.205 -0.00834257 1.42637e-14
  7 580.205 -0.00834257 1.75055e-14
  8 580.205 -0.00834257 -8.74560e-14
  9 580.205 -0.00834257 7.60506e-14
  10 580.205 -0.00834257 -5.33447e-14
  11 580.205 -0.00834257 2.36981e-14
  12 580.205 -0.00834257 4.11656e-14
</Section>

newXOutput 22

<Section columns = "stress_xx | stress_yy | stress_xy">
  1 607.192 -0.00832054 2.31784e-14
  2 607.192 -0.00832054 -1.25810e-13
  3 607.192 -0.00832054 1.51584e-13
  4 607.192 -0.00832054 1.09211e-13
  5 607.192 -0.00832054 -1.82119e-13
  6 607.192 -0.00832054 -1.93054e-13
  7 607.192 -0.00832054 -4.32082e-14
  8 607.192 -0.00832054 -6.82898e-14
  9 607.192 -0.00832054 5.12489e-14
  10 607.192 -0.00832054 -1.93027e-14
  11 607.192 -0.00832054 2.95328e-14
  12 607.192 -0.00832054 -6.76092e-14
</Section>

newXOutput 23

<Section columns = "stress_xx | stress_yy | stress_xy">
  1 633.998 -0.00829862 2.08911e-14
  2 633.998 -0.00829862 -7.84510e-14
  3 633.998 -0.00829862 1.70163e-13
  4 633.998 -0.00829862 1.17770e-13
  5 633.998 -0.00829862 -4.77754e-14
  6 633.998 -0.00829862 -8.11162e-14
  7 633.998 -0.00829862 2.07700e-14
  8 633.998 -0.00829862 -2.32257e-15
  9 633.998 -0.00829862 2.96395e-14
  10 633.998 -0.00829862 1.57399e-13
  11 633.998 -0.00829862 -6.40507e-14
  12 633.998 -0.00829862 1.43183e-13
</Section>

newXOutput 24

<Section columns = "stress_xx | stress_yy | stress_xy">
  1 660.624 -0.00827682 9.36957e-14
  2 660.624 -0.00827682 2.91908e-15
  3 660.624 -0.00827682 -6.09114e-14
  4 660.624 -0.00827682 -1.18494e-13
  5 660.624 -0.00827682 8.93644e-14
  6 660.624 -0.00827682 1.00203e-13
  7 660.624 -0.00827682 -1.67683e-14
  8 660.624 -0.00827682 1.14025e-14
  9 660.624 -0.00827682 -1.39173e-14
  10 660.624 -0.00827682 -5.62265e-14
  11 660.624 -0.00827682 4.28707e-14
  12 660.624 -0.00827682 -3.87560e-14
</Section>

newXOutput 25

<Section columns = "stress_xx | stress_yy | stress_xy">
  1 687.073 -0.00825512 -1.10573e-13
  2 687.073 -0.00825512 -6.60581e-14
  3 687.073 -0.00825512 5.45650e-14
  4 687.073 -0.00825512 6.60309e-14
  5 687.073 -0.00825512 8.26889e-14
  6 687.073 -0.00825512 9.28059e-14
  7 687.073 -0.00825512 -6.15390e-14
  8 687.073 -0.00825512 -4.80381e-14
  9 687.073 -0.00825512 -1.44386e-14
  10 687.073 -0.00825512 -9.31566e-14
  11 687.073 -0.00825512 4.22991e-14
  12 687.073 -0.00825512 -9.37004e-14
</Section>

newXOutput 26

<Section columns = "stress_xx | stress_yy | stress_xy">
  1 713.346 -0.00823353 -4.50177e-14
  2 713.346 -0.00823353 -7.94714e-15
  3 713.346 -0.00823353 4.85503e-14
  4 713.346 -0.00823353 7.03364e-14
  5 713.346 -0.00823353 -1.75862e-14
  6 713.346 -0.00823353 -2.14127e-15
  7 713.346 -0.00823353 -6.92214e-14
  8 713.346 -0.00823353 -6.17047e-14
  9 713.346 -0.00823353 -1.53267e-13
  10 713.346 -0.00823353 -2.21846e-13
  11 713.346 -0.00823353 1.55852e-14
  12 713.346 -0.00823353 -3.29165e-14
</Section>

newXOutput 27

<Section columns = "stress_xx | stress_yy | stress_xy">
  1 739.444 -0.00821204 1.09584e-13
  2 739.444 -0.00821204 -8.83170e-14
  3 739.444 -0.00821204 8.33988e-14
  4 739.444 -0.00821204 -7.52857e-15
  5 739.444 -0.00821204 7.33133e-14
  6 739.444 -0.00821204 9.40394e-14
  7 739.444 -0.00821204 9.64430e-14
  8 739.444 -0.00821204 9.25431e-14
  9 739.444 -0.00821204 -1.93578e-14
  10 739.444 -0.00821204 1.16299e-14
  11 739.444 -0.00821204 3.40067e-14
  12 739.444 -0.00821204 1.42380e-13
</Section>

newXOutput 28

<Section columns = "stress_xx | stress_yy | stress_xy">
  1 765.368 -0.00819067 3.99275e-14
  2 765.368 -0.00819067 -1.13176e-13
  3 765.368 -0.00819067 2.76208e-14
  4 765.368 -0.00819067 -4.69340e-14
  5 765.368 -0.00819067 -5.35090e-14
  6 765.368 -0.00819067 -4.08613e-14
  7 765.368 -0.00819067 -1.13850e-13
  8 765.368 -0.00819067 -9.94583e-14
  9 765.368 -0.00819067 -5.61683e-14
  10 765.368 -0.00819067 2.19610e-14
  11 765.368 -0.00819067 -2.58370e-14
  12 765.368 -0.00819067 1.49273e-13
</Section>

newXOutput 29

<Section columns = "stress_xx | stress_yy | stress_xy">
  1 791.121 -0.00816940 -2.56008e-14
  2 791.121 -0.00816940 7.38149e-14
  3 791.121 -0.00816940 -1.78911e-15
  4 791.121 -0.00816940 3.79772e-14
  5 791.121 -0.00816940 1.93137e-14
  6 791.121 -0.00816940 1.86509e-14
  7 791.121 -0.00816940 -8.41111e-15
  8 791.121 -0.00816940 3.55027e-14
  9 791.121 -0.00816940 -4.78942e-14
  10 791.121 -0.00816940 -1.46440e-13
  11 791.121 -0.00816940 2.57664e-13
  12 791.121 -0.00816940 -1.13832e-13
</Section>

newXOutput 30

<Section columns = "stress_xx | stress_yy | stress_xy">
  1 816.703 -0.00814823 1.73794e-13
  2 816.703 -0.00814823 -1.73310e-13
  3 816.703 -0.00814823 8.52786e-14
  4 816.703 -0.00814823 -7.44153e-14
  5 816.703 -0.00814823 -4.27775e-15
  6 816.703 -0.00814823 2.14580e-14
  7 816.703 -0.00814823 -6.36835e-14
  8 816.703 -0.00814823 -4.96439e-14
  9 816.703 -0.00814823 -1.15338e-13
  10 816.703 -0.00814823 -1.62181e-15
  11 816.703 -0.00814823 -3.34415e-14
  12 816.703 -0.00814823 8.47325e-14
</Section>

newXOutput 31

<Section columns = "stress_xx | stress_yy | stress_xy">
  1 842.117 -0.00812717 -6.59316e-14
  2 842.117 -0.00812717 4.83917e-14
  3 842.117 -0.00812717 -2.11941e-14
  4 842.117 -0.00812717 2.41410e-14
  5 842.117 -0.00812717 -5.25812e-14
  6 842.117 -0.00812717 -1.84157e-14
  7 842.117 -0.00812717 -1.65716e-14
  8 842.117 -0.00812717 -7.33083e-14
  9 842.117 -0.00812717 -1.45071e-13
  10 842.117 -0.00812717 -2.60772e-13
  11 842.117 -0.00812717 -2.37576e-14
  12 842.117 -0.00812717 -3.66091e-14
</Section>

newXOutput 32

<Section columns = "stress_xx | stress_yy | stress_xy">
  1 867.363 -0.00810622 -8.43398e-14
  2 867.363 -0.00810622 1.50964e-14
  3 867.363 -0.00810622 -8.27179e-15
  4 867.363 -0.00810622 3.55587e-14
  5 867.363 -0.00810622 2.40811e-14
  6 867.363 -0.00810622 4.37066e-14
  7 867.363 -0.00810622 8.52113e-14
  8 867.363 -0.00810622 6.73231e-14
  9 867.363 -0.00810622 4.39789e-14
  10 867.363 -0.00810622 2.80881e-14
  11 867.363 -0.00810622 1.02074e-13
  12 867.363 -0.00810622 6.56222e-14
</Section>

newXOutput 33

<Section columns = "stress_xx | stress_yy | stress_xy">
  1 892.443 -0.00808536 -2.57571e-14
  2 892.443 -0.00808536 6.10883e-14
  3 892.443 -0.00808536 -2.01468e-14
  4 892.443 -0.00808536 3.17515e-14
  5 892.443 -0.00808536 6.48730e-14
  6 892.443 -0.00808536 8.89733e-14
  7 892.443 -0.00808536 4.66894e-14
  8 892.443 -0.00808536 3.08384e-14
  9 892.443 -0.00808536 -2.78925e-13
  10 892.443 -0.00808536 -3.03657e-13
  11 892.443 -0.00808536 -1.14157e-13
  12 892.443 -0.00808536 -2.31101e-13
</Section>

newXOutput 34

<Section columns = "stress_xx | stress_yy | stress_xy">
  1 917.358 -0.00806461 -2.45202e-14
  2 917.358 -0.00806461 3.77406e-14
  3 917.358 -0.00806461 -4.51986e-15
  4 917.358 -0.00806461 3.30960e-14
  5 917.358 -0.00806461 1.80105e-14
  6 917.358 -0.00806461 2.70902e-14
  7 917.358 -0.00806461 -2.47530e-13
  8 917.358 -0.00806461 -2.80620e-13
  9 917.358 -0.00806461 2.56412e-13
  10 917.358 -0.00806461 2.18882e-13
  11 917.358 -0.00806461 1.43850e-13
  12 917.358 -0.00806461 4.90273e-14
</Section>

newXOutput 35

<Section columns = "stress_xx | stress_yy | stress_xy">
  1 942.110 -0.00804396 -1.34070e-14
  2 942.110 -0.00804396 2.27553e-14
  3 942.110 -0.00804396 -7.18556e-14
  4 942.110 -0.00804396 -1.63205e-14
  5 942.110 -0.00804396 -1.13787e-13
  6 942.110 -0.00804396 -6.72924e-14
  7 942.110 -0.00804396 8.76716e-14
  8 942.110 -0.00804396 8.38590e-14
  9 942.110 -0.00804396 -3.97017e-14
  10 942.110 -0.00804396 6.01060e-14
  11 942.110 -0.00804396 1.14996e-13
  12 942.110 -0.00804396 3.40318e-13
</Section>

newXOutput 36

<Section columns = "stress_xx | stress_yy | stress_xy">
  1 966.700 -0.00802342 1.17438e-14
  2 966.700 -0.00802342 7.86138e-14
  3 966.700 -0.00802342 -8.81911e-15
  4 966.700 -0.00802342 1.94721e-14
  5 966.700 -0.00802342 -1.48953e-13
  6 966.700 -0.00802342 -1.24520e-13
  7 966.700 -0.00802342 -1.64171e-13
  8 966.700 -0.00802342 -1.66346e-13
  9 966.700 -0.00802342 -3.66800e-14
  10 966.700 -0.00802342 -6.40902e-14
  11 966.700 -0.00802342 2.66398e-14
  12 966.700 -0.00802342 2.23546e-14
</Section>

newXOutput 37

<Section columns = "stress_xx | stress_yy | stress_xy">
  1 991.129 -0.00800297 -3.76855e-14
  2 991.129 -0.00800297 1.35322e-14
  3 991.129 -0.00800297 5.57245e-14
  4 991.129 -0.00800297 7.74920e-14
  5 991.129 -0.00800297 -1.82034e-14
  6 991.129 -0.00800297 1.00331e-15
  7 991.129 -0.00800297 -1.91969e-14
  8 991.129 -0.00800297 -8.56998e-15
  9 991.129 -0.00800297 1.53953e-13
  10 991.129 -0.00800297 1.39213e-13
  11 991.129 -0.00800297 -2.42291e-14
  12 991.129 -0.00800297 -2.88668e-14
</Section>

newXOutput 38

<Section columns = "stress_xx | stress_yy | stress_xy">
  1 1015.40 -0.00798262 -4.07527e-14
  2 1015.40 -0.00798262 -7.60374e-15
  3 1015.40 -0.00798262 2.64974e-14
  4 1015.40 -0.00798262 4.56218e-14
  5 1015.40 -0.00798262 -4.76879e-14
  6 1015.40 -0.00798262 -2.47386e-14
  7 1015.40 -0.00798262 6.74288e-15
  8 1015.40 -0.00798262 3.62313e-14
  9 1015.40 -0.00798262 1.55788e-13
  10 1015.40 -0.00798262 2.24576e-13
  11 1015.40 -0.00798262 -4.59685e-14
  12 1015.40 -0.00798262 4.75858e-14
</Section>

newXOutput 39

<Section columns = "stress_xx | stress_yy | stress_xy">
  1 1039.51 -0.00796238 -5.05144e-15
  2 1039.51 -0.00796238 4.06509e-14
  3 1039.51 -0.00796238 2.78971e-14
  4 1039.51 -0.00796238 5.70958e-14
  5 1039.51 -0.00796238 -6.22495e-14
  6 1039.51 -0.00796238 -3.93984e-14
  7 1039.51 -0.00796238 -1.92364e-13
  8 1039.51 -0.00796238 -1.70585e-13
  9 1039.51 -0.00796238 1.26249e-15
  10 1039.51 -0.00796238 8.49819e-14
  11 1039.51 -0.00796238 -1.16025e-13
  12 1039.51 -0.00796238 1.18248e-13
</Section>

newXOutput 40

<Section columns = "stress_xx | stress_yy | stress_xy">
  1 1063.47 -0.00794223 -2.19793e-14
  2 1063.47 -0.00794223 2.31836e-14
  3 1063.47 -0.00794223 1.61547e-14
  4 1063.47 -0.00794223 5.40217e-14
  5 1063.47 -0.00794223 -7.69995e-14
  6 1063.47 -0.00794223 -5.55100e-14
  7 1063.47 -0.00794223 2.59643e-14
  8 1063.47 -0.00794223 3.13650e-14
  9 1063.47 -0.00794223 1.99374e-13
  10 1063.47 -0.00794223 1.48459e-13
  11 1063.47 -0.00794223 9.61219e-14
  12 1063.47 -0.00794223 -1.19963e-13
</Section>

newXOutput 41

<Section columns = "stress_xx | stress_yy | stress_xy">
  1 1087.26 -0.00792218 -3.76272e-14
  2 1087.26 -0.00792218 1.70929e-14
  3 1087.26 -0.00792218 -3.42833e-14
  4 1087.26 -0.00792218 1.59962e-14
  5 1087.26 -0.00792218 2.23823e-16
  6 1087.26 -0.00792218 2.28805e-14
  7 1087.26 -0.00792218 -8.01078e-14
  8 1087.26 -0.00792218 -7.54045e-14
  9 1087.26 -0.00792218 -1.58601e-13
  10 1087.26 -0.00792218 -1.69600e-13
  11 1087.26 -0.00792218 -2.79661e-14
  12 1087.26 -0.00792218 -1.88393e-13
</Section>

newXOutput 42

<Section columns = "stress_xx | stress_yy | stress_xy">
  1 1110.91 -0.00790222 3.17169e-15
  2 1110.91 -0.00790222 2.38628e-14
  3 1110.91 -0.00790222 4.22349e-14
  4 1110.91 -0.00790222 5.98079e-14
  5 1110.91 -0.00790222 1.17829e-13
  6 1110.91 -0.00790222 9.27616e-14
  7 1110.91 -0.00790222 2.20057e-14
  8 1110.91 -0.00790222 2.79537e-14
  9 1110.91 -0.00790222 -3.12950e-13
  10 1110.91 -0.00790222 -3.01059e-13
  11 1110.91 -0.00790222 1.68891e-13
  12 1110.91 -0.00790222 1.35799e-14
</Section>

newXOutput 43

<Section columns = "stress_xx | stress_yy | stress_xy">
  1 1134.40 -0.00788237 -4.85510e-14
  2 1134.40 -0.00788237 -1.12598e-15
  3 1134.40 -0.00788237 -1.99999e-14
  4 1134.40 -0.00788237 1.86890e-14
  5 1134.40 -0.00788237 -5.86137e-14
  6 1134.40 -0.00788237 -7.48381e-14
  7 1134.40 -0.00788237 4.96412e-14
  8 1134.40 -0.00788237 3.80793e-14
  9 1134.40 -0.00788237 3.36317e-14
  10 1134.40 -0.00788237 -2.07173e-14
  11 1134.40 -0.00788237 1.06580e-13
  12 1134.40 -0.00788237 -1.57908e-14
</Section>

newXOutput 44

<Section columns = "stress_xx | stress_yy | stress_xy">
  1 1157.74 -0.00786260 -4.88260e-14
  2 1157.74 -0.00786260 -1.15438e-14
  3 1157.74 -0.00786260 5.13490e-15
  4 1157.74 -0.00786260 3.99316e-14
  5 1157.74 -0.00786260 1.49836e-13
  6 1157.74 -0.00786260 1.34923e-13
  7 1157.74 -0.00786260 2.35422e-13
  8 1157.74 -0.00786260 2.40100e-13
  9 1157.74 -0.00786260 -2.27647e-13
  10 1157.74 -0.00786260 -1.89651e-13
  11 1157.74 -0.00786260 -4.54004e-14
  12 1157.74 -0.00786260 -1.53432e-14
</Section>

newXOutput 45

<Section columns = "stress_xx | stress_yy | stress_xy">
  1 1180.93 -0.00784294 -4.77504e-14
  2 1180.93 -0.00784294 -1.50137e-14
  3 1180.93 -0.00784294 1.03941e-14
  4 1180.93 -0.00784294 2.88569e-14
  5 1180.93 -0.00784294 2.14989e-14
  6 1180.93 -0.00784294 6.64916e-15
  7 1180.93 -0.00784294 4.66600e-14
  8 1180.93 -0.00784294 4.88538e-14
  9 1180.93 -0.00784294 -3.08393e-14
  10 1180.93 -0.00784294 -1.03779e-14
  11 1180.93 -0.00784294 5.82715e-14
  12 1180.93 -0.00784294 -4.11245e-14
</Section>

newXOutput 46

<Section columns = "stress_xx | stress_yy | stress_xy">
  1 1203.98 -0.00782337 1.49954e-14
  2 1203.98 -0.00782337 -1.95076e-14
  3 1203.98 -0.00782337 1.39040e-14
  4 1203.98 -0.00782337 -1.32056e-14
  5 1203.98 -0.00782337 8.43270e-14
  6 1203.98 -0.00782337 8.55593e-14
  7 1203.98 -0.00782337 1.74213e-13
  8 1203.98 -0.00782337 1.86266e-13
  9 1203.98 -0.00782337 -2.30874e-13
  10 1203.98 -0.00782337 -2.36357e-13
  11 1203.98 -0.00782337 1.00565e-13
  12 1203.98 -0.00782337 1.12802e-14
</Section>

newXOutput 47

<Section columns = "stress_xx | stress_yy | stress_xy">
  1 1226.87 -0.00780389 -1.28997e-14
  2 1226.87 -0.00780389 -4.97114e-14
  3 1226.87 -0.00780389 -5.73730e-14
  4 1226.87 -0.00780389 -9.17306e-14
  5 1226.87 -0.00780389 -7.45083e-14
  6 1226.87 -0.00780389 -8.18706e-14
  7 1226.87 -0.00780389 8.24208e-14
  8 1226.87 -0.00780389 8.70725e-14
  9 1226.87 -0.00780389 1.03694e-13
  10 1226.87 -0.00780389 1.10725e-13
  11 1226.87 -0.00780389 -9.43744e-14
  12 1226.87 -0.00780389 -4.70203e-14
</Section>

newXOutput 48

<Section columns = "stress_xx | stress_yy | stress_xy">
  1 1249.62 -0.00778450 -3.58505e-14
  2 1249.62 -0.00778450 6.67884e-14
  3 1249.62 -0.00778450 -1.35930e-13
  4 1249.62 -0.00778450 -4.42880e-14
  5 1249.62 -0.00778450 -1.55777e-13
  6 1249.62 -0.00778450 -1.19120e-13
  7 1249.62 -0.00778450 -1.03346e-13
  8 1249.62 -0.00778450 -1.19720e-13
  9 1249.62 -0.00778450 -9.84268e-14
  10 1249.62 -0.00778450 -1.67275e-13
  11 1249.62 -0.00778450 5.17400e-14
  12 1249.62 -0.00778450 -9.79875e-15
</Section>

newXOutput 49

<Section columns = "stress_xx | stress_yy | stress_xy">
  1 1272.22 -0.00776521 9.08167e-14
  2 1272.22 -0.00776521 -1.18465e-13
  3 1272.22 -0.00776521 -1.72114e-14
  4 1272.22 -0.00776521 -6.83152e-14
  5 1272.22 -0.00776521 -4.47837e-14
  6 1272.22 -0.00776521 2.36304e-16
  7 1272.22 -0.00776521 2.33701e-13
  8 1272.22 -0.00776521 2.13597e-13
  9 1272.22 -0.00776521 -8.05169e-14
  10 1272.22 -0.00776521 -1.48846e-13
  11 1272.22 -0.00776521 1.49905e-14
  12 1272.22 -0.00776521 -8.58329e-14
</Section>

newXOutput 50

<Section columns = "stress_xx | stress_yy | stress_xy">
  1 1294.67 -0.00774601 1.48433e-14
  2 1294.67 -0.00774601 3.18064e-14
  3 1294.67 -0.00774601 1.14067e-15
  4 1294.67 -0.00774601 4.11252e-14
  5 1294.67 -0.00774601 3.97908e-14
  6 1294.67 -0.00774601 6.40238e-14
  7 1294.67 -0.00774601 6.33141e-14
  8 1294.67 -0.00774601 5.94588e-14
  9 1294.67 -0.00774601 1.62111e-13
  10 1294.67 -0.00774601 1.65277e-13
  11 1294.67 -0.00774601 2.29142e-13
  12 1294.67 -0.00774601 1.52811e-13
</Section>

newXOutput 51

<Section columns = "stress_xx | stress_yy | stress_xy">
  1 1316.99 -0.00772690 -3.01534e-14
  2 1316.99 -0.00772690 3.63081e-15
  3 1316.99 -0.00772690 3.31260e-14
  4 1316.99 -0.00772690 -1.87569e-14
  5 1316.99 -0.00772690 8.73274e-14
  6 1316.99 -0.00772690 -6.78571e-15
  7 1316.99 -0.00772690 9.97608e-14
  8 1316.99 -0.00772690 8.78592e-14
  9 1316.99 -0.00772690 -1.37157e-13
  10 1316.99 -0.00772690 -3.47205e-14
  11 1316.99 -0.00772690 -2.39243e-13
  12 1316.99 -0.00772690 -1.11707e-13
</Section>

newXOutput 52

<Section columns = "stress_xx | stress_yy | stress_xy">
  1 1339.16 -0.00770789 -3.67394e-14
  2 1339.16 -0.00770789 -9.92192e-14
  3 1339.16 -0.00770789 4.44737e-14
  4 1339.16 -0.00770789 1.68384e-14
  5 1339.16 -0.00770789 -3.23174e-13
  6 1339.16 -0.00770789 -3.53212e-13
  7 1339.16 -0.00770789 -1.60841e-13
  8 1339.16 -0.00770789 -2.09099e-13
  9 1339.16 -0.00770789 -1.49405e-13
  10 1339.16 -0.00770789 -1.34999e-13
  11 1339.16 -0.00770789 1.25780e-14
  12 1339.16 -0.00770789 9.58074e-14
</Section>

newXOutput 53

<Section columns = "stress_xx | stress_yy | stress_xy">
  1 1361.19 -0.00768896 -1.16268e-13
  2 1361.19 -0.00768896 1.58562e-13
  3 1361.19 -0.00768896 -8.92585e-14
  4 1361.19 -0.00768896 3.08138e-14
  5 1361.19 -0.00768896 -7.76969e-14
  6 1361.19 -0.00768896 -1.26754e-13
  7 1361.19 -0.00768896 -8.04134e-14
  8 1361.19 -0.00768896 -1.26523e-13
  9 1361.19 -0.00768896 -1.47880e-13
  10 1361.19 -0.00768896 -1.99764e-13
  11 1361.19 -0.00768896 1.31758e-15
  12 1361.19 -0.00768896 7.71831e-14
</Section>

newXOutput 54

<Section columns = "stress_xx | stress_yy | stress_xy">
  1 1383.08 -0.00767012 -3.64076e-16
  2 1383.08 -0.00767012 -5.72110e-14
  3 1383.08 -0.00767012 -6.96478e-14
  4 1383.08 -0.00767012 -3.19778e-14
  5 1383.08 -0.00767012 -1.83602e-13
  6 1383.08 -0.00767012 -1.25216e-13
  7 1383.08 -0.00767012 2.22219e-14
  8 1383.08 -0.00767012 8.76831e-15
  9 1383.08 -0.00767012 8.96617e-15
  10 1383.08 -0.00767012 1.67087e-14
  11 1383.08 -0.00767012 2.80266e-13
  12 1383.08 -0.00767012 1.06477e-13
</Section>

newXOutput 55

<Section columns = "stress_xx | stress_yy | stress_xy">
  1 1404.83 -0.00765137 -2.06384e-14
  2 1404.83 -0.00765137 -3.72505e-14
  3 1404.83 -0.00765137 -1.13486e-13
  4 1404.83 -0.00765137 -6.12764e-14
  5 1404.83 -0.00765137 -4.16478e-14
  6 1404.83 -0.00765137 9.37509e-15
  7 1404.83 -0.00765137 -2.44113e-14
  8 1404.83 -0.00765137 -6.30830e-14
  9 1404.83 -0.00765137 -3.25458e-13
  10 1404.83 -0.00765137 -3.84230e-13
  11 1404.83 -0.00765137 -1.18646e-13
  12 1404.83 -0.00765137 -5.25807e-14
</Section>

newXOutput 56

<Section columns = "stress_xx | stress_yy | stress_xy">
  1 1426.45 -0.00763271 8.03946e-15
  2 1426.45 -0.00763271 3.31285e-15
  3 1426.45 -0.00763271 1.41881e-14
  4 1426.45 -0.00763271 6.97258e-14
  5 1426.45 -0.00763271 -7.79055e-15
  6 1426.45 -0.00763271 3.94755e-14
  7 1426.45 -0.00763271 1.12129e-13
  8 1426.45 -0.00763271 1.01194e-13
  9 1426.45 -0.00763271 6.95915e-14
  10 1426.45 -0.00763271 9.75400e-14
  11 1426.45 -0.00763271 1.82177e-13
  12 1426.45 -0.00763271 2.38675e-13
</Section>

newXOutput 57

<Section columns = "stress_xx | stress_yy | stress_xy">
  1 1447.92 -0.00761414 1.12856e-13
  2 1447.92 -0.00761414 -1.34262e-13
  3 1447.92 -0.00761414 6.29529e-14
  4 1447.92 -0.00761414 -1.10030e-13
  5 1447.92 -0.00761414 2.31612e-14
  6 1447.92 -0.00761414 5.50991e-15
  7 1447.92 -0.00761414 -1.43291e-14
  8 1447.92 -0.00761414 3.32228e-14
  9 1447.92 -0.00761414 4.63433e-14
  10 1447.92 -0.00761414 7.35799e-14
  11 1447.92 -0.00761414 -1.07267e-14
  12 1447.92 -0.00761414 -2.62373e-13
</Section>

newXOutput 58

<Section columns = "stress_xx | stress_yy | stress_xy">
  1 1469.27 -0.00759566 -3.97531e-14
  2 1469.27 -0.00759566 9.85292e-14
  3 1469.27 -0.00759566 2.08233e-14
  4 1469.27 -0.00759566 2.66827e-14
  5 1469.27 -0.00759566 -3.03290e-14
  6 1469.27 -0.00759566 -3.85322e-14
  7 1469.27 -0.00759566 -3.93402e-13
  8 1469.27 -0.00759566 -3.44438e-13
  9 1469.27 -0.00759566 -7.93521e-15
  10 1469.27 -0.00759566 9.43786e-15
  11 1469.27 -0.00759566 -2.92302e-14
  12 1469.27 -0.00759566 1.77457e-14
</Section>

newXOutput 59

<Section columns = "stress_xx | stress_yy | stress_xy">
  1 1490.48 -0.00757726 -8.81126e-14
  2 1490.48 -0.00757726 1.69212e-14
  3 1490.48 -0.00757726 1.32204e-13
  4 1490.48 -0.00757726 1.35705e-13
  5 1490.48 -0.00757726 -5.51088e-14
  6 1490.48 -0.00757726 -6.44452e-14
  7 1490.48 -0.00757726 -7.16707e-15
  8 1490.48 -0.00757726 4.85295e-15
  9 1490.48 -0.00757726 2.36508e-13
  10 1490.48 -0.00757726 1.59523e-13
  11 1490.48 -0.00757726 -1.76921e-14
  12 1490.48 -0.00757726 3.28797e-14
</Section>

newXOutput 60

<Section columns = "stress_xx | stress_yy | stress_xy">
  1 1511.55 -0.00755895 1.88917e-14
  2 1511.55 -0.00755895 8.86254e-14
  3 1511.55 -0.00755895 -2.14004e-14
  4 1511.55 -0.00755895 -1.67515e-14
  5 1511.55 -0.00755895 9.46255e-14
  6 1511.55 -0.00755895 9.46255e-14
  7 1511.55 -0.00755895 2.69293e-13
  8 1511.55 -0.00755895 2.97081e-13
  9 1511.55 -0.00755895 -1.69439e-13
  10 1511.55 -0.00755895 -1.60935e-13
  11 1511.55 -0.00755895 9.04047e-14
  12 1511.55 -0.00755895 1.61926e-13
</Section>

newXOutput 61

<Section columns = "stress_xx | stress_yy | stress_xy">
  1 1532.49 -0.00754072 -8.76161e-14
  2 1532.49 -0.00754072 -4.59482e-14
  3 1532.49 -0.00754072 -4.31221e-14
  4 1532.49 -0.00754072 -4.77518e-14
  5 1532.49 -0.00754072 1.23378e-14
  6 1532.49 -0.00754072 1.92825e-14
  7 1532.49 -0.00754072 1.11541e-13
  8 1532.49 -0.00754072 1.29186e-13
  9 1532.49 -0.00754072 2.65567e-13
  10 1532.49 -0.00754072 1.81411e-13
  11 1532.49 -0.00754072 1.90194e-13
  12 1532.49 -0.00754072 7.61907e-14
</Section>

newXOutput 62

<Section columns = "stress_xx | stress_yy | stress_xy">
  1 1553.31 -0.00752258 -2.65175e-15
  2 1553.31 -0.00752258 3.65396e-14
  3 1553.31 -0.00752258 -4.20197e-14
  4 1553.31 -0.00752258 -3.97143e-14
  5 1553.31 -0.00752258 8.18360e-15
  6 1553.31 -0.00752258 9.33628e-15
  7 1553.31 -0.00752258 3.00732e-13
  8 1553.31 -0.00752258 3.26007e-13
  9 1553.31 -0.00752258 3.49137e-15
  10 1553.31 -0.00752258 -2.63720e-14
  11 1553.31 -0.00752258 -1.20928e-13
  12 1553.31 -0.00752258 -3.67483e-13
</Section>

newXOutput 63

<Section columns = "stress_xx | stress_yy | stress_xy">
  1 1573.99 -0.00750453 -5.97413e-14
  2 1573.99 -0.00750453 -2.30067e-14
  3 1573.99 -0.00750453 1.03348e-13
  4 1573.99 -0.00750453 1.14827e-13
  5 1573.99 -0.00750453 -2.35546e-14
  6 1573.99 -0.00750453 -1.78148e-14
  7 1573.99 -0.00750453 -4.29409e-13
  8 1573.99 -0.00750453 -4.13482e-13
  9 1573.99 -0.00750453 2.22653e-14
  10 1573.99 -0.00750453 1.85503e-14
  11 1573.99 -0.00750453 3.25026e-13
  12 1573.99 -0.00750453 1.13450e-13
</Section>

newXOutput 64

<Section columns = "stress_xx | stress_yy | stress_xy">
  1 1594.54 -0.00748655 1.04001e-14
  2 1594.54 -0.00748655 4.46977e-14
  3 1594.54 -0.00748655 1.86030e-13
  4 1594.54 -0.00748655 2.04322e-13
  5 1594.54 -0.00748655 -8.91670e-15
  6 1594.54 -0.00748655 7.08885e-15
  7 1594.54 -0.00748655 6.82774e-14
  8 1594.54 -0.00748655 7.73616e-14
  9 1594.54 -0.00748655 -2.01917e-13
  10 1594.54 -0.00748655 -1.88634e-13
  11 1594.54 -0.00748655 -1.42357e-13
  12 1594.54 -0.00748655 -7.95852e-14
</Section>

newXOutput 65

<Section columns = "stress_xx | stress_yy | stress_xy">
  1 1614.97 -0.00746866 -6.51738e-14
  2 1614.97 -0.00746866 -3.55708e-14
  3 1614.97 -0.00746866 -1.72761e-13
  4 1614.97 -0.00746866 -1.54544e-13
  5 1614.97 -0.00746866 3.23905e-15
  6 1614.97 -0.00746866 -4.73100e-15
  7 1614.97 -0.00746866 4.17754e-14
  8 1614.97 -0.00746866 2.57842e-14
  9 1614.97 -0.00746866 1.99964e-13
  10 1614.97 -0.00746866 2.64284e-13
  11 1614.97 -0.00746866 -1.50869e-13
  12 1614.97 -0.00746866 1.10012e-13
</Section>

newXOutput 66

<Section columns = "stress_xx | stress_yy | stress_xy">
  1 1635.26 -0.00745086 -1.60809e-14
  2 1635.26 -0.00745086 -2.47372e-15
  3 1635.26 -0.00745086 -5.06507e-14
  4 1635.26 -0.00745086 -3.59096e-14
  5 1635.26 -0.00745086 4.16598e-14
  6 1635.26 -0.00745086 3.25884e-14
  7 1635.26 -0.00745086 -2.47093e-14
  8 1635.26 -0.00745086 -4.95748e-14
  9 1635.26 -0.00745086 2.53794e-13
  10 1635.26 -0.00745086 2.68757e-13
  11 1635.26 -0.00745086 2.23134e-13
  12 1635.26 -0.00745086 4.65274e-13
</Section>

newXOutput 67

<Section columns = "stress_xx | stress_yy | stress_xy">
  1 1655.44 -0.00743314 -1.54758e-14
  2 1655.44 -0.00743314 3.18953e-14
  3 1655.44 -0.00743314 -6.85271e-14
  4 1655.44 -0.00743314 -2.80648e-14
  5 1655.44 -0.00743314 -5.93276e-14
  6 1655.44 -0.00743314 -7.17500e-14
  7 1655.44 -0.00743314 5.30227e-14
  8 1655.44 -0.00743314 2.93970e-14
  9 1655.44 -0.00743314 -1.04133e-13
  10 1655.44 -0.00743314 -1.82307e-13
  11 1655.44 -0.00743314 2.71789e-13
  12 1655.44 -0.00743314 -4.28205e-14
</Section>

newXOutput 68

<Section columns = "stress_xx | stress_yy | stress_xy">
  1 1675.48 -0.00741549 -1.78334e-14
  2 1675.48 -0.00741549 9.15965e-15
  3 1675.48 -0.00741549 -5.81590e-14
  4 1675.48 -0.00741549 -4.01636e-14
  5 1675.48 -0.00741549 -1.44501e-13
  6 1675.48 -0.00741549 -1.51250e-13
  7 1675.48 -0.00741549 2.77828e-13
  8 1675.48 -0.00741549 2.62121e-13
  9 1675.48 -0.00741549 9.21512e-14
  10 1675.48 -0.00741549 7.90003e-14
  11 1675.48 -0.00741549 2.75398e-13
  12 1675.48 -0.00741549 2.58016e-13
</Section>

newXOutput 69

<Section columns = "stress_xx | stress_yy | stress_xy">
  1 1695.41 -0.00739793 -7.39177e-14
  2 1695.41 -0.00739793 -4.25537e-14
  3 1695.41 -0.00739793 -6.88560e-14
  4 1695.41 -0.00739793 -3.30115e-14
  5 1695.41 -0.00739793 1.37111e-13
  6 1695.41 -0.00739793 1.46072e-13
  7 1695.41 -0.00739793 -1.66612e-13
  8 1695.41 -0.00739793 -1.84516e-13
  9 1695.41 -0.00739793 -3.25225e-13
  10 1695.41 -0.00739793 -3.85393e-13
  11 1695.41 -0.00739793 -1.77710e-13
  12 1695.41 -0.00739793 -4.80104e-13
</Section>

newXOutput 70

<Section columns = "stress_xx | stress_yy | stress_xy">
  1 1715.21 -0.00738046 -5.51945e-14
  2 1715.21 -0.00738046 2.06662e-14
  3 1715.21 -0.00738046 7.49629e-14
  4 1715.21 -0.00738046 -9.01458e-14
  5 1715.21 -0.00738046 1.52525e-13
  6 1715.21 -0.00738046 1.79299e-13
  7 1715.21 -0.00738046 1.27840e-13
  8 1715.21 -0.00738046 2.34935e-13
  9 1715.21 -0.00738046 7.09956e-13
  10 1715.21 -0.00738046 5.33860e-13
  11 1715.21 -0.00738046 2.55837e-13
  12 1715.21 -0.00738046 5.39318e-13
</Section>

newXOutput 71

<Section columns = "stress_xx | stress_yy | stress_xy">
  1 1734.88 -0.00736306 2.28484e-14
  2 1734.88 -0.00736306 -3.04835e-14
  3 1734.88 -0.00736306 1.23325e-13
  4 1734.88 -0.00736306 1.44388e-14
  5 1734.88 -0.00736306 -1.48060e-13
  6 1734.88 -0.00736306 -1.10283e-13
  7 1734.88 -0.00736306 -1.96690e-13
  8 1734.88 -0.00736306 -1.47825e-13
  9 1734.88 -0.00736306 2.22137e-13
  10 1734.88 -0.00736306 7.78388e-14
  11 1734.88 -0.00736306 8.32912e-14
  12 1734.88 -0.00736306 1.31736e-13
</Section>

newXOutput 72

<Section columns = "stress_xx | stress_yy | stress_xy">
  1 1754.44 -0.00734574 3.34318e-15
  2 1754.44 -0.00734574 -7.63313e-14
  3 1754.44 -0.00734574 -1.09421e-13
  4 1754.44 -0.00734574 -3.63863e-14
  5 1754.44 -0.00734574 5.00739e-15
  6 1754.44 -0.00734574 2.27128e-14
  7 1754.44 -0.00734574 2.71069e-14
  8 1754.44 -0.00734574 7.31817e-15
  9 1754.44 -0.00734574 -3.09109e-13
  10 1754.44 -0.00734574 -1.16424e-13
  11 1754.44 -0.00734574 -2.40274e-13
  12 1754.44 -0.00734574 -5.66025e-15
</Section>

newXOutput 73

<Section columns = "stress_xx | stress_yy | stress_xy">
  1 1773.88 -0.00732850 5.11685e-14
  2 1773.88 -0.00732850 2.61154e-15
  3 1773.88 -0.00732850 -1.02969e-14
  4 1773.88 -0.00732850 8.39988e-15
  5 1773.88 -0.00732850 -2.75748e-13
  6 1773.88 -0.00732850 -2.55909e-13
  7 1773.88 -0.00732850 -1.72402e-13
  8 1773.88 -0.00732850 -1.32535e-13
  9 1773.88 -0.00732850 -2.87889e-14
  10 1773.88 -0.00732850 8.60045e-14
  11 1773.88 -0.00732850 3.05383e-13
  12 1773.88 -0.00732850 1.90605e-13
</Section>

newXOutput 74

<Section columns = "stress_xx | stress_yy | stress_xy">
  1 1793.19 -0.00731134 4.40163e-16
  2 1793.19 -0.00731134 5.75197e-14
  3 1793.19 -0.00731134 -6.43731e-14
  4 1793.19 -0.00731134 -4.46148e-14
  5 1793.19 -0.00731134 -2.26557e-14
  6 1793.19 -0.00731134 -3.80232e-14
  7 1793.19 -0.00731134 -1.86589e-13
  8 1793.19 -0.00731134 -1.35845e-13
  9 1793.19 -0.00731134 -1.87529e-13
  10 1793.19 -0.00731134 -1.19428e-13
  11 1793.19 -0.00731134 4.50289e-14
  12 1793.19 -0.00731134 -3.20942e-13
</Section>

newXOutput 75

<Section columns = "stress_xx | stress_yy | stress_xy">
  1 1812.39 -0.00729425 -5.53073e-14
  2 1812.39 -0.00729425 -2.47992e-14
  3 1812.39 -0.00729425 -2.62759e-14
  4 1812.39 -0.00729425 -3.40432e-14
  5 1812.39 -0.00729425 -1.09907e-14
  6 1812.39 -0.00729425 -1.31772e-14
  7 1812.39 -0.00729425 2.65394e-13
  8 1812.39 -0.00729425 3.02876e-13
  9 1812.39 -0.00729425 -1.34144e-13
  10 1812.39 -0.00729425 -4.17263e-14
  11 1812.39 -0.00729425 4.99401e-13
  12 1812.39 -0.00729425 4.33347e-13
</Section>

newXOutput 76

<Section columns = "stress_xx | stress_yy | stress_xy">
  1 1831.47 -0.00727725 -7.55703e-16
  2 1831.47 -0.00727725 3.39653e-14
  3 1831.47 -0.00727725 -3.69421e-14
  4 1831.47 -0.00727725 -4.03603e-14
  5 1831.47 -0.00727725 -2.25267e-13
  6 1831.47 -0.00727725 -1.99134e-13
  7 1831.47 -0.00727725 -1.28285e-14
  8 1831.47 -0.00727725 1.97147e-14
  9 1831.47 -0.00727725 1.80618e-14
  10 1831.47 -0.00727725 -9.62233e-14
  11 1831.47 -0.00727725 -9.92736e-14
  12 1831.47 -0.00727725 -5.64595e-13
</Section>

newXOutput 77

<Section columns = "stress_xx | stress_yy | stress_xy">
  1 1850.44 -0.00726032 -3.72452e-14
  2 1850.44 -0.00726032 1.04733e-14
  3 1850.44 -0.00726032 1.17612e-13
  4 1850.44 -0.00726032 1.32795e-13
  5 1850.44 -0.00726032 1.17452e-13
  6 1850.44 -0.00726032 1.28297e-13
  7 1850.44 -0.00726032 -1.65407e-13
  8 1850.44 -0.00726032 -1.21598e-13
  9 1850.44 -0.00726032 -4.78854e-13
  10 1850.44 -0.00726032 -3.79832e-13
  11 1850.44 -0.00726032 6.90634e-14
  12 1850.44 -0.00726032 1.70346e-13
</Section>

newXOutput 78

<Section columns = "stress_xx | stress_yy | stress_xy">
  1 1869.29 -0.00724347 -1.99433e-14
  2 1869.29 -0.00724347 5.81862e-15
  3 1869.29 -0.00724347 2.19632e-14
  4 1869.29 -0.00724347 2.92994e-14
  5 1869.29 -0.00724347 -4.95264e-15
  6 1869.29 -0.00724347 4.25749e-14
  7 1869.29 -0.00724347 2.88813e-13
  8 1869.29 -0.00724347 3.25376e-13
  9 1869.29 -0.00724347 -6.80115e-14
  10 1869.29 -0.00724347 -1.22632e-13
  11 1869.29 -0.00724347 1.61176e-14
  12 1869.29 -0.00724347 -8.41582e-14
</Section>

newXOutput 79

<Section columns = "stress_xx | stress_yy | stress_xy">
  1 1888.02 -0.00722670 -3.87657e-14
  2 1888.02 -0.00722670 -1.07802e-13
  3 1888.02 -0.00722670 -3.61197e-14
  4 1888.02 -0.00722670 -6.97326e-14
  5 1888.02 -0.00722670 -1.25494e-13
  6 1888.02 -0.00722670 -8.67638e-14
  7 1888.02 -0.00722670 -4.79575e-14
  8 1888.02 -0.00722670 2.07608e-15
  9 1888.02 -0.00722670 -2.01764e-13
  10 1888.02 -0.00722670 -9.43995e-14
  11 1888.02 -0.00722670 2.17859e-13
  12 1888.02 -0.00722670 3.36142e-13
</Section>

newXOutput 80

<Section columns = "stress_xx | stress_yy | stress_xy">
  1 1906.64 -0.00721000 -5.78734e-15
  2 1906.64 -0.00721000 -3.15048e-14
  3 1906.64 -0.00721000 -1.85857e-13
  4 1906.64 -0.00721000 -1.94430e-13
  5 1906.64 -0.00721000 2.50039e-13
  6 1906.64 -0.00721000 2.80043e-13
  7 1906.64 -0.00721000 1.39211e-13
  8 1906.64 -0.00721000 1.93290e-13
  9 1906.64 -0.00721000 3.83269e-14
  10 1906.64 -0.00721000 9.40624e-14
  11 1906.64 -0.00721000 2.73918e-13
  12 1906.64 -0.00721000 1.12948e-13
</Section>

newXOutput 81

<Section columns = "stress_xx | stress_yy | stress_xy">
  1 1925.15 -0.00719337 -2.81225e-14
  2 1925.15 -0.00719337 -7.08142e-14
  3 1925.15 -0.00719337 -1.80130e-13
  4 1925.15 -0.00719337 -1.90803e-13
  5 1925.15 -0.00719337 -2.51669e-14
  6 1925.15 -0.00719337 8.98645e-15
  7 1925.15 -0.00719337 -9.10049e-14
  8 1925.15 -0.00719337 -6.30356e-14
  9 1925.15 -0.00719337 -1.64321e-14
  10 1925.15 -0.00719337 1.66924e-14
  11 1925.15 -0.00719337 -1.73182e-13
  12 1925.15 -0.00719337 -6.80564e-14
</Section>

newXOutput 82

<Section columns = "stress_xx | stress_yy | stress_xy">
  1 1943.55 -0.00717683 4.80475e-14
  2 1943.55 -0.00717683 1.40300e-14
  3 1943.55 -0.00717683 -4.00326e-14
  4 1943.55 -0.00717683 -4.64109e-14
  5 1943.55 -0.00717683 9.23583e-15
  6 1943.55 -0.00717683 4.75055e-14
  7 1943.55 -0.00717683 7.81416e-14
  8 1943.55 -0.00717683 7.74260e-14
  9 1943.55 -0.00717683 3.15932e-15
  10 1943.55 -0.00717683 -1.33474e-13
  11 1943.55 -0.00717683 1.17535e-13
  12 1943.55 -0.00717683 -5.12503e-14
</Section>

newXOutput 83

<Section columns = "stress_xx | stress_yy | stress_xy">
  1 1961.83 -0.00716035 -1.13827e-14
  2 1961.83 -0.00716035 -2.39758e-15
  3 1961.83 -0.00716035 1.12437e-14
  4 1961.83 -0.00716035 5.22872e-14
  5 1961.83 -0.00716035 -1.19214e-13
  6 1961.83 -0.00716035 -8.32136e-14
  7 1961.83 -0.00716035 -3.95777e-13
  8 1961.83 -0.00716035 -3.55413e-13
  9 1961.83 -0.00716035 4.37420e-13
  10 1961.83 -0.00716035 4.07949e-13
  11 1961.83 -0.00716035 2.62375e-13
  12 1961.83 -0.00716035 -9.30016e-14
</Section>

newXOutput 84

<Section columns = "stress_xx | stress_yy | stress_xy">
  1 1980.00 -0.00714395 1.69167e-15
  2 1980.00 -0.00714395 4.33251e-14
  3 1980.00 -0.00714395 4.44192e-14
  4 1980.00 -0.00714395 6.04151e-14
  5 1980.00 -0.00714395 4.39426e-13
  6 1980.00 -0.00714395 4.45753e-13
  7 1980.00 -0.00714395 -2.64539e-13
  8 1980.00 -0.00714395 -2.81137e-13
  9 1980.00 -0.00714395 -9.04599e-14
  10 1980.00 -0.00714395 -4.23505e-14
  11 1980.00 -0.00714395 -1.77658e-14
  12 1980.00 -0.00714395 1.81555e-13
</Section>

newXOutput 85

<Section columns = "stress_xx | stress_yy | stress_xy">
  1 1998.07 -0.00712763 5.65635e-16
  2 1998.07 -0.00712763 -2.04435e-14
  3 1998.07 -0.00712763 -1.25725e-13
  4 1998.07 -0.00712763 -1.50936e-13
  5 1998.07 -0.00712763 8.45626e-14
  6 1998.07 -0.00712763 8.03607e-14
  7 1998.07 -0.00712763 5.43230e-13
  8 1998.07 -0.00712763 5.84365e-13
  9 1998.07 -0.00712763 1.65097e-13
  10 1998.07 -0.00712763 1.73641e-13
  11 1998.07 -0.00712763 -2.49535e-14
  12 1998.07 -0.00712763 2.16035e-13
</Section>

newXOutput 86

<Section columns = "stress_xx | stress_yy | stress_xy">
  1 2016.02 -0.00711137 5.27962e-14
  2 2016.02 -0.00711137 3.60553e-14
  3 2016.02 -0.00711137 7.01261e-14
  4 2016.02 -0.00711137 1.01515e-13
  5 2016.02 -0.00711137 -1.74947e-13
  6 2016.02 -0.00711137 -1.70762e-13
  7 2016.02 -0.00711137 -5.79454e-13
  8 2016.02 -0.00711137 -5.26826e-13
  9 2016.02 -0.00711137 1.66343e-13
  10 2016.02 -0.00711137 1.22261e-13
  11 2016.02 -0.00711137 3.69918e-13
  12 2016.02 -0.00711137 2.00239e-13
</Section>

newXOutput 87

<Section columns = "stress_xx | stress_yy | stress_xy">
  1 2033.87 -0.00709519 -1.61796e-14
  2 2033.87 -0.00709519 -4.33532e-15
  3 2033.87 -0.00709519 6.08391e-14
  4 2033.87 -0.00709519 -9.44883e-14
  5 2033.87 -0.00709519 -3.93236e-14
  6 2033.87 -0.00709519 -2.68174e-14
  7 2033.87 -0.00709519 9.63699e-14
  8 2033.87 -0.00709519 1.27966e-13
  9 2033.87 -0.00709519 -2.76095e-13
  10 2033.87 -0.00709519 -3.02768e-13
  11 2033.87 -0.00709519 2.81824e-13
  12 2033.87 -0.00709519 3.23338e-13
</Section>

newXOutput 88

<Section columns = "stress_xx | stress_yy | stress_xy">
  1 2051.61 -0.00707908 -1.75754e-14
  2 2051.61 -0.00707908 -4.59435e-14
  3 2051.61 -0.00707908 -3.75004e-14
  4 2051.61 -0.00707908 4.87748e-14
  5 2051.61 -0.00707908 -2.59225e-13
  6 2051.61 -0.00707908 -2.32235e-13
  7 2051.61 -0.00707908 5.91964e-14
  8 2051.61 -0.00707908 1.58520e-13
  9 2051.61 -0.00707908 3.60577e-13
  10 2051.61 -0.00707908 5.10644e-13
  11 2051.61 -0.00707908 1.85853e-13
  12 2051.61 -0.00707908 9.31178e-14
</Section>

newXOutput 89

<Section columns = "stress_xx | stress_yy | stress_xy">
  1 2069.25 -0.00706305 -1.01657e-14
  2 2069.25 -0.00706305 -2.18397e-14
  3 2069.25 -0.00706305 -2.85705e-14
  4 2069.25 -0.00706305 3.88257e-14
  5 2069.25 -0.00706305 -1.21836e-13
  6 2069.25 -0.00706305 -8.66799e-14
  7 2069.25 -0.00706305 -3.56183e-13
  8 2069.25 -0.00706305 -4.16388e-13
  9 2069.25 -0.00706305 -4.65874e-13
  10 2069.25 -0.00706305 -3.52602e-13
  11 2069.25 -0.00706305 -1.95871e-13
  12 2069.25 -0.00706305 -1.61089e-13
</Section>

newXOutput 90

<Section columns = "stress_xx | stress_yy | stress_xy">
  1 2086.78 -0.00704708 3.21497e-14
  2 2086.78 -0.00704708 -7.49630e-14
  3 2086.78 -0.00704708 -2.59554e-14
  4 2086.78 -0.00704708 -1.18649e-13
  5 2086.78 -0.00704708 -6.16050e-14
  6 2086.78 -0.00704708 -7.39642e-14
  7 2086.78 -0.00704708 -1.08886e-14
  8 2086.78 -0.00704708 -6.55991e-14
  9 2086.78 -0.00704708 -1.28390e-13
  10 2086.78 -0.00704708 -3.03086e-13
  11 2086.78 -0.00704708 -1.25005e-13
  12 2086.78 -0.00704708 -4.05666e-13
</Section>

newXOutput 91

<Section columns = "stress_xx | stress_yy | stress_xy">
  1 2104.20 -0.00703119 -2.73309e-14
  2 2104.20 -0.00703119 1.45096e-14
  3 2104.20 -0.00703119 1.34143e-13
  4 2104.20 -0.00703119 1.37549e-13
  5 2104.20 -0.00703119 4.62838e-13
  6 2104.20 -0.00703119 4.40268e-13
  7 2104.20 -0.00703119 4.53789e-14
  8 2104.20 -0.00703119 8.47653e-14
  9 2104.20 -0.00703119 -9.19957e-14
  10 2104.20 -0.00703119 -2.17251e-14
  11 2104.20 -0.00703119 1.01411e-13
  12 2104.20 -0.00703119 2.94198e-13
</Section>

newXOutput 92

<Section columns = "stress_xx | stress_yy | stress_xy">
  1 2121.52 -0.00701536 -6.64640e-14
  2 2121.52 -0.00701536 -1.74139e-14
  3 2121.52 -0.00701536 -7.79698e-14
  4 2121.52 -0.00701536 -9.43199e-14
  5 2121.52 -0.00701536 2.37980e-13
  6 2121.52 -0.00701536 1.90973e-13
  7 2121.52 -0.00701536 3.15292e-13
  8 2121.52 -0.00701536 3.46578e-13
  9 2121.52 -0.00701536 2.44389e-14
  10 2121.52 -0.00701536 8.03093e-14
  11 2121.52 -0.00701536 1.64450e-13
  12 2121.52 -0.00701536 8.39458e-14
</Section>

newXOutput 93

<Section columns = "stress_xx | stress_yy | stress_xy">
  1 1990.16 2.69884 -1.81023
  2 1990.16 2.69884 1.81023
  3 1995.26 -8.03609 3.45229
  4 1995.26 -8.03609 -3.45229
  5 1921.34 7.23526 4.39233
  6 1921.34 7.23526 -4.39233
  7 1921.34 7.23526 -4.39233
  8 1921.34 7.23526 4.39233
  9 1995.26 -8.03609 -3.45229
  10 1995.26 -8.03609 3.45229
  11 1990.16 2.69884 1.81023
  12 1990.16 2.69884 -1.81023
</Section>

newXOutput 94

<Section columns = "stress_xx | stress_yy | stress_xy">
  1 1824.47 4.81312 -3.37104
  2 1824.47 4.81312 3.37104
  3 1834.13 -14.6026 6.42736
  4 1834.13 -14.6026 -6.42736
  5 1694.86 12.1643 8.22921
  6 1694.86 12.1643 -8.22921
  7 1694.86 12.1643 -8.22921
  8 1694.86 12.1643 8.22921
  9 1834.13 -14.6026 -6.42736
  10 1834.13 -14.6026 6.42736
  11 1824.47 4.81312 3.37104
  12 1824.47 4.81312 -3.37104
</Section>

newXOutput 95

<Section columns = "stress_xx | stress_yy | stress_xy">
  1 1717.08 5.70272 -4.10184
  2 1717.08 5.70272 4.10184
  3 1728.96 -17.4465 7.82276
  4 1728.96 -17.4465 -7.82276
  5 1557.89 14.7767 10.0416
  6 1557.89 14.7767 -10.0416
  7 1557.89 14.7767 -10.0416
  8 1557.89 14.7767 10.0416
  9 1728.96 -17.4465 -7.82276
  10 1728.96 -17.4465 7.82276
  11 1717.08 5.70272 4.10184
  12 1717.08 5.70272 -4.10184
</Section>

newXOutput 96

<Section columns = "stress_xx | stress_yy | stress_xy">
  1 1633.35 6.19406 -4.54552
  2 1633.35 6.19406 4.54552
  3 1646.62 -19.0426 8.67226
  4 1646.62 -19.0426 -8.67226
  5 1455.68 16.1727 11.1472
  6 1455.68 16.1727 -11.1472
  7 1455.68 16.1727 -11.1472
  8 1455.68 16.1727 11.1472
  9 1646.62 -19.0426 -8.67226
  10 1646.62 -19.0426 8.67226
  11 1633.35 6.19406 4.54552
  12 1633.35 6.19406 -4.54552
</Section>

newXOutput 97

<Section columns = "stress_xx | stress_yy | stress_xy">
  1 1562.62 6.48878 -4.84102
  2 1562.62 6.48878 4.84102
  3 1576.84 -20.0117 9.24007
  4 1576.84 -20.0117 -9.24007
  5 1372.28 16.9995 11.8861
  6 1372.28 16.9995 -11.8861
  7 1372.28 16.9995 -11.8861
  8 1372.28 16.9995 11.8861
  9 1576.84 -20.0117 -9.24007
  10 1576.84 -20.0117 9.24007
  11 1562.62 6.48878 4.84102
  12 1562.62 6.48878 -4.84102
</Section>

newXOutput 98

<Section columns = "stress_xx | stress_yy | stress_xy">
  1 1500.26 6.64415 -5.02808
  2 1500.26 6.64415 5.02808
  3 1515.12 -20.5316 9.60175
  4 1515.12 -20.5316 -9.60175
  5 1300.95 18.1917 12.3557
  6 1300.95 18.1917 -12.3557
  7 1300.95 18.1917 -12.3557
  8 1300.95 18.1917 12.3557
  9 1515.12 -20.5316 -9.60175
  10 1515.12 -20.5316 9.60175
  11 1500.26 6.64415 5.02808
  12 1500.26 6.64415 -5.02808
</Section>

newXOutput 99

<Section columns = "stress_xx | stress_yy | stress_xy">
  1 1444.40 6.74900 -5.17162
  2 1444.40 6.74900 5.17162
  3 1459.76 -20.8850 9.88041
  4 1459.76 -20.8850 -9.88041
  5 1238.56 18.3414 12.7168
  6 1238.56 18.3414 -12.7168
  7 1238.56 18.3414 -12.7168
  8 1238.56 18.3414 12.7168
  9 1459.76 -20.8850 -9.88041
  10 1459.76 -20.8850 9.88041
  11 1444.40 6.74900 5.17162
  12 1444.40 6.74900 -5.17162
</Section>

newXOutput 100

<Section columns = "stress_xx | stress_yy | stress_xy">
  1 1393.33 6.79961 -5.26925
  2 1393.33 6.79961 5.26925
  3 1409.05 -21.0608 10.0716
  4 1409.05 -21.0608 -10.0716
  5 1182.78 18.3833 12.9634
  6 1182.78 18.3833 -12.9634
  7 1182.78 18.3833 -12.9634
  8 1182.78 18.3833 12.9634
  9 1409.05 -21.0608 -10.0716
  10 1409.05 -21.0608 10.0716
  11 1393.33 6.79961 5.26925
  12 1393.33 6.79961 -5.26925
</Section>

newXOutput 101

<Section columns = "stress_xx | stress_yy | stress_xy">
  1 1343.12 6.83808 -5.35719
  2 1343.12 6.83808 5.35719
  3 1359.18 -21.2003 10.2448
  4 1359.18 -21.2003 -10.2448
  5 1129.67 17.6028 13.1863
  6 1129.67 17.6028 -13.1863
  7 1129.67 17.6028 -13.1863
  8 1129.67 17.6028 13.1863
  9 1359.18 -21.2003 -10.2448
  10 1359.18 -21.2003 10.2448
  11 1343.12 6.83808 5.35719
  12 1343.12 6.83808 -5.35719
</Section>

newXOutput 102

<Section columns = "stress_xx | stress_yy | stress_xy">
  1 1299.41 6.81652 -5.39036
  2 1299.41 6.81652 5.39036
  3 1315.63 -21.1379 10.3129
  4 1315.63 -21.1379 -10.3129
  5 1083.72 17.5876 13.2717
  6 1083.72 17.5876 -13.2717
  7 1083.72 17.5876 -13.2717
  8 1083.72 17.5876 13.2717
  9 1315.63 -21.1379 -10.3129
  10 1315.63 -21.1379 10.3129
  11 1299.41 6.81652 5.39036
  12 1299.41 6.81652 -5.39036
</Section>

newXOutput 103

<Section columns = "stress_xx | stress_yy | stress_xy">
  1 1258.14 6.77407 -5.40361
  2 1258.14 6.77407 5.40361
  3 1274.45 -21.0069 10.3429
  4 1274.45 -21.0069 -10.3429
  5 1041.10 17.4899 13.3072
  6 1041.10 17.4899 -13.3072
  7 1041.10 17.4899 -13.3072
  8 1041.10 17.4899 13.3072
  9 1274.45 -21.0069 -10.3429
  10 1274.45 -21.0069 10.3429
  11 1258.14 6.77407 5.40361
  12 1258.14 6.77407 -5.40361
</Section>

newXOutput 104

<Section columns = "stress_xx | stress_yy | stress_xy">
  1 1219.07 6.71474 -5.40007
  2 1219.07 6.71474 5.40007
  3 1235.43 -20.8201 10.3407
  4 1235.43 -20.8201 -10.3407
  5 1001.39 17.3448 13.3007
  6 1001.39 17.3448 -13.3007
  7 1001.39 17.3448 -13.3007
  8 1001.39 17.3448 13.3007
  9 1235.43 -20.8201 -10.3407
  10 1235.43 -20.8201 10.3407
  11 1219.07 6.71474 5.40007
  12 1219.07 6.71474 -5.40007
</Section>

newXOutput 105

<Section columns = "stress_xx | stress_yy | stress_xy">
  1 1181.92 6.64214 -5.38273
  2 1181.92 6.64214 5.38273
  3 1198.27 -20.5894 10.3120
  4 1198.27 -20.5894 -10.3120
  5 964.195 17.1615 13.2596
  6 964.195 17.1615 -13.2596
  7 964.195 17.1615 -13.2596
  8 964.195 17.1615 13.2596
  9 1198.27 -20.5894 -10.3120
  10 1198.27 -20.5894 10.3120
  11 1181.92 6.64214 5.38273
  12 1181.92 6.64214 -5.38273
</Section>

newXOutput 106

<Section columns = "stress_xx | stress_yy | stress_xy">
  1 1146.45 6.55895 -5.35391
  2 1146.45 6.55895 5.35391
  3 1162.76 -20.3239 10.2612
  4 1162.76 -20.3239 -10.2612
  5 929.177 16.9473 13.1898
  6 929.177 16.9473 -13.1898
  7 929.177 16.9473 -13.1898
  8 929.177 16.9473 13.1898
  9 1162.76 -20.3239 -10.2612
  10 1162.76 -20.3239 10.2612
  11 1146.45 6.55895 5.35391
  12 1146.45 6.55895 -5.35391
</Section>

newXOutput 107

<Section columns = "stress_xx | stress_yy | stress_xy">
  1 1112.47 6.46729 -5.31545
  2 1112.47 6.46729 5.31545
  3 1128.71 -20.0305 10.1918
  4 1128.71 -20.0305 -10.1918
  5 896.076 16.7082 13.0958
  6 896.076 16.7082 -13.0958
  7 896.076 16.7082 -13.0958
  8 896.076 16.7082 13.0958
  9 1128.71 -20.0305 -10.1918
  10 1128.71 -20.0305 10.1918
  11 1112.47 6.46729 5.31545
  12 1112.47 6.46729 -5.31545
</Section>

newXOutput 108

<Section columns = "stress_xx | stress_yy | stress_xy">
  1 1079.83 6.36879 -5.26880
  2 1079.83 6.36879 5.26880
  3 1095.97 -19.7148 10.1066
  4 1095.97 -19.7148 -10.1066
  5 864.677 16.4491 12.9813
  6 864.677 16.4491 -12.9813
  7 864.677 16.4491 -12.9813
  8 864.677 16.4491 12.9813
  9 1095.97 -19.7148 -10.1066
  10 1095.97 -19.7148 10.1066
  11 1079.83 6.36879 5.26880
  12 1079.83 6.36879 -5.26880
</Section>

newXOutput 109

<Section columns = "stress_xx | stress_yy | stress_xy">
  1 1048.39 6.26477 -5.21517
  2 1048.39 6.26477 5.21517
  3 1064.41 -19.3811 10.0079
  4 1064.41 -19.3811 -10.0079
  5 834.798 16.1738 12.8493
  6 834.798 16.1738 -12.8493
  7 834.798 16.1738 -12.8493
  8 834.798 16.1738 12.8493
  9 1064.41 -19.3811 -10.0079
  10 1064.41 -19.3811 10.0079
  11 1048.39 6.26477 5.21517
  12 1048.39 6.26477 -5.21517
</Section>

newXOutput 110

<Section columns = "stress_xx | stress_yy | stress_xy">
  1 1018.05 6.15627 -5.15554
  2 1018.05 6.15627 5.15554
  3 1033.92 -19.0330 9.89744
  4 1033.92 -19.0330 -9.89744
  5 806.288 15.8854 12.7023
  6 806.288 15.8854 -12.7023
  7 806.288 15.8854 -12.7023
  8 806.288 15.8854 12.7023
  9 1033.92 -19.0330 -9.89744
  10 1033.92 -19.0330 9.89744
  11 1018.05 6.15627 5.15554
  12 1018.05 6.15627 -5.15554
</Section>

newXOutput 111

<Section columns = "stress_xx | stress_yy | stress_xy">
  1 988.703 6.04416 -5.09074
  2 988.703 6.04416 5.09074
  3 1004.41 -18.6734 9.77692
  4 1004.41 -18.6734 -9.77692
  5 779.017 15.5865 12.5423
  6 779.017 15.5865 -12.5423
  7 779.017 15.5865 -12.5423
  8 779.017 15.5865 12.5423
  9 1004.41 -18.6734 -9.77692
  10 1004.41 -18.6734 9.77692
  11 988.703 6.04416 5.09074
  12 988.703 6.04416 -5.09074
</Section>

newXOutput 112

<Section columns = "stress_xx | stress_yy | stress_xy">
  1 960.269 5.92914 -5.02144
  2 960.269 5.92914 5.02144
  3 975.792 -18.3046 9.64761
  4 975.792 -18.3046 -9.64761
  5 752.874 15.2792 12.3712
  6 752.874 15.2792 -12.3712
  7 752.874 15.2792 -12.3712
  8 752.874 15.2792 12.3712
  9 975.792 -18.3046 -9.64761
  10 975.792 -18.3046 9.64761
  11 960.269 5.92914 5.02144
  12 960.269 5.92914 -5.02144
</Section>

newXOutput 113

<Section columns = "stress_xx | stress_yy | stress_xy">
  1 932.677 5.81179 -4.94825
  2 932.677 5.81179 4.94825
  3 948.006 -17.9286 9.51065
  4 948.006 -17.9286 -9.51065
  5 727.762 14.9653 12.1903
  6 727.762 14.9653 -12.1903
  7 727.762 14.9653 -12.1903
  8 727.762 14.9653 12.1903
  9 948.006 -17.9286 -9.51065
  10 948.006 -17.9286 9.51065
  11 932.677 5.81179 4.94825
  12 932.677 5.81179 -4.94825
</Section>

newXOutput 114

<Section columns = "stress_xx | stress_yy | stress_xy">
  1 905.864 5.69260 -4.87165
  2 905.864 5.69260 4.87165
  3 920.986 -17.5470 9.36697
  4 920.986 -17.5470 -9.36697
  5 703.596 14.6462 12.0009
  6 703.596 14.6462 -12.0009
  7 703.596 14.6462 -12.0009
  8 703.596 14.6462 12.0009
  9 920.986 -17.5470 -9.36697
  10 920.986 -17.5470 9.36697
  11 905.864 5.69260 4.87165
  12 905.864 5.69260 -4.87165
</Section>

newXOutput 115

<Section columns = "stress_xx | stress_yy | stress_xy">
  1 879.773 5.57197 -4.79208
  2 879.773 5.57197 4.79208
  3 894.677 -17.1612 9.21741
  4 894.677 -17.1612 -9.21741
  5 680.302 14.3232 11.8041
  6 680.302 14.3232 -11.8041
  7 680.302 14.3232 -11.8041
  8 680.302 14.3232 11.8041
  9 894.677 -17.1612 -9.21741
  10 894.677 -17.1612 9.21741
  11 879.773 5.57197 4.79208
  12 879.773 5.57197 -4.79208
</Section>

newXOutput 116

<Section columns = "stress_xx | stress_yy | stress_xy">
  1 854.355 5.45024 -4.70990
  2 854.355 5.45024 4.70990
  3 869.030 -16.7724 9.06268
  4 869.030 -16.7724 -9.06268
  5 657.816 13.9973 11.6009
  6 657.816 13.9973 -11.6009
  7 657.816 13.9973 -11.6009
  8 657.816 13.9973 11.6009
  9 869.030 -16.7724 -9.06268
  10 869.030 -16.7724 9.06268
  11 854.355 5.45024 4.70990
  12 854.355 5.45024 -4.70990
</Section>

newXOutput 117

<Section columns = "stress_xx | stress_yy | stress_xy">
  1 829.565 5.32771 -4.62544
  2 829.565 5.32771 4.62544
  3 844.003 -16.3814 8.90338
  4 844.003 -16.3814 -8.90338
  5 636.078 13.6694 11.3919
  6 636.078 13.6694 -11.3919
  7 636.078 13.6694 -11.3919
  8 636.078 13.6694 11.3919
  9 844.003 -16.3814 -8.90338
  10 844.003 -16.3814 8.90338
  11 829.565 5.32771 4.62544
  12 829.565 5.32771 -4.62544
</Section>

newXOutput 118

<Section columns = "stress_xx | stress_yy | stress_xy">
  1 805.363 5.20462 -4.53897
  2 805.363 5.20462 4.53897
  3 819.556 -15.9892 8.74006
  4 819.556 -15.9892 -8.74006
  5 615.037 13.3403 11.1781
  6 615.037 13.3403 -11.1781
  7 615.037 13.3403 -11.1781
  8 615.037 13.3403 11.1781
  9 819.556 -15.9892 -8.74006
  10 819.556 -15.9892 8.74006
  11 805.363 5.20462 4.53897
  12 805.363 5.20462 -4.53897
</Section>

newXOutput 119

<Section columns = "stress_xx | stress_yy | stress_xy">
  1 781.713 5.08118 -4.45075
  2 781.713 5.08118 4.45075
  3 795.655 -15.5964 8.57320
  4 795.655 -15.5964 -8.57320
  5 594.647 13.0105 10.9598
  6 594.647 13.0105 -10.9598
  7 594.647 13.0105 -10.9598
  8 594.647 13.0105 10.9598
  9 795.655 -15.5964 -8.57320
  10 795.655 -15.5964 8.57320
  11 781.713 5.08118 4.45075
  12 781.713 5.08118 -4.45075
</Section>

newXOutput 120

<Section columns = "stress_xx | stress_yy | stress_xy">
  1 758.584 4.95756 -4.36099
  2 758.584 4.95756 4.36099
  3 772.266 -15.2036 8.40321
  4 772.266 -15.2036 -8.40321
  5 574.864 12.6807 10.7378
  6 574.864 12.6807 -10.7378
  7 574.864 12.6807 -10.7378
  8 574.864 12.6807 10.7378
  9 772.266 -15.2036 -8.40321
  10 772.266 -15.2036 8.40321
  11 758.584 4.95756 4.36099
  12 758.584 4.95756 -4.36099
</Section>

newXOutput 121

<Section columns = "stress_xx | stress_yy | stress_xy">
  1 735.944 4.83392 -4.26988
  2 735.944 4.83392 4.26988
  3 749.362 -14.8113 8.23046
  4 749.362 -14.8113 -8.23046
  5 555.652 12.3513 10.5125
  6 555.652 12.3513 -10.5125
  7 555.652 12.3513 -10.5125
  8 555.652 12.3513 10.5125
  9 749.362 -14.8113 -8.23046
  10 749.362 -14.8113 8.23046
  11 735.944 4.83392 4.26988
  12 735.944 4.83392 -4.26988
</Section>

newXOutput 122

<Section columns = "stress_xx | stress_yy | stress_xy">
  1 713.768 4.71038 -4.17760
  2 713.768 4.71038 4.17760
  3 726.916 -14.4199 8.05527
  4 726.916 -14.4199 -8.05527
  5 536.975 12.0226 10.2842
  6 536.975 12.0226 -10.2842
  7 536.975 12.0226 -10.2842
  8 536.975 12.0226 10.2842
  9 726.916 -14.4199 -8.05527
  10 726.916 -14.4199 8.05527
  11 713.768 4.71038 4.17760
  12 713.768 4.71038 -4.17760
</Section>

newXOutput 123

<Section columns = "stress_xx | stress_yy | stress_xy">
  1 692.030 4.58707 -4.08428
  2 692.030 4.58707 4.08428
  3 704.904 -14.0298 7.87795
  4 704.904 -14.0298 -7.87795
  5 518.803 11.6950 10.0535
  6 518.803 11.6950 -10.0535
  7 518.803 11.6950 -10.0535
  8 518.803 11.6950 10.0535
  9 704.904 -14.0298 -7.87795
  10 704.904 -14.0298 7.87795
  11 692.030 4.58707 4.08428
  12 692.030 4.58707 -4.08428
</Section>

newXOutput 124

<Section columns = "stress_xx | stress_yy | stress_xy">
  1 670.707 4.46408 -3.99007
  2 670.707 4.46408 3.99007
  3 683.303 -13.6414 7.69875
  4 683.303 -13.6414 -7.69875
  5 501.107 11.3687 9.82057
  6 501.107 11.3687 -9.82057
  7 501.107 11.3687 -9.82057
  8 501.107 11.3687 9.82057
  9 683.303 -13.6414 -7.69875
  10 683.303 -13.6414 7.69875
  11 670.707 4.46408 3.99007
  12 670.707 4.46408 -3.99007
</Section>

newXOutput 125

<Section columns = "stress_xx | stress_yy | stress_xy">
  1 649.780 4.34149 -3.89508
  2 649.780 4.34149 3.89508
  3 662.094 -13.2548 7.51790
  4 662.094 -13.2548 -7.51790
  5 483.860 11.0441 9.58576
  6 483.860 11.0441 -9.58576
  7 483.860 11.0441 -9.58576
  8 483.860 11.0441 9.58576
  9 662.094 -13.2548 -7.51790
  10 662.094 -13.2548 7.51790
  11 649.780 4.34149 3.89508
  12 649.780 4.34149 -3.89508
</Section>

newXOutput 126

<Section columns = "stress_xx | stress_yy | stress_xy">
  1 629.228 4.21938 -3.79943
  2 629.228 4.21938 3.79943
  3 641.257 -12.8703 7.33561
  4 641.257 -12.8703 -7.33561
  5 467.039 10.7214 9.34936
  6 467.039 10.7214 -9.34936
  7 467.039 10.7214 -9.34936
  8 467.039 10.7214 9.34936
  9 641.257 -12.8703 -7.33561
  10 641.257 -12.8703 7.33561
  11 629.228 4.21938 3.79943
  12 629.228 4.21938 -3.79943
</Section>

newXOutput 127

<Section columns = "stress_xx | stress_yy | stress_xy">
  1 609.035 4.09780 -3.70321
  2 609.035 4.09780 3.70321
  3 620.775 -12.4882 7.15207
  4 620.775 -12.4882 -7.15207
  5 450.620 10.4006 9.11158
  6 450.620 10.4006 -9.11158
  7 450.620 10.4006 -9.11158
  8 450.620 10.4006 9.11158
  9 620.775 -12.4882 -7.15207
  10 620.775 -12.4882 7.15207
  11 609.035 4.09780 3.70321
  12 609.035 4.09780 -3.70321
</Section>

newXOutput 128

<Section columns = "stress_xx | stress_yy | stress_xy">
  1 589.182 3.97681 -3.60650
  2 589.182 3.97681 3.60650
  3 600.631 -12.1085 6.96746
  4 600.631 -12.1085 -6.96746
  5 434.585 10.0820 8.87266
  6 434.585 10.0820 -8.87266
  7 434.585 10.0820 -8.87266
  8 434.585 10.0820 8.87266
  9 600.631 -12.1085 -6.96746
  10 600.631 -12.1085 6.96746
  11 589.182 3.97681 3.60650
  12 589.182 3.97681 -3.60650
</Section>

newXOutput 129

<Section columns = "stress_xx | stress_yy | stress_xy">
  1 569.656 3.85645 -3.50939
  2 569.656 3.85645 3.50939
  3 580.811 -11.7314 6.78192
  4 580.811 -11.7314 -6.78192
  5 418.913 9.76566 8.63278
  6 418.913 9.76566 -8.63278
  7 418.913 9.76566 -8.63278
  8 418.913 9.76566 8.63278
  9 580.811 -11.7314 -6.78192
  10 580.811 -11.7314 6.78192
  11 569.656 3.85645 3.50939
  12 569.656 3.85645 -3.50939
</Section>

newXOutput 130

<Section columns = "stress_xx | stress_yy | stress_xy">
  1 550.442 3.73676 -3.41194
  2 550.442 3.73676 3.41194
  3 561.301 -11.3570 6.59559
  4 561.301 -11.3570 -6.59559
  5 403.587 9.45170 8.39213
  6 403.587 9.45170 -8.39213
  7 403.587 9.45170 -8.39213
  8 403.587 9.45170 8.39213
  9 561.301 -11.3570 -6.59559
  10 561.301 -11.3570 6.59559
  11 550.442 3.73676 3.41194
  12 550.442 3.73676 -3.41194
</Section>

newXOutput 131

<Section columns = "stress_xx | stress_yy | stress_xy">
  1 531.526 3.61778 -3.31422
  2 531.526 3.61778 3.31422
  3 542.087 -10.9855 6.40860
  4 542.087 -10.9855 -6.40860
  5 388.591 9.14020 8.15085
  6 388.591 9.14020 -8.15085
  7 388.591 9.14020 -8.15085
  8 388.591 9.14020 8.15085
  9 542.087 -10.9855 -6.40860
  10 542.087 -10.9855 6.40860
  11 531.526 3.61778 3.31422
  12 531.526 3.61778 -3.31422
</Section>

newXOutput 132

<Section columns = "stress_xx | stress_yy | stress_xy">
  1 512.896 3.49953 -3.21629
  2 512.896 3.49953 3.21629
  3 523.158 -10.6169 6.22106
  4 523.158 -10.6169 -6.22106
  5 373.910 8.83124 7.90910
  6 373.910 8.83124 -7.90910
  7 373.910 8.83124 -7.90910
  8 373.910 8.83124 7.90910
  9 523.158 -10.6169 -6.22106
  10 523.158 -10.6169 6.22106
  11 512.896 3.49953 3.21629
  12 512.896 3.49953 -3.21629
</Section>

newXOutput 133

<Section columns = "stress_xx | stress_yy | stress_xy">
  1 494.540 3.38203 -3.11820
  2 494.540 3.38203 3.11820
  3 504.501 -10.2512 6.03307
  4 504.501 -10.2512 -6.03307
  5 359.529 8.52488 7.66701
  6 359.529 8.52488 -7.66701
  7 359.529 8.52488 -7.66701
  8 359.529 8.52488 7.66701
  9 504.501 -10.2512 -6.03307
  10 504.501 -10.2512 6.03307
  11 494.540 3.38203 3.11820
  12 494.540 3.38203 -3.11820
</Section>

newXOutput 134

<Section columns = "stress_xx | stress_yy | stress_xy">
  1 476.448 3.26532 -3.01999
  2 476.448 3.26532 3.01999
  3 486.107 -9.88859 5.84474
  4 486.107 -9.88859 -5.84474
  5 345.435 8.22115 7.42469
  6 345.435 8.22115 -7.42469
  7 345.435 8.22115 -7.42469
  8 345.435 8.22115 7.42469
  9 486.107 -9.88859 -5.84474
  10 486.107 -9.88859 5.84474
  11 476.448 3.26532 3.01999
  12 476.448 3.26532 -3.01999
</Section>

newXOutput 135

<Section columns = "stress_xx | stress_yy | stress_xy">
  1 458.609 3.14939 -2.92171
  2 458.609 3.14939 2.92171
  3 467.964 -9.52902 5.65613
  4 467.964 -9.52902 -5.65613
  5 331.616 7.92010 7.18225
  6 331.616 7.92010 -7.18225
  7 331.616 7.92010 -7.18225
  8 331.616 7.92010 7.18225
  9 467.964 -9.52902 -5.65613
  10 467.964 -9.52902 5.65613
  11 458.609 3.14939 2.92171
  12 458.609 3.14939 -2.92171
</Section>

newXOutput 136

<Section columns = "stress_xx | stress_yy | stress_xy">
  1 441.014 3.03427 -2.82340
  2 441.014 3.03427 2.82340
  3 450.065 -9.17256 5.46735
  4 450.065 -9.17256 -5.46735
  5 318.061 7.62175 6.93978
  6 318.061 7.62175 -6.93978
  7 318.061 7.62175 -6.93978
  8 318.061 7.62175 6.93978
  9 450.065 -9.17256 -5.46735
  10 450.065 -9.17256 5.46735
  11 441.014 3.03427 2.82340
  12 441.014 3.03427 -2.82340
</Section>

newXOutput 137

<Section columns = "stress_xx | stress_yy | stress_xy">
  1 423.653 2.91997 -2.72509
  2 423.653 2.91997 2.72509
  3 432.399 -8.81922 5.27844
  4 432.399 -8.81922 -5.27844
  5 304.758 7.32613 6.69739
  6 304.758 7.32613 -6.69739
  7 304.758 7.32613 -6.69739
  8 304.758 7.32613 6.69739
  9 432.399 -8.81922 -5.27844
  10 432.399 -8.81922 5.27844
  11 423.653 2.91997 2.72509
  12 423.653 2.91997 -2.72509
</Section>

newXOutput 138

<Section columns = "stress_xx | stress_yy | stress_xy">
  1 406.519 2.80650 -2.62682
  2 406.519 2.80650 2.62682
  3 414.958 -8.46902 5.08949
  4 414.958 -8.46902 -5.08949
  5 291.697 7.03325 6.45513
  6 291.697 7.03325 -6.45513
  7 291.697 7.03325 -6.45513
  8 291.697 7.03325 6.45513
  9 414.958 -8.46902 -5.08949
  10 414.958 -8.46902 5.08949
  11 406.519 2.80650 2.62682
  12 406.519 2.80650 -2.62682
</Section>

newXOutput 139

<Section columns = "stress_xx | stress_yy | stress_xy">
  1 389.602 2.69385 -2.52862
  2 389.602 2.69385 2.52862
  3 397.734 -8.12197 4.90054
  4 397.734 -8.12197 -4.90054
  5 278.869 6.74311 6.21310
  6 278.869 6.74311 -6.21310
  7 278.869 6.74311 -6.21310
  8 278.869 6.74311 6.21310
  9 397.734 -8.12197 -4.90054
  10 397.734 -8.12197 4.90054
  11 389.602 2.69385 2.52862
  12 389.602 2.69385 -2.52862
</Section>

newXOutput 140

<Section columns = "stress_xx | stress_yy | stress_xy">
  1 372.895 2.58205 -2.43051
  2 372.895 2.58205 2.43051
  3 380.720 -7.77808 4.71166
  4 380.720 -7.77808 -4.71166
  5 266.264 6.45571 5.97135
  6 266.264 6.45571 -5.97135
  7 266.264 6.45571 -5.97135
  8 266.264 6.45571 5.97135
  9 380.720 -7.77808 -4.71166
  10 380.720 -7.77808 4.71166
  11 372.895 2.58205 2.43051
  12 372.895 2.58205 -2.43051
</Section>

newXOutput 141

<Section columns = "stress_xx | stress_yy | stress_xy">
  1 356.391 2.47108 -2.33252
  2 356.391 2.47108 2.33252
  3 363.908 -7.43734 4.52289
  4 363.908 -7.43734 -4.52289
  5 253.874 6.17106 5.72995
  6 253.874 6.17106 -5.72995
  7 253.874 6.17106 -5.72995
  8 253.874 6.17106 5.72995
  9 363.908 -7.43734 -4.52289
  10 363.908 -7.43734 4.52289
  11 356.391 2.47108 2.33252
  12 356.391 2.47108 -2.33252
</Section>

newXOutput 142

<Section columns = "stress_xx | stress_yy | stress_xy">
  1 340.083 2.36096 -2.23466
  2 340.083 2.36096 2.23466
  3 347.292 -7.09975 4.33427
  4 347.292 -7.09975 -4.33427
  5 241.691 5.88914 5.48894
  6 241.691 5.88914 -5.48894
  7 241.691 5.88914 -5.48894
  8 241.691 5.88914 5.48894
  9 347.292 -7.09975 -4.33427
  10 347.292 -7.09975 4.33427
  11 340.083 2.36096 2.23466
  12 340.083 2.36096 -2.23466
</Section>

newXOutput 143

<Section columns = "stress_xx | stress_yy | stress_xy">
  1 323.965 2.25168 -2.13697
  2 323.965 2.25168 2.13697
  3 330.866 -6.76530 4.14586
  4 330.866 -6.76530 -4.14586
  5 229.707 5.60995 5.24839
  6 229.707 5.60995 -5.24839
  7 229.707 5.60995 -5.24839
  8 229.707 5.60995 5.24839
  9 330.866 -6.76530 -4.14586
  10 330.866 -6.76530 4.14586
  11 323.965 2.25168 2.13697
  12 323.965 2.25168 -2.13697
</Section>

newXOutput 144

<Section columns = "stress_xx | stress_yy | stress_xy">
  1 308.030 2.14324 -2.03945
  2 308.030 2.14324 2.03945
  3 314.623 -6.43397 3.95769
  4 314.623 -6.43397 -3.95769
  5 217.915 5.33347 5.00833
  6 217.915 5.33347 -5.00833
  7 217.915 5.33347 -5.00833
  8 217.915 5.33347 5.00833
  9 314.623 -6.43397 -3.95769
  10 314.623 -6.43397 3.95769
  11 308.030 2.14324 2.03945
  12 308.030 2.14324 -2.03945
</Section>

newXOutput 145

<Section columns = "stress_xx | stress_yy | stress_xy">
  1 292.273 2.03564 -1.94213
  2 292.273 2.03564 1.94213
  3 298.557 -6.10576 3.76979
  4 298.557 -6.10576 -3.76979
  5 206.309 5.05969 4.76881
  6 206.309 5.05969 -4.76881
  7 206.309 5.05969 -4.76881
  8 206.309 5.05969 4.76881
  9 298.557 -6.10576 -3.76979
  10 298.557 -6.10576 3.76979
  11 292.273 2.03564 1.94213
  12 292.273 2.03564 -1.94213
</Section>

newXOutput 146

<Section columns = "stress_xx | stress_yy | stress_xy">
  1 276.687 1.92888 -1.84502
  2 276.687 1.92888 1.84502
  3 282.663 -5.78064 3.58219
  4 282.663 -5.78064 -3.58219
  5 194.881 4.78859 4.52986
  6 194.881 4.78859 -4.52986
  7 194.881 4.78859 -4.52986
  8 194.881 4.78859 4.52986
  9 282.663 -5.78064 -3.58219
  10 282.663 -5.78064 3.58219
  11 276.687 1.92888 1.84502
  12 276.687 1.92888 -1.84502
</Section>

newXOutput 147

<Section columns = "stress_xx | stress_yy | stress_xy">
  1 261.268 1.82296 -1.74814
  2 261.268 1.82296 1.74814
  3 266.935 -5.45860 3.39493
  4 266.935 -5.45860 -3.39493
  5 183.625 4.52014 4.29152
  6 183.625 4.52014 -4.29152
  7 183.625 4.52014 -4.29152
  8 183.625 4.52014 4.29152
  9 266.935 -5.45860 -3.39493
  10 266.935 -5.45860 3.39493
  11 261.268 1.82296 1.74814
  12 261.268 1.82296 -1.74814
</Section>

newXOutput 148

<Section columns = "stress_xx | stress_yy | stress_xy">
  1 246.010 1.71786 -1.65149
  2 246.010 1.71786 1.65149
  3 251.369 -5.13960 3.20803
  4 251.369 -5.13960 -3.20803
  5 172.537 4.25434 4.05382
  6 172.537 4.25434 -4.05382
  7 172.537 4.25434 -4.05382
  8 172.537 4.25434 4.05382
  9 251.369 -5.13960 -3.20803
  10 251.369 -5.13960 3.20803
  11 246.010 1.71786 1.65149
  12 246.010 1.71786 -1.65149
</Section>

newXOutput 149

<Section columns = "stress_xx | stress_yy | stress_xy">
  1 230.909 1.61360 -1.55510
  2 230.909 1.61360 1.55510
  3 235.960 -4.82363 3.02151
  4 235.960 -4.82363 -3.02151
  5 161.609 3.99115 3.81678
  6 161.609 3.99115 -3.81678
  7 161.609 3.99115 -3.81678
  8 161.609 3.99115 3.81678
  9 235.960 -4.82363 -3.02151
  10 235.960 -4.82363 3.02151
  11 230.909 1.61360 1.55510
  12 230.909 1.61360 -1.55510
</Section>

newXOutput 150

<Section columns = "stress_xx | stress_yy | stress_xy">
  1 215.960 1.51015 -1.45896
  2 215.960 1.51015 1.45896
  3 220.703 -4.51067 2.83540
  4 220.703 -4.51067 -2.83540
  5 150.837 3.73054 3.58044
  6 150.837 3.73054 -3.58044
  7 150.837 3.73054 -3.58044
  8 150.837 3.73054 3.58044
  9 220.703 -4.51067 -2.83540
  10 220.703 -4.51067 2.83540
  11 215.960 1.51015 1.45896
  12 215.960 1.51015 -1.45896
</Section>

newXOutput 151

<Section columns = "stress_xx | stress_yy | stress_xy">
  1 201.159 1.40753 -1.36310
  2 201.159 1.40753 1.36310
  3 205.594 -4.20067 2.64972
  4 205.594 -4.20067 -2.64972
  5 140.216 3.47251 3.34481
  6 140.216 3.47251 -3.34481
  7 140.216 3.47251 -3.34481
  8 140.216 3.47251 3.34481
  9 205.594 -4.20067 -2.64972
  10 205.594 -4.20067 2.64972
  11 201.159 1.40753 1.36310
  12 201.159 1.40753 -1.36310
</Section>

newXOutput 152

<Section columns = "stress_xx | stress_yy | stress_xy">
  1 186.500 1.30571 -1.26751
  2 186.500 1.30571 1.26751
  3 190.628 -3.89363 2.46449
  4 190.628 -3.89363 -2.46449
  5 129.741 3.21701 3.10992
  6 129.741 3.21701 -3.10992
  7 129.741 3.21701 -3.10992
  8 129.741 3.21701 3.10992
  9 190.628 -3.89363 -2.46449
  10 190.628 -3.89363 2.46449
  11 186.500 1.30571 1.26751
  12 186.500 1.30571 -1.26751
</Section>

newXOutput 153

<Section columns = "stress_xx | stress_yy | stress_xy">
  1 171.981 1.20470 -1.17220
  2 171.981 1.20470 1.17220
  3 175.802 -3.58950 2.27972
  4 175.802 -3.58950 -2.27972
  5 119.407 2.96402 2.87578
  6 119.407 2.96402 -2.87578
  7 119.407 2.96402 -2.87578
  8 119.407 2.96402 2.87578
  9 175.802 -3.58950 -2.27972
  10 175.802 -3.58950 2.27972
  11 171.981 1.20470 1.17220
  12 171.981 1.20470 -1.17220
</Section>

newXOutput 154

<Section columns = "stress_xx | stress_yy | stress_xy">
  1 157.597 1.10449 -1.07720
  2 157.597 1.10449 1.07720
  3 161.111 -3.28826 2.09543
  4 161.111 -3.28826 -2.09543
  5 109.211 2.71352 2.64242
  6 109.211 2.71352 -2.64242
  7 109.211 2.71352 -2.64242
  8 109.211 2.71352 2.64242
  9 161.111 -3.28826 -2.09543
  10 161.111 -3.28826 2.09543
  11 157.597 1.10449 1.07720
  12 157.597 1.10449 -1.07720
</Section>

newXOutput 155

<Section columns = "stress_xx | stress_yy | stress_xy">
  1 143.345 1.00507 -0.982487
  2 143.345 1.00507 0.982487
  3 146.553 -2.98987 1.91163
  4 146.553 -2.98987 -1.91163
  5 99.1467 2.46547 2.40984
  6 99.1467 2.46547 -2.40984
  7 99.1467 2.46547 -2.40984
  8 99.1467 2.46547 2.40984
  9 146.553 -2.98987 -1.91163
  10 146.553 -2.98987 1.91163
  11 143.345 1.00507 0.982487
  12 143.345 1.00507 -0.982487
</Section>

newXOutput 156

<Section columns = "stress_xx | stress_yy | stress_xy">
  1 129.422 0.905512 -0.887134
  2 129.422 0.905512 0.887134
  3 132.321 -2.69131 1.72646
  4 132.321 -2.69131 -1.72646
  5 89.3250 2.24793 2.17569
  6 89.3250 2.24793 -2.17569
  7 89.3250 2.24793 -2.17569
  8 89.3250 2.24793 2.17569
  9 132.321 -2.69131 -1.72646
  10 132.321 -2.69131 1.72646
  11 129.422 0.905512 0.887134
  12 129.422 0.905512 -0.887134
</Section>

newXOutput 157

<Section columns = "stress_xx | stress_yy | stress_xy">
  1 115.417 0.807688 -0.793073
  2 115.417 0.807688 0.793073
  3 118.011 -2.39865 1.54375
  4 118.011 -2.39865 -1.54375
  5 79.5114 2.00374 1.94480
  6 79.5114 2.00374 -1.94480
  7 79.5114 2.00374 -1.94480
  8 79.5114 2.00374 1.94480
  9 118.011 -2.39865 -1.54375
  10 118.011 -2.39865 1.54375
  11 115.417 0.807688 0.793073
  12 115.417 0.807688 -0.793073
</Section>

newXOutput 158

<Section columns = "stress_xx | stress_yy | stress_xy">
  1 101.534 0.710637 -0.699327
  2 101.534 0.710637 0.699327
  3 103.822 -2.10876 1.36157
  4 103.822 -2.10876 -1.36157
  5 69.8191 1.76192 1.71474
  6 69.8191 1.76192 -1.71474
  7 69.8191 1.76192 -1.71474
  8 69.8191 1.76192 1.71474
  9 103.822 -2.10876 -1.36157
  10 103.822 -2.10876 1.36157
  11 101.534 0.710637 0.699327
  12 101.534 0.710637 -0.699327
</Section>

newXOutput 159

<Section columns = "stress_xx | stress_yy | stress_xy">
  1 87.7682 0.614349 -0.605898
  2 87.7682 0.614349 0.605898
  3 89.7527 -1.82160 1.17993
  4 89.7527 -1.82160 -1.17993
  5 60.2448 1.52250 1.48550
  6 60.2448 1.52250 -1.48550
  7 60.2448 1.52250 -1.48550
  8 60.2448 1.52250 1.48550
  9 89.7527 -1.82160 -1.17993
  10 89.7527 -1.82160 1.17993
  11 87.7682 0.614349 0.605898
  12 87.7682 0.614349 -0.605898
</Section>

newXOutput 160

<Section columns = "stress_xx | stress_yy | stress_xy">
  1 74.1182 0.518817 -0.512791
  2 74.1182 0.518817 0.512791
  3 75.7991 -1.53713 0.998831
  4 75.7991 -1.53713 -0.998831
  5 50.7849 1.28542 1.25710
  6 50.7849 1.28542 -1.25710
  7 50.7849 1.28542 -1.25710
  8 50.7849 1.28542 1.25710
  9 75.7991 -1.53713 -0.998831
  10 75.7991 -1.53713 0.998831
  11 74.1182 0.518817 0.512791
  12 74.1182 0.518817 -0.512791
</Section>

newXOutput 161

<Section columns = "stress_xx | stress_yy | stress_xy">
  1 60.5805 0.424034 -0.420009
  2 60.5805 0.424034 0.420009
  3 61.9583 -1.25534 0.818284
  4 61.9583 -1.25534 -0.818284
  5 41.4363 1.05067 1.02954
  6 41.4363 1.05067 -1.02954
  7 41.4363 1.05067 -1.02954
  8 41.4363 1.05067 1.02954
  9 61.9583 -1.25534 -0.818284
  10 61.9583 -1.25534 0.818284
  11 60.5805 0.424034 0.420009
  12 60.5805 0.424034 -0.420009
</Section>

newXOutput 162

<Section columns = "stress_xx | stress_yy | stress_xy">
  1 47.1523 0.329992 -0.327555
  2 47.1523 0.329992 0.327555
  3 48.2277 -0.976175 0.638295
  4 48.2277 -0.976175 -0.638295
  5 32.1959 0.818207 0.802834
  6 32.1959 0.818207 -0.802834
  7 32.1959 0.818207 -0.802834
  8 32.1959 0.818207 0.802834
  9 48.2277 -0.976175 -0.638295
  10 48.2277 -0.976175 0.638295
  11 47.1523 0.329992 0.327555
  12 47.1523 0.329992 -0.327555
</Section>

newXOutput 163

<Section columns = "stress_xx | stress_yy | stress_xy">
  1 33.8309 0.236684 -0.235430
  2 33.8309 0.236684 0.235430
  3 34.6044 -0.699617 0.458873
  4 34.6044 -0.699617 -0.458873
  5 23.0606 0.588002 0.576980
  6 23.0606 0.588002 -0.576980
  7 23.0606 0.588002 -0.576980
  8 23.0606 0.588002 0.576980
  9 34.6044 -0.699617 -0.458873
  10 34.6044 -0.699617 0.458873
  11 33.8309 0.236684 0.235430
  12 33.8309 0.236684 -0.235430
</Section>

newXOutput 164

<Section columns = "stress_xx | stress_yy | stress_xy">
  1 20.6137 0.144103 -0.143638
  2 20.6137 0.144103 0.143638
  3 21.0860 -0.425630 0.280021
  4 21.0860 -0.425630 -0.280021
  5 14.0276 0.360026 0.351986
  6 14.0276 0.360026 -0.351986
  7 14.0276 0.360026 -0.351986
  8 14.0276 0.360026 0.351986
  9 21.0860 -0.425630 -0.280021
  10 21.0860 -0.425630 0.280021
  11 20.6137 0.144103 0.143638
  12 20.6137 0.144103 -0.143638
</Section>

newXOutput 165

<Section columns = "stress_xx | stress_yy | stress_xy">
  1 7.49806 0.0522408 -0.0521797
  2 7.49806 0.0522408 0.0521797
  3 7.66975 -0.154185 0.101745
  4 7.66975 -0.154185 -0.101745
  5 5.09419 0.134248 0.127854
  6 5.09419 0.134248 -0.127854
  7 5.09419 0.134248 -0.127854
  8 5.09419 0.134248 0.127854
  9 7.66975 -0.154185 -0.101745
  10 7.66975 -0.154185 0.101745
  11 7.49806 0.0522408 0.0521797
  12 7.49806 0.0522408 -0.0521797
</Section>

newXOutput 166

<Section columns = "stress_xx | stress_yy | stress_xy">
  1 -0.00162144 -0.000298717 -1.18282e-07
  2 -0.00162144 -0.000298717 1.18282e-07
  3 -0.00155816 -0.000306587 5.23409e-06
  4 -0.00155816 -0.000306587 -5.23409e-06
  5 -0.000756358 -0.000187559 5.29323e-06
  6 -0.000756358 -0.000187559 -5.29323e-06
  7 -0.000756358 -0.000187559 -5.29323e-06
  8 -0.000756358 -0.000187559 5.29323e-06
  9 -0.00155816 -0.000306587 -5.23409e-06
  10 -0.00155816 -0.000306587 5.23409e-06
  11 -0.00162144 -0.000298717 1.18282e-07
  12 -0.00162144 -0.000298717 -1.18283e-07
</Section>

newXOutput 167

<Section columns = "stress_xx | stress_yy | stress_xy">
  1 -1.27329e-10 -2.00089e-11 4.34618e-14
  2 -1.27329e-10 -2.00089e-11 -4.09788e-14
  3 -1.16511e-10 -1.72100e-11 1.55526e-13
  4 -1.16511e-10 -1.72100e-11 -1.07684e-13
  5 -5.31093e-11 -8.25580e-12 8.59529e-14
  6 -5.31093e-11 -8.25580e-12 -1.35037e-13
  7 -5.56971e-11 -9.28715e-12 -6.92850e-13
  8 -5.75350e-11 -9.81224e-12 -5.90308e-13
  9 -1.18881e-10 -1.90994e-11 -7.60797e-13
  10 -1.19406e-10 -1.90994e-11 -6.35077e-13
  11 -1.26368e-10 -1.96245e-11 -1.35894e-13
  12 -1.23743e-10 -1.85743e-11 -8.95391e-14
</Section>

