newXOutput 1

<Section columns = "stress_xx | stress_yy | stress_xy">
  1 0.00000 0.00000 0.00000
  2 0.00000 0.00000 0.00000
  3 0.00000 0.00000 0.00000
  4 0.00000 0.00000 0.00000
</Section>

newXOutput 2

<Section columns = "stress_xx | stress_yy | stress_xy">
  1 188.249 0.00000 -2.66709e-16
  2 188.249 0.00000 -2.66709e-16
  3 188.249 0.00000 -9.95370e-16
  4 188.249 0.00000 -9.95370e-16
</Section>

newXOutput 3

<Section columns = "stress_xx | stress_yy | stress_xy">
  1 376.781 0.00000 -9.99323e-16
  2 376.781 0.00000 -9.99323e-16
  3 376.781 0.00000 -2.05863e-15
  4 376.781 0.00000 -2.05863e-15
</Section>

newXOutput 4

<Section columns = "stress_xx | stress_yy | stress_xy">
  1 564.794 0.00000 -1.93505e-15
  2 564.794 0.00000 -1.93505e-15
  3 564.794 0.00000 -3.98624e-15
  4 564.794 0.00000 -3.98624e-15
</Section>

newXOutput 5

<Section columns = "stress_xx | stress_yy | stress_xy">
  1 752.350 0.00000 0.00000
  2 752.350 0.00000 0.00000
  3 752.350 0.00000 0.00000
  4 752.350 0.00000 0.00000
</Section>

newXOutput 6

<Section columns = "stress_xx | stress_yy | stress_xy">
  1 939.517 0.00000 0.00000
  2 939.517 0.00000 0.00000
  3 939.517 0.00000 0.00000
  4 939.517 0.00000 0.00000
</Section>

newXOutput 7

<Section columns = "stress_xx | stress_yy | stress_xy">
  1 1126.36 0.00000 0.00000
  2 1126.36 0.00000 0.00000
  3 1126.36 0.00000 0.00000
  4 1126.36 0.00000 0.00000
</Section>

newXOutput 8

<Section columns = "stress_xx | stress_yy | stress_xy">
  1 1312.95 0.00000 0.00000
  2 1312.95 0.00000 0.00000
  3 1312.95 0.00000 0.00000
  4 1312.95 0.00000 0.00000
</Section>

newXOutput 9

<Section columns = "stress_xx | stress_yy | stress_xy">
  1 1499.34 0.00000 0.00000
  2 1499.34 0.00000 0.00000
  3 1499.34 0.00000 0.00000
  4 1499.34 0.00000 0.00000
</Section>

newXOutput 10

<Section columns = "stress_xx | stress_yy | stress_xy">
  1 1685.62 0.00000 0.00000
  2 1685.62 0.00000 0.00000
  3 1685.62 0.00000 0.00000
  4 1685.62 0.00000 0.00000
</Section>

newXOutput 11

<Section columns = "stress_xx | stress_yy | stress_xy">
  1 1871.84 0.00000 0.00000
  2 1871.84 0.00000 0.00000
  3 1871.84 0.00000 0.00000
  4 1871.84 0.00000 0.00000
</Section>

newXOutput 12

<Section columns = "stress_xx | stress_yy | stress_xy">
  1 2058.07 0.00000 0.00000
  2 2058.07 0.00000 0.00000
  3 2058.07 0.00000 0.00000
  4 2058.07 0.00000 0.00000
</Section>

newXOutput 13

<Section columns = "stress_xx | stress_yy | stress_xy">
  1 2244.39 0.00000 0.00000
  2 2244.39 0.00000 0.00000
  3 2244.39 0.00000 0.00000
  4 2244.39 0.00000 0.00000
</Section>

newXOutput 14

<Section columns = "stress_xx | stress_yy | stress_xy">
  1 2430.86 0.00000 0.00000
  2 2430.86 0.00000 0.00000
  3 2430.86 0.00000 0.00000
  4 2430.86 0.00000 0.00000
</Section>

newXOutput 15

<Section columns = "stress_xx | stress_yy | stress_xy">
  1 2617.56 0.00000 0.00000
  2 2617.56 0.00000 0.00000
  3 2617.56 0.00000 0.00000
  4 2617.56 0.00000 0.00000
</Section>

newXOutput 16

<Section columns = "stress_xx | stress_yy | stress_xy">
  1 2804.56 0.00000 0.00000
  2 2804.56 0.00000 0.00000
  3 2804.56 0.00000 0.00000
  4 2804.56 0.00000 0.00000
</Section>

newXOutput 17

<Section columns = "stress_xx | stress_yy | stress_xy">
  1 2991.93 0.00000 0.00000
  2 2991.93 0.00000 0.00000
  3 2991.93 0.00000 0.00000
  4 2991.93 0.00000 0.00000
</Section>

newXOutput 18

<Section columns = "stress_xx | stress_yy | stress_xy">
  1 3179.74 0.00000 0.00000
  2 3179.74 0.00000 0.00000
  3 3179.74 0.00000 0.00000
  4 3179.74 0.00000 0.00000
</Section>

newXOutput 19

<Section columns = "stress_xx | stress_yy | stress_xy">
  1 3368.08 0.00000 0.00000
  2 3368.08 0.00000 0.00000
  3 3368.08 0.00000 0.00000
  4 3368.08 0.00000 0.00000
</Section>

newXOutput 20

<Section columns = "stress_xx | stress_yy | stress_xy">
  1 3557.01 0.00000 0.00000
  2 3557.01 0.00000 0.00000
  3 3557.01 0.00000 0.00000
  4 3557.01 0.00000 0.00000
</Section>

newXOutput 21

<Section columns = "stress_xx | stress_yy | stress_xy">
  1 3746.62 0.00000 0.00000
  2 3746.62 0.00000 0.00000
  3 3746.62 0.00000 0.00000
  4 3746.62 0.00000 0.00000
</Section>

newXOutput 22

<Section columns = "stress_xx | stress_yy | stress_xy">
  1 3936.99 0.00000 0.00000
  2 3936.99 0.00000 0.00000
  3 3936.99 0.00000 0.00000
  4 3936.99 0.00000 0.00000
</Section>

newXOutput 23

<Section columns = "stress_xx | stress_yy | stress_xy">
  1 4128.19 0.00000 0.00000
  2 4128.19 0.00000 0.00000
  3 4128.19 0.00000 0.00000
  4 4128.19 0.00000 0.00000
</Section>

newXOutput 24

<Section columns = "stress_xx | stress_yy | stress_xy">
  1 4320.31 0.00000 0.00000
  2 4320.31 0.00000 0.00000
  3 4320.31 0.00000 0.00000
  4 4320.31 0.00000 0.00000
</Section>

newXOutput 25

<Section columns = "stress_xx | stress_yy | stress_xy">
  1 4513.43 0.00000 0.00000
  2 4513.43 0.00000 0.00000
  3 4513.43 0.00000 0.00000
  4 4513.43 0.00000 0.00000
</Section>

newXOutput 26

<Section columns = "stress_xx | stress_yy | stress_xy">
  1 4707.64 0.00000 0.00000
  2 4707.64 0.00000 0.00000
  3 4707.64 0.00000 0.00000
  4 4707.64 0.00000 0.00000
</Section>

newXOutput 27

<Section columns = "stress_xx | stress_yy | stress_xy">
  1 4903.02 0.00000 0.00000
  2 4903.02 0.00000 0.00000
  3 4903.02 0.00000 0.00000
  4 4903.02 0.00000 0.00000
</Section>

newXOutput 28

<Section columns = "stress_xx | stress_yy | stress_xy">
  1 5099.66 0.00000 0.00000
  2 5099.66 0.00000 0.00000
  3 5099.66 0.00000 0.00000
  4 5099.66 0.00000 0.00000
</Section>

newXOutput 29

<Section columns = "stress_xx | stress_yy | stress_xy">
  1 5297.66 0.00000 0.00000
  2 5297.66 0.00000 0.00000
  3 5297.66 0.00000 0.00000
  4 5297.66 0.00000 0.00000
</Section>

newXOutput 30

<Section columns = "stress_xx | stress_yy | stress_xy">
  1 5497.11 0.00000 0.00000
  2 5497.11 0.00000 0.00000
  3 5497.11 0.00000 0.00000
  4 5497.11 0.00000 0.00000
</Section>

newXOutput 31

<Section columns = "stress_xx | stress_yy | stress_xy">
  1 5698.10 0.00000 0.00000
  2 5698.10 0.00000 0.00000
  3 5698.10 0.00000 0.00000
  4 5698.10 0.00000 0.00000
</Section>

newXOutput 32

<Section columns = "stress_xx | stress_yy | stress_xy">
  1 5900.73 0.00000 0.00000
  2 5900.73 0.00000 0.00000
  3 5900.73 0.00000 0.00000
  4 5900.73 0.00000 0.00000
</Section>

newXOutput 33

<Section columns = "stress_xx | stress_yy | stress_xy">
  1 6105.09 0.00000 0.00000
  2 6105.09 0.00000 0.00000
  3 6105.09 0.00000 0.00000
  4 6105.09 0.00000 0.00000
</Section>

newXOutput 34

<Section columns = "stress_xx | stress_yy | stress_xy">
  1 6311.30 0.00000 0.00000
  2 6311.30 0.00000 0.00000
  3 6311.30 0.00000 0.00000
  4 6311.30 0.00000 0.00000
</Section>

newXOutput 35

<Section columns = "stress_xx | stress_yy | stress_xy">
  1 6519.45 0.00000 0.00000
  2 6519.45 0.00000 0.00000
  3 6519.45 0.00000 0.00000
  4 6519.45 0.00000 0.00000
</Section>

newXOutput 36

<Section columns = "stress_xx | stress_yy | stress_xy">
  1 6729.66 0.00000 0.00000
  2 6729.66 0.00000 0.00000
  3 6729.66 0.00000 0.00000
  4 6729.66 0.00000 0.00000
</Section>

newXOutput 37

<Section columns = "stress_xx | stress_yy | stress_xy">
  1 6942.02 0.00000 0.00000
  2 6942.02 0.00000 0.00000
  3 6942.02 0.00000 0.00000
  4 6942.02 0.00000 0.00000
</Section>

newXOutput 38

<Section columns = "stress_xx | stress_yy | stress_xy">
  1 7156.67 0.00000 0.00000
  2 7156.67 0.00000 0.00000
  3 7156.67 0.00000 0.00000
  4 7156.67 0.00000 0.00000
</Section>

newXOutput 39

<Section columns = "stress_xx | stress_yy | stress_xy">
  1 7373.70 0.00000 0.00000
  2 7373.70 0.00000 0.00000
  3 7373.70 0.00000 0.00000
  4 7373.70 0.00000 0.00000
</Section>

newXOutput 40

<Section columns = "stress_xx | stress_yy | stress_xy">
  1 7593.24 0.00000 0.00000
  2 7593.24 0.00000 0.00000
  3 7593.24 0.00000 0.00000
  4 7593.24 0.00000 0.00000
</Section>

newXOutput 41

<Section columns = "stress_xx | stress_yy | stress_xy">
  1 7815.42 0.00000 -2.64846e-15
  2 7815.42 0.00000 -2.64846e-15
  3 7815.42 0.00000 -7.09652e-16
  4 7815.42 0.00000 -7.09652e-16
</Section>

newXOutput 42

<Section columns = "stress_xx | stress_yy | stress_xy">
  1 8040.36 0.00000 0.00000
  2 8040.36 0.00000 0.00000
  3 8040.36 0.00000 0.00000
  4 8040.36 0.00000 0.00000
</Section>

newXOutput 43

<Section columns = "stress_xx | stress_yy | stress_xy">
  1 8268.18 0.00000 0.00000
  2 8268.18 0.00000 0.00000
  3 8268.18 0.00000 0.00000
  4 8268.18 0.00000 0.00000
</Section>

newXOutput 44

<Section columns = "stress_xx | stress_yy | stress_xy">
  1 8499.02 0.00000 0.00000
  2 8499.02 0.00000 0.00000
  3 8499.02 0.00000 0.00000
  4 8499.02 0.00000 0.00000
</Section>

newXOutput 45

<Section columns = "stress_xx | stress_yy | stress_xy">
  1 8733.03 0.00000 0.00000
  2 8733.03 0.00000 0.00000
  3 8733.03 0.00000 0.00000
  4 8733.03 0.00000 0.00000
</Section>

newXOutput 46

<Section columns = "stress_xx | stress_yy | stress_xy">
  1 8970.33 0.00000 0.00000
  2 8970.33 0.00000 0.00000
  3 8970.33 0.00000 0.00000
  4 8970.33 0.00000 0.00000
</Section>

newXOutput 47

<Section columns = "stress_xx | stress_yy | stress_xy">
  1 9211.08 0.00000 0.00000
  2 9211.08 0.00000 0.00000
  3 9211.08 0.00000 0.00000
  4 9211.08 0.00000 0.00000
</Section>

newXOutput 48

<Section columns = "stress_xx | stress_yy | stress_xy">
  1 9455.42 0.00000 0.00000
  2 9455.42 0.00000 0.00000
  3 9455.42 0.00000 0.00000
  4 9455.42 0.00000 0.00000
</Section>

newXOutput 49

<Section columns = "stress_xx | stress_yy | stress_xy">
  1 9703.52 0.00000 0.00000
  2 9703.52 0.00000 0.00000
  3 9703.52 0.00000 0.00000
  4 9703.52 0.00000 0.00000
</Section>

newXOutput 50

<Section columns = "stress_xx | stress_yy | stress_xy">
  1 9955.52 0.00000 0.00000
  2 9955.52 0.00000 0.00000
  3 9955.52 0.00000 0.00000
  4 9955.52 0.00000 0.00000
</Section>

newXOutput 51

<Section columns = "stress_xx | stress_yy | stress_xy">
  1 10211.6 0.00000 0.00000
  2 10211.6 0.00000 0.00000
  3 10211.6 0.00000 0.00000
  4 10211.6 0.00000 0.00000
</Section>

newXOutput 52

<Section columns = "stress_xx | stress_yy | stress_xy">
  1 10471.9 0.00000 0.00000
  2 10471.9 0.00000 0.00000
  3 10471.9 0.00000 0.00000
  4 10471.9 0.00000 0.00000
</Section>

newXOutput 53

<Section columns = "stress_xx | stress_yy | stress_xy">
  1 10736.7 0.00000 0.00000
  2 10736.7 0.00000 0.00000
  3 10736.7 0.00000 0.00000
  4 10736.7 0.00000 0.00000
</Section>

newXOutput 54

<Section columns = "stress_xx | stress_yy | stress_xy">
  1 11006.0 0.00000 0.00000
  2 11006.0 0.00000 0.00000
  3 11006.0 0.00000 0.00000
  4 11006.0 0.00000 0.00000
</Section>

newXOutput 55

<Section columns = "stress_xx | stress_yy | stress_xy">
  1 11280.2 0.00000 0.00000
  2 11280.2 0.00000 0.00000
  3 11280.2 0.00000 0.00000
  4 11280.2 0.00000 0.00000
</Section>

newXOutput 56

<Section columns = "stress_xx | stress_yy | stress_xy">
  1 11559.3 0.00000 0.00000
  2 11559.3 0.00000 0.00000
  3 11559.3 0.00000 0.00000
  4 11559.3 0.00000 0.00000
</Section>

newXOutput 57

<Section columns = "stress_xx | stress_yy | stress_xy">
  1 11843.6 0.00000 0.00000
  2 11843.6 0.00000 0.00000
  3 11843.6 0.00000 0.00000
  4 11843.6 0.00000 0.00000
</Section>

newXOutput 58

<Section columns = "stress_xx | stress_yy | stress_xy">
  1 12133.3 0.00000 0.00000
  2 12133.3 0.00000 0.00000
  3 12133.3 0.00000 0.00000
  4 12133.3 0.00000 0.00000
</Section>

newXOutput 59

<Section columns = "stress_xx | stress_yy | stress_xy">
  1 12428.6 0.00000 0.00000
  2 12428.6 0.00000 0.00000
  3 12428.6 0.00000 0.00000
  4 12428.6 0.00000 0.00000
</Section>

newXOutput 60

<Section columns = "stress_xx | stress_yy | stress_xy">
  1 12729.7 0.00000 0.00000
  2 12729.7 0.00000 0.00000
  3 12729.7 0.00000 0.00000
  4 12729.7 0.00000 0.00000
</Section>

newXOutput 61

<Section columns = "stress_xx | stress_yy | stress_xy">
  1 13036.9 0.00000 0.00000
  2 13036.9 0.00000 0.00000
  3 13036.9 0.00000 0.00000
  4 13036.9 0.00000 0.00000
</Section>

newXOutput 62

<Section columns = "stress_xx | stress_yy | stress_xy">
  1 13350.4 0.00000 0.00000
  2 13350.4 0.00000 0.00000
  3 13350.4 0.00000 0.00000
  4 13350.4 0.00000 0.00000
</Section>

newXOutput 63

<Section columns = "stress_xx | stress_yy | stress_xy">
  1 13670.4 0.00000 0.00000
  2 13670.4 0.00000 0.00000
  3 13670.4 0.00000 0.00000
  4 13670.4 0.00000 0.00000
</Section>

newXOutput 64

<Section columns = "stress_xx | stress_yy | stress_xy">
  1 13997.3 0.00000 0.00000
  2 13997.3 0.00000 0.00000
  3 13997.3 0.00000 0.00000
  4 13997.3 0.00000 0.00000
</Section>

newXOutput 65

<Section columns = "stress_xx | stress_yy | stress_xy">
  1 14331.2 0.00000 0.00000
  2 14331.2 0.00000 0.00000
  3 14331.2 0.00000 0.00000
  4 14331.2 0.00000 0.00000
</Section>

newXOutput 66

<Section columns = "stress_xx | stress_yy | stress_xy">
  1 14672.4 0.00000 0.00000
  2 14672.4 0.00000 0.00000
  3 14672.4 0.00000 0.00000
  4 14672.4 0.00000 0.00000
</Section>

newXOutput 67

<Section columns = "stress_xx | stress_yy | stress_xy">
  1 15021.3 0.00000 0.00000
  2 15021.3 0.00000 0.00000
  3 15021.3 0.00000 0.00000
  4 15021.3 0.00000 0.00000
</Section>

newXOutput 68

<Section columns = "stress_xx | stress_yy | stress_xy">
  1 15378.1 0.00000 0.00000
  2 15378.1 0.00000 0.00000
  3 15378.1 0.00000 0.00000
  4 15378.1 0.00000 0.00000
</Section>

newXOutput 69

<Section columns = "stress_xx | stress_yy | stress_xy">
  1 15743.1 0.00000 0.00000
  2 15743.1 0.00000 0.00000
  3 15743.1 0.00000 0.00000
  4 15743.1 0.00000 0.00000
</Section>

newXOutput 70

<Section columns = "stress_xx | stress_yy | stress_xy">
  1 16116.6 0.00000 0.00000
  2 16116.6 0.00000 0.00000
  3 16116.6 0.00000 0.00000
  4 16116.6 0.00000 0.00000
</Section>

newXOutput 71

<Section columns = "stress_xx | stress_yy | stress_xy">
  1 16499.1 0.00000 0.00000
  2 16499.1 0.00000 0.00000
  3 16499.1 0.00000 0.00000
  4 16499.1 0.00000 0.00000
</Section>

newXOutput 72

<Section columns = "stress_xx | stress_yy | stress_xy">
  1 16890.7 0.00000 0.00000
  2 16890.7 0.00000 0.00000
  3 16890.7 0.00000 0.00000
  4 16890.7 0.00000 0.00000
</Section>

newXOutput 73

<Section columns = "stress_xx | stress_yy | stress_xy">
  1 17291.9 0.00000 0.00000
  2 17291.9 0.00000 0.00000
  3 17291.9 0.00000 0.00000
  4 17291.9 0.00000 0.00000
</Section>

newXOutput 74

<Section columns = "stress_xx | stress_yy | stress_xy">
  1 17703.1 0.00000 0.00000
  2 17703.1 0.00000 0.00000
  3 17703.1 0.00000 0.00000
  4 17703.1 0.00000 0.00000
</Section>

newXOutput 75

<Section columns = "stress_xx | stress_yy | stress_xy">
  1 18124.6 0.00000 0.00000
  2 18124.6 0.00000 0.00000
  3 18124.6 0.00000 0.00000
  4 18124.6 0.00000 0.00000
</Section>

newXOutput 76

<Section columns = "stress_xx | stress_yy | stress_xy">
  1 18556.8 0.00000 0.00000
  2 18556.8 0.00000 0.00000
  3 18556.8 0.00000 0.00000
  4 18556.8 0.00000 0.00000
</Section>

newXOutput 77

<Section columns = "stress_xx | stress_yy | stress_xy">
  1 19000.2 0.00000 0.00000
  2 19000.2 0.00000 0.00000
  3 19000.2 0.00000 0.00000
  4 19000.2 0.00000 0.00000
</Section>

newXOutput 78

<Section columns = "stress_xx | stress_yy | stress_xy">
  1 19455.2 0.00000 0.00000
  2 19455.2 0.00000 0.00000
  3 19455.2 0.00000 0.00000
  4 19455.2 0.00000 0.00000
</Section>

newXOutput 79

<Section columns = "stress_xx | stress_yy | stress_xy">
  1 19922.2 0.00000 0.00000
  2 19922.2 0.00000 0.00000
  3 19922.2 0.00000 0.00000
  4 19922.2 0.00000 0.00000
</Section>

newXOutput 80

<Section columns = "stress_xx | stress_yy | stress_xy">
  1 20401.7 0.00000 0.00000
  2 20401.7 0.00000 0.00000
  3 20401.7 0.00000 0.00000
  4 20401.7 0.00000 0.00000
</Section>

newXOutput 81

<Section columns = "stress_xx | stress_yy | stress_xy">
  1 20894.2 0.00000 0.00000
  2 20894.2 0.00000 0.00000
  3 20894.2 0.00000 0.00000
  4 20894.2 0.00000 0.00000
</Section>

newXOutput 82

<Section columns = "stress_xx | stress_yy | stress_xy">
  1 21400.2 0.00000 0.00000
  2 21400.2 0.00000 0.00000
  3 21400.2 0.00000 0.00000
  4 21400.2 0.00000 0.00000
</Section>

newXOutput 83

<Section columns = "stress_xx | stress_yy | stress_xy">
  1 21920.2 0.00000 0.00000
  2 21920.2 0.00000 0.00000
  3 21920.2 0.00000 0.00000
  4 21920.2 0.00000 0.00000
</Section>

newXOutput 84

<Section columns = "stress_xx | stress_yy | stress_xy">
  1 22360.3 0.00000 0.00000
  2 22360.3 0.00000 0.00000
  3 22360.3 0.00000 0.00000
  4 22360.3 0.00000 0.00000
</Section>

newXOutput 85

<Section columns = "stress_xx | stress_yy | stress_xy">
  1 22298.9 0.00000 0.00000
  2 22298.9 0.00000 0.00000
  3 22298.9 0.00000 0.00000
  4 22298.9 0.00000 0.00000
</Section>

newXOutput 86

<Section columns = "stress_xx | stress_yy | stress_xy">
  1 22233.8 0.00000 0.00000
  2 22233.8 0.00000 0.00000
  3 22233.8 0.00000 0.00000
  4 22233.8 0.00000 0.00000
</Section>

newXOutput 87

<Section columns = "stress_xx | stress_yy | stress_xy">
  1 22164.8 0.00000 0.00000
  2 22164.8 0.00000 0.00000
  3 22164.8 0.00000 0.00000
  4 22164.8 0.00000 0.00000
</Section>

newXOutput 88

<Section columns = "stress_xx | stress_yy | stress_xy">
  1 22091.8 0.00000 0.00000
  2 22091.8 0.00000 0.00000
  3 22091.8 0.00000 0.00000
  4 22091.8 0.00000 0.00000
</Section>

newXOutput 89

<Section columns = "stress_xx | stress_yy | stress_xy">
  1 22014.3 0.00000 0.00000
  2 22014.3 0.00000 0.00000
  3 22014.3 0.00000 0.00000
  4 22014.3 0.00000 0.00000
</Section>

newXOutput 90

<Section columns = "stress_xx | stress_yy | stress_xy">
  1 21932.3 0.00000 0.00000
  2 21932.3 0.00000 0.00000
  3 21932.3 0.00000 0.00000
  4 21932.3 0.00000 0.00000
</Section>

newXOutput 91

<Section columns = "stress_xx | stress_yy | stress_xy">
  1 21845.4 0.00000 0.00000
  2 21845.4 0.00000 0.00000
  3 21845.4 0.00000 0.00000
  4 21845.4 0.00000 0.00000
</Section>

newXOutput 92

<Section columns = "stress_xx | stress_yy | stress_xy">
  1 21753.4 0.00000 0.00000
  2 21753.4 0.00000 0.00000
  3 21753.4 0.00000 0.00000
  4 21753.4 0.00000 0.00000
</Section>

newXOutput 93

<Section columns = "stress_xx | stress_yy | stress_xy">
  1 21656.0 0.00000 0.00000
  2 21656.0 0.00000 0.00000
  3 21656.0 0.00000 0.00000
  4 21656.0 0.00000 0.00000
</Section>

newXOutput 94

<Section columns = "stress_xx | stress_yy | stress_xy">
  1 21552.9 0.00000 0.00000
  2 21552.9 0.00000 0.00000
  3 21552.9 0.00000 0.00000
  4 21552.9 0.00000 0.00000
</Section>

newXOutput 95

<Section columns = "stress_xx | stress_yy | stress_xy">
  1 21443.7 0.00000 0.00000
  2 21443.7 0.00000 0.00000
  3 21443.7 0.00000 0.00000
  4 21443.7 0.00000 0.00000
</Section>

newXOutput 96

<Section columns = "stress_xx | stress_yy | stress_xy">
  1 21328.1 0.00000 0.00000
  2 21328.1 0.00000 0.00000
  3 21328.1 0.00000 0.00000
  4 21328.1 0.00000 0.00000
</Section>

newXOutput 97

<Section columns = "stress_xx | stress_yy | stress_xy">
  1 21205.8 0.00000 0.00000
  2 21205.8 0.00000 0.00000
  3 21205.8 0.00000 0.00000
  4 21205.8 0.00000 0.00000
</Section>

newXOutput 98

<Section columns = "stress_xx | stress_yy | stress_xy">
  1 21076.4 0.00000 0.00000
  2 21076.4 0.00000 0.00000
  3 21076.4 0.00000 0.00000
  4 21076.4 0.00000 0.00000
</Section>

newXOutput 99

<Section columns = "stress_xx | stress_yy | stress_xy">
  1 20939.4 0.00000 0.00000
  2 20939.4 0.00000 0.00000
  3 20939.4 0.00000 0.00000
  4 20939.4 0.00000 0.00000
</Section>

newXOutput 100

<Section columns = "stress_xx | stress_yy | stress_xy">
  1 20794.5 0.00000 0.00000
  2 20794.5 0.00000 0.00000
  3 20794.5 0.00000 0.00000
  4 20794.5 0.00000 0.00000
</Section>

newXOutput 101

<Section columns = "stress_xx | stress_yy | stress_xy">
  1 20641.3 0.00000 0.00000
  2 20641.3 0.00000 0.00000
  3 20641.3 0.00000 0.00000
  4 20641.3 0.00000 0.00000
</Section>

newXOutput 102

<Section columns = "stress_xx | stress_yy | stress_xy">
  1 20479.2 0.00000 0.00000
  2 20479.2 0.00000 0.00000
  3 20479.2 0.00000 0.00000
  4 20479.2 0.00000 0.00000
</Section>

newXOutput 103

<Section columns = "stress_xx | stress_yy | stress_xy">
  1 20307.9 0.00000 0.00000
  2 20307.9 0.00000 0.00000
  3 20307.9 0.00000 0.00000
  4 20307.9 0.00000 0.00000
</Section>

newXOutput 104

<Section columns = "stress_xx | stress_yy | stress_xy">
  1 20126.7 0.00000 0.00000
  2 20126.7 0.00000 0.00000
  3 20126.7 0.00000 0.00000
  4 20126.7 0.00000 0.00000
</Section>

newXOutput 105

<Section columns = "stress_xx | stress_yy | stress_xy">
  1 19935.2 0.00000 0.00000
  2 19935.2 0.00000 0.00000
  3 19935.2 0.00000 0.00000
  4 19935.2 0.00000 0.00000
</Section>

newXOutput 106

<Section columns = "stress_xx | stress_yy | stress_xy">
  1 19732.7 0.00000 0.00000
  2 19732.7 0.00000 0.00000
  3 19732.7 0.00000 0.00000
  4 19732.7 0.00000 0.00000
</Section>

newXOutput 107

<Section columns = "stress_xx | stress_yy | stress_xy">
  1 19518.8 0.00000 0.00000
  2 19518.8 0.00000 0.00000
  3 19518.8 0.00000 0.00000
  4 19518.8 0.00000 0.00000
</Section>

newXOutput 108

<Section columns = "stress_xx | stress_yy | stress_xy">
  1 19292.7 0.00000 0.00000
  2 19292.7 0.00000 0.00000
  3 19292.7 0.00000 0.00000
  4 19292.7 0.00000 0.00000
</Section>

newXOutput 109

<Section columns = "stress_xx | stress_yy | stress_xy">
  1 19053.9 0.00000 0.00000
  2 19053.9 0.00000 0.00000
  3 19053.9 0.00000 0.00000
  4 19053.9 0.00000 0.00000
</Section>

newXOutput 110

<Section columns = "stress_xx | stress_yy | stress_xy">
  1 18801.5 0.00000 0.00000
  2 18801.5 0.00000 0.00000
  3 18801.5 0.00000 0.00000
  4 18801.5 0.00000 0.00000
</Section>

newXOutput 111

<Section columns = "stress_xx | stress_yy | stress_xy">
  1 18521.4 0.00000 0.00000
  2 18521.4 0.00000 0.00000
  3 18521.4 0.00000 0.00000
  4 18521.4 0.00000 0.00000
</Section>

newXOutput 112

<Section columns = "stress_xx | stress_yy | stress_xy">
  1 18156.1 0.00000 0.00000
  2 18156.1 0.00000 0.00000
  3 18156.1 0.00000 0.00000
  4 18156.1 0.00000 0.00000
</Section>

newXOutput 113

<Section columns = "stress_xx | stress_yy | stress_xy">
  1 17776.0 0.00000 0.00000
  2 17776.0 0.00000 0.00000
  3 17776.0 0.00000 0.00000
  4 17776.0 0.00000 0.00000
</Section>

newXOutput 114

<Section columns = "stress_xx | stress_yy | stress_xy">
  1 17380.2 0.00000 0.00000
  2 17380.2 0.00000 0.00000
  3 17380.2 0.00000 0.00000
  4 17380.2 0.00000 0.00000
</Section>

newXOutput 115

<Section columns = "stress_xx | stress_yy | stress_xy">
  1 16967.9 0.00000 0.00000
  2 16967.9 0.00000 0.00000
  3 16967.9 0.00000 0.00000
  4 16967.9 0.00000 0.00000
</Section>

newXOutput 116

<Section columns = "stress_xx | stress_yy | stress_xy">
  1 16538.0 0.00000 0.00000
  2 16538.0 0.00000 0.00000
  3 16538.0 0.00000 0.00000
  4 16538.0 0.00000 0.00000
</Section>

newXOutput 117

<Section columns = "stress_xx | stress_yy | stress_xy">
  1 16089.5 0.00000 0.00000
  2 16089.5 0.00000 0.00000
  3 16089.5 0.00000 0.00000
  4 16089.5 0.00000 0.00000
</Section>

newXOutput 118

<Section columns = "stress_xx | stress_yy | stress_xy">
  1 15621.4 0.00000 0.00000
  2 15621.4 0.00000 0.00000
  3 15621.4 0.00000 0.00000
  4 15621.4 0.00000 0.00000
</Section>

newXOutput 119

<Section columns = "stress_xx | stress_yy | stress_xy">
  1 15132.6 0.00000 0.00000
  2 15132.6 0.00000 0.00000
  3 15132.6 0.00000 0.00000
  4 15132.6 0.00000 0.00000
</Section>

newXOutput 120

<Section columns = "stress_xx | stress_yy | stress_xy">
  1 14621.8 0.00000 0.00000
  2 14621.8 0.00000 0.00000
  3 14621.8 0.00000 0.00000
  4 14621.8 0.00000 0.00000
</Section>

newXOutput 121

<Section columns = "stress_xx | stress_yy | stress_xy">
  1 14087.8 0.00000 0.00000
  2 14087.8 0.00000 0.00000
  3 14087.8 0.00000 0.00000
  4 14087.8 0.00000 0.00000
</Section>

newXOutput 122

<Section columns = "stress_xx | stress_yy | stress_xy">
  1 13529.4 0.00000 0.00000
  2 13529.4 0.00000 0.00000
  3 13529.4 0.00000 0.00000
  4 13529.4 0.00000 0.00000
</Section>

newXOutput 123

<Section columns = "stress_xx | stress_yy | stress_xy">
  1 12945.1 0.00000 0.00000
  2 12945.1 0.00000 0.00000
  3 12945.1 0.00000 0.00000
  4 12945.1 0.00000 0.00000
</Section>

newXOutput 124

<Section columns = "stress_xx | stress_yy | stress_xy">
  1 12333.4 0.00000 0.00000
  2 12333.4 0.00000 0.00000
  3 12333.4 0.00000 0.00000
  4 12333.4 0.00000 0.00000
</Section>

newXOutput 125

<Section columns = "stress_xx | stress_yy | stress_xy">
  1 11692.9 0.00000 0.00000
  2 11692.9 0.00000 0.00000
  3 11692.9 0.00000 0.00000
  4 11692.9 0.00000 0.00000
</Section>

newXOutput 126

<Section columns = "stress_xx | stress_yy | stress_xy">
  1 11021.9 0.00000 0.00000
  2 11021.9 0.00000 0.00000
  3 11021.9 0.00000 0.00000
  4 11021.9 0.00000 0.00000
</Section>

newXOutput 127

<Section columns = "stress_xx | stress_yy | stress_xy">
  1 10318.8 0.00000 0.00000
  2 10318.8 0.00000 0.00000
  3 10318.8 0.00000 0.00000
  4 10318.8 0.00000 0.00000
</Section>

newXOutput 128

<Section columns = "stress_xx | stress_yy | stress_xy">
  1 9581.69 0.00000 0.00000
  2 9581.69 0.00000 0.00000
  3 9581.69 0.00000 0.00000
  4 9581.69 0.00000 0.00000
</Section>

newXOutput 129

<Section columns = "stress_xx | stress_yy | stress_xy">
  1 8808.75 0.00000 0.00000
  2 8808.75 0.00000 0.00000
  3 8808.75 0.00000 0.00000
  4 8808.75 0.00000 0.00000
</Section>

newXOutput 130

<Section columns = "stress_xx | stress_yy | stress_xy">
  1 7997.99 0.00000 0.00000
  2 7997.99 0.00000 0.00000
  3 7997.99 0.00000 0.00000
  4 7997.99 0.00000 0.00000
</Section>

newXOutput 131

<Section columns = "stress_xx | stress_yy | stress_xy">
  1 7147.32 0.00000 0.00000
  2 7147.32 0.00000 0.00000
  3 7147.32 0.00000 0.00000
  4 7147.32 0.00000 0.00000
</Section>

newXOutput 132

<Section columns = "stress_xx | stress_yy | stress_xy">
  1 6254.54 0.00000 0.00000
  2 6254.54 0.00000 0.00000
  3 6254.54 0.00000 0.00000
  4 6254.54 0.00000 0.00000
</Section>

newXOutput 133

<Section columns = "stress_xx | stress_yy | stress_xy">
  1 5317.33 0.00000 0.00000
  2 5317.33 0.00000 0.00000
  3 5317.33 0.00000 0.00000
  4 5317.33 0.00000 0.00000
</Section>

newXOutput 134

<Section columns = "stress_xx | stress_yy | stress_xy">
  1 4333.24 0.00000 0.00000
  2 4333.24 0.00000 0.00000
  3 4333.24 0.00000 0.00000
  4 4333.24 0.00000 0.00000
</Section>

newXOutput 135

<Section columns = "stress_xx | stress_yy | stress_xy">
  1 3299.71 0.00000 0.00000
  2 3299.71 0.00000 0.00000
  3 3299.71 0.00000 0.00000
  4 3299.71 0.00000 0.00000
</Section>

newXOutput 136

<Section columns = "stress_xx | stress_yy | stress_xy">
  1 2567.14 0.00000 0.00000
  2 2567.14 0.00000 0.00000
  3 2567.14 0.00000 0.00000
  4 2567.14 0.00000 0.00000
</Section>

newXOutput 137

<Section columns = "stress_xx | stress_yy | stress_xy">
  1 2514.95 0.00000 0.00000
  2 2514.95 0.00000 0.00000
  3 2514.95 0.00000 0.00000
  4 2514.95 0.00000 0.00000
</Section>

newXOutput 138

<Section columns = "stress_xx | stress_yy | stress_xy">
  1 2463.25 0.00000 0.00000
  2 2463.25 0.00000 0.00000
  3 2463.25 0.00000 0.00000
  4 2463.25 0.00000 0.00000
</Section>

newXOutput 139

<Section columns = "stress_xx | stress_yy | stress_xy">
  1 2412.06 0.00000 0.00000
  2 2412.06 0.00000 0.00000
  3 2412.06 0.00000 0.00000
  4 2412.06 0.00000 0.00000
</Section>

newXOutput 140

<Section columns = "stress_xx | stress_yy | stress_xy">
  1 2361.35 0.00000 0.00000
  2 2361.35 0.00000 0.00000
  3 2361.35 0.00000 0.00000
  4 2361.35 0.00000 0.00000
</Section>

newXOutput 141

<Section columns = "stress_xx | stress_yy | stress_xy">
  1 2311.13 0.00000 0.00000
  2 2311.13 0.00000 0.00000
  3 2311.13 0.00000 0.00000
  4 2311.13 0.00000 0.00000
</Section>

newXOutput 142

<Section columns = "stress_xx | stress_yy | stress_xy">
  1 2261.38 0.00000 0.00000
  2 2261.38 0.00000 0.00000
  3 2261.38 0.00000 0.00000
  4 2261.38 0.00000 0.00000
</Section>

newXOutput 143

<Section columns = "stress_xx | stress_yy | stress_xy">
  1 2212.11 0.00000 0.00000
  2 2212.11 0.00000 0.00000
  3 2212.11 0.00000 0.00000
  4 2212.11 0.00000 0.00000
</Section>

newXOutput 144

<Section columns = "stress_xx | stress_yy | stress_xy">
  1 2163.30 0.00000 0.00000
  2 2163.30 0.00000 0.00000
  3 2163.30 0.00000 0.00000
  4 2163.30 0.00000 0.00000
</Section>

newXOutput 145

<Section columns = "stress_xx | stress_yy | stress_xy">
  1 2114.96 0.00000 0.00000
  2 2114.96 0.00000 0.00000
  3 2114.96 0.00000 0.00000
  4 2114.96 0.00000 0.00000
</Section>

newXOutput 146

<Section columns = "stress_xx | stress_yy | stress_xy">
  1 2067.07 0.00000 0.00000
  2 2067.07 0.00000 0.00000
  3 2067.07 0.00000 0.00000
  4 2067.07 0.00000 0.00000
</Section>

newXOutput 147

<Section columns = "stress_xx | stress_yy | stress_xy">
  1 2019.63 0.00000 0.00000
  2 2019.63 0.00000 0.00000
  3 2019.63 0.00000 0.00000
  4 2019.63 0.00000 0.00000
</Section>

newXOutput 148

<Section columns = "stress_xx | stress_yy | stress_xy">
  1 1972.64 0.00000 0.00000
  2 1972.64 0.00000 0.00000
  3 1972.64 0.00000 0.00000
  4 1972.64 0.00000 0.00000
</Section>

newXOutput 149

<Section columns = "stress_xx | stress_yy | stress_xy">
  1 1926.08 0.00000 0.00000
  2 1926.08 0.00000 0.00000
  3 1926.08 0.00000 0.00000
  4 1926.08 0.00000 0.00000
</Section>

newXOutput 150

<Section columns = "stress_xx | stress_yy | stress_xy">
  1 1879.96 0.00000 0.00000
  2 1879.96 0.00000 0.00000
  3 1879.96 0.00000 0.00000
  4 1879.96 0.00000 0.00000
</Section>

newXOutput 151

<Section columns = "stress_xx | stress_yy | stress_xy">
  1 1834.26 0.00000 0.00000
  2 1834.26 0.00000 0.00000
  3 1834.26 0.00000 0.00000
  4 1834.26 0.00000 0.00000
</Section>

newXOutput 152

<Section columns = "stress_xx | stress_yy | stress_xy">
  1 1788.99 0.00000 0.00000
  2 1788.99 0.00000 0.00000
  3 1788.99 0.00000 0.00000
  4 1788.99 0.00000 0.00000
</Section>

newXOutput 153

<Section columns = "stress_xx | stress_yy | stress_xy">
  1 1744.14 0.00000 0.00000
  2 1744.14 0.00000 0.00000
  3 1744.14 0.00000 0.00000
  4 1744.14 0.00000 0.00000
</Section>

newXOutput 154

<Section columns = "stress_xx | stress_yy | stress_xy">
  1 1699.70 0.00000 0.00000
  2 1699.70 0.00000 0.00000
  3 1699.70 0.00000 0.00000
  4 1699.70 0.00000 0.00000
</Section>

newXOutput 155

<Section columns = "stress_xx | stress_yy | stress_xy">
  1 1655.68 0.00000 0.00000
  2 1655.68 0.00000 0.00000
  3 1655.68 0.00000 0.00000
  4 1655.68 0.00000 0.00000
</Section>

newXOutput 156

<Section columns = "stress_xx | stress_yy | stress_xy">
  1 1612.05 0.00000 0.00000
  2 1612.05 0.00000 0.00000
  3 1612.05 0.00000 0.00000
  4 1612.05 0.00000 0.00000
</Section>

newXOutput 157

<Section columns = "stress_xx | stress_yy | stress_xy">
  1 1568.82 0.00000 0.00000
  2 1568.82 0.00000 0.00000
  3 1568.82 0.00000 0.00000
  4 1568.82 0.00000 0.00000
</Section>

newXOutput 158

<Section columns = "stress_xx | stress_yy | stress_xy">
  1 1525.99 0.00000 0.00000
  2 1525.99 0.00000 0.00000
  3 1525.99 0.00000 0.00000
  4 1525.99 0.00000 0.00000
</Section>

newXOutput 159

<Section columns = "stress_xx | stress_yy | stress_xy">
  1 1483.55 0.00000 0.00000
  2 1483.55 0.00000 0.00000
  3 1483.55 0.00000 0.00000
  4 1483.55 0.00000 0.00000
</Section>

newXOutput 160

<Section columns = "stress_xx | stress_yy | stress_xy">
  1 1441.49 0.00000 0.00000
  2 1441.49 0.00000 0.00000
  3 1441.49 0.00000 0.00000
  4 1441.49 0.00000 0.00000
</Section>

newXOutput 161

<Section columns = "stress_xx | stress_yy | stress_xy">
  1 1399.81 0.00000 0.00000
  2 1399.81 0.00000 0.00000
  3 1399.81 0.00000 0.00000
  4 1399.81 0.00000 0.00000
</Section>

newXOutput 162

<Section columns = "stress_xx | stress_yy | stress_xy">
  1 1358.51 0.00000 0.00000
  2 1358.51 0.00000 0.00000
  3 1358.51 0.00000 0.00000
  4 1358.51 0.00000 0.00000
</Section>

newXOutput 163

<Section columns = "stress_xx | stress_yy | stress_xy">
  1 1317.58 0.00000 0.00000
  2 1317.58 0.00000 0.00000
  3 1317.58 0.00000 0.00000
  4 1317.58 0.00000 0.00000
</Section>

newXOutput 164

<Section columns = "stress_xx | stress_yy | stress_xy">
  1 1277.02 0.00000 0.00000
  2 1277.02 0.00000 0.00000
  3 1277.02 0.00000 0.00000
  4 1277.02 0.00000 0.00000
</Section>

newXOutput 165

<Section columns = "stress_xx | stress_yy | stress_xy">
  1 1236.82 0.00000 0.00000
  2 1236.82 0.00000 0.00000
  3 1236.82 0.00000 0.00000
  4 1236.82 0.00000 0.00000
</Section>

newXOutput 166

<Section columns = "stress_xx | stress_yy | stress_xy">
  1 1196.98 0.00000 0.00000
  2 1196.98 0.00000 0.00000
  3 1196.98 0.00000 0.00000
  4 1196.98 0.00000 0.00000
</Section>

newXOutput 167

<Section columns = "stress_xx | stress_yy | stress_xy">
  1 1157.50 0.00000 0.00000
  2 1157.50 0.00000 0.00000
  3 1157.50 0.00000 0.00000
  4 1157.50 0.00000 0.00000
</Section>

newXOutput 168

<Section columns = "stress_xx | stress_yy | stress_xy">
  1 1118.36 0.00000 0.00000
  2 1118.36 0.00000 0.00000
  3 1118.36 0.00000 0.00000
  4 1118.36 0.00000 0.00000
</Section>

newXOutput 169

<Section columns = "stress_xx | stress_yy | stress_xy">
  1 1079.58 0.00000 0.00000
  2 1079.58 0.00000 0.00000
  3 1079.58 0.00000 0.00000
  4 1079.58 0.00000 0.00000
</Section>

newXOutput 170

<Section columns = "stress_xx | stress_yy | stress_xy">
  1 1041.13 0.00000 0.00000
  2 1041.13 0.00000 0.00000
  3 1041.13 0.00000 0.00000
  4 1041.13 0.00000 0.00000
</Section>

newXOutput 171

<Section columns = "stress_xx | stress_yy | stress_xy">
  1 1003.02 0.00000 0.00000
  2 1003.02 0.00000 0.00000
  3 1003.02 0.00000 0.00000
  4 1003.02 0.00000 0.00000
</Section>

newXOutput 172

<Section columns = "stress_xx | stress_yy | stress_xy">
  1 965.254 0.00000 0.00000
  2 965.254 0.00000 0.00000
  3 965.254 0.00000 0.00000
  4 965.254 0.00000 0.00000
</Section>

newXOutput 173

<Section columns = "stress_xx | stress_yy | stress_xy">
  1 927.814 0.00000 0.00000
  2 927.814 0.00000 0.00000
  3 927.814 0.00000 0.00000
  4 927.814 0.00000 0.00000
</Section>

newXOutput 174

<Section columns = "stress_xx | stress_yy | stress_xy">
  1 890.702 0.00000 0.00000
  2 890.702 0.00000 0.00000
  3 890.702 0.00000 0.00000
  4 890.702 0.00000 0.00000
</Section>

newXOutput 175

<Section columns = "stress_xx | stress_yy | stress_xy">
  1 853.913 0.00000 0.00000
  2 853.913 0.00000 0.00000
  3 853.913 0.00000 0.00000
  4 853.913 0.00000 0.00000
</Section>

newXOutput 176

<Section columns = "stress_xx | stress_yy | stress_xy">
  1 817.444 0.00000 0.00000
  2 817.444 0.00000 0.00000
  3 817.444 0.00000 0.00000
  4 817.444 0.00000 0.00000
</Section>

newXOutput 177

<Section columns = "stress_xx | stress_yy | stress_xy">
  1 781.292 0.00000 0.00000
  2 781.292 0.00000 0.00000
  3 781.292 0.00000 0.00000
  4 781.292 0.00000 0.00000
</Section>

newXOutput 178

<Section columns = "stress_xx | stress_yy | stress_xy">
  1 745.453 0.00000 0.00000
  2 745.453 0.00000 0.00000
  3 745.453 0.00000 0.00000
  4 745.453 0.00000 0.00000
</Section>

newXOutput 179

<Section columns = "stress_xx | stress_yy | stress_xy">
  1 709.923 0.00000 0.00000
  2 709.923 0.00000 0.00000
  3 709.923 0.00000 0.00000
  4 709.923 0.00000 0.00000
</Section>

newXOutput 180

<Section columns = "stress_xx | stress_yy | stress_xy">
  1 674.698 0.00000 0.00000
  2 674.698 0.00000 0.00000
  3 674.698 0.00000 0.00000
  4 674.698 0.00000 0.00000
</Section>

newXOutput 181

<Section columns = "stress_xx | stress_yy | stress_xy">
  1 639.777 0.00000 0.00000
  2 639.777 0.00000 0.00000
  3 639.777 0.00000 0.00000
  4 639.777 0.00000 0.00000
</Section>

newXOutput 182

<Section columns = "stress_xx | stress_yy | stress_xy">
  1 605.154 0.00000 0.00000
  2 605.154 0.00000 0.00000
  3 605.154 0.00000 0.00000
  4 605.154 0.00000 0.00000
</Section>

newXOutput 183

<Section columns = "stress_xx | stress_yy | stress_xy">
  1 570.828 0.00000 0.00000
  2 570.828 0.00000 0.00000
  3 570.828 0.00000 0.00000
  4 570.828 0.00000 0.00000
</Section>

newXOutput 184

<Section columns = "stress_xx | stress_yy | stress_xy">
  1 536.794 0.00000 0.00000
  2 536.794 0.00000 0.00000
  3 536.794 0.00000 0.00000
  4 536.794 0.00000 0.00000
</Section>

newXOutput 185

<Section columns = "stress_xx | stress_yy | stress_xy">
  1 503.049 0.00000 0.00000
  2 503.049 0.00000 0.00000
  3 503.049 0.00000 0.00000
  4 503.049 0.00000 0.00000
</Section>

newXOutput 186

<Section columns = "stress_xx | stress_yy | stress_xy">
  1 469.590 0.00000 0.00000
  2 469.590 0.00000 0.00000
  3 469.590 0.00000 0.00000
  4 469.590 0.00000 0.00000
</Section>

newXOutput 187

<Section columns = "stress_xx | stress_yy | stress_xy">
  1 436.414 0.00000 0.00000
  2 436.414 0.00000 0.00000
  3 436.414 0.00000 0.00000
  4 436.414 0.00000 0.00000
</Section>

newXOutput 188

<Section columns = "stress_xx | stress_yy | stress_xy">
  1 403.519 0.00000 0.00000
  2 403.519 0.00000 0.00000
  3 403.519 0.00000 0.00000
  4 403.519 0.00000 0.00000
</Section>

newXOutput 189

<Section columns = "stress_xx | stress_yy | stress_xy">
  1 370.899 0.00000 0.00000
  2 370.899 0.00000 0.00000
  3 370.899 0.00000 0.00000
  4 370.899 0.00000 0.00000
</Section>

newXOutput 190

<Section columns = "stress_xx | stress_yy | stress_xy">
  1 338.554 0.00000 0.00000
  2 338.554 0.00000 0.00000
  3 338.554 0.00000 0.00000
  4 338.554 0.00000 0.00000
</Section>

newXOutput 191

<Section columns = "stress_xx | stress_yy | stress_xy">
  1 306.480 0.00000 0.00000
  2 306.480 0.00000 0.00000
  3 306.480 0.00000 0.00000
  4 306.480 0.00000 0.00000
</Section>

newXOutput 192

<Section columns = "stress_xx | stress_yy | stress_xy">
  1 274.673 0.00000 0.00000
  2 274.673 0.00000 0.00000
  3 274.673 0.00000 0.00000
  4 274.673 0.00000 0.00000
</Section>

newXOutput 193

<Section columns = "stress_xx | stress_yy | stress_xy">
  1 243.131 0.00000 0.00000
  2 243.131 0.00000 0.00000
  3 243.131 0.00000 0.00000
  4 243.131 0.00000 0.00000
</Section>

newXOutput 194

<Section columns = "stress_xx | stress_yy | stress_xy">
  1 211.852 0.00000 0.00000
  2 211.852 0.00000 0.00000
  3 211.852 0.00000 0.00000
  4 211.852 0.00000 0.00000
</Section>

newXOutput 195

<Section columns = "stress_xx | stress_yy | stress_xy">
  1 180.831 0.00000 0.00000
  2 180.831 0.00000 0.00000
  3 180.831 0.00000 0.00000
  4 180.831 0.00000 0.00000
</Section>

newXOutput 196

<Section columns = "stress_xx | stress_yy | stress_xy">
  1 150.068 0.00000 0.00000
  2 150.068 0.00000 0.00000
  3 150.068 0.00000 0.00000
  4 150.068 0.00000 0.00000
</Section>

newXOutput 197

<Section columns = "stress_xx | stress_yy | stress_xy">
  1 119.557 0.00000 0.00000
  2 119.557 0.00000 0.00000
  3 119.557 0.00000 0.00000
  4 119.557 0.00000 0.00000
</Section>

newXOutput 198

<Section columns = "stress_xx | stress_yy | stress_xy">
  1 89.2982 0.00000 0.00000
  2 89.2982 0.00000 0.00000
  3 89.2982 0.00000 0.00000
  4 89.2982 0.00000 0.00000
</Section>

newXOutput 199

<Section columns = "stress_xx | stress_yy | stress_xy">
  1 59.2873 0.00000 0.00000
  2 59.2873 0.00000 0.00000
  3 59.2873 0.00000 0.00000
  4 59.2873 0.00000 0.00000
</Section>

newXOutput 200

<Section columns = "stress_xx | stress_yy | stress_xy">
  1 29.5221 0.00000 0.00000
  2 29.5221 0.00000 0.00000
  3 29.5221 0.00000 0.00000
  4 29.5221 0.00000 0.00000
</Section>

newXOutput 201

<Section columns = "stress_xx | stress_yy | stress_xy">
  1 4.64501e-07 0.00000 0.00000
  2 4.64501e-07 0.00000 0.00000
  3 4.64501e-07 0.00000 0.00000
  4 4.64501e-07 0.00000 0.00000
</Section>

newXOutput 202

<Section columns = "stress_xx | stress_yy | stress_xy">
  1 0.00000 0.00000 0.00000
  2 0.00000 0.00000 0.00000
  3 0.00000 0.00000 0.00000
  4 0.00000 0.00000 0.00000
</Section>

newXOutput 203

<Section columns = "stress_xx | stress_yy | stress_xy">
  1 0.00000 0.00000 0.00000
  2 0.00000 0.00000 0.00000
  3 0.00000 0.00000 0.00000
  4 0.00000 0.00000 0.00000
</Section>

newXOutput 204

<Section columns = "stress_xx | stress_yy | stress_xy">
  1 0.00000 0.00000 0.00000
  2 0.00000 0.00000 0.00000
  3 0.00000 0.00000 0.00000
  4 0.00000 0.00000 0.00000
</Section>

newXOutput 205

<Section columns = "stress_xx | stress_yy | stress_xy">
  1 0.00000 0.00000 0.00000
  2 0.00000 0.00000 0.00000
  3 0.00000 0.00000 0.00000
  4 0.00000 0.00000 0.00000
</Section>

newXOutput 206

<Section columns = "stress_xx | stress_yy | stress_xy">
  1 0.00000 0.00000 0.00000
  2 0.00000 0.00000 0.00000
  3 0.00000 0.00000 0.00000
  4 0.00000 0.00000 0.00000
</Section>

newXOutput 207

<Section columns = "stress_xx | stress_yy | stress_xy">
  1 0.00000 0.00000 0.00000
  2 0.00000 0.00000 0.00000
  3 0.00000 0.00000 0.00000
  4 0.00000 0.00000 0.00000
</Section>

newXOutput 208

<Section columns = "stress_xx | stress_yy | stress_xy">
  1 0.00000 0.00000 0.00000
  2 0.00000 0.00000 0.00000
  3 0.00000 0.00000 0.00000
  4 0.00000 0.00000 0.00000
</Section>

newXOutput 209

<Section columns = "stress_xx | stress_yy | stress_xy">
  1 0.00000 0.00000 0.00000
  2 0.00000 0.00000 0.00000
  3 0.00000 0.00000 0.00000
  4 0.00000 0.00000 0.00000
</Section>

newXOutput 210

<Section columns = "stress_xx | stress_yy | stress_xy">
  1 0.00000 0.00000 0.00000
  2 0.00000 0.00000 0.00000
  3 0.00000 0.00000 0.00000
  4 0.00000 0.00000 0.00000
</Section>

newXOutput 211

<Section columns = "stress_xx | stress_yy | stress_xy">
  1 0.00000 0.00000 0.00000
  2 0.00000 0.00000 0.00000
  3 0.00000 0.00000 0.00000
  4 0.00000 0.00000 0.00000
</Section>

newXOutput 212

<Section columns = "stress_xx | stress_yy | stress_xy">
  1 0.00000 0.00000 0.00000
  2 0.00000 0.00000 0.00000
  3 0.00000 0.00000 0.00000
  4 0.00000 0.00000 0.00000
</Section>

newXOutput 213

<Section columns = "stress_xx | stress_yy | stress_xy">
  1 0.00000 0.00000 0.00000
  2 0.00000 0.00000 0.00000
  3 0.00000 0.00000 0.00000
  4 0.00000 0.00000 0.00000
</Section>

newXOutput 214

<Section columns = "stress_xx | stress_yy | stress_xy">
  1 0.00000 0.00000 0.00000
  2 0.00000 0.00000 0.00000
  3 0.00000 0.00000 0.00000
  4 0.00000 0.00000 0.00000
</Section>

newXOutput 215

<Section columns = "stress_xx | stress_yy | stress_xy">
  1 0.00000 0.00000 0.00000
  2 0.00000 0.00000 0.00000
  3 0.00000 0.00000 0.00000
  4 0.00000 0.00000 0.00000
</Section>

newXOutput 216

<Section columns = "stress_xx | stress_yy | stress_xy">
  1 0.00000 0.00000 0.00000
  2 0.00000 0.00000 0.00000
  3 0.00000 0.00000 0.00000
  4 0.00000 0.00000 0.00000
</Section>

newXOutput 217

<Section columns = "stress_xx | stress_yy | stress_xy">
  1 0.00000 0.00000 0.00000
  2 0.00000 0.00000 0.00000
  3 0.00000 0.00000 0.00000
  4 0.00000 0.00000 0.00000
</Section>

newXOutput 218

<Section columns = "stress_xx | stress_yy | stress_xy">
  1 0.00000 0.00000 0.00000
  2 0.00000 0.00000 0.00000
  3 0.00000 0.00000 0.00000
  4 0.00000 0.00000 0.00000
</Section>

newXOutput 219

<Section columns = "stress_xx | stress_yy | stress_xy">
  1 0.00000 0.00000 0.00000
  2 0.00000 0.00000 0.00000
  3 0.00000 0.00000 0.00000
  4 0.00000 0.00000 0.00000
</Section>

newXOutput 220

<Section columns = "stress_xx | stress_yy | stress_xy">
  1 0.00000 0.00000 0.00000
  2 0.00000 0.00000 0.00000
  3 0.00000 0.00000 0.00000
  4 0.00000 0.00000 0.00000
</Section>

newXOutput 221

<Section columns = "stress_xx | stress_yy | stress_xy">
  1 0.00000 0.00000 0.00000
  2 0.00000 0.00000 0.00000
  3 0.00000 0.00000 0.00000
  4 0.00000 0.00000 0.00000
</Section>

newXOutput 222

<Section columns = "stress_xx | stress_yy | stress_xy">
  1 0.00000 0.00000 0.00000
  2 0.00000 0.00000 0.00000
  3 0.00000 0.00000 0.00000
  4 0.00000 0.00000 0.00000
</Section>

newXOutput 223

<Section columns = "stress_xx | stress_yy | stress_xy">
  1 0.00000 0.00000 0.00000
  2 0.00000 0.00000 0.00000
  3 0.00000 0.00000 0.00000
  4 0.00000 0.00000 0.00000
</Section>

newXOutput 224

<Section columns = "stress_xx | stress_yy | stress_xy">
  1 0.00000 0.00000 0.00000
  2 0.00000 0.00000 0.00000
  3 0.00000 0.00000 0.00000
  4 0.00000 0.00000 0.00000
</Section>

newXOutput 225

<Section columns = "stress_xx | stress_yy | stress_xy">
  1 0.00000 0.00000 0.00000
  2 0.00000 0.00000 0.00000
  3 0.00000 0.00000 0.00000
  4 0.00000 0.00000 0.00000
</Section>

newXOutput 226

<Section columns = "stress_xx | stress_yy | stress_xy">
  1 0.00000 0.00000 0.00000
  2 0.00000 0.00000 0.00000
  3 0.00000 0.00000 0.00000
  4 0.00000 0.00000 0.00000
</Section>

newXOutput 227

<Section columns = "stress_xx | stress_yy | stress_xy">
  1 0.00000 0.00000 0.00000
  2 0.00000 0.00000 0.00000
  3 0.00000 0.00000 0.00000
  4 0.00000 0.00000 0.00000
</Section>

newXOutput 228

<Section columns = "stress_xx | stress_yy | stress_xy">
  1 0.00000 0.00000 0.00000
  2 0.00000 0.00000 0.00000
  3 0.00000 0.00000 0.00000
  4 0.00000 0.00000 0.00000
</Section>

newXOutput 229

<Section columns = "stress_xx | stress_yy | stress_xy">
  1 0.00000 0.00000 0.00000
  2 0.00000 0.00000 0.00000
  3 0.00000 0.00000 0.00000
  4 0.00000 0.00000 0.00000
</Section>

newXOutput 230

<Section columns = "stress_xx | stress_yy | stress_xy">
  1 0.00000 0.00000 0.00000
  2 0.00000 0.00000 0.00000
  3 0.00000 0.00000 0.00000
  4 0.00000 0.00000 0.00000
</Section>

newXOutput 231

<Section columns = "stress_xx | stress_yy | stress_xy">
  1 0.00000 0.00000 0.00000
  2 0.00000 0.00000 0.00000
  3 0.00000 0.00000 0.00000
  4 0.00000 0.00000 0.00000
</Section>

newXOutput 232

<Section columns = "stress_xx | stress_yy | stress_xy">
  1 0.00000 0.00000 0.00000
  2 0.00000 0.00000 0.00000
  3 0.00000 0.00000 0.00000
  4 0.00000 0.00000 0.00000
</Section>

newXOutput 233

<Section columns = "stress_xx | stress_yy | stress_xy">
  1 0.00000 0.00000 0.00000
  2 0.00000 0.00000 0.00000
  3 0.00000 0.00000 0.00000
  4 0.00000 0.00000 0.00000
</Section>

newXOutput 234

<Section columns = "stress_xx | stress_yy | stress_xy">
  1 0.00000 0.00000 0.00000
  2 0.00000 0.00000 0.00000
  3 0.00000 0.00000 0.00000
  4 0.00000 0.00000 0.00000
</Section>

newXOutput 235

<Section columns = "stress_xx | stress_yy | stress_xy">
  1 0.00000 0.00000 0.00000
  2 0.00000 0.00000 0.00000
  3 0.00000 0.00000 0.00000
  4 0.00000 0.00000 0.00000
</Section>

newXOutput 236

<Section columns = "stress_xx | stress_yy | stress_xy">
  1 0.00000 0.00000 0.00000
  2 0.00000 0.00000 0.00000
  3 0.00000 0.00000 0.00000
  4 0.00000 0.00000 0.00000
</Section>

newXOutput 237

<Section columns = "stress_xx | stress_yy | stress_xy">
  1 0.00000 0.00000 0.00000
  2 0.00000 0.00000 0.00000
  3 0.00000 0.00000 0.00000
  4 0.00000 0.00000 0.00000
</Section>

newXOutput 238

<Section columns = "stress_xx | stress_yy | stress_xy">
  1 0.00000 0.00000 0.00000
  2 0.00000 0.00000 0.00000
  3 0.00000 0.00000 0.00000
  4 0.00000 0.00000 0.00000
</Section>

newXOutput 239

<Section columns = "stress_xx | stress_yy | stress_xy">
  1 0.00000 0.00000 0.00000
  2 0.00000 0.00000 0.00000
  3 0.00000 0.00000 0.00000
  4 0.00000 0.00000 0.00000
</Section>

newXOutput 240

<Section columns = "stress_xx | stress_yy | stress_xy">
  1 0.00000 0.00000 0.00000
  2 0.00000 0.00000 0.00000
  3 0.00000 0.00000 0.00000
  4 0.00000 0.00000 0.00000
</Section>

newXOutput 241

<Section columns = "stress_xx | stress_yy | stress_xy">
  1 0.00000 0.00000 0.00000
  2 0.00000 0.00000 0.00000
  3 0.00000 0.00000 0.00000
  4 0.00000 0.00000 0.00000
</Section>

newXOutput 242

<Section columns = "stress_xx | stress_yy | stress_xy">
  1 0.00000 0.00000 0.00000
  2 0.00000 0.00000 0.00000
  3 0.00000 0.00000 0.00000
  4 0.00000 0.00000 0.00000
</Section>

newXOutput 243

<Section columns = "stress_xx | stress_yy | stress_xy">
  1 0.00000 0.00000 0.00000
  2 0.00000 0.00000 0.00000
  3 0.00000 0.00000 0.00000
  4 0.00000 0.00000 0.00000
</Section>

newXOutput 244

<Section columns = "stress_xx | stress_yy | stress_xy">
  1 0.00000 0.00000 0.00000
  2 0.00000 0.00000 0.00000
  3 0.00000 0.00000 0.00000
  4 0.00000 0.00000 0.00000
</Section>

newXOutput 245

<Section columns = "stress_xx | stress_yy | stress_xy">
  1 0.00000 0.00000 0.00000
  2 0.00000 0.00000 0.00000
  3 0.00000 0.00000 0.00000
  4 0.00000 0.00000 0.00000
</Section>

newXOutput 246

<Section columns = "stress_xx | stress_yy | stress_xy">
  1 0.00000 0.00000 0.00000
  2 0.00000 0.00000 0.00000
  3 0.00000 0.00000 0.00000
  4 0.00000 0.00000 0.00000
</Section>

newXOutput 247

<Section columns = "stress_xx | stress_yy | stress_xy">
  1 0.00000 0.00000 0.00000
  2 0.00000 0.00000 0.00000
  3 0.00000 0.00000 0.00000
  4 0.00000 0.00000 0.00000
</Section>

newXOutput 248

<Section columns = "stress_xx | stress_yy | stress_xy">
  1 0.00000 0.00000 0.00000
  2 0.00000 0.00000 0.00000
  3 0.00000 0.00000 0.00000
  4 0.00000 0.00000 0.00000
</Section>

newXOutput 249

<Section columns = "stress_xx | stress_yy | stress_xy">
  1 0.00000 0.00000 0.00000
  2 0.00000 0.00000 0.00000
  3 0.00000 0.00000 0.00000
  4 0.00000 0.00000 0.00000
</Section>

newXOutput 250

<Section columns = "stress_xx | stress_yy | stress_xy">
  1 0.00000 0.00000 0.00000
  2 0.00000 0.00000 0.00000
  3 0.00000 0.00000 0.00000
  4 0.00000 0.00000 0.00000
</Section>

newXOutput 251

<Section columns = "stress_xx | stress_yy | stress_xy">
  1 0.00000 0.00000 0.00000
  2 0.00000 0.00000 0.00000
  3 0.00000 0.00000 0.00000
  4 0.00000 0.00000 0.00000
</Section>

newXOutput 252

<Section columns = "stress_xx | stress_yy | stress_xy">
  1 0.00000 0.00000 0.00000
  2 0.00000 0.00000 0.00000
  3 0.00000 0.00000 0.00000
  4 0.00000 0.00000 0.00000
</Section>

